 <VTKFile type="UnstructuredGrid"  version="0.1"   >
 <UnstructuredGrid>
 <Piece  NumberOfPoints="           200 "  NumberOfCells="          128 ">
 <Points>
 <DataArray  type="Float64" NumberOfComponents="3"  format="ascii" >
  -10.000000000000000        0.0000000000000000        0.0000000000000000     
  -8.7500000000000000        0.0000000000000000        0.0000000000000000     
  -7.5000000000000000        0.0000000000000000        0.0000000000000000     
  -6.2500000000000000        0.0000000000000000        0.0000000000000000     
  -5.0000000000000000        0.0000000000000000        0.0000000000000000     
  -10.000000000000000       0.31250000000000000        0.0000000000000000     
  -8.7500000000000000       0.30901489257812498        0.0000000000000000     
  -7.5000000000000000       0.29855957031250002        0.0000000000000000     
  -6.2500000000000000       0.28113403320312502        0.0000000000000000     
  -5.0000000000000000       0.25673828124999998        0.0000000000000000     
  -10.000000000000000       0.62500000000000000        0.0000000000000000     
  -8.7500000000000000       0.61848144531250004        0.0000000000000000     
  -7.5000000000000000       0.59892578124999996        0.0000000000000000     
  -6.2500000000000000       0.56633300781249996        0.0000000000000000     
  -5.0000000000000000       0.52070312500000004        0.0000000000000000     
  -10.000000000000000       0.93750000000000000        0.0000000000000000     
  -8.7500000000000000       0.92839965820312509        0.0000000000000000     
  -7.5000000000000000       0.90109863281249991        0.0000000000000000     
  -6.2500000000000000       0.85559692382812502        0.0000000000000000     
  -5.0000000000000000       0.79189453125000009        0.0000000000000000     
  -10.000000000000000        1.2500000000000000        0.0000000000000000     
  -8.7500000000000000        1.2387695312500000        0.0000000000000000     
  -7.5000000000000000        1.2050781250000000        0.0000000000000000     
  -6.2500000000000000        1.1489257812500000        0.0000000000000000     
  -5.0000000000000000        1.0703125000000000        0.0000000000000000     
  -5.0000000000000000        0.0000000000000000        0.0000000000000000     
  -3.7500000000000000        0.0000000000000000        0.0000000000000000     
  -2.5000000000000000        0.0000000000000000        0.0000000000000000     
  -1.2500000000000000        0.0000000000000000        0.0000000000000000     
   0.0000000000000000        0.0000000000000000        0.0000000000000000     
  -5.0000000000000000       0.25673828124999998        0.0000000000000000     
  -3.7500000000000000       0.22537231445312500        0.0000000000000000     
  -2.5000000000000000       0.18703613281250001        0.0000000000000000     
  -1.2500000000000000       0.14172973632812502        0.0000000000000000     
   0.0000000000000000        8.9453124999999994E-002   0.0000000000000000     
  -5.0000000000000000       0.52070312500000004        0.0000000000000000     
  -3.7500000000000000       0.46203613281250000        0.0000000000000000     
  -2.5000000000000000       0.39033203124999999        0.0000000000000000     
  -1.2500000000000000       0.30559082031250001        0.0000000000000000     
   0.0000000000000000       0.20781250000000001        0.0000000000000000     
  -5.0000000000000000       0.79189453125000009        0.0000000000000000     
  -3.7500000000000000       0.70999145507812500        0.0000000000000000     
  -2.5000000000000000       0.60988769531249998        0.0000000000000000     
  -1.2500000000000000       0.49158325195312497        0.0000000000000000     
   0.0000000000000000       0.35507812500000002        0.0000000000000000     
  -5.0000000000000000        1.0703125000000000        0.0000000000000000     
  -3.7500000000000000       0.96923828125000000        0.0000000000000000     
  -2.5000000000000000       0.84570312500000000        0.0000000000000000     
  -1.2500000000000000       0.69970703125000011        0.0000000000000000     
   0.0000000000000000       0.53125000000000000        0.0000000000000000     
  -10.000000000000000        1.2500000000000000        0.0000000000000000     
  -8.7500000000000000        1.2387695312500000        0.0000000000000000     
  -7.5000000000000000        1.2050781250000000        0.0000000000000000     
  -6.2500000000000000        1.1489257812500000        0.0000000000000000     
  -5.0000000000000000        1.0703125000000000        0.0000000000000000     
  -10.000000000000000        1.5625000000000000        0.0000000000000000     
  -8.7500000000000000        1.5495910644531250        0.0000000000000000     
  -7.5000000000000000        1.5108642578125000        0.0000000000000000     
  -6.2500000000000000        1.4463195800781252        0.0000000000000000     
  -5.0000000000000000        1.3559570312500000        0.0000000000000000     
  -10.000000000000000        1.8750000000000000        0.0000000000000000     
  -8.7500000000000000        1.8608642578124999        0.0000000000000000     
  -7.5000000000000000        1.8184570312500001        0.0000000000000000     
  -6.2500000000000000        1.7477783203125001        0.0000000000000000     
  -5.0000000000000000        1.6488281249999999        0.0000000000000000     
  -10.000000000000000        2.1875000000000000        0.0000000000000000     
  -8.7500000000000000        2.1725891113281248        0.0000000000000000     
  -7.5000000000000000        2.1278564453125002        0.0000000000000000     
  -6.2500000000000000        2.0533020019531252        0.0000000000000000     
  -5.0000000000000000        1.9489257812500000        0.0000000000000000     
  -10.000000000000000        2.5000000000000000        0.0000000000000000     
  -8.7500000000000000        2.4847656249999996        0.0000000000000000     
  -7.5000000000000000        2.4390625000000004        0.0000000000000000     
  -6.2500000000000000        2.3628906250000004        0.0000000000000000     
  -5.0000000000000000        2.2562499999999996        0.0000000000000000     
  -5.0000000000000000        1.0703125000000000        0.0000000000000000     
  -3.7500000000000000       0.96923828125000000        0.0000000000000000     
  -2.5000000000000000       0.84570312500000000        0.0000000000000000     
  -1.2500000000000000       0.69970703125000011        0.0000000000000000     
   0.0000000000000000       0.53125000000000000        0.0000000000000000     
  -5.0000000000000000        1.3559570312500000        0.0000000000000000     
  -3.7500000000000000        1.2397766113281250        0.0000000000000000     
  -2.5000000000000000        1.0977783203125000        0.0000000000000000     
  -1.2500000000000000       0.92996215820312489        0.0000000000000000     
   0.0000000000000000       0.73632812500000000        0.0000000000000000     
  -5.0000000000000000        1.6488281249999999        0.0000000000000000     
  -3.7500000000000000        1.5216064453125000        0.0000000000000000     
  -2.5000000000000000        1.3661132812499999        0.0000000000000000     
  -1.2500000000000000        1.1823486328125001        0.0000000000000000     
   0.0000000000000000       0.97031250000000002        0.0000000000000000     
  -5.0000000000000000        1.9489257812500000        0.0000000000000000     
  -3.7500000000000000        1.8147277832031250        0.0000000000000000     
  -2.5000000000000000        1.6507080078125000        0.0000000000000000     
  -1.2500000000000000        1.4568664550781250        0.0000000000000000     
   0.0000000000000000        1.2332031250000000        0.0000000000000000     
  -5.0000000000000000        2.2562499999999996        0.0000000000000000     
  -3.7500000000000000        2.1191406250000000        0.0000000000000000     
  -2.5000000000000000        1.9515624999999999        0.0000000000000000     
  -1.2500000000000000        1.7535156250000001        0.0000000000000000     
   0.0000000000000000        1.5250000000000001        0.0000000000000000     
  -10.000000000000000        2.5000000000000000        0.0000000000000000     
  -8.7500000000000000        2.4847656249999996        0.0000000000000000     
  -7.5000000000000000        2.4390625000000004        0.0000000000000000     
  -6.2500000000000000        2.3628906250000004        0.0000000000000000     
  -5.0000000000000000        2.2562499999999996        0.0000000000000000     
  -10.000000000000000        2.8125000000000000        0.0000000000000000     
  -8.7500000000000000        2.7974182128906246        0.0000000000000000     
  -7.5000000000000000        2.7521728515625004        0.0000000000000000     
  -6.2500000000000000        2.6767639160156254        0.0000000000000000     
  -5.0000000000000000        2.5711914062499996        0.0000000000000000     
  -10.000000000000000        3.1250000000000000        0.0000000000000000     
  -8.7500000000000000        3.1105712890624999        0.0000000000000000     
  -7.5000000000000000        3.0672851562500001        0.0000000000000000     
  -6.2500000000000000        2.9951416015625001        0.0000000000000000     
  -5.0000000000000000        2.8941406249999999        0.0000000000000000     
  -10.000000000000000        3.4375000000000000        0.0000000000000000     
  -8.7500000000000000        3.4242248535156250        0.0000000000000000     
  -7.5000000000000000        3.3843994140625000        0.0000000000000000     
  -6.2500000000000000        3.3180236816406250        0.0000000000000000     
  -5.0000000000000000        3.2250976562500000        0.0000000000000000     
  -10.000000000000000        3.7500000000000000        0.0000000000000000     
  -8.7500000000000000        3.7383789062499999        0.0000000000000000     
  -7.5000000000000000        3.7035156250000001        0.0000000000000000     
  -6.2500000000000000        3.6454101562500001        0.0000000000000000     
  -5.0000000000000000        3.5640624999999999        0.0000000000000000     
  -5.0000000000000000        2.2562499999999996        0.0000000000000000     
  -3.7500000000000000        2.1191406250000000        0.0000000000000000     
  -2.5000000000000000        1.9515624999999999        0.0000000000000000     
  -1.2500000000000000        1.7535156250000001        0.0000000000000000     
   0.0000000000000000        1.5250000000000001        0.0000000000000000     
  -5.0000000000000000        2.5711914062499996        0.0000000000000000     
  -3.7500000000000000        2.4354553222656250        0.0000000000000000     
  -2.5000000000000000        2.2695556640625001        0.0000000000000000     
  -1.2500000000000000        2.0734924316406254        0.0000000000000000     
   0.0000000000000000        1.8472656250000001        0.0000000000000000     
  -5.0000000000000000        2.8941406249999999        0.0000000000000000     
  -3.7500000000000000        2.7642822265625000        0.0000000000000000     
  -2.5000000000000000        2.6055664062499999        0.0000000000000000     
  -1.2500000000000000        2.4179931640625001        0.0000000000000000     
   0.0000000000000000        2.2015625000000005        0.0000000000000000     
  -5.0000000000000000        3.2250976562500000        0.0000000000000000     
  -3.7500000000000000        3.1056213378906250        0.0000000000000000     
  -2.5000000000000000        2.9595947265625000        0.0000000000000000     
  -1.2500000000000000        2.7870178222656254        0.0000000000000000     
   0.0000000000000000        2.5878906250000000        0.0000000000000000     
  -5.0000000000000000        3.5640624999999999        0.0000000000000000     
  -3.7500000000000000        3.4594726562500000        0.0000000000000000     
  -2.5000000000000000        3.3316406249999999        0.0000000000000000     
  -1.2500000000000000        3.1805664062500001        0.0000000000000000     
   0.0000000000000000        3.0062500000000001        0.0000000000000000     
  -10.000000000000000        3.7500000000000000        0.0000000000000000     
  -8.7500000000000000        3.7383789062499999        0.0000000000000000     
  -7.5000000000000000        3.7035156250000001        0.0000000000000000     
  -6.2500000000000000        3.6454101562500001        0.0000000000000000     
  -5.0000000000000000        3.5640624999999999        0.0000000000000000     
  -10.000000000000000        4.0625000000000000        0.0000000000000000     
  -8.7500000000000000        4.0530334472656246        0.0000000000000000     
  -7.5000000000000000        4.0246337890625004        0.0000000000000000     
  -6.2500000000000000        3.9773010253906249        0.0000000000000000     
  -5.0000000000000000        3.9110351562500001        0.0000000000000000     
  -10.000000000000000        4.3750000000000000        0.0000000000000000     
  -8.7500000000000000        4.3681884765624996        0.0000000000000000     
  -7.5000000000000000        4.3477539062500004        0.0000000000000000     
  -6.2500000000000000        4.3136962890625004        0.0000000000000000     
  -5.0000000000000000        4.2660156249999996        0.0000000000000000     
  -10.000000000000000        4.6875000000000000        0.0000000000000000     
  -8.7500000000000000        4.6838439941406254        0.0000000000000000     
  -7.5000000000000000        4.6728759765624996        0.0000000000000000     
  -6.2500000000000000        4.6545959472656246        0.0000000000000000     
  -5.0000000000000000        4.6290039062500004        0.0000000000000000     
  -10.000000000000000        5.0000000000000000        0.0000000000000000     
  -8.7500000000000000        5.0000000000000000        0.0000000000000000     
  -7.5000000000000000        5.0000000000000000        0.0000000000000000     
  -6.2500000000000000        5.0000000000000000        0.0000000000000000     
  -5.0000000000000000        5.0000000000000000        0.0000000000000000     
  -5.0000000000000000        3.5640624999999999        0.0000000000000000     
  -3.7500000000000000        3.4594726562500000        0.0000000000000000     
  -2.5000000000000000        3.3316406249999999        0.0000000000000000     
  -1.2500000000000000        3.1805664062500001        0.0000000000000000     
   0.0000000000000000        3.0062500000000001        0.0000000000000000     
  -5.0000000000000000        3.9110351562500001        0.0000000000000000     
  -3.7500000000000000        3.8258361816406250        0.0000000000000000     
  -2.5000000000000000        3.7217041015625001        0.0000000000000000     
  -1.2500000000000000        3.5986389160156249        0.0000000000000000     
   0.0000000000000000        3.4566406249999999        0.0000000000000000     
  -5.0000000000000000        4.2660156249999996        0.0000000000000000     
  -3.7500000000000000        4.2047119140625000        0.0000000000000000     
  -2.5000000000000000        4.1297851562499996        0.0000000000000000     
  -1.2500000000000000        4.0412353515625004        0.0000000000000000     
   0.0000000000000000        3.9390624999999999        0.0000000000000000     
  -5.0000000000000000        4.6290039062500004        0.0000000000000000     
  -3.7500000000000000        4.5960998535156250        0.0000000000000000     
  -2.5000000000000000        4.5558837890625004        0.0000000000000000     
  -1.2500000000000000        4.5083557128906255        0.0000000000000000     
   0.0000000000000000        4.4535156249999996        0.0000000000000000     
  -5.0000000000000000        5.0000000000000000        0.0000000000000000     
  -3.7500000000000000        5.0000000000000000        0.0000000000000000     
  -2.5000000000000000        5.0000000000000000        0.0000000000000000     
  -1.2500000000000000        5.0000000000000000        0.0000000000000000     
   0.0000000000000000        5.0000000000000000        0.0000000000000000     
 </DataArray>
 </Points>
 <Cells>
 <DataArray  type="Int32"  Name="connectivity"  format="ascii">
           0           1           6           5
           1           2           7           6
           2           3           8           7
           3           4           9           8
           5           6          11          10
           6           7          12          11
           7           8          13          12
           8           9          14          13
          10          11          16          15
          11          12          17          16
          12          13          18          17
          13          14          19          18
          15          16          21          20
          16          17          22          21
          17          18          23          22
          18          19          24          23
          25          26          31          30
          26          27          32          31
          27          28          33          32
          28          29          34          33
          30          31          36          35
          31          32          37          36
          32          33          38          37
          33          34          39          38
          35          36          41          40
          36          37          42          41
          37          38          43          42
          38          39          44          43
          40          41          46          45
          41          42          47          46
          42          43          48          47
          43          44          49          48
          50          51          56          55
          51          52          57          56
          52          53          58          57
          53          54          59          58
          55          56          61          60
          56          57          62          61
          57          58          63          62
          58          59          64          63
          60          61          66          65
          61          62          67          66
          62          63          68          67
          63          64          69          68
          65          66          71          70
          66          67          72          71
          67          68          73          72
          68          69          74          73
          75          76          81          80
          76          77          82          81
          77          78          83          82
          78          79          84          83
          80          81          86          85
          81          82          87          86
          82          83          88          87
          83          84          89          88
          85          86          91          90
          86          87          92          91
          87          88          93          92
          88          89          94          93
          90          91          96          95
          91          92          97          96
          92          93          98          97
          93          94          99          98
         100         101         106         105
         101         102         107         106
         102         103         108         107
         103         104         109         108
         105         106         111         110
         106         107         112         111
         107         108         113         112
         108         109         114         113
         110         111         116         115
         111         112         117         116
         112         113         118         117
         113         114         119         118
         115         116         121         120
         116         117         122         121
         117         118         123         122
         118         119         124         123
         125         126         131         130
         126         127         132         131
         127         128         133         132
         128         129         134         133
         130         131         136         135
         131         132         137         136
         132         133         138         137
         133         134         139         138
         135         136         141         140
         136         137         142         141
         137         138         143         142
         138         139         144         143
         140         141         146         145
         141         142         147         146
         142         143         148         147
         143         144         149         148
         150         151         156         155
         151         152         157         156
         152         153         158         157
         153         154         159         158
         155         156         161         160
         156         157         162         161
         157         158         163         162
         158         159         164         163
         160         161         166         165
         161         162         167         166
         162         163         168         167
         163         164         169         168
         165         166         171         170
         166         167         172         171
         167         168         173         172
         168         169         174         173
         175         176         181         180
         176         177         182         181
         177         178         183         182
         178         179         184         183
         180         181         186         185
         181         182         187         186
         182         183         188         187
         183         184         189         188
         185         186         191         190
         186         187         192         191
         187         188         193         192
         188         189         194         193
         190         191         196         195
         191         192         197         196
         192         193         198         197
         193         194         199         198
 </DataArray>
 <DataArray  type="Int32"  Name="offsets"  format="ascii"> 
           4
           8
          12
          16
          20
          24
          28
          32
          36
          40
          44
          48
          52
          56
          60
          64
          68
          72
          76
          80
          84
          88
          92
          96
         100
         104
         108
         112
         116
         120
         124
         128
         132
         136
         140
         144
         148
         152
         156
         160
         164
         168
         172
         176
         180
         184
         188
         192
         196
         200
         204
         208
         212
         216
         220
         224
         228
         232
         236
         240
         244
         248
         252
         256
         260
         264
         268
         272
         276
         280
         284
         288
         292
         296
         300
         304
         308
         312
         316
         320
         324
         328
         332
         336
         340
         344
         348
         352
         356
         360
         364
         368
         372
         376
         380
         384
         388
         392
         396
         400
         404
         408
         412
         416
         420
         424
         428
         432
         436
         440
         444
         448
         452
         456
         460
         464
         468
         472
         476
         480
         484
         488
         492
         496
         500
         504
         508
         512
 </DataArray>
 <DataArray  type="UInt8"  Name="types"  format="ascii">
 9
 9
 9
 9
 9
 9
 9
 9
 9
 9
 9
 9
 9
 9
 9
 9
 9
 9
 9
 9
 9
 9
 9
 9
 9
 9
 9
 9
 9
 9
 9
 9
 9
 9
 9
 9
 9
 9
 9
 9
 9
 9
 9
 9
 9
 9
 9
 9
 9
 9
 9
 9
 9
 9
 9
 9
 9
 9
 9
 9
 9
 9
 9
 9
 9
 9
 9
 9
 9
 9
 9
 9
 9
 9
 9
 9
 9
 9
 9
 9
 9
 9
 9
 9
 9
 9
 9
 9
 9
 9
 9
 9
 9
 9
 9
 9
 9
 9
 9
 9
 9
 9
 9
 9
 9
 9
 9
 9
 9
 9
 9
 9
 9
 9
 9
 9
 9
 9
 9
 9
 9
 9
 9
 9
 9
 9
 9
 9
 </DataArray>
 </Cells> 
 <PointData>
 <DataArray  type="Float64" Name="disp" NumberOfComponents="3" format="ascii">
   0.0000000000000000       -1563328232703.3604        0.0000000000000000     
   94374446452.458450       -1544831342553.2776        0.0000000000000000     
   188112530589.25443       -1503161234844.1931        0.0000000000000000     
   281214252410.38794       -1438317909576.1062        0.0000000000000000     
   373679611915.85895       -1350301366749.0176        0.0000000000000000     
   0.0000000000000000       -1570712633171.8823        0.0000000000000000     
   88249425586.422531       -1551528882681.7375        0.0000000000000000     
   176165467953.06860       -1509374090711.1367        0.0000000000000000     
   263748127099.93817       -1444248257260.0806        0.0000000000000000     
   350997403027.03131       -1356151382328.5684        0.0000000000000000     
   0.0000000000000000       -1577413942351.0408        0.0000000000000000     
   81874956083.504028       -1557872316251.9307        0.0000000000000000     
   163794769395.93579       -1515354045663.1436        0.0000000000000000     
   245759439937.29526       -1449859130584.6799        0.0000000000000000     
   327768967707.58252       -1361387571016.5398        0.0000000000000000     
   0.0000000000000000       -1583432160240.8350        0.0000000000000000     
   75251037943.702942       -1563861643263.8574        0.0000000000000000     
   151000434917.85599       -1521101099700.2139        0.0000000000000000     
   227248190922.45917       -1455150529549.9050        0.0000000000000000     
   303994305957.51251       -1366009932812.9312        0.0000000000000000     
   0.0000000000000000       -1588767286841.2656        0.0000000000000000     
   68377671167.019241       -1569496863717.5171        0.0000000000000000     
   137782464518.82922       -1526615252822.3472        0.0000000000000000     
   208214380055.42996       -1460122454155.7559        0.0000000000000000     
   279673417776.82135       -1370018467717.7432        0.0000000000000000     
   373679611915.85895       -1350301366749.0176        0.0000000000000000     
   472710074151.74622       -1228879478135.1934        0.0000000000000000     
   585507104164.12830       -1063820115506.9006        0.0000000000000000     
   712070701953.00537       -855123278864.13916        0.0000000000000000     
   852400867518.37732       -602788968206.90930        0.0000000000000000     
   350997403027.03131       -1356151382328.5684        0.0000000000000000     
   446288127283.31329       -1234583809916.2395        0.0000000000000000     
   557995131417.74939       -1069045884022.7328        0.0000000000000000     
   686118415430.33960       -859537604648.04785        0.0000000000000000     
   830657979321.08435       -606058971792.18506        0.0000000000000000     
   327768967707.58252       -1361387571016.5398        0.0000000000000000     
   418755004719.93951       -1239561008744.6462        0.0000000000000000     
   527649202987.50867       -1074001085554.9238        0.0000000000000000     
   654451562510.28979       -864707801447.37231        0.0000000000000000     
   799162083288.28308       -611681156421.99146        0.0000000000000000     
   303994305957.51251       -1366009932812.9312        0.0000000000000000     
   390110706461.62506       -1243811074620.4136        0.0000000000000000     
   494469318873.40613       -1078685720103.4738        0.0000000000000000     
   617070143192.85559       -870633869262.11194        0.0000000000000000     
   757913179419.97351       -619655522096.32849        0.0000000000000000     
   279673417776.82135       -1370018467717.7432        0.0000000000000000     
   360355232508.36993       -1247334007543.5410        0.0000000000000000     
   458455479075.44183       -1083099787668.3828        0.0000000000000000     
   573974157478.03711       -877315808092.26758        0.0000000000000000     
   706911267716.15564       -629982068815.19617        0.0000000000000000     
   0.0000000000000000       -1588767286841.2656        0.0000000000000000     
   68377671167.019241       -1569496863717.5171        0.0000000000000000     
   137782464518.82922       -1526615252822.3472        0.0000000000000000     
   208214380055.42996       -1460122454155.7559        0.0000000000000000     
   279673417776.82135       -1370018467717.7432        0.0000000000000000     
   0.0000000000000000       -1593419151817.2324        0.0000000000000000     
   61320581923.218338       -1574713865357.8406        0.0000000000000000     
   124221500537.84009       -1531817089565.3416        0.0000000000000000     
   188702755843.86530       -1464728824439.7361        0.0000000000000000     
   254764347841.29398       -1373449069981.0234        0.0000000000000000     
   0.0000000000000000       -1597387584833.6343        0.0000000000000000     
   54145496382.065567       -1579448535929.7571        0.0000000000000000     
   110398185313.87325       -1536627194464.9956        0.0000000000000000     
   168758066795.42307       -1468923560439.3501        0.0000000000000000     
   229225140826.71497       -1376337633852.8208        0.0000000000000000     
   0.0000000000000000       -1600672585890.4727        0.0000000000000000     
   46852414543.560951       -1583700875433.2666        0.0000000000000000     
   96312518846.928680       -1541045567521.3088        0.0000000000000000     
   148380312910.10321       -1472706662154.5979        0.0000000000000000     
   203055796733.08456       -1378684159333.1345        0.0000000000000000     
   0.0000000000000000       -1603274154987.7466        0.0000000000000000     
   39441336407.704483       -1587470883868.3696        0.0000000000000000     
   81964501137.006393       -1545072208734.2808        0.0000000000000000     
   127569494187.90575       -1476078129585.4795        0.0000000000000000     
   176256315560.40256       -1380488646421.9658        0.0000000000000000     
   279673417776.82135       -1370018467717.7432        0.0000000000000000     
   360355232508.36993       -1247334007543.5410        0.0000000000000000     
   458455479075.44183       -1083099787668.3828        0.0000000000000000     
   573974157478.03711       -877315808092.26758        0.0000000000000000     
   706911267716.15564       -629982068815.19617        0.0000000000000000     
   254764347841.29398       -1373449069981.0234        0.0000000000000000     
   329547619467.84650       -1250152214212.9915        0.0000000000000000     
   420193913661.24341       -1087012645159.4280        0.0000000000000000     
   526703230421.48480       -884030362820.33313        0.0000000000000000     
   649075569748.57056       -641205367195.70679        0.0000000000000000     
   229225140826.71497       -1376337633852.8208        0.0000000000000000     
   297746903947.72748       -1252288101327.7266        0.0000000000000000     
   380270852698.43903       -1090193649486.3871        0.0000000000000000     
   476796987078.84961       -890054278328.80249        0.0000000000000000     
   587325307088.95923       -651869987854.97266        0.0000000000000000     
   203055796733.08456       -1378684159333.1345        0.0000000000000000     
   264953085948.01288       -1253741668887.7463        0.0000000000000000     
   338686296187.02863       -1092642800649.2605        0.0000000000000000     
   424255427450.13153       -895387554617.67603        0.0000000000000000     
   521660479737.32178       -661975930792.99390        0.0000000000000000     
   176256315560.40256       -1380488646421.9658        0.0000000000000000     
   231166165468.70273       -1254512916893.0513        0.0000000000000000     
   295440244127.01196       -1094360098648.0472        0.0000000000000000     
   369078551535.33051       -900030191686.95349        0.0000000000000000     
   452081087693.65814       -671523196009.77026        0.0000000000000000     
   0.0000000000000000       -1603274154987.7466        0.0000000000000000     
   39441336407.704483       -1587470883868.3696        0.0000000000000000     
   81964501137.006393       -1545072208734.2808        0.0000000000000000     
   127569494187.90575       -1476078129585.4795        0.0000000000000000     
   176256315560.40256       -1380488646421.9658        0.0000000000000000     
   0.0000000000000000       -1605215422717.5776        0.0000000000000000     
   32004501067.189323       -1590711353478.9260        0.0000000000000000     
   67444629105.173096       -1548643433521.2295        0.0000000000000000     
   106320384113.95132       -1479011662844.4878        0.0000000000000000     
   148631766093.52402       -1381816041448.7012        0.0000000000000000     
   0.0000000000000000       -1606519519672.0879        0.0000000000000000     
   24634147614.708664       -1593375076508.7966        0.0000000000000000     
   52843399672.495514       -1551695557299.4731        0.0000000000000000     
   84627756173.360550       -1481480962044.1165        0.0000000000000000     
   119987217117.30377       -1382731290742.7280        0.0000000000000000     
   0.0000000000000000       -1607186445851.2769        0.0000000000000000     
   17330276050.262486       -1595462052957.9807        0.0000000000000000     
   38160812838.973633       -1554228580069.0103        0.0000000000000000     
   62491610366.133430       -1483486027184.3662        0.0000000000000000     
   90322668631.741867       -1383234394304.0471        0.0000000000000000     
   0.0000000000000000       -1607216201255.1440        0.0000000000000000     
   10092886373.850801       -1596972282826.4785        0.0000000000000000     
   23396868604.607452       -1556242501829.8423        0.0000000000000000     
   39911946692.269943       -1485026858265.2354        0.0000000000000000     
   59638120636.838295       -1383325352132.6572        0.0000000000000000     
   176256315560.40256       -1380488646421.9658        0.0000000000000000     
   231166165468.70273       -1254512916893.0513        0.0000000000000000     
   295440244127.01196       -1094360098648.0472        0.0000000000000000     
   369078551535.33051       -900030191686.95349        0.0000000000000000     
   452081087693.65814       -671523196009.77026        0.0000000000000000     
   148631766093.52402       -1381816041448.7012        0.0000000000000000     
   196260387199.38669       -1254769532163.4453        0.0000000000000000     
   251087859587.03494       -1095585097818.2958        0.0000000000000000     
   313114183256.46875       -904262738413.25293        0.0000000000000000     
   382339358207.68805       -680802453948.31653        0.0000000000000000     
   119987217117.30377       -1382731290742.7280        0.0000000000000000     
   160109995829.65472       -1254679201518.7319        0.0000000000000000     
   206184305635.74295       -1096557352495.5531        0.0000000000000000     
   258210146535.56848       -908365743673.19177        0.0000000000000000     
   316187518529.13123       -690104375051.64709        0.0000000000000000     
   90322668631.741867       -1383234394304.0471        0.0000000000000000     
   122714991359.50682       -1254241924958.9124        0.0000000000000000     
   160729582273.13611       -1097276862679.8199        0.0000000000000000     
   204366441372.62976       -912339207466.76965        0.0000000000000000     
   253625568657.98770       -699428959319.76221        0.0000000000000000     
   59638120636.838295       -1383325352132.6572        0.0000000000000000     
   84075373788.942947       -1253457702483.9851        0.0000000000000000     
   114723689499.21436       -1097743628371.0953        0.0000000000000000     
   151583067767.65253       -916183129793.98718        0.0000000000000000     
   194653508594.25745       -708776206752.66162        0.0000000000000000     
   0.0000000000000000       -1607216201255.1440        0.0000000000000000     
   10092886373.850801       -1596972282826.4785        0.0000000000000000     
   23396868604.607452       -1556242501829.8423        0.0000000000000000     
   39911946692.269943       -1485026858265.2354        0.0000000000000000     
   59638120636.838295       -1383325352132.6572        0.0000000000000000     
   0.0000000000000000       -1607192961440.2427        0.0000000000000000     
   2955023058.8289881       -1597764484667.5867        0.0000000000000000     
   8613592966.3302517       -1557325566351.5833        0.0000000000000000     
   16975709722.503792       -1485876206492.2319        0.0000000000000000     
   28041373327.349606       -1383416405089.5325        0.0000000000000000     
   0.0000000000000000       -1607700901963.1245        0.0000000000000000     
  -4050269421.4475660       -1597697377034.6016        0.0000000000000000     
  -6126988078.9246922       -1557066017403.8477        0.0000000000000000     
  -6230155972.4313803       -1485806823070.8621        0.0000000000000000     
  -4359773101.9676247       -1383919794035.6453        0.0000000000000000     
   0.0000000000000000       -1608740022823.7900        0.0000000000000000     
  -10922991066.978863       -1596770959927.5239        0.0000000000000000     
  -20824874531.157383       -1555463854986.6355        0.0000000000000000     
  -29705650392.535561       -1484818708001.1267        0.0000000000000000     
  -37565318651.113388       -1384835518970.9954        0.0000000000000000     
   0.0000000000000000       -1610310324022.2388        0.0000000000000000     
  -17663141877.764900       -1594985233346.3521        0.0000000000000000     
  -35480066390.367821       -1552519079099.9473        0.0000000000000000     
  -53450773537.808762       -1482911861283.0244        0.0000000000000000     
  -71575263320.087708       -1386163579895.5833        0.0000000000000000     
   59638120636.838295       -1383325352132.6572        0.0000000000000000     
   84075373788.942947       -1253457702483.9851        0.0000000000000000     
   114723689499.21436       -1097743628371.0953        0.0000000000000000     
   151583067767.65253       -916183129793.98718        0.0000000000000000     
   194653508594.25745       -708776206752.66162        0.0000000000000000     
   28041373327.349606       -1383416405089.5325        0.0000000000000000     
   43867274684.733452       -1253075698304.6655        0.0000000000000000     
   66510104698.521072       -1097983622298.8112        0.0000000000000000     
   95969863368.712479       -918140177071.96936        0.0000000000000000     
   132246550695.30765       -713545362624.13977        0.0000000000000000     
  -4359773101.9676247       -1383919794035.6453        0.0000000000000000     
   1766825613.6486766       -1253845076631.6677        0.0000000000000000     
   14432305255.599632       -1098022817192.3992        0.0000000000000000     
   33636665823.885239       -916453015717.84070        0.0000000000000000     
   59379907318.505493       -709135672207.99146        0.0000000000000000     
  -37565318651.113388       -1384835518970.9954        0.0000000000000000     
  -42225973424.311356       -1255765837464.9907        0.0000000000000000     
  -41509708829.549980       -1097861213051.8593        0.0000000000000000     
  -35416524866.829185       -911121645731.60120        0.0000000000000000     
  -23946421536.149025       -695547135504.21655        0.0000000000000000     
  -71575263320.087708       -1386163579895.5833        0.0000000000000000     
  -88111122429.146698       -1258837980804.6350        0.0000000000000000     
  -101315937556.92772       -1097498809877.1909        0.0000000000000000     
  -111189708703.43080       -902146067113.25098        0.0000000000000000     
  -117732435868.65591       -672779752512.81519        0.0000000000000000     
 </DataArray>
 <DataArray  type="Float64" Name="stress" NumberOfComponents="3" format="ascii">
   4.5057490430476304E+021  -1.3165694082091581E+020   1.2757442530304331E+020
   4.5208411231136923E+021   2.0467963238619283E+019   1.0696381728876061E+020
   4.5070403736980491E+021   7.6283435692471353E+019   7.3381829243433558E+019
   4.4624661833313210E+021   2.9520771642706887E+019  -1.1532044646917724E+019
   4.3793829633653673E+021  -1.4560532440447687E+020  -2.0416706308218103E+020
   4.2179177885381616E+021  -8.6852789615851471E+019   1.4212116461385779E+020
   4.2216165548373993E+021   1.3565978486413722E+018   9.7104750469669044E+019
   4.1959997855829118E+021   3.7331980813755482E+019   4.8067340626253570E+019
   4.1388027096276670E+021   1.8909220412079210E+019  -3.8215449271730627E+019
   4.0425627686430436E+021  -6.4681263549147251E+019  -2.0721803957274100E+020
   3.9149438889319643E+021  -4.6591431939878552E+019   1.4867637884809501E+020
   3.9115805548542647E+021  -2.1204288672512082E+019   8.3776706366365630E+019
   3.8798113895352264E+021  -3.8157926838325740E+018   2.3868775063447335E+019
   3.8181224279693334E+021   6.7446595649142784E+018  -5.8724324386879791E+019
   3.7209782622285359E+021   1.0984460859710636E+019  -1.9918233390241382E+020
   3.5968273442290768E+021  -1.0872867792868606E+019   1.4724006800575896E+020
   3.5908465132743164E+021  -4.7179778903342318E+019   6.6919563452713304E+019
   3.5588380404424245E+021  -4.7039369019946697E+019   6.8356773080353370E+017
   3.5009343813767953E+021  -6.7177163574433546E+018  -7.3334565376797385E+019
   3.4146221038258975E+021   8.2165072295725892E+019  -1.8080157242553054E+020
   3.2635681544294844E+021   2.0302902825129607E+019   1.3781223208685021E+020
   3.2595271606518158E+021  -7.6535158526430282E+019   4.6473549911182107E+019
   3.2334339925315646E+021  -9.2221088970238853E+019  -2.1588415127027540E+019
   3.1877195898377030E+021  -2.1236761380588225E+019  -8.2306879468701647E+019
   3.1234877054686331E+021   1.4955454418105126E+020  -1.5274136993101290E+020
   4.3793829633653673E+021  -1.4560532440447687E+020  -2.0416706308218103E+020
   5.0404149326539055E+021  -1.4481627101519544E+020  -7.2188618017966637E+019
   5.7200795246384361E+021  -8.1918475305942254E+019   8.4092143990779003E+019
   6.4279185541174395E+021   7.4894112051535544E+019   1.7680296649650808E+020
   7.2128642182980483E+021   4.8872881508106502E+020  -1.2836966759107150E+020
   4.0425627686430436E+021  -6.4681263549147251E+019  -2.0721803957274100E+020
   4.7873234711837797E+021   4.9093758618447118E+019  -5.9517524285280199E+019
   5.4822865680935860E+021   7.9715243006160273E+019   2.1194537801887982E+019
   6.0854675175228351E+021  -5.6194265838706491E+019  -1.0567931758740216E+020
   6.4571205124818909E+021  -6.3023247376788436E+020  -8.7056296236063601E+020
   3.7209782622285359E+021   1.0984460859710636E+019  -1.9918233390241382E+020
   4.4963693699314095E+021   2.0649641616947046E+020  -4.5209726447473263E+019
   5.1453775749222435E+021   1.7578064245190296E+020  -3.9629271855048491E+019
   5.5833637738738195E+021  -2.2800412084022883E+020  -3.4040742942608051E+020
   5.5862737497272038E+021  -1.3953386496648321E+021  -1.3435161253965652E+021
   3.4146221038258975E+021   8.2165072295725892E+019  -1.8080157242553054E+020
   4.1676823972875993E+021   3.3078982878127863E+020  -3.0624320564961829E+019
   4.7152517916845115E+021   2.1572445912038349E+020  -1.0211307512147396E+020
   4.9429328677425067E+021  -4.3655501116923550E+020  -5.5028465068038167E+020
   4.6004104044492012E+021  -2.0148287429119131E+021  -1.7044065550456023E+021
   3.1234877054686331E+021   1.4955454418105126E+020  -1.5274136993101290E+020
   3.8013701952355303E+021   4.2479271943009888E+020  -1.6888667425202354E+019
   4.1962356474028407E+021   2.0647480370626180E+020  -1.6899518406267981E+020
   4.1768874650400037E+021  -6.7947410051173004E+020  -7.4896417398215213E+020
   3.4995644993686303E+021  -2.5706328637919231E+021  -2.0150745391818667E+021
   3.2635681544294844E+021   2.0302902825129607E+019   1.3781223208685021E+020
   3.2595271606518158E+021  -7.6535158526430282E+019   4.6473549911182107E+019
   3.2334339925315646E+021  -9.2221088970238853E+019  -2.1588415127027540E+019
   3.1877195898377030E+021  -2.1236761380588225E+019  -8.2306879468701647E+019
   3.1234877054686331E+021   1.4955454418105126E+020  -1.5274136993101290E+020
   2.9199948016929462E+021   4.8449833240496177E+019   1.2202231002162499E+020
   2.9285910184398737E+021  -8.1244900378346521E+019   3.3059805115343770E+019
   2.9150681780040059E+021  -1.0483585057000797E+020  -3.0581804358481891E+019
   2.8830088543836968E+021  -1.6894351412954923E+019  -7.9614526532937335E+019
   2.8351664150827830E+021   1.9516577979293552E+020  -1.2473071105114710E+020
   2.5708926415780352E+021   7.4938121442328969E+019   1.0149974074034378E+020
   2.5916306448671367E+021  -8.8036159677554229E+019   1.7410112830879564E+019
   2.5919827530830504E+021  -1.1983740834953062E+020  -3.9242769540434911E+019
   2.5767233032512010E+021  -1.5589475441029808E+019  -7.4006961598559896E+019
   2.5502520505894757E+021   2.3535906413315863E+020  -9.1843421120627884E+019
   2.2162616740847582E+021   9.9767767430652101E+019   7.6244524243006194E+019
   2.2486962213971225E+021  -9.6892690768680714E+019  -5.5486584216173613E+017
   2.2643567223906702E+021  -1.3715510240927875E+020  -4.7714833100694905E+019
   2.2691446002399172E+021  -1.7135926676476527E+019  -6.5745642931857293E+019
   2.2688960774838351E+021   2.7063954310322677E+020  -5.4540102779804819E+019
   1.8561018992131231E+021   1.2293877120548962E+020   4.6256660529611907E+019
   1.8998376392910724E+021  -1.0779834194592530E+020  -2.0914010982335250E+019
   1.9323649458861381E+021  -1.5671990890491779E+020  -5.6138194357038998E+019
   1.9605397124956501E+021  -2.1357214228818297E+019  -5.5078386429530218E+019
   1.9912358802978819E+021   3.0146540180477962E+020  -1.3238538825583120E+019
   3.1234877054686331E+021   1.4955454418105126E+020  -1.5274136993101290E+020
   3.8013701952355303E+021   4.2479271943009888E+020  -1.6888667425202354E+019
   4.1962356474028407E+021   2.0647480370626180E+020  -1.6899518406267981E+020
   4.1768874650400037E+021  -6.7947410051173004E+020  -7.4896417398215213E+020
   3.4995644993686303E+021  -2.5706328637919231E+021  -2.0150745391818667E+021
   2.8351664150827830E+021   1.9516577979293552E+020  -1.2473071105114710E+020
   3.4137918128267749E+021   4.8600800201314966E+020   6.9936490448853709E+018
   3.7025060792980031E+021   2.9287441696223658E+020  -1.2639409754593188E+020
   3.5950093635521678E+021  -5.0509092118413627E+020  -6.1932453188039554E+020
   2.9197786145115351E+021  -2.1151557079149319E+021  -1.6247699630565839E+021
   2.5502520505894757E+021   2.3535906413315863E+020  -9.1843421120627884E+019
   3.0224442010901671E+021   5.3214965910929087E+020   3.2393812548705350E+019
   3.2018407509686506E+021   3.4960776521412641E+020  -8.9970266051686826E+019
   3.0047903422207796E+021  -3.9183666997532033E+020  -5.1961102301315708E+020
   2.3132629045589610E+021  -1.8141646573613191E+021  -1.3437947487805747E+021
   2.2688960774838351E+021   2.7063954310322677E+020  -5.4540102779804819E+019
   2.6270463948066857E+021   5.6471425620127069E+020   5.8767097882077159E+019
   2.6930461507680894E+021   3.8091361755336737E+020  -5.9432014882703811E+019
   2.4035882556669040E+021  -3.2687413962786865E+020  -4.4408482037519542E+020
   1.6808986107646365E+021  -1.6215985664726605E+021  -1.1397941263015125E+021
   1.9912358802978819E+021   3.0146540180477962E+020  -1.3238538825583120E+019
   2.2273583567616525E+021   5.8498035513849453E+020   8.5648129575281000E+019
   2.1751799929525083E+021   3.9013851165077071E+020  -3.4549064837434741E+019
   1.7895210679327465E+021  -3.0105921345205043E+020  -3.8865807972237804E+020
   1.0232342608476996E+021  -1.5087867221350579E+021  -9.9262890201538835E+020
   1.8561018992131231E+021   1.2293877120548962E+020   4.6256660529611907E+019
   1.8998376392910724E+021  -1.0779834194592530E+020  -2.0914010982335250E+019
   1.9323649458861381E+021  -1.5671990890491779E+020  -5.6138194357038998E+019
   1.9605397124956501E+021  -2.1357214228818297E+019  -5.5078386429530218E+019
   1.9912358802978819E+021   3.0146540180477962E+020  -1.3238538825583120E+019
   1.4948291219966945E+021   1.3689372690224565E+020   1.3331886999307252E+019
   1.5544963113892936E+021  -9.9723896857965363E+019  -2.9073913740017463E+019
   1.6039315321571314E+021  -1.5140026341425650E+020  -5.0392904077435068E+019
   1.6479836677313790E+021  -1.8328421723555365E+019  -4.1688059099107533E+019
   1.6914852011790429E+021   2.9650240807625687E+020   5.3419989892526479E+018
   1.1427155083754021E+021   1.5359643167754253E+020  -2.0734058948765680E+019
   1.2081184494221313E+021  -9.2317095839556895E+019  -3.8226359626538435E+019
   1.2665012394264457E+021  -1.5009504660835166E+020  -4.5433581792038019E+019
   1.3207029416524857E+021  -2.2436715223131881E+019  -2.8741408300468826E+019
   1.3735757374588626E+021   2.8192995028119880E+020   2.4070286877264581E+019
   7.9976105834924461E+020   1.7304688553137619E+020  -5.5941177314605826E+019
   8.6066520122422369E+020  -8.5587888449967423E+019  -4.8473673688385716E+019
   9.2007100384067047E+020  -1.5278034419837954E+020  -4.1445926583070876E+019
   9.7892884749777974E+020  -3.3499665743949070E+019  -1.6498497069503359E+019
   1.0381529430054276E+021   2.5824015141875289E+020   4.2595745860446167E+019
   4.6596577191822577E+020   1.9524508846375875E+020  -9.2289468098213544E+019
   5.1209796201937201E+020  -7.9546160895135678E+019  -5.9917529422598734E+019
   5.6463783818945718E+020  -1.5943284011753787E+020  -3.8610992223196176E+019
   6.2288005525541447E+020  -5.1344815609642451E+019  -5.2051737686839173E+018
   6.8580199011827175E+020   2.2587917311454888E+020   6.0600538961010975E+019
   1.9912358802978819E+021   3.0146540180477962E+020  -1.3238538825583120E+019
   2.2273583567616525E+021   5.8498035513849453E+020   8.5648129575281000E+019
   2.1751799929525083E+021   3.9013851165077071E+020  -3.4549064837434741E+019
   1.7895210679327465E+021  -3.0105921345205043E+020  -3.8865807972237804E+020
   1.0232342608476996E+021  -1.5087867221350579E+021  -9.9262890201538835E+020
   1.6914852011790429E+021   2.9650240807625687E+020   5.3419989892526479E+018
   1.8208481704759352E+021   5.3078950900188761E+020   9.9712033014657122E+019
   1.7125640706862468E+021   3.1218750343558909E+020   7.4772195563253023E+019
   1.3551773318730104E+021  -3.4611801921234135E+020  -7.0532443175177585E+019
   7.4144681351013545E+020  -1.4254118571203347E+021  -3.3547652035318835E+020
   1.3735757374588626E+021   2.8192995028119880E+020   2.4070286877264581E+019
   1.4536831507375530E+021   4.8334164707409972E+020   1.1119374124887261E+020
   1.3428395731165061E+021   2.5575021174243053E+020   1.6705784454503596E+020
   1.0533632672437789E+021  -3.6313733974485146E+020   1.9252926739822379E+020
   6.0135913190143833E+020  -1.3285749740656701E+021   1.8926286234185010E+020
   1.0381529430054276E+021   2.5824015141875289E+020   4.2595745860446167E+019
   1.1257854967531243E+021   4.4315991690280042E+020   1.1993653316421231E+020
   1.0626697499163508E+021   2.2077161792270926E+020   2.4431394930214496E+020
   8.7649668192744453E+020  -3.5213049375592913E+020   4.1052961552332109E+020
   5.9547198389116705E+020  -1.2135881860344977E+021   6.1250403249400368E+020
   6.8580199011827175E+020   2.2587917311454888E+020   6.0600538961010975E+019
   8.3708822072089641E+020   4.1069475739345768E+020   1.2580546922548054E+020
   8.6934894295291121E+020   2.0720710921266079E+020   3.0816716196235307E+020
   8.1882821065808504E+020  -3.1310758044991331E+020   5.9105326674429805E+020
   7.1849814107080176E+020  -1.0771463641075192E+021   9.5604302657506994E+020
   4.6596577191822577E+020   1.9524508846375875E+020  -9.2289468098213544E+019
   5.1209796201937201E+020  -7.9546160895135678E+019  -5.9917529422598734E+019
   5.6463783818945718E+020  -1.5943284011753787E+020  -3.8610992223196176E+019
   6.2288005525541447E+020  -5.1344815609642451E+019  -5.2051737686839173E+018
   6.8580199011827175E+020   2.2587917311454888E+020   6.0600538961010975E+019
   6.9227035237167948E+019  -2.5763157394962899E+019  -1.1218604305879563E+020
   1.8197253096423834E+020  -1.4485711962563215E+019  -5.8308956659794969E+019
   2.5295861536991134E+020  -8.0909094896615424E+017  -2.5637382451109900E+019
   2.8243463712607129E+020   1.4703667493769888E+019   1.0735446367457991E+019
   2.7403558211555924E+020   3.1400281591298621E+019   7.2681520063982215E+019
  -3.1465221803399768E+020  -2.4291355823074614E+020  -9.8038013955562766E+019
  -1.4624603687004799E+020   5.0626010952277836E+019  -3.9903919318671532E+019
  -6.5949197618369937E+019   1.5253152010944446E+020  -1.3706309754197633E+019
  -7.1088399747108127E+019   7.2354840170323436E+019   8.9145892145304463E+018
  -1.5103926119022028E+020  -1.6390584375026310E+020   5.2993642660419052E+019
  -6.8567198789526251E+020  -4.5620611404356289E+020  -4.9845380788513096E+019
  -4.7262792428173086E+020   1.1577042824282633E+020  -4.8508418170661192E+018
  -3.9218929891412981E+020   3.0061524115616904E+020  -3.2449438094394537E+018
  -4.3768046528141774E+020   1.2178746476227137E+020  -1.1051520032257417E+019
  -5.8939315125045264E+020  -3.6023758778412171E+020   1.7089010451476756E+018
  -1.0438322743466137E+021  -6.6564082483336878E+020   3.2391856442352763E+019
  -7.9724287001120801E+020   1.8092907785873231E+020   4.6702790532311089E+019
  -7.2586285592772031E+020   4.4346767971110774E+020   5.3299706804368527E+018
  -8.1733341458244069E+020   1.6317103910278919E+020  -4.9526766725031854E+019
  -1.0409992097883702E+021  -5.5777639000956037E+020  -8.1015401666368504E+019
   6.8580199011827175E+020   2.2587917311454888E+020   6.0600538961010975E+019
   8.3708822072089641E+020   4.1069475739345768E+020   1.2580546922548054E+020
   8.6934894295291121E+020   2.0720710921266079E+020   3.0816716196235307E+020
   8.1882821065808504E+020  -3.1310758044991331E+020   5.9105326674429805E+020
   7.1849814107080176E+020  -1.0771463641075192E+021   9.5604302657506994E+020
   2.7403558211555924E+020   3.1400281591298621E+019   7.2681520063982215E+019
   4.5278405934718766E+020   1.0464731590919537E+020   8.5106414672874684E+019
   6.1428439143233932E+020   1.6329747798161768E+020   1.9123272193303652E+020
   7.6949968194651960E+020   2.1203528890694897E+020   3.8542323934307353E+020
   9.2706867126546622E+020   2.5499920525791504E+020   6.5798720478210713E+020
  -1.5103926119022028E+020  -1.6390584375026310E+020   5.2993642660419052E+019
   2.4951433986254176E+019  -2.0206404683785788E+020   5.5323185134300586E+019
   2.8512387992551499E+020   9.4341687663839494E+019   1.2632675225044212E+020
   6.1156942089172419E+020   6.4637519592262926E+020   2.7041169793615112E+020
   9.8675441397548043E+020   1.3793051978682689E+021   4.8564059681670490E+020
  -5.8939315125045264E+020  -3.6023758778412171E+020   1.7089010451476756E+018
  -4.4614944499888502E+020  -5.1053128923211458E+020   3.6762232784156205E+019
  -1.1630447778123014E+020   1.2381701280924303E+018   1.1233154919148878E+020
   3.5055165761213818E+020   1.0005019259622950E+021   2.4188005397022533E+020
   9.0955542241320790E+020   2.3289304209725255E+021   4.3056320168272573E+020
  -1.0409992097883702E+021  -5.5777639000956037E+020  -8.1015401666368504E+019
  -9.6029011910499657E+020  -8.2171312473612052E+020   2.9692615335076991E+019
  -5.8846333255120198E+020  -1.1525753989461171E+020   1.4830718173732952E+020
  -9.1128359431817134E+018   1.2829437451276510E+021   2.9649538017141601E+020
   7.0473840433707352E+020   3.1294808423906945E+021   4.8623746305536813E+020
 </DataArray>
 <DataArray  type="Float64" Name="VM" NumberOfComponents="1" format="ascii">
   4.5783345035153978E+021
   4.5144451223452071E+021
   4.4711938279148969E+021
   4.4478241233589460E+021
   4.4679872533753742E+021
   4.2691108067757119E+021
   4.2242880036983941E+021
   4.1782884416490517E+021
   4.1299110349798784E+021
   4.0910626272276623E+021
   3.9468561227447476E+021
   3.9249089100018368E+021
   3.8819408405879907E+021
   3.8161103322971877E+021
   3.7314806381238031E+021
   3.6112922762516234E+021
   3.6165252165472187E+021
   3.5825895380295793E+021
   3.5065993255597800E+021
   3.3887903689654445E+021
   3.2622087660517846E+021
   3.2994427926550398E+021
   3.2807299639283344E+021
   3.2015663808470728E+021
   3.0629071167956818E+021
   4.4679872533753742E+021
   5.1158891827620248E+021
   5.7633163251824334E+021
   6.3981333747291411E+021
   6.9848813746704225E+021
   4.0910626272276623E+021
   4.7640818127999043E+021
   5.4429905708130522E+021
   6.1164978080817128E+021
   6.9595060839119302E+021
   3.7314806381238031E+021
   4.3974567511437298E+021
   5.0602433621871737E+021
   5.7311952080822830E+021
   6.8090582874832241E+021
   3.3887903689654445E+021
   4.0128774060395541E+021
   4.6145663500703404E+021
   5.2620782316871284E+021
   6.5732301784853837E+021
   3.0629071167956818E+021
   3.6078976584949584E+021
   4.1073454490955945E+021
   4.7359268157191377E+021
   6.3271460163380010E+021
   3.2622087660517846E+021
   3.2994427926550398E+021
   3.2807299639283344E+021
   3.2015663808470728E+021
   3.0629071167956818E+021
   2.9037754905430899E+021
   2.9705989336847624E+021
   2.9693471387091820E+021
   2.8947793450939004E+021
   2.7512913457885814E+021
   2.5403451386940909E+021
   2.6369236451191266E+021
   2.6548017020522804E+021
   2.5877300610789802E+021
   2.4462747426821206E+021
   2.1721182331080975E+021
   2.2986748445334614E+021
   2.3374176097558672E+021
   2.2806056697646437E+021
   2.1484892467469841E+021
   1.7995722688841080E+021
   1.9563013758727238E+021
   2.0176446572238733E+021
   1.9736120813044947E+021
   1.8590693293848975E+021
   3.0629071167956818E+021
   3.6078976584949584E+021
   4.1073454490955945E+021
   4.7359268157191377E+021
   6.3271460163380010E+021
   2.7512913457885814E+021
   3.1986239095092171E+021
   3.5718179944895642E+021
   4.0181717709872950E+021
   5.2052290561865501E+021
   2.4462747426821206E+021
   2.7951936667038028E+021
   3.0461295673139171E+021
   3.3421063513928982E+021
   4.2727475299640714E+021
   2.1484892467469841E+021
   2.3973120606534972E+021
   2.5263355469644615E+021
   2.6946962782642325E+021
   3.4753613882750062E+021
   1.8590693293848975E+021
   2.0055854978220289E+021
   2.0096207325349604E+021
   2.0700095208833436E+021
   2.7970027535226178E+021
   1.7995722688841080E+021
   1.9563013758727238E+021
   2.0176446572238733E+021
   1.9736120813044947E+021
   1.8590693293848975E+021
   1.4314868090469233E+021
   1.6074700448005300E+021
   1.6870010048666017E+021
   1.6587961666890566E+021
   1.5644782003234792E+021
   1.0747852231949180E+021
   1.2585652086443978E+021
   1.3501267000210371E+021
   1.3329929136079548E+021
   1.2572512875964937E+021
   7.3522449679361992E+020
   9.1037436453656225E+020
   1.0077671084265791E+021
   9.9651106690454258E+020
   9.3904202694782969E+020
   4.3568251580120229E+020
   5.6575407404166074E+020
   6.6236618208130092E+020
   6.5013752115292969E+020
   6.1437338810853635E+020
   1.8590693293848975E+021
   2.0055854978220289E+021
   2.0096207325349604E+021
   2.0700095208833436E+021
   2.7970027535226178E+021
   1.5644782003234792E+021
   1.6311241292439599E+021
   1.5850767412001896E+021
   1.5621392557822934E+021
   1.9940017317469566E+021
   1.2572512875964937E+021
   1.2966419653905896E+021
   1.2684320064731325E+021
   1.3172550972996830E+021
   1.7415958927060102E+021
   9.3904202694782969E+020
   1.0040094648059020E+021
   1.0594657626047998E+021
   1.3063258487492072E+021
   1.9171657474279253E+021
   6.1437338810853635E+020
   7.5702059255702395E+020
   9.5050938369436942E+020
   1.4397670671797311E+021
   2.2786983860733149E+021
   4.3568251580120229E+020
   5.6575407404166074E+020
   6.6236618208130092E+020
   6.5013752115292969E+020
   6.1437338810853635E+020
   2.1212438441409171E+020
   2.1484795280733104E+020
   2.5722598698618824E+020
   2.7600443206478279E+020
   2.8865982328927489E+020
   3.3228614436845683E+020
   1.9008345030648778E+020
   1.9554559938123596E+020
   1.2518299796272348E+020
   1.8261091144516633E+020
   6.1066850772461027E+020
   5.3996932881322213E+020
   6.0175712629852393E+020
   5.0996742914606334E+020
   5.1462860429523642E+020
   9.1705716597170019E+020
   9.0505215000551817E+020
   1.0225079025772892E+021
   9.1399263837977956E+020
   9.1314815923541967E+020
   6.1437338810853635E+020
   7.5702059255702395E+020
   9.5050938369436942E+020
   1.4397670671797311E+021
   2.2786983860733149E+021
   2.8865982328927489E+020
   4.3624664363657560E+020
   6.4296978918292639E+020
   9.5894778646151378E+020
   1.4095817204060190E+021
   1.8261091144516633E+020
   2.3595805823990179E+020
   3.3342504091930421E+020
   7.8478162909615555E+020
   1.4908628300350559E+021
   5.1462860429523642E+020
   4.8577017044089327E+020
   2.2699647613710320E+020
   9.7400248533798801E+020
   2.1654262146939426E+021
   9.1314815923541967E+020
   9.0051736907602736E+020
   5.9810836701754648E+020
   1.3861628635206428E+021
   2.9654884652622807E+021
 </DataArray>
 <DataArray  type="Float64" Name="strain" NumberOfComponents="3" format="ascii">
   75754102088.231750       -24723027562.253418        5528225096.4652100     
   75245012235.701767       -22263072894.924805        4635098749.1796265     
   74735922383.171799       -21263811273.615723        3179879267.2154541     
   74226832530.641815       -21820318055.944824       -499721934.69976807     
   73717742678.111832       -24323670223.568115       -8847239400.2278442     
   70732893757.048615       -22537135436.288330        6158583799.9338379     
   70353492924.713440       -21085472810.042969        4207872520.3523254     
   69746669855.646423       -20357799247.685303        2082918093.8043213     
   68885499058.400726       -20378859874.603683       -1656002801.7749939     
   67699452461.796463       -21290834902.367676       -8979448381.4854431     
   65482021975.232132       -20351243310.324463        6442643083.4174500     
   65299030690.933640       -19911307585.479858        3630323942.5425110     
   64682602122.339607       -19462653492.406677        1034313586.0827179     
   63601650501.664322       -18978201147.098099       -2544720723.4314575     
   61961382066.177048       -18421816963.480835       -8631234469.1045990     
   60001486742.782288       -18165351184.359863        6380402946.9162216     
   60083340782.421982       -18740562214.760620        2899847749.6175766     
   59549164185.806808       -18578179685.877899        29621268.334819794     
   58382494938.067139       -17616633846.174698       -3177831166.3278866     
   56499543035.619667       -15703692647.534058       -7834734805.1063232     
   54291288059.699097       -15979459058.395264        5971863390.4301758     
   54708128470.162415       -17573221778.699585        2013853829.4845581     
   54351671987.043938       -17704188112.161804       -935497988.83786011     
   53234843637.531326       -16292543972.198318       -3566631443.6437378     
   51310355703.571960       -13124862790.992310       -6618792697.0105591     
   73717742678.111832       -24323670223.568115       -8847239400.2278442     
   84730996899.307739       -27615679180.189453       -3128173447.4452209     
   95744251120.503647       -29965705544.957886        3643992906.2670898     
   106757505341.69965       -30891357569.728271        7661461881.5153503     
   117770759562.89548       -27918840840.139160       -5562685595.6130981     
   67699452461.796463       -21290834902.367676       -8979448381.4854431     
   79543255726.637436       -23118388045.611450       -2579092719.0288086     
   90972866586.528961       -26082845457.031921        918429971.41514587     
   101705429954.57411       -31363908684.925949       -4579437095.4540939     
   110769837576.87093       -42789477125.207520       -37724395035.627563     
   61961382066.177048       -18421816963.480835       -8631234469.1045990     
   73907007418.009476       -19040239913.499207       -1959088146.0571747     
   84877389703.111221       -22797210500.412842       -1717268447.0521011     
   94196083502.098145       -31716887550.039581       -14750988608.463490     
   100081255743.77756       -51187012909.716553       -58219032100.517822     
   56499543035.619667       -15703692647.534058       -7834734805.1063232     
   67807424144.220268       -15325248173.416687       -1327053891.1483459     
   77508907565.806610       -19980851306.416168       -4424899921.9305382     
   84564989518.221283       -31990581191.533123       -23845668196.149872     
   86747650455.379593       -56582531070.777893       -73857617385.309433     
   51310355703.571960       -13124862790.992310       -6618792697.0105591     
   61232206323.441681       -11926972319.009338       -731842255.09210205     
   68904886771.516037       -17539931508.576508       -7323124642.7161255     
   73012161586.558716       -32209005667.062187       -32455114205.893257     
   71179239308.436783       -60341703560.041870       -87319896697.880890     
   54291288059.699097       -15979459058.395264        5971863390.4301758     
   54708128470.162415       -17573221778.699585        2013853829.4845581     
   54351671987.043938       -17704188112.161804       -935497988.83786011     
   53234843637.531326       -16292543972.198318       -3566631443.6437378     
   51310355703.571960       -13124862790.992310       -6618792697.0105591     
   48424330862.013290       -13792476787.789795        5287633434.2704163     
   49216074809.222969       -15997036765.171814        1432591554.9982300     
   49108648886.250137       -16322605066.186829       -1325211522.2008820     
   48134619330.126396       -14696616795.467735       -3449962816.4272842     
   46276944685.748375       -10923069078.864990       -5404997478.8830414     
   42473520085.755608       -11605494517.184692        4398322098.7482300     
   43634024879.506721       -14425422552.294922        754438222.67144775     
   43798899593.131828       -14957203904.574097       -1700520013.4188461     
   43023335764.725166       -13143441106.939835       -3206968335.9375954     
   41327405522.492134       -8828609184.0614014       -3979881581.8938751     
   36438855730.926041       -9418512246.5795898        3303929383.8636017     
   37962733810.462112       -12858359286.463623       -24044186.493675232     
   38425054218.557564       -13607701985.441330       -2067642767.6967793     
   37904756304.047668       -11631321779.140862       -2848977860.3804827     
   36461736909.214455       -6833821335.6987305       -2363404453.7915421     
   30320337797.524605       -7231529975.9741211        2004455289.6165161     
   32202952364.580833       -11295827228.887451       -906273809.23452759     
   32989681975.960224       -12273823211.179321       -2432655088.8050232     
   32782447946.071594       -10158652132.958557       -2386730078.6129761     
   31679937662.607468       -4931756038.0764160       -573670015.77526855     
   51310355703.571960       -13124862790.992310       -6618792697.0105591     
   61232206323.441681       -11926972319.009338       -731842255.09210205     
   68904886771.516037       -17539931508.576508       -7323124642.7161255     
   73012161586.558716       -32209005667.062187       -32455114205.893257     
   71179239308.436783       -60341703560.041870       -87319896697.880890     
   46276944685.748375       -10923069078.864990       -5404997478.8830414     
   54466490203.713837       -8968825697.2480469        303058125.27836609     
   60244062570.155533       -13631290113.786072       -5477077560.3237152     
   62442277331.790146       -26393228837.496445       -26837396381.483807     
   59238755448.100243       -49851488204.473206       -70406698399.118637     
   41327405522.492134       -8828609184.0614014       -3979881581.8938751     
   47713321722.623001       -6243060020.2959900        1403731877.1105652     
   51615973690.073547       -10182407667.941147       -3898711528.9064293     
   52039022386.889603       -21554562877.359241       -22516477663.903473     
   47625205029.455948       -41802392145.483459       -58231105780.491570     
   36461736909.214455       -6833821335.6987305       -2363404453.7915421     
   40960535299.105080       -3723327704.0122528        2546574241.5566769     
   42979534425.034653       -7116670461.2843246       -2575387311.5838318     
   41694174959.254410       -17465843605.465664       -19243675549.591801     
   36122969678.440575       -35431135828.367523       -49391078806.398872     
   31679937662.607468       -4931756038.0764160       -573670015.77526855     
   34197737503.668404       -1387119198.1666870        3711418948.2621765     
   34302307324.287949       -4373591437.2496948       -1497126142.9555054     
   31330647199.472694       -13965258897.197906       -16841850121.303047     
   24597837958.136948       -30262616673.156128       -43013919087.333496     
   30320337797.524605       -7231529975.9741211        2004455289.6165161     
   32202952364.580833       -11295827228.887451       -906273809.23452759     
   32989681975.960224       -12273823211.179321       -2432655088.8050232     
   32782447946.071594       -10158652132.958557       -2386730078.6129761     
   31679937662.607468       -4931756038.0764160       -573670015.77526855     
   24229350065.433681       -5192583494.9460449        577715103.30331421     
   26406891340.778053       -9434546504.5792236       -1259869595.4007568     
   27489193519.690140       -10542995384.356598       -2183692510.0221863     
   27558036570.807426       -8545392034.0494843       -1806482560.9613266     
   26708907979.269432       -3515719204.6242676        231486622.86761475     
   18277276314.535656       -3153637013.9179688       -898475887.77984619     
   20596892969.566639       -7579210511.1032715       -1656475583.8166656     
   21858829223.482521       -8834090307.2714233       -1968788544.3216476     
   22123899270.323753       -6977459961.9812927       -1245461026.3536491     
   21483279206.241714       -2169046182.6076660        1043045764.6814651     
   12464116544.830530       -1114690532.8899536       -2424117683.6329193     
   14772359462.653564       -5729790813.6205750       -2100525859.8300476     
   16098418451.669741       -7146694089.1763458       -1795990151.9330711     
   16482979120.349407       -5452971999.8880501       -714934873.01181221     
   16011348292.996695       -886762191.38125610        1845815653.9526672     
   6789870756.3183022        924255948.13818359       -3999210284.2559204     
   8932696838.1318779       -3886259158.3491211       -2596426274.9792786     
   10207794837.078642       -5480403192.9062500       -1673142996.3385010     
   10638058332.305120       -3970147203.1044464       -225557529.97630310     
   10300637303.065117        335642934.65112305        2626023354.9771423     
   31679937662.607468       -4931756038.0764160       -573670015.77526855     
   34197737503.668404       -1387119198.1666870        3711418948.2621765     
   34302307324.287949       -4373591437.2496948       -1497126142.9555054     
   31330647199.472694       -13965258897.197906       -16841850121.303047     
   24597837958.136948       -30262616673.156128       -43013919087.333496     
   26708907979.269432       -3515719204.6242676        231486622.86761475     
   27693521962.922813       -257749035.68154907        4320854763.9684753     
   26981796994.259506       -3359695296.1714172        3240128474.4076309     
   24316878960.611881       -12544520312.904076       -3056405870.9243622     
   19484506177.437263       -27464098352.889587       -14537315881.971497     
   21483279206.241714       -2169046182.6076660        1043045764.6814651     
   21811344276.922050        787278364.21389771        4818395454.1178131     
   21101908493.229618       -2451694336.5420227        7239173263.6182251     
   19371741152.787239       -11319105331.966419        8342934920.5896978     
   16665527068.685658       -25149711893.935028        8201390701.4801712     
   16011348292.996695       -886762191.38125610        1845815653.9526672     
   16547292028.038069        1757071131.2810516        5197249770.4491997     
   16607304408.992300       -1633821784.2032661        10586937803.092949     
   16368930500.903721       -10251324972.236042        17789616672.677246     
   15992473995.025272       -23203829686.697464        26541841408.073494     
   10300637303.065117        335642934.65112305        2626023354.9771423     
   11897996558.380987        2659471519.6198120        5451570333.1041565     
   13453113503.151884       -893292894.55354309        13353910351.701965     
   15212674746.550983       -9312600727.4556465        25612308225.586250     
   17360700838.384293       -21544930107.145996        41428531151.586365     
   6789870756.3183022        924255948.13818359       -3999210284.2559204     
   8932696838.1318779       -3886259158.3491211       -2596426274.9792786     
   10207794837.078642       -5480403192.9062500       -1673142996.3385010     
   10638058332.305120       -3970147203.1044464       -225557529.97630310     
   10300637303.065117        335642934.65112305        2626023354.9771423     
   1282599707.5942802       -775521132.76855469       -4861395199.2144775     
   3105304075.8834553       -1151291187.5305786       -2526721455.2577820     
   4220022377.5766869       -1278277925.9989929       -1110953239.5480957     
   4633725614.6323395       -1167112060.7341919        465202675.92317963     
   4410258293.9694939       -846839884.05615234        3149532536.1058960     
  -4029635842.7462301       -2475298213.6757812       -4248313938.0743866     
  -2690564002.5955224        1574997033.5548706       -1729169837.1424332     
  -1861810894.1867213        2871937989.9159241       -593940089.34856415     
  -1546580863.3034194        1561356001.5742645        386298865.96298599     
  -1697791801.0856891       -1976567756.5532837        2296391181.9514923     
  -9146835894.7032280       -4175075294.5830688       -2159966500.8355675     
  -8455984212.5763130        4292646758.7890930       -210203145.40619850     
  -8039564521.0163422        6971200513.8401337       -140614231.74237633     
  -7903611745.1683187        4218193405.7782784       -478899201.39782143     
  -8022031248.5869360       -3056994040.1497650        74052378.623065948     
  -14069000448.276716       -5874852375.4897461        1403647112.5019531     
  -14192026556.147129        7001698981.0349121        2023787589.7334805     
  -14315052664.017544        11020442274.823730        230965396.15226364     
  -14438078771.887957        6806184391.2920227       -2146159891.4180470     
  -14561104879.758369       -4091277117.8841553       -3510667405.5426350     
   10300637303.065117        335642934.65112305        2626023354.9771423     
   11897996558.380987        2659471519.6198120        5451570333.1041565     
   13453113503.151884       -893292894.55354309        13353910351.701965     
   15212674746.550983       -9312600727.4556465        25612308225.586250     
   17360700838.384293       -21544930107.145996        41428531151.586365     
   4410258293.9694939       -846839884.05615234        3149532536.1058960     
   7023164409.5738182       -519798364.91601562        3687944635.8245697     
   9421585800.6308994       -349797324.13473511        8286751283.7649155     
   11764818254.573915       -313576927.95011520        16701673704.866520     
   14176148494.801529       -385356602.02874756        28512778873.891312     
  -1697791801.0856891       -1976567756.5532837        2296391181.9514923     
   1426177467.2935257       -3492491283.8955688        2397338022.4863586     
   4280356227.1060524        146742061.43641663        5474159264.1858253     
   6960947701.9155903        7715072827.5852013        11717840243.899881     
   9549380910.2499962        18054647894.593750        21044425862.057213     
  -8022031248.5869360       -3056994040.1497650        74052378.623065948     
  -4883167637.1541767       -6278107595.5408173        1593030087.3134356     
  -1944598813.6609645        602158557.70769119        4867700464.9645138     
   840017997.05749393        14922273811.310894        10481469005.376431     
   3514604935.3575053        34267729904.142715        18657738739.584782     
  -14561104879.758369       -4091277117.8841553       -3510667405.5426350     
  -11896269694.736006       -8893768150.0770264        1286679997.8533363     
  -9231434509.7136421        1021357664.5124817        6426644541.9509459     
  -6566599324.6912823        21427959931.843422        12848133140.761360     
  -3901764139.6689148        48634322018.159546        21070290065.732620     
 </DataArray>
 </PointData>
 </Piece>
 <Piece  NumberOfPoints="           200 "  NumberOfCells="          128 ">
 <Points>
 <DataArray  type="Float64" NumberOfComponents="3"  format="ascii" >
   0.0000000000000000        0.0000000000000000        0.0000000000000000     
   1.2500000000000000        0.0000000000000000        0.0000000000000000     
   2.5000000000000000        0.0000000000000000        0.0000000000000000     
   3.7500000000000000        0.0000000000000000        0.0000000000000000     
   5.0000000000000000        0.0000000000000000        0.0000000000000000     
   0.0000000000000000        8.9453124999999994E-002   0.0000000000000000     
   1.2500000000000000       0.14172973632812499        0.0000000000000000     
   2.5000000000000000       0.18703613281250001        0.0000000000000000     
   3.7500000000000000       0.22537231445312503        0.0000000000000000     
   5.0000000000000000       0.25673828125000003        0.0000000000000000     
   0.0000000000000000       0.20781250000000001        0.0000000000000000     
   1.2500000000000000       0.30559082031250001        0.0000000000000000     
   2.5000000000000000       0.39033203124999999        0.0000000000000000     
   3.7500000000000000       0.46203613281250000        0.0000000000000000     
   5.0000000000000000       0.52070312500000004        0.0000000000000000     
   0.0000000000000000       0.35507812500000002        0.0000000000000000     
   1.2500000000000000       0.49158325195312497        0.0000000000000000     
   2.5000000000000000       0.60988769531250009        0.0000000000000000     
   3.7500000000000000       0.70999145507812500        0.0000000000000000     
   5.0000000000000000       0.79189453125000009        0.0000000000000000     
   0.0000000000000000       0.53125000000000000        0.0000000000000000     
   1.2500000000000000       0.69970703125000011        0.0000000000000000     
   2.5000000000000000       0.84570312500000000        0.0000000000000000     
   3.7500000000000000       0.96923828125000000        0.0000000000000000     
   5.0000000000000000        1.0703125000000000        0.0000000000000000     
   5.0000000000000000        0.0000000000000000        0.0000000000000000     
   6.2500000000000000        0.0000000000000000        0.0000000000000000     
   7.5000000000000000        0.0000000000000000        0.0000000000000000     
   8.7500000000000000        0.0000000000000000        0.0000000000000000     
   10.000000000000000        0.0000000000000000        0.0000000000000000     
   5.0000000000000000       0.25673828125000003        0.0000000000000000     
   6.2500000000000000       0.28113403320312497        0.0000000000000000     
   7.5000000000000000       0.29855957031249997        0.0000000000000000     
   8.7500000000000000       0.30901489257812503        0.0000000000000000     
   10.000000000000000       0.31250000000000000        0.0000000000000000     
   5.0000000000000000       0.52070312500000004        0.0000000000000000     
   6.2500000000000000       0.56633300781249996        0.0000000000000000     
   7.5000000000000000       0.59892578124999996        0.0000000000000000     
   8.7500000000000000       0.61848144531250004        0.0000000000000000     
   10.000000000000000       0.62500000000000000        0.0000000000000000     
   5.0000000000000000       0.79189453125000009        0.0000000000000000     
   6.2500000000000000       0.85559692382812491        0.0000000000000000     
   7.5000000000000000       0.90109863281249991        0.0000000000000000     
   8.7500000000000000       0.92839965820312509        0.0000000000000000     
   10.000000000000000       0.93750000000000000        0.0000000000000000     
   5.0000000000000000        1.0703125000000000        0.0000000000000000     
   6.2500000000000000        1.1489257812500000        0.0000000000000000     
   7.5000000000000000        1.2050781250000000        0.0000000000000000     
   8.7500000000000000        1.2387695312500000        0.0000000000000000     
   10.000000000000000        1.2500000000000000        0.0000000000000000     
   0.0000000000000000       0.53125000000000000        0.0000000000000000     
   1.2500000000000000       0.69970703125000011        0.0000000000000000     
   2.5000000000000000       0.84570312500000000        0.0000000000000000     
   3.7500000000000000       0.96923828125000000        0.0000000000000000     
   5.0000000000000000        1.0703125000000000        0.0000000000000000     
   0.0000000000000000       0.73632812500000000        0.0000000000000000     
   1.2500000000000000       0.92996215820312489        0.0000000000000000     
   2.5000000000000000        1.0977783203125000        0.0000000000000000     
   3.7500000000000000        1.2397766113281250        0.0000000000000000     
   5.0000000000000000        1.3559570312500000        0.0000000000000000     
   0.0000000000000000       0.97031250000000002        0.0000000000000000     
   1.2500000000000000        1.1823486328125001        0.0000000000000000     
   2.5000000000000000        1.3661132812500001        0.0000000000000000     
   3.7500000000000000        1.5216064453125000        0.0000000000000000     
   5.0000000000000000        1.6488281250000001        0.0000000000000000     
   0.0000000000000000        1.2332031250000000        0.0000000000000000     
   1.2500000000000000        1.4568664550781250        0.0000000000000000     
   2.5000000000000000        1.6507080078125000        0.0000000000000000     
   3.7500000000000000        1.8147277832031250        0.0000000000000000     
   5.0000000000000000        1.9489257812500000        0.0000000000000000     
   0.0000000000000000        1.5250000000000001        0.0000000000000000     
   1.2500000000000000        1.7535156250000001        0.0000000000000000     
   2.5000000000000000        1.9515624999999999        0.0000000000000000     
   3.7500000000000000        2.1191406250000000        0.0000000000000000     
   5.0000000000000000        2.2562500000000001        0.0000000000000000     
   5.0000000000000000        1.0703125000000000        0.0000000000000000     
   6.2500000000000000        1.1489257812500000        0.0000000000000000     
   7.5000000000000000        1.2050781250000000        0.0000000000000000     
   8.7500000000000000        1.2387695312500000        0.0000000000000000     
   10.000000000000000        1.2500000000000000        0.0000000000000000     
   5.0000000000000000        1.3559570312500000        0.0000000000000000     
   6.2500000000000000        1.4463195800781252        0.0000000000000000     
   7.5000000000000000        1.5108642578125002        0.0000000000000000     
   8.7500000000000000        1.5495910644531248        0.0000000000000000     
   10.000000000000000        1.5625000000000000        0.0000000000000000     
   5.0000000000000000        1.6488281250000001        0.0000000000000000     
   6.2500000000000000        1.7477783203124999        0.0000000000000000     
   7.5000000000000000        1.8184570312499999        0.0000000000000000     
   8.7500000000000000        1.8608642578125001        0.0000000000000000     
   10.000000000000000        1.8750000000000000        0.0000000000000000     
   5.0000000000000000        1.9489257812500000        0.0000000000000000     
   6.2500000000000000        2.0533020019531252        0.0000000000000000     
   7.5000000000000000        2.1278564453125002        0.0000000000000000     
   8.7500000000000000        2.1725891113281248        0.0000000000000000     
   10.000000000000000        2.1875000000000000        0.0000000000000000     
   5.0000000000000000        2.2562500000000001        0.0000000000000000     
   6.2500000000000000        2.3628906249999999        0.0000000000000000     
   7.5000000000000000        2.4390624999999999        0.0000000000000000     
   8.7500000000000000        2.4847656250000001        0.0000000000000000     
   10.000000000000000        2.5000000000000000        0.0000000000000000     
   0.0000000000000000        1.5250000000000001        0.0000000000000000     
   1.2500000000000000        1.7535156250000001        0.0000000000000000     
   2.5000000000000000        1.9515624999999999        0.0000000000000000     
   3.7500000000000000        2.1191406250000000        0.0000000000000000     
   5.0000000000000000        2.2562500000000001        0.0000000000000000     
   0.0000000000000000        1.8472656250000001        0.0000000000000000     
   1.2500000000000000        2.0734924316406249        0.0000000000000000     
   2.5000000000000000        2.2695556640624996        0.0000000000000000     
   3.7500000000000000        2.4354553222656250        0.0000000000000000     
   5.0000000000000000        2.5711914062499996        0.0000000000000000     
   0.0000000000000000        2.2015625000000005        0.0000000000000000     
   1.2500000000000000        2.4179931640625001        0.0000000000000000     
   2.5000000000000000        2.6055664062499999        0.0000000000000000     
   3.7500000000000000        2.7642822265625000        0.0000000000000000     
   5.0000000000000000        2.8941406249999999        0.0000000000000000     
   0.0000000000000000        2.5878906250000000        0.0000000000000000     
   1.2500000000000000        2.7870178222656254        0.0000000000000000     
   2.5000000000000000        2.9595947265625000        0.0000000000000000     
   3.7500000000000000        3.1056213378906250        0.0000000000000000     
   5.0000000000000000        3.2250976562500000        0.0000000000000000     
   0.0000000000000000        3.0062500000000001        0.0000000000000000     
   1.2500000000000000        3.1805664062500001        0.0000000000000000     
   2.5000000000000000        3.3316406249999999        0.0000000000000000     
   3.7500000000000000        3.4594726562500000        0.0000000000000000     
   5.0000000000000000        3.5640624999999999        0.0000000000000000     
   5.0000000000000000        2.2562500000000001        0.0000000000000000     
   6.2500000000000000        2.3628906249999999        0.0000000000000000     
   7.5000000000000000        2.4390624999999999        0.0000000000000000     
   8.7500000000000000        2.4847656250000001        0.0000000000000000     
   10.000000000000000        2.5000000000000000        0.0000000000000000     
   5.0000000000000000        2.5711914062499996        0.0000000000000000     
   6.2500000000000000        2.6767639160156254        0.0000000000000000     
   7.5000000000000000        2.7521728515625004        0.0000000000000000     
   8.7500000000000000        2.7974182128906246        0.0000000000000000     
   10.000000000000000        2.8125000000000000        0.0000000000000000     
   5.0000000000000000        2.8941406249999999        0.0000000000000000     
   6.2500000000000000        2.9951416015625001        0.0000000000000000     
   7.5000000000000000        3.0672851562500001        0.0000000000000000     
   8.7500000000000000        3.1105712890624999        0.0000000000000000     
   10.000000000000000        3.1250000000000000        0.0000000000000000     
   5.0000000000000000        3.2250976562500000        0.0000000000000000     
   6.2500000000000000        3.3180236816406250        0.0000000000000000     
   7.5000000000000000        3.3843994140625000        0.0000000000000000     
   8.7500000000000000        3.4242248535156250        0.0000000000000000     
   10.000000000000000        3.4375000000000000        0.0000000000000000     
   5.0000000000000000        3.5640624999999999        0.0000000000000000     
   6.2500000000000000        3.6454101562500001        0.0000000000000000     
   7.5000000000000000        3.7035156250000001        0.0000000000000000     
   8.7500000000000000        3.7383789062499999        0.0000000000000000     
   10.000000000000000        3.7500000000000000        0.0000000000000000     
   0.0000000000000000        3.0062500000000001        0.0000000000000000     
   1.2500000000000000        3.1805664062500001        0.0000000000000000     
   2.5000000000000000        3.3316406249999999        0.0000000000000000     
   3.7500000000000000        3.4594726562500000        0.0000000000000000     
   5.0000000000000000        3.5640624999999999        0.0000000000000000     
   0.0000000000000000        3.4566406249999999        0.0000000000000000     
   1.2500000000000000        3.5986389160156249        0.0000000000000000     
   2.5000000000000000        3.7217041015625001        0.0000000000000000     
   3.7500000000000000        3.8258361816406250        0.0000000000000000     
   5.0000000000000000        3.9110351562500001        0.0000000000000000     
   0.0000000000000000        3.9390624999999999        0.0000000000000000     
   1.2500000000000000        4.0412353515624995        0.0000000000000000     
   2.5000000000000000        4.1297851562499996        0.0000000000000000     
   3.7500000000000000        4.2047119140625000        0.0000000000000000     
   5.0000000000000000        4.2660156249999996        0.0000000000000000     
   0.0000000000000000        4.4535156249999996        0.0000000000000000     
   1.2500000000000000        4.5083557128906255        0.0000000000000000     
   2.5000000000000000        4.5558837890625004        0.0000000000000000     
   3.7500000000000000        4.5960998535156250        0.0000000000000000     
   5.0000000000000000        4.6290039062500004        0.0000000000000000     
   0.0000000000000000        5.0000000000000000        0.0000000000000000     
   1.2500000000000000        5.0000000000000000        0.0000000000000000     
   2.5000000000000000        5.0000000000000000        0.0000000000000000     
   3.7500000000000000        5.0000000000000000        0.0000000000000000     
   5.0000000000000000        5.0000000000000000        0.0000000000000000     
   5.0000000000000000        3.5640624999999999        0.0000000000000000     
   6.2500000000000000        3.6454101562500001        0.0000000000000000     
   7.5000000000000000        3.7035156250000001        0.0000000000000000     
   8.7500000000000000        3.7383789062499999        0.0000000000000000     
   10.000000000000000        3.7500000000000000        0.0000000000000000     
   5.0000000000000000        3.9110351562500001        0.0000000000000000     
   6.2500000000000000        3.9773010253906249        0.0000000000000000     
   7.5000000000000000        4.0246337890625004        0.0000000000000000     
   8.7500000000000000        4.0530334472656246        0.0000000000000000     
   10.000000000000000        4.0625000000000000        0.0000000000000000     
   5.0000000000000000        4.2660156249999996        0.0000000000000000     
   6.2500000000000000        4.3136962890625004        0.0000000000000000     
   7.5000000000000000        4.3477539062500004        0.0000000000000000     
   8.7500000000000000        4.3681884765624996        0.0000000000000000     
   10.000000000000000        4.3750000000000000        0.0000000000000000     
   5.0000000000000000        4.6290039062500004        0.0000000000000000     
   6.2500000000000000        4.6545959472656246        0.0000000000000000     
   7.5000000000000000        4.6728759765624996        0.0000000000000000     
   8.7500000000000000        4.6838439941406254        0.0000000000000000     
   10.000000000000000        4.6875000000000000        0.0000000000000000     
   5.0000000000000000        5.0000000000000000        0.0000000000000000     
   6.2500000000000000        5.0000000000000000        0.0000000000000000     
   7.5000000000000000        5.0000000000000000        0.0000000000000000     
   8.7500000000000000        5.0000000000000000        0.0000000000000000     
   10.000000000000000        5.0000000000000000        0.0000000000000000     
 </DataArray>
 </Points>
 <Cells>
 <DataArray  type="Int32"  Name="connectivity"  format="ascii">
           0           1           6           5
           1           2           7           6
           2           3           8           7
           3           4           9           8
           5           6          11          10
           6           7          12          11
           7           8          13          12
           8           9          14          13
          10          11          16          15
          11          12          17          16
          12          13          18          17
          13          14          19          18
          15          16          21          20
          16          17          22          21
          17          18          23          22
          18          19          24          23
          25          26          31          30
          26          27          32          31
          27          28          33          32
          28          29          34          33
          30          31          36          35
          31          32          37          36
          32          33          38          37
          33          34          39          38
          35          36          41          40
          36          37          42          41
          37          38          43          42
          38          39          44          43
          40          41          46          45
          41          42          47          46
          42          43          48          47
          43          44          49          48
          50          51          56          55
          51          52          57          56
          52          53          58          57
          53          54          59          58
          55          56          61          60
          56          57          62          61
          57          58          63          62
          58          59          64          63
          60          61          66          65
          61          62          67          66
          62          63          68          67
          63          64          69          68
          65          66          71          70
          66          67          72          71
          67          68          73          72
          68          69          74          73
          75          76          81          80
          76          77          82          81
          77          78          83          82
          78          79          84          83
          80          81          86          85
          81          82          87          86
          82          83          88          87
          83          84          89          88
          85          86          91          90
          86          87          92          91
          87          88          93          92
          88          89          94          93
          90          91          96          95
          91          92          97          96
          92          93          98          97
          93          94          99          98
         100         101         106         105
         101         102         107         106
         102         103         108         107
         103         104         109         108
         105         106         111         110
         106         107         112         111
         107         108         113         112
         108         109         114         113
         110         111         116         115
         111         112         117         116
         112         113         118         117
         113         114         119         118
         115         116         121         120
         116         117         122         121
         117         118         123         122
         118         119         124         123
         125         126         131         130
         126         127         132         131
         127         128         133         132
         128         129         134         133
         130         131         136         135
         131         132         137         136
         132         133         138         137
         133         134         139         138
         135         136         141         140
         136         137         142         141
         137         138         143         142
         138         139         144         143
         140         141         146         145
         141         142         147         146
         142         143         148         147
         143         144         149         148
         150         151         156         155
         151         152         157         156
         152         153         158         157
         153         154         159         158
         155         156         161         160
         156         157         162         161
         157         158         163         162
         158         159         164         163
         160         161         166         165
         161         162         167         166
         162         163         168         167
         163         164         169         168
         165         166         171         170
         166         167         172         171
         167         168         173         172
         168         169         174         173
         175         176         181         180
         176         177         182         181
         177         178         183         182
         178         179         184         183
         180         181         186         185
         181         182         187         186
         182         183         188         187
         183         184         189         188
         185         186         191         190
         186         187         192         191
         187         188         193         192
         188         189         194         193
         190         191         196         195
         191         192         197         196
         192         193         198         197
         193         194         199         198
 </DataArray>
 <DataArray  type="Int32"  Name="offsets"  format="ascii"> 
           4
           8
          12
          16
          20
          24
          28
          32
          36
          40
          44
          48
          52
          56
          60
          64
          68
          72
          76
          80
          84
          88
          92
          96
         100
         104
         108
         112
         116
         120
         124
         128
         132
         136
         140
         144
         148
         152
         156
         160
         164
         168
         172
         176
         180
         184
         188
         192
         196
         200
         204
         208
         212
         216
         220
         224
         228
         232
         236
         240
         244
         248
         252
         256
         260
         264
         268
         272
         276
         280
         284
         288
         292
         296
         300
         304
         308
         312
         316
         320
         324
         328
         332
         336
         340
         344
         348
         352
         356
         360
         364
         368
         372
         376
         380
         384
         388
         392
         396
         400
         404
         408
         412
         416
         420
         424
         428
         432
         436
         440
         444
         448
         452
         456
         460
         464
         468
         472
         476
         480
         484
         488
         492
         496
         500
         504
         508
         512
 </DataArray>
 <DataArray  type="UInt8"  Name="types"  format="ascii">
 9
 9
 9
 9
 9
 9
 9
 9
 9
 9
 9
 9
 9
 9
 9
 9
 9
 9
 9
 9
 9
 9
 9
 9
 9
 9
 9
 9
 9
 9
 9
 9
 9
 9
 9
 9
 9
 9
 9
 9
 9
 9
 9
 9
 9
 9
 9
 9
 9
 9
 9
 9
 9
 9
 9
 9
 9
 9
 9
 9
 9
 9
 9
 9
 9
 9
 9
 9
 9
 9
 9
 9
 9
 9
 9
 9
 9
 9
 9
 9
 9
 9
 9
 9
 9
 9
 9
 9
 9
 9
 9
 9
 9
 9
 9
 9
 9
 9
 9
 9
 9
 9
 9
 9
 9
 9
 9
 9
 9
 9
 9
 9
 9
 9
 9
 9
 9
 9
 9
 9
 9
 9
 9
 9
 9
 9
 9
 9
 </DataArray>
 </Cells> 
 <PointData>
 <DataArray  type="Float64" Name="disp" NumberOfComponents="3" format="ascii">
   646577563015.45642       -630314331874.55530        0.0000000000000000     
   779297114261.28503       -398902959875.41718        0.0000000000000000     
   880842904358.01685       -145584217477.89062        0.0000000000000000     
   951214933305.65161        129641895318.02429        0.0000000000000000     
   990413201104.18970        426775378512.32751        0.0000000000000000     
   632952527985.80664       -634103630431.56934        0.0000000000000000     
   751428040147.21216       -402714007594.14807        0.0000000000000000     
   840752669005.57153       -149127158980.45752        0.0000000000000000     
   900926414560.88489        126656915409.50244        0.0000000000000000     
   931949276813.15234        424638215575.73187        0.0000000000000000     
   620141764817.03125       -636144768513.58752        0.0000000000000000     
   722006048168.59985       -406177240789.81958        0.0000000000000000     
   798318638119.74561       -153073294780.13281        0.0000000000000000     
   849079534670.46851        123167069515.47255        0.0000000000000000     
   874288737820.76904        422543852096.99664        0.0000000000000000     
   608145273509.13000       -636437746120.60999        0.0000000000000000     
   691031138325.44812       -409292659462.43140        0.0000000000000000     
   753540811700.53906       -157422624876.91644        0.0000000000000000     
   795674293634.40308        119172357635.93460        0.0000000000000000     
   817431584127.03967        420492288076.12189        0.0000000000000000     
   596963054062.10303       -634982563252.63684        0.0000000000000000     
   658503310617.75720       -412060263611.98364        0.0000000000000000     
   706419189747.95215       -162175149270.80850        0.0000000000000000     
   740710691452.68799        114672779770.88855        0.0000000000000000     
   761377815731.96460        418483523513.10754        0.0000000000000000     
   990413201104.18970        426775378512.32751        0.0000000000000000     
   1007573324628.4055        720100348991.75977        0.0000000000000000     
   1011830920753.0735        983900923643.06213        0.0000000000000000     
   1003185989478.1934        1218177102466.2341        0.0000000000000000     
   981638530803.76538        1422928885461.2761        0.0000000000000000     
   931949276813.15234        424638215575.73187        0.0000000000000000     
   944876071157.38416        718907699101.32996        0.0000000000000000     
   950761612988.59045        983556323569.39575        0.0000000000000000     
   949605902306.77148        1218584088979.9297        0.0000000000000000     
   941408939111.92725        1423990995332.9314        0.0000000000000000     
   874288737820.76904        422543852096.99664        0.0000000000000000     
   884756167553.85571        718340541545.05591        0.0000000000000000     
   891291743852.93823        983840626440.26721        0.0000000000000000     
   893895466718.01624        1219044106782.6306        0.0000000000000000     
   892567336149.08984        1423950982572.1460        0.0000000000000000     
   817431584127.03967        420492288076.12189        0.0000000000000000     
   827213613817.82043        718398876322.93823        0.0000000000000000     
   833421313346.11621        984753832255.67676        0.0000000000000000     
   836054682711.92725        1219557155874.3374        0.0000000000000000     
   835113721915.25354        1422808847178.9199        0.0000000000000000     
   761377815731.96460        418483523513.10754        0.0000000000000000     
   772248409949.27820        719082703434.97656        0.0000000000000000     
   777150321468.12512        986295941015.62402        0.0000000000000000     
   776083550288.50488        1220123236255.0493        0.0000000000000000     
   769048096410.41797        1420564589153.2529        0.0000000000000000     
   596963054062.10303       -634982563252.63684        0.0000000000000000     
   658503310617.75720       -412060263611.98364        0.0000000000000000     
   706419189747.95215       -162175149270.80850        0.0000000000000000     
   740710691452.68799        114672779770.88855        0.0000000000000000     
   761377815731.96460        418483523513.10754        0.0000000000000000     
   583260003101.42041       -633864758625.97876        0.0000000000000000     
   623989961737.00659       -414764204862.04724        0.0000000000000000     
   657687494632.83142       -166664277204.12686        0.0000000000000000     
   684352601788.89465        110435024347.78221        0.0000000000000000     
   703985283205.19617        416533699793.67993        0.0000000000000000     
   563701017252.55261       -635169870956.94666        0.0000000000000000     
   587058488374.67664       -417688634836.19275        0.0000000000000000     
   608079448726.02368       -170223417919.18939        0.0000000000000000     
   626763898306.59387        107225779794.06332        0.0000000000000000     
   643111837116.38721        414658958303.56549        0.0000000000000000     
   538286096515.49969       -638897900245.54041        0.0000000000000000     
   547708890530.76715       -420833553534.42041        0.0000000000000000     
   557595052027.52942       -172852571415.99625        0.0000000000000000     
   567944581005.78613        105045046109.73192        0.0000000000000000     
   578757477465.53760        412859299042.76410        0.0000000000000000     
   507015240890.26147       -645048846491.76025        0.0000000000000000     
   505941168205.27820       -424198960956.73010        0.0000000000000000     
   506234304537.34802       -174551737694.54730        0.0000000000000000     
   507894649886.47113        103892823294.78799        0.0000000000000000     
   510922204252.64734        411134722011.27582        0.0000000000000000     
   761377815731.96460        418483523513.10754        0.0000000000000000     
   772248409949.27820        719082703434.97656        0.0000000000000000     
   777150321468.12512        986295941015.62402        0.0000000000000000     
   776083550288.50488        1220123236255.0493        0.0000000000000000     
   769048096410.41797        1420564589153.2529        0.0000000000000000     
   703985283205.19617        416533699793.67993        0.0000000000000000     
   716529343643.77783        719580522230.91614        0.0000000000000000     
   721928587866.68042        987524264756.84009        0.0000000000000000     
   720183015873.90430        1220364927371.4521        0.0000000000000000     
   711292627665.44922        1418102510074.7517        0.0000000000000000     
   643111837116.38721        414658958303.56549        0.0000000000000000     
   656725202596.86755        719080832060.50171        0.0000000000000000     
   667205932189.49854        987496115516.05652        0.0000000000000000     
   674554025894.28052        1219904808670.2300        0.0000000000000000     
   678769483711.21326        1416306911523.0222        0.0000000000000000     
   578757477465.53760        412859299042.76410        0.0000000000000000     
   592835986808.54736        717583632923.73364        0.0000000000000000     
   612982354436.57959        986211493293.27344        0.0000000000000000     
   639196580349.63367        1218742880151.3838        0.0000000000000000     
   671478664547.71008        1415177793498.0645        0.0000000000000000     
   510922204252.64734        411134722011.27582        0.0000000000000000     
   524861696278.81763        715088924820.61157        0.0000000000000000     
   559257854607.92322        983670398088.49072        0.0000000000000000     
   614110679239.96375        1216879141814.9128        0.0000000000000000     
   689420170174.93958        1414715155999.8784        0.0000000000000000     
   507015240890.26147       -645048846491.76025        0.0000000000000000     
   505941168205.27820       -424198960956.73010        0.0000000000000000     
   506234304537.34802       -174551737694.54730        0.0000000000000000     
   507894649886.47113        103892823294.78799        0.0000000000000000     
   510922204252.64734        411134722011.27582        0.0000000000000000     
   465718091527.26404       -656904177786.55396        0.0000000000000000     
   456979802828.69574       -428746299217.89331        0.0000000000000000     
   450101862903.91339       -174963908869.55087        0.0000000000000000     
   445084271752.91718        104442993258.47319        0.0000000000000000     
   441927029375.70691        409474407166.17896        0.0000000000000000     
   410224289576.93359       -677745362220.86963        0.0000000000000000     
   396049275831.50586       -435437010432.68152        0.0000000000000000     
   385302383775.65881       -173732077055.71530        0.0000000000000000     
   377983613409.39258        107369437910.02914        0.0000000000000000     
   374092964732.70685        407867534464.55176        0.0000000000000000     
   340533835039.27008       -707572399794.70728        0.0000000000000000     
   323149587213.70862       -444271094601.09491        0.0000000000000000     
   311835867152.58435       -170856242253.04047        0.0000000000000000     
   306592674855.89722        112672157249.45593        0.0000000000000000     
   307420010323.64716        406314103906.39447        0.0000000000000000     
   256646727914.27338       -746385290508.06665        0.0000000000000000     
   238280736975.30389       -455248551723.13324        0.0000000000000000     
   229702313034.68985       -166336404461.52649        0.0000000000000000     
   230911456092.43115        120351151276.75356        0.0000000000000000     
   241908166148.52792        404814115491.70691        0.0000000000000000     
   510922204252.64734        411134722011.27582        0.0000000000000000     
   524861696278.81763        715088924820.61157        0.0000000000000000     
   559257854607.92322        983670398088.49072        0.0000000000000000     
   614110679239.96375        1216879141814.9128        0.0000000000000000     
   689420170174.93958        1414715155999.8784        0.0000000000000000     
   441927029375.70691        409474407166.17896        0.0000000000000000     
   456233164522.89276        710773312423.13379        0.0000000000000000     
   503605705945.08472        978982688598.90540        0.0000000000000000     
   584044653642.28296        1214102535693.4937        0.0000000000000000     
   697550007614.48730        1416132853706.8984        0.0000000000000000     
   374092964732.70685        407867534464.55176        0.0000000000000000     
   390381225055.98743        703813400403.29858        0.0000000000000000     
   443599181689.61957        971258223521.71521        0.0000000000000000     
   533746834633.60333        1210202003819.8018        0.0000000000000000     
   660824183887.93860        1420644741297.5583        0.0000000000000000     
   307420010323.64716        406314103906.39447        0.0000000000000000     
   327305877878.10156        694209188761.10571        0.0000000000000000     
   379238281841.52740        960497002856.91992        0.0000000000000000     
   463217222213.92468        1205177546193.8376        0.0000000000000000     
   579242698995.29358        1428250818771.8584        0.0000000000000000     
   241908166148.52792        404814115491.70691        0.0000000000000000     
   267007122989.23529        681960677496.55518        0.0000000000000000     
   310523006400.80841        946699026604.51978        0.0000000000000000     
   372455816383.24731        1199029162815.6008        0.0000000000000000     
   452805552936.55212        1438951086129.7988        0.0000000000000000     
   256646727914.27338       -746385290508.06665        0.0000000000000000     
   238280736975.30389       -455248551723.13324        0.0000000000000000     
   229702313034.68985       -166336404461.52649        0.0000000000000000     
   230911456092.43115        120351151276.75356        0.0000000000000000     
   241908166148.52792        404814115491.70691        0.0000000000000000     
   156213988722.57077       -785072340653.00415        0.0000000000000000     
   142092688441.45071       -466936716969.95288        0.0000000000000000     
   140416156054.40741       -162857409316.27893        0.0000000000000000     
   151184391561.44086        127165582308.01802        0.0000000000000000     
   174397394962.55112        403132257902.93787        0.0000000000000000     
   36886637984.789368       -814521856521.57520        0.0000000000000000     
   35235404937.307938       -477902925512.71033        0.0000000000000000     
   45491830844.169044       -163104102452.40350        0.0000000000000000     
   67655915705.372704        129874612659.34534        0.0000000000000000     
   101727659520.91891        401033219822.53619        0.0000000000000000     
  -101335324299.07083       -834733838113.78015        0.0000000000000000     
  -82291113537.124451       -488147177351.40540        0.0000000000000000     
  -55070662596.025276       -167076483869.90018        0.0000000000000000     
  -19673971475.773354        128478242330.73560        0.0000000000000000     
   23898959823.631340        398517001250.50195        0.0000000000000000     
  -258451898129.00983       -845708285429.61877        0.0000000000000000     
  -210486866981.84637       -497669472486.03815        0.0000000000000000     
  -161271324266.17554       -174774553568.76892        0.0000000000000000     
  -110805269981.99728        122976471322.18878        0.0000000000000000     
  -59088704129.311615        395583602186.83496        0.0000000000000000     
   241908166148.52792        404814115491.70691        0.0000000000000000     
   267007122989.23529        681960677496.55518        0.0000000000000000     
   310523006400.80841        946699026604.51978        0.0000000000000000     
   372455816383.24731        1199029162815.6008        0.0000000000000000     
   452805552936.55212        1438951086129.7988        0.0000000000000000     
   174397394962.55112        403132257902.93787        0.0000000000000000     
   205444072119.87604        670203215910.54114        0.0000000000000000     
   239713328895.55359        933539054772.88867        0.0000000000000000     
   277205165289.58380        1193139774489.9800        0.0000000000000000     
   317919581301.96661        1449005375061.8157        0.0000000000000000     
   101727659520.91891        401033219822.53619        0.0000000000000000     
   138575837000.51141        662072153303.95825        0.0000000000000000     
   169069222853.85400        924691847370.40051        0.0000000000000000     
   193207817080.94656        1188892302021.8630        0.0000000000000000     
   210991619681.78918        1454673517258.3457        0.0000000000000000     
   23898959823.631340        398517001250.50195        0.0000000000000000     
   66402417631.141434        657567489676.80615        0.0000000000000000     
   98590688275.709549        920157404397.05542        0.0000000000000000     
   120463771757.33571        1186286745411.2498        0.0000000000000000     
   132021668076.01988        1455955512719.3896        0.0000000000000000     
  -59088704129.311615        395583602186.83496        0.0000000000000000     
  -11076185988.233940        656689225029.08472        0.0000000000000000     
   28277725161.120338        919935725852.85339        0.0000000000000000     
   58973029318.751213        1185323104658.1404        0.0000000000000000     
   81009726484.658691        1452851361444.9463        0.0000000000000000     
 </DataArray>
 <DataArray  type="Float64" Name="stress" NumberOfComponents="3" format="ascii">
   6.5928547436211533E+021  -1.7528466125231361E+021  -2.4760300064311876E+020
   5.5751751336508848E+021  -1.5731019523520306E+020  -3.1046606134132199E+020
   4.1646708553739922E+021   1.2881066103063865E+020  -1.4115855297754880E+020
   2.6437767896356639E+021   4.6965559091708166E+019   8.3569369338573685E+019
   1.0767569200032928E+021  -1.8863222249403902E+020   3.2109717691795276E+020
   6.8372732493925943E+021   3.6780778730771972E+020   1.1601813032370742E+021
   5.4920877118357724E+021   2.1938689713823416E+020   1.7176931760064650E+020
   4.0296876913727667E+021   5.7720644540273525E+019   2.2375454487525118E+019
   2.5343566834369702E+021  -8.0513702622863819E+019   2.0404293266104254E+020
   1.0347851526413905E+021  -1.7715819568906417E+020   5.6378002367013021E+020
   6.3869223776861479E+021   1.3888411694284029E+021   1.8937067293726189E+021
   5.1582352805755869E+021   4.1922949334972944E+020   5.0692155676787612E+020
   3.8143232578490922E+021  -3.2777906429192045E+019   1.5503994239662345E+020
   2.4448779339668054E+021  -1.9318897166488620E+020   3.2000808578963125E+020
   1.0912028200115725E+021  -1.3746722986521140E+020   8.0976759197996679E+020
   5.5308692982316673E+021   1.8748582871531038E+021   2.3017818703292035E+021
   4.6221594233600627E+021   4.9102019349810197E+020   7.3847405327896216E+020
   3.5269389295715415E+021  -1.4118475884484428E+020   2.6123055935630233E+020
   2.3793720060560770E+021  -2.9102914313093448E+020   4.3211894524609633E+020
   1.2530270984045150E+021  -6.7351622067389858E+019   1.0601008502787947E+021
   4.3828453564966497E+021   2.0479987155562775E+021   2.5216428936736533E+021
   3.9127969362280805E+021   4.6385139185036624E+020   8.9234829759713916E+020
   3.1736668276674165E+021  -2.6639966173938831E+020   3.4417101563367162E+020
   2.3411829719147626E+021  -3.7400841571861240E+020   5.4091809616366299E+020
   1.5265559521364963E+021   3.5170056395358732E+019   1.3157140749426607E+021
   1.0767569200032928E+021  -1.8863222249403902E+020   3.2109717691795276E+020
   4.5817394198523072E+020  -1.8617109862657891E+020  -1.4784397646041462E+020
  -1.5950604318273811E+020  -1.8069999859215008E+020  -1.9899802734583529E+020
  -7.7191084299944762E+020  -1.5764494738685703E+020   1.2793648641852563E+020
  -1.3747472676264403E+021  -1.0269531221583253E+020   8.5468136964226259E+020
   1.0347851526413905E+021  -1.7715819568906417E+020   5.6378002367013021E+020
   6.7388130530437064E+020   1.5722059349234778E+019   1.5589324223676357E+020
   2.7074102204095434E+020   7.5181771572809531E+019  -3.2014069660889846E+019
  -1.5396711969411170E+020   3.7919515849387876E+019  -1.2502895398028667E+019
  -5.8572296359569824E+020  -7.7595566435213378E+019   2.2992161565940600E+020
   1.0912028200115725E+021  -1.3746722986521140E+020   8.0976759197996679E+020
   8.5346109609976686E+020   2.0289413587730127E+020   4.5518627097628731E+020
   5.4818699155825426E+020   2.8370234331042736E+020   1.2685179957115943E+020
   1.9078734760033855E+020   1.5149750501704083E+020  -1.6849133266650930E+020
  -2.1116551270340569E+020  -1.7683587659612914E+020  -4.2151127778934371E+020
   1.2530270984045150E+021  -6.7351622067389858E+019   1.0601008502787947E+021
   1.0030989035433955E+021   3.7736335755125457E+020   7.5076993733370354E+020
   6.7485279166486820E+020   4.4549519227617005E+020   2.7785788914509486E+020
   2.6138763278113964E+020   1.8279967202885691E+020  -3.4002214784071703E+020
  -2.5107491494955634E+020  -4.0041624269857784E+020  -1.0996173107040031E+021
   1.5265559521364963E+021   3.5170056395358732E+019   1.3157140749426607E+021
   1.1286397975157384E+021   5.4103684673996535E+020   1.0433386163167328E+021
   6.5271144713638144E+020   5.6117877900752742E+020   4.2125638522568973E+020
   5.6874422426832708E+019   1.3153835184737616E+020  -5.2708870221571706E+020
  -7.0545117033415377E+020  -7.4833666474257521E+020  -1.8043964830845695E+021
   4.3828453564966497E+021   2.0479987155562775E+021   2.5216428936736533E+021
   3.9127969362280805E+021   4.6385139185036624E+020   8.9234829759713916E+020
   3.1736668276674165E+021  -2.6639966173938831E+020   3.4417101563367162E+020
   2.3411829719147626E+021  -3.7400841571861240E+020   5.4091809616366299E+020
   1.5265559521364963E+021   3.5170056395358732E+019   1.3157140749426607E+021
   3.1507653203577762E+021   9.1963309843653093E+020   2.0306361148699194E+021
   3.1433751380785181E+021   2.4331679957438313E+020   9.3548075137604230E+020
   2.8301025935666771E+021  -7.8883700737511260E+019   5.3147068363492144E+020
   2.3590004809597056E+021  -1.0121685650968373E+020   6.5500911632956654E+020
   1.8329216372987910E+021   1.5321665581782696E+020   1.2137266407682741E+021
   2.1731204675938112E+021   4.4160548482012938E+019   1.6917853190415676E+021
   2.4538075297677260E+021   4.5009310305335640E+019   9.9300226197834564E+020
   2.4454857815077730E+021   6.2136026968659722E+019   7.0298130972933685E+020
   2.2481276637934350E+021   1.1195802237232441E+020   7.5108851733550242E+020
   1.9378459620031608E+021   2.0955671657151647E+020   1.0918354156553360E+021
   1.4185444230800296E+021  -6.4303571684174384E+020   1.4697680754820406E+021
   1.8475890223537877E+021  -1.2962059929225763E+020   1.0684925981980749E+021
   2.0293086703493597E+021   1.6520299810566118E+020   8.6420885320340564E+020
   2.0124233250499417E+021   2.6905594980838231E+020   8.3116488280835516E+020
   1.8371126789394140E+021   2.0301631526015297E+020   9.4956104873214280E+020
   8.6751321862654906E+020  -1.1821763478878434E+021   1.3425979732413265E+021
   1.3272090883437979E+021  -2.7953973503448875E+020   1.1645016778575564E+021
   1.5890654802522950E+021   2.3706234695381654E+020   1.0195003071979730E+021
   1.6551841600267553E+021   3.7310102488181480E+020   8.9695420742147795E+020
   1.5268975034869948E+021   1.3253066206951211E+020   7.8646875189645345E+020
   1.5265559521364963E+021   3.5170056395358732E+019   1.3157140749426607E+021
   1.1286397975157384E+021   5.4103684673996535E+020   1.0433386163167328E+021
   6.5271144713638144E+020   5.6117877900752742E+020   4.2125638522568973E+020
   5.6874422426832708E+019   1.3153835184737616E+020  -5.2708870221571706E+020
  -7.0545117033415377E+020  -7.4833666474257521E+020  -1.8043964830845695E+021
   1.8329216372987910E+021   1.5321665581782696E+020   1.2137266407682741E+021
   1.2612855189416717E+021   3.7819815966108857E+020   8.1897271071875190E+020
   6.2326009025466257E+020   3.0437767889391754E+020   4.8436378129988066E+020
  -6.5196661368735883E+019  -4.0625975077624365E+019   2.0844597162374909E+020
  -7.9212674607997832E+020  -6.4637507632615653E+020  -6.8526027833668639E+018
   1.9378459620031608E+021   2.0955671657151647E+020   1.0918354156553360E+021
   1.4820492853108935E+021   2.4722297635299167E+020   5.9016926032153104E+020
   9.5476100337046690E+020   1.5876657463960738E+020   5.5037255864488218E+020
   4.4732638815246949E+020  -2.2018998988057084E+019   9.5973504899062196E+020
   4.7172391753627320E+019  -2.6662107383589424E+020   1.8234624270761184E+021
   1.8371126789394140E+021   2.0301631526015297E+020   9.4956104873214280E+020
   1.7859032968927246E+021   1.4638772918474211E+020   3.5613006561171236E+020
   1.6479828694233928E+021   1.2452534273156245E+020   6.1887455384299281E+020
   1.5992271596623631E+021   1.8879264941983007E+020   1.7266746444774430E+021
   1.8124462431666588E+021   3.9092534272819947E+020   3.6865486064938800E+021
   1.5268975034869948E+021   1.3253066206951211E+020   7.8646875189645345E+020
   2.1680820944939770E+021   7.4058782838304014E+019   1.1609857553065383E+020
   2.7036765733125337E+021   2.0182969480699681E+020   6.8947105406879583E+020
   3.3952615780659390E+021   5.9323405019315778E+020   2.5091614734520161E+021
   4.5036948081591111E+021   1.3262641733660975E+021   5.5824059354699174E+021
   8.6751321862654906E+020  -1.1821763478878434E+021   1.3425979732413265E+021
   1.3272090883437979E+021  -2.7953973503448875E+020   1.1645016778575564E+021
   1.5890654802522950E+021   2.3706234695381654E+020   1.0195003071979730E+021
   1.6551841600267553E+021   3.7310102488181480E+020   8.9695420742147795E+020
   1.5268975034869948E+021   1.3253066206951211E+020   7.8646875189645345E+020
   3.5504434717694283E+020  -2.7931315087748613E+021   8.8945653084445737E+020
   1.0955082175574730E+021  -6.8610413509644216E+020   6.9812353540077729E+020
   1.4762645687635437E+021   5.1807714522938973E+020   6.5040389803537806E+020
   1.4929243883734722E+021   7.7121234313140673E+020   7.3285104458307692E+020
   1.1463508849865552E+021   3.6593564836565877E+019   9.2923037960237849E+020
  -1.3307227615735421E+020  -4.1446890354064543E+021   6.8533567759961503E+020
   9.1082506683583562E+020  -1.0322249063420575E+021   4.0521848530971007E+020
   1.4712875333954335E+021   7.9855444133535783E+020   3.6747382298777361E+020
   1.5200355879629960E+021   1.1927681781826810E+021   5.6699490394386596E+020
   1.0420048042821005E+021   2.2623794508707594E+019   9.9013136000831049E+020
  -6.2607215072223284E+020  -5.3058279485727247E+021   6.9776100506721622E+020
   7.5742118991117969E+020  -1.3315648668273200E+021   2.6906547677117717E+020
   1.5655446795969280E+021   1.0808135372845390E+021   1.6559873947731454E+020
   1.7342837512701474E+021   1.6407015878941923E+021   3.9988456209196509E+020
   1.2189019022485870E+021   9.2198177538143879E+019   9.6997997415154791E+020
  -1.1445673551932133E+021  -6.3251809391904272E+021   9.0383688715316088E+020
   6.2336256098888935E+020  -1.5944841512398488E+021   2.7698540231019112E+020
   1.7520709141954369E+021   1.3667350767387961E+021   4.0634032456266490E+019
   2.1337453599512094E+021   2.1175379847950044E+021   2.3194947412357759E+020
   1.6816138669685366E+021   2.4674627412526255E+020   8.6950901440758428E+020
   1.5268975034869948E+021   1.3253066206951211E+020   7.8646875189645345E+020
   2.1680820944939770E+021   7.4058782838304014E+019   1.1609857553065383E+020
   2.7036765733125337E+021   2.0182969480699681E+020   6.8947105406879583E+020
   3.3952615780659390E+021   5.9323405019315778E+020   2.5091614734520161E+021
   4.5036948081591111E+021   1.3262641733660975E+021   5.5824059354699174E+021
   1.1463508849865552E+021   3.6593564836565877E+019   9.2923037960237849E+020
   2.2891826090684638E+021  -3.8328146889117585E+020   3.7830619176597566E+020
   3.5658803219912390E+021  -1.1569215302595169E+020   4.1955318121737984E+020
   5.1082828913494165E+021   8.9230485192536739E+020   1.0777135372399591E+021
   7.0468382393836650E+021   2.6832916603923627E+021   2.3684968781318985E+021
   1.0420048042821005E+021   2.2623794508707594E+019   9.9013136000831049E+020
   2.2402950031027822E+021  -8.7774742048089650E+020   6.0212563232723396E+020
   3.8015711951336395E+021  -6.1386990186704667E+020   1.6597111572595681E+020
   5.7407837169584680E+021   8.6790566917515824E+020  -2.9269270164117904E+020
   8.0604646917883403E+021   3.5814640537726789E+021  -7.4625971392238662E+020
   1.2189019022485870E+021   9.2198177538143879E+019   9.6997997415154791E+020
   2.0264966044455005E+021  -1.4083923671030904E+021   7.8661419319692139E+020
   3.4067848160390362E+021  -1.2940306466579509E+021  -7.2377040541044343E+019
   5.2826141593378698E+021   5.1698825122644243E+020  -1.6022770176280198E+021
   7.5445741653731238E+021   4.0207813535070201E+021  -3.7618638406929319E+021
   1.6816138669685366E+021   2.4674627412526255E+020   8.6950901440758428E+020
   1.6525872214701307E+021  -1.9743213494612239E+021   9.3088069721020603E+020
   2.3776559778937008E+021  -2.1574682847243057E+021  -2.9656562145833583E+020
   3.7236889518682108E+021  -1.6347624305785176E+020  -2.8512577857548116E+021
   5.4991666601380261E+021   4.0012435595953973E+021  -6.6783155021797371E+021
  -1.1445673551932133E+021  -6.3251809391904272E+021   9.0383688715316088E+020
   6.2336256098888935E+020  -1.5944841512398488E+021   2.7698540231019112E+020
   1.7520709141954369E+021   1.3667350767387961E+021   4.0634032456266490E+019
   2.1337453599512094E+021   2.1175379847950044E+021   2.3194947412357759E+020
   1.6816138669685366E+021   2.4674627412526255E+020   8.6950901440758428E+020
  -6.3570261062793154E+020  -4.5733642755145518E+021   7.7061288281091106E+020
   7.1191495477678414E+020  -1.3657347645602026E+021   3.6371621661167275E+020
   1.7028341967996718E+021   7.5383647639034318E+020   1.4941105963986387E+020
   2.2428466815743767E+021   1.4395979420270246E+021   1.4684946156410628E+020
   2.2438342862909808E+021   3.4997523035885201E+020   3.6407259310324666E+020
   9.8655162929057235E+019  -2.9594340192933805E+021   5.5407566288367347E+020
   1.0064385998271448E+021  -1.0969956765989449E+021   3.6215649170801898E+020
   1.7653794278195840E+021   2.2614866728934434E+020   2.0989777686802039E+020
   2.3138196629640019E+021   7.9639608183153885E+020   8.6401023967868223E+019
   2.5865923742497621E+021   3.9028488212576607E+020  -2.6259211989370823E+019
   1.0663784744367410E+021  -1.4437961337645205E+021   2.4175987105145029E+020
   1.5043025241913111E+021  -7.8571023180961153E+020   2.6807625406475266E+020
   1.9360064418270271E+021  -2.2385805689134213E+020   2.1970934208277627E+020
   2.3438853428634486E+021   1.8273975020528225E+020   4.8298189044982079E+019
   2.7051454638490166E+021   3.6606132470887606E+020  -3.0235801508560654E+020
   2.2735466502578978E+021   4.1247761274352435E+018  -1.7596051784397970E+020
   2.2033879286575265E+021  -4.2981948016832322E+020   7.8068981390692614E+019
   2.2116035910847986E+021  -6.0251578970526777E+020   1.7684022646728763E+020
   2.3306038594551357E+021  -4.0593007943199674E+020   3.0516368029026447E+019
   2.5951559908987859E+021   2.7582850775231948E+020  -4.6502098001990746E+020
   1.6816138669685366E+021   2.4674627412526255E+020   8.6950901440758428E+020
   1.6525872214701307E+021  -1.9743213494612239E+021   9.3088069721020603E+020
   2.3776559778937008E+021  -2.1574682847243057E+021  -2.9656562145833583E+020
   3.7236889518682108E+021  -1.6347624305785176E+020  -2.8512577857548116E+021
   5.4991666601380261E+021   4.0012435595953973E+021  -6.6783155021797371E+021
   2.2438342862909808E+021   3.4997523035885201E+020   3.6407259310324666E+020
   1.7097220161749485E+021  -1.2727129226281062E+021   4.9234462995618844E+020
   1.6554585921200498E+021  -1.5529623801391732E+021  -2.1595524449213340E+020
   2.0284453997717325E+021  -3.5717359744610206E+020  -1.8040695941285009E+021
   2.7301537317988965E+021   2.3283995078801938E+021  -4.2393198555751084E+021
   2.5865923742497621E+021   3.9028488212576607E+020  -2.6259211989370823E+019
   1.8495682898958840E+021  -5.6449945002307014E+020   1.1039411629696840E+020
   1.3453904453681008E+021  -8.3496165381228279E+020  -1.5051868046748120E+020
   1.0693059437529175E+021  -3.3103901894424402E+020  -8.3919486410079614E+020
   9.9040823115227700E+020   9.6433568447276555E+020  -1.9426011862689325E+021
   2.7051454638490166E+021   3.6606132470887606E+020  -3.0235801508560654E+020
   2.0670523710108698E+021   1.4951400633619671E+020  -2.1372219221651037E+020
   1.4480650008989176E+021  -3.0952564874648617E+018  -9.8847556850922160E+019
   8.5189821721450041E+020  -8.3379467989336949E+019   4.3664127188039926E+019
   2.7993015819816357E+020  -9.0947910626899804E+019   2.1184050573879280E+020
   2.5951559908987859E+021   2.7582850775231948E+020  -4.6502098001990746E+020
   2.3573635352052346E+021   8.6856410744955889E+020  -4.7882035645216870E+020
   1.9640807505487268E+021   9.4299861060361100E+020  -5.9567872105357877E+019
   1.3818142466194512E+021   3.8748738284843486E+020   8.4480321885742629E+020
   5.9871951293653870E+020  -8.3745127741886261E+020   2.2240052204480593E+021
 </DataArray>
 <DataArray  type="Float64" Name="VM" NumberOfComponents="1" format="ascii">
   7.6340284096614173E+021
   5.6809791130476395E+021
   4.1090629984677868E+021
   2.6246040731114238E+021
   1.3066785458245316E+021
   6.9575029773137032E+021
   5.3939577360811546E+021
   4.0013273266324824E+021
   2.5996917606995161E+021
   1.4963387832516839E+021
   6.6790427487048386E+021
   5.0390047240266071E+021
   3.8402179610758952E+021
   2.6065857111539958E+021
   1.8239506905723143E+021
   6.2952849012420898E+021
   4.5795105342209429E+021
   3.6279340659270804E+021
   2.6455162161644133E+021
   2.2428660227906071E+021
   5.7882310896285039E+021
   4.0123606674442499E+021
   3.3680787915638912E+021
   2.7155882047021017E+021
   2.7333553610808770E+021
   1.3066785458245316E+021
   6.2885237484361679E+020
   3.8480198828365971E+020
   7.4034699190047579E+020
   1.9876460972646597E+021
   1.4963387832516839E+021
   7.1880213121403506E+020
   2.4834031506562027E+020
   1.7734455008451913E+020
   6.7987852218003187E+020
   1.8239506905723143E+021
   1.1036227821076593E+021
   5.2320951864379507E+020
   3.4002277340157588E+020
   7.5599962590721671E+020
   2.2428660227906071E+021
   1.5687715704102238E+021
   7.6476375584797465E+020
   6.3308990213605307E+020
   1.9365722285144749E+021
   2.7333553610808770E+021
   2.0546482301860548E+021
   9.5238483217828584E+020
   9.2006704655430386E+020
   3.2089397230364352E+021
   5.7882310896285039E+021
   4.0123606674442499E+021
   3.3680787915638912E+021
   2.7155882047021017E+021
   2.7333553610808770E+021
   4.4995497728933091E+021
   3.4351924332956326E+021
   3.0143549155818330E+021
   2.6647719530612591E+021
   2.7425608514647291E+021
   3.6352234080073647E+021
   2.9784078840052108E+021
   2.7045992287988278E+021
   2.5509446381346174E+021
   2.6399594840700145E+021
   3.1334633443637566E+021
   2.6636256472745231E+021
   2.4598188265764810E+021
   2.3776647075304749E+021
   2.3975473568615141E+021
   2.9297408868008701E+021
   2.5057586830610226E+021
   2.3071113310352169E+021
   2.1621444499687069E+021
   2.0005546527457526E+021
   2.7333553610808770E+021
   2.0546482301860548E+021
   9.5238483217828584E+020
   9.2006704655430386E+020
   3.2089397230364352E+021
   2.7425608514647291E+021
   1.8080398360927053E+021
   9.9760576872807190E+020
   3.6551547959454912E+020
   7.3033924287839207E+020
   2.6399594840700145E+021
   1.7135028205977275E+021
   1.3015072510758877E+021
   1.7244446949453395E+021
   3.1718976739764019E+021
   2.3975473568615141E+021
   1.8248099889660583E+021
   1.9170695364143082E+021
   3.3519343406194303E+021
   6.5955420340784443E+021
   2.0005546527457526E+021
   2.1414798127673015E+021
   2.8689773481734921E+021
   5.3622026205604904E+021
   1.0467039820114699E+022
   2.9297408868008701E+021
   2.5057586830610226E+021
   2.3071113310352169E+021
   2.1621444499687069E+021
   2.0005546527457526E+021
   3.3604649124296964E+021
   1.9709488245695636E+021
   1.7181436970597590E+021
   1.8120270286512102E+021
   1.9656850384000070E+021
   4.2489607199840042E+021
   1.8242458555436216E+021
   1.4256872164576372E+021
   1.6984121113047684E+021
   2.0009477943893256E+021
   5.1655161119889645E+021
   1.8901047568169068E+021
   1.4174960284985089E+021
   1.8259032599972537E+021
   2.0504695237985360E+021
   6.0439321704599168E+021
   2.0383976683291146E+021
   1.5962624648766551E+021
   2.1633194873214730E+021
   2.1775937967380093E+021
   2.0005546527457526E+021
   2.1414798127673015E+021
   2.8689773481734921E+021
   5.3622026205604904E+021
   1.0467039820114699E+022
   1.9656850384000070E+021
   2.5872784348048429E+021
   3.6972295212130170E+021
   5.0810447589954447E+021
   7.4012562050006437E+021
   2.0009477943893256E+021
   2.9737923980154173E+021
   4.1527206959234930E+021
   5.3837167695568096E+021
   7.1133973562257215E+021
   2.0504695237985360E+021
   3.2864335630012808E+021
   4.2077187838305029E+021
   5.7570925540466879E+021
   9.2307669005874695E+021
   2.1775937967380093E+021
   3.5343095741623593E+021
   3.9625103427737082E+021
   6.2362113061505078E+021
   1.2571673422306231E+022
   6.0439321704599168E+021
   2.0383976683291146E+021
   1.5962624648766551E+021
   2.1633194873214730E+021
   2.1775937967380093E+021
   4.4937747653701135E+021
   1.9342207246824311E+021
   1.5004086771152278E+021
   1.9846159068560414E+021
   2.1839494280121685E+021
   3.1592634460700903E+021
   1.9271349034071941E+021
   1.7031267625242507E+021
   2.0414912806706424E+021
   2.4156454910632851E+021
   2.2218656464532962E+021
   2.0682860468593246E+021
   2.0919944066901260E+021
   2.2596171002905737E+021
   2.5953467687118947E+021
   2.2918420157701051E+021
   2.4505114774994934E+021
   2.5846777753197415E+021
   2.5583880735809082E+021
   2.5968888143331532E+021
   2.1775937967380093E+021
   3.5343095741623593E+021
   3.9625103427737082E+021
   6.2362113061505078E+021
   1.2571673422306231E+022
   2.1839494280121685E+021
   2.7287620937057944E+021
   2.8041059578167144E+021
   3.8380557787249629E+021
   7.7739175179322822E+021
   2.4156454910632851E+021
   2.1954961519506327E+021
   1.9231623604421775E+021
   1.9286596599139937E+021
   3.5038355960099557E+021
   2.5953467687118947E+021
   2.0305265789034336E+021
   1.4596905420381393E+021
   8.9968505395894983E+020
   4.9670985347668555E+020
   2.5968888143331532E+021
   2.2252756890404040E+021
   1.7045172775765945E+021
   1.9144709279060790E+021
   4.0496648972336486E+021
 </DataArray>
 <DataArray  type="Float64" Name="strain" NumberOfComponents="3" format="ascii">
   118645145456.30157       -62178383926.824707       -10729463361.201813     
   93706136537.024109       -30497712255.507812       -13453529324.790619     
   68767127617.746674       -18676509926.359314       -6116870629.0271149     
   43828118698.469193       -12436124629.983185        3621339338.0048599     
   18889109779.191742       -8527654974.9171143        13914210999.777954     
   112115515220.00465       -28056236458.500977        50274523140.273216     
   90437860711.571701       -23803990273.541626        7443337096.0280151     
   66872858300.178070       -19186427714.525940        969603027.79275513     
   42641846570.397156       -14013678460.899246        8841860415.3118439     
   18132210189.135162       -8126562358.0246887        24430467692.372311     
   99504500447.627106       -8787259064.6240234        82060624939.480148     
   83874440542.844482       -18804018180.382446        21966600793.274632     
   63735943829.630829       -19617914729.731995        6718397503.8536835     
   41713910424.437851       -15444205864.248795        13867017050.884022     
   18874049816.185600       -7747134597.8113861        35089928985.798561     
   82806863534.762268        3593291628.0600586        99743881047.598816     
   74580889421.843872       -14927127225.165283        32000542308.755028     
   59488239287.083244       -19987773961.938446        11319990905.439768     
   41111345816.589287       -16747345749.129292        18725154293.997509     
   21220543083.745533       -7387662526.4790726        45937703512.081100     
   62807429030.496101        12219085143.454712        109271192059.19164     
   62894025311.216171       -11833128150.300964        38668426229.209366     
   54226445436.487213       -20308328500.660217        14914077344.125771     
   40889758277.172440       -17939388454.884018        23439784167.092064     
   25266748920.298149       -7046612154.0931702        57014276580.848633     
   18889109779.191742       -8527654974.9171143        13914210999.777954     
   8567087859.5534058       -5393721353.7024689       -6406572313.2846336     
  -1754934060.0848846       -2214136427.2888107       -8623247851.6528625     
  -12076955979.723175        1232138425.2162876        5543914411.4694443     
  -22398977899.361511        5162147801.2016602        37036192684.498047     
   18132210189.135162       -8126562358.0246887        24430467692.372311     
   11152744791.660004       -3107372204.0346069        6755373830.2597542     
   4136441509.4851913       -100675583.99127960       -1387276351.9718933     
  -2755716240.8154678        1401827529.2936897       -541792133.91457558     
  -9374071561.0855713        1635355377.3916016        9963270011.9075928     
   18874049816.185600       -7747134597.8113861        35089928985.798561     
   13209880922.276276       -885736549.21047974        19724738408.972450     
   7717938142.7521019        1987437430.7158508        5496911314.7502422     
   2422301601.5871048        1571021678.9489880       -7301291082.2154036     
  -2635245828.7427826       -1891437046.4184570       -18265488704.204895     
   21220543083.745533       -7387662526.4790726        45937703512.081100     
   14831498271.300318        1273894774.8039322        32533363951.127151     
   9020070566.3669529        4050655912.9451599        12040508529.620777     
   3442462186.2080426        1739723036.5752501       -14734293073.097738     
  -2182500702.3330498       -5418229470.2285156       -47650083463.840134     
   25266748920.298149       -7046612154.0931702        57014276580.848633     
   16105479058.229149        3374081791.4207306        45211340040.391754     
   8072630223.9020538        6089422414.4435501        18254443359.779888     
   290215281.21033096        1907933751.9887724       -22840510429.347740     
  -8015836181.8563538       -8945021894.0388184       -78190514266.998016     
   62807429030.496101        12219085143.454712        109271192059.19164     
   62894025311.216171       -11833128150.300964        38668426229.209366     
   54226445436.487213       -20308328500.660217        14914077344.125771     
   40889758277.172440       -17939388454.884018        23439784167.092064     
   25266748920.298149       -7046612154.0931702        57014276580.848633     
   47914589847.113617       -426608294.51336670        87994231644.363174     
   51173001636.770058       -11661595697.486206        40537499226.295166     
   47562795063.132172       -15465241313.458572        23030396290.846596     
   39822758965.210175       -13481950013.293255        28383728374.281219     
   29782610675.890713       -6610997256.1968384        52594821099.958549     
   35997871717.486786       -10129593196.602173        73310697158.467926     
   40671745611.268761       -11518882477.083038        43030098019.061646     
   40447416223.619583       -11191828458.061203        30462523421.604599     
   36909004284.695633       -9374671279.4284363        32547169084.538437     
   31249649117.195099       -6196617867.1571960        47312868011.731224     
   26857585635.542542       -17809984062.762543        63689949937.555092     
   31441253369.024418       -11398288433.306564        46301345921.916580     
   32995796181.961021       -7393160049.9857788        37449050305.480911     
   32195109001.790447       -5577850795.1100016        36017144921.695389     
   29603463072.689468       -5801958140.3611870        41147645445.059525     
   20369435383.215034       -24040505224.596802        58179245507.124146     
   23517850147.569077       -11295041025.627136        50461739373.827446     
   25299112936.102501       -3994288285.3645325        44178346645.245499     
   25720897542.703514       -2057570385.4368629        38868015654.930710     
   24785638414.435684       -5425643149.6097717        34080312582.179649     
   25266748920.298149       -7046612154.0931702        57014276580.848633     
   16105479058.229149        3374081791.4207306        45211340040.391754     
   8072630223.9020538        6089422414.4435501        18254443359.779888     
   290215281.21033096        1907933751.9887724       -22840510429.347740     
  -8015836181.8563538       -8945021894.0388184       -78190514266.998016     
   29782610675.890713       -6610997256.1968384        52594821099.958549     
   19130434517.389088       -3124933.6902160645        35488817464.479248     
   8865779776.4414558        1956660863.6253128        20989097189.661495     
  -883481147.42414284       -351116277.78339338        9032658770.3624611     
  -9970237053.0355225       -6812284208.3693848       -296946120.61256409     
   31249649117.195099       -6196617867.1571960        47312868011.731224     
   23464706540.083267       -3289863487.3379402        25574001280.599678     
   15118850516.309746       -2127695439.5255451        23849477541.278229     
   7565534797.4814434       -2603615257.2299657        41588518789.593620     
   2119311898.4065933       -4679546522.6997070        79016705173.298462     
   29603463072.689468       -5801958140.3611870        41147645445.059525     
   29033116302.288364       -6489720998.0512543        15432302843.174204     
   26843754443.398735       -6164491968.2575903        26817897333.196358     
   25709822747.273567       -4849591641.3146467        74822567927.355865     
   28252810672.469978       -2546808837.0299683        159750439614.73480     
   24785638414.435684       -5425643149.6097717        34080312582.179649     
   35764407660.708099       -9606097425.1648178        5030938272.9949989     
   44052127747.840576       -10154554619.779388        29877079009.647820     
   53621522716.799866       -7089073720.4437323        108730330516.25403     
   68430259269.154694       -414071151.36059570        241904257203.69644     
   20369435383.215034       -24040505224.596802        58179245507.124146     
   23517850147.569077       -11295041025.627136        50461739373.827446     
   25299112936.102501       -3994288285.3645325        44178346645.245499     
   25720897542.703514       -2057570385.4368629        38868015654.930710     
   24785638414.435684       -5425643149.6097717        34080312582.179649     
   19883063330.156689       -48327413548.799072        38543116336.593155     
   21688990968.106762       -16912610006.061401        30252019867.367016     
   22014023753.245449        1253296243.3387756        28184168914.866383     
   21026011423.900841        5388917110.3227501        31756878598.599998     
   18922880258.926422       -5121861677.6566772        40266649782.769737     
   18505573907.743034       -68412789209.320801        29697879362.649986     
   20341542312.307549       -21757873773.213470        17559467696.754105     
   20528686683.247101        5952803021.9454651        15923865662.803524     
   19370085575.136528        12279291696.563040        24569779170.900860     
   17253627765.491470       -4832960779.5987091        42905692267.026787     
   16094603897.493073       -85300105055.934235        30236310219.579369     
   19281510832.656261       -25979853730.011230        11659503993.417677     
   20688343640.192776        10185835556.757675        7175945377.3502970     
   20701221248.364830        18673607708.552467        17328331023.985153     
   19854040816.452396       -4557873218.9405365        42032465546.567078     
   12549782109.398582       -99696845543.874390        39166265109.970306     
   18361796772.680733       -29691548658.941925        12002700766.774948     
   22367506519.563301        14018563374.669418        1760808073.1048813     
   24974732741.878471        24623572946.827358        10051143878.688362     
   26793166412.182632       -4295631432.7549744        37678723957.661987     
   24785638414.435684       -5425643149.6097717        34080312582.179649     
   35764407660.708099       -9606097425.1648178        5030938272.9949989     
   44052127747.840576       -10154554619.779388        29877079009.647820     
   53621522716.799866       -7089073720.4437323        108730330516.25403     
   68430259269.154694       -414071151.36059570        241904257203.69644     
   18922880258.926422       -5121861677.6566772        40266649782.769737     
   40069450828.930275       -17833937526.861916        16393268309.858946     
   60009799464.983742       -19757604160.388725        18180637852.753128     
   80676523929.530106       -10669666924.657629        46700919947.064896     
   104030845687.76595        9487336476.2877197        102634864719.04893     
   17253627765.491470       -4832960779.5987091        42905692267.026787     
   41726987154.117516       -25830598690.195518        26092110734.180138     
   66428869428.229225       -29239021006.785641        7192081681.4581280     
   91340200270.098679       -14238824098.539705       -12683350404.451092     
   116433757927.60895        19388744103.936279       -32337920936.636757     
   19854040816.452396       -4557873218.9405365        42032465546.567078     
   40816905242.940460       -33605689140.612343        34086615038.533260     
   63249900167.273689       -38601101524.494362       -3136338423.4452548     
   85458628066.165619       -17796599942.915310       -69432004097.214188     
   105638995988.68364        29290151731.584717       -163014099763.36038     
   26793166412.182632       -4295631432.7549744        37678723957.661987     
   37414727105.141632       -41168291931.704384        40338163545.775597     
   50414941055.183212       -47846084634.873596       -12851176929.861219     
   62878863746.426109       -21343048810.305248       -123554504049.37518     
   71646559870.990128        39191559359.233154       -289393671761.12195     
   12549782109.398582       -99696845543.874390        39166265109.970306     
   18361796772.680733       -29691548658.941925        12002700766.774948     
   22367506519.563301        14018563374.669418        1760808073.1048813     
   24974732741.878471        24623572946.827358        10051143878.688362     
   26793166412.182632       -4295631432.7549744        37678723957.661987     
   12271777867.107235       -73044224872.102875        33393224921.806145     
   18693923069.080750       -26321820849.887299        15761036053.172485     
   24611387564.709480        4049770289.1740265        6474479251.0607681     
   30182788316.104492        12779065625.911858        6363476667.7779388     
   35647361953.055420       -5386250925.4740372        15776479034.474022     
   16441422811.951191       -49817176136.201630        24009945391.625851     
   22258955046.780472       -23315454275.784805        15693447974.014156     
   28292247127.213009       -5057752684.2755127        9095570330.9475498     
   34581680640.242340        1704169715.7056370        3744044371.9409561     
   41158448493.533867       -6428213835.8193741       -1137899186.2060690     
   24991955242.768288       -29395161268.259048        10476261078.896179     
   29000259895.569908       -20616683151.116745        11616637676.139282     
   33386064314.907162       -13410999823.990837        9520738156.9203053     
   38151056963.364395       -8673764210.8958721        2092921525.2825568     
   43255451107.272568       -7424705240.7638168       -13102180653.709616     
   37871820290.327789       -11298986982.498901       -7624955773.2391205     
   38872229545.133720       -18180597646.093018        3382989193.5966797     
   39872638799.939651       -21099947783.845123        7663076480.2491302     
   40873048054.745575       -18418520621.142288        1322375947.9244795     
   41873457309.551506       -8378638158.6219406       -20150909134.195992     
   26793166412.182632       -4295631432.7549744        37678723957.661987     
   37414727105.141632       -41168291931.704384        40338163545.775597     
   50414941055.183212       -47846084634.873596       -12851176929.861219     
   62878863746.426109       -21343048810.305248       -123554504049.37518     
   71646559870.990128        39191559359.233154       -289393671761.12195     
   35647361953.055420       -5386250925.4740372        15776479034.474022     
   34858931549.389671       -29760492124.676514        21334933964.768166     
   35355788436.030029       -34159999296.253136       -9358060594.6591148     
   35593291316.759384       -16095120289.627031       -78176349078.901703     
   33860564657.247307        25155889805.675415       -183703860408.25470     
   41158448493.533867       -6428213835.8193741       -1137899186.2060690     
   33648635415.046753       -18656165616.530590        4783745039.5352974     
   26597982358.529762       -20642979790.378551       -6522476153.5908518     
   19476960823.936512       -10863846701.168655       -36365110777.701164     
   11685125430.174122        11120220252.118042       -84179384738.320404     
   43255451107.272568       -7424705240.7638168       -13102180653.709616     
   33703302818.500175       -7843361749.4510689       -9261294996.0487823     
   24149892964.085953       -7291912612.6190023       -4283394130.2066269     
   14615200960.188358       -5649148885.8947849        1892112178.1483970     
   5120242189.7705584       -2915449301.4391479        9179755248.6810207     
   41873457309.551506       -8378638158.6219406       -20150909134.195992     
   34946571716.172783        2689250781.4664764       -20748882112.927311     
   28019686122.794064        5896239757.3165474       -2581274457.8988414     
   21092800529.415344       -450948185.62334061        36608139483.821808     
   14165914936.036625       -16951118854.997070        96373559552.749237     
 </DataArray>
 </PointData>
 </Piece>
 </UnstructuredGrid>
 </VTKFile>
