 <VTKFile type="UnstructuredGrid"  version="0.1"   >
 <UnstructuredGrid>
 <Piece  NumberOfPoints="          5184 "  NumberOfCells="         4096 ">
 <Points>
 <DataArray  type="Float64" NumberOfComponents="3"  format="ascii" >
  -10.000000000000000        0.0000000000000000        0.0000000000000000     
  -9.9218750000000000        0.0000000000000000        0.0000000000000000     
  -9.8437500000000000        0.0000000000000000        0.0000000000000000     
  -9.7656250000000018        0.0000000000000000        0.0000000000000000     
  -9.6875000000000000        0.0000000000000000        0.0000000000000000     
  -9.6093750000000000        0.0000000000000000        0.0000000000000000     
  -9.5312500000000000        0.0000000000000000        0.0000000000000000     
  -9.4531250000000000        0.0000000000000000        0.0000000000000000     
  -9.3750000000000000        0.0000000000000000        0.0000000000000000     
  -10.000000000000000        7.8124999999999986E-002   0.0000000000000000     
  -9.9218750000000018        7.8125000000000014E-002   0.0000000000000000     
  -9.8437500000000000        7.8125000000000000E-002   0.0000000000000000     
  -9.7656250000000000        7.8125000000000000E-002   0.0000000000000000     
  -9.6875000000000000        7.8124999999999986E-002   0.0000000000000000     
  -9.6093750000000000        7.8125000000000000E-002   0.0000000000000000     
  -9.5312500000000000        7.8125000000000000E-002   0.0000000000000000     
  -9.4531250000000018        7.8124999999999986E-002   0.0000000000000000     
  -9.3750000000000018        7.8125000000000000E-002   0.0000000000000000     
  -10.000000000000000       0.15625000000000000        0.0000000000000000     
  -9.9218750000000000       0.15625000000000000        0.0000000000000000     
  -9.8437500000000000       0.15625000000000000        0.0000000000000000     
  -9.7656250000000000       0.15625000000000003        0.0000000000000000     
  -9.6875000000000000       0.15625000000000000        0.0000000000000000     
  -9.6093750000000000       0.15624999999999997        0.0000000000000000     
  -9.5312500000000018       0.15625000000000003        0.0000000000000000     
  -9.4531250000000000       0.15624999999999997        0.0000000000000000     
  -9.3750000000000000       0.15625000000000000        0.0000000000000000     
  -10.000000000000000       0.23437500000000000        0.0000000000000000     
  -9.9218750000000000       0.23437500000000000        0.0000000000000000     
  -9.8437499999999982       0.23437500000000000        0.0000000000000000     
  -9.7656250000000000       0.23437500000000000        0.0000000000000000     
  -9.6875000000000000       0.23437500000000000        0.0000000000000000     
  -9.6093750000000000       0.23437500000000000        0.0000000000000000     
  -9.5312500000000018       0.23437500000000000        0.0000000000000000     
  -9.4531250000000018       0.23437500000000000        0.0000000000000000     
  -9.3749999999999982       0.23437500000000000        0.0000000000000000     
  -10.000000000000000       0.31250000000000006        0.0000000000000000     
  -9.9218750000000000       0.31250000000000000        0.0000000000000000     
  -9.8437500000000000       0.31250000000000000        0.0000000000000000     
  -9.7656250000000000       0.31250000000000000        0.0000000000000000     
  -9.6875000000000000       0.31250000000000000        0.0000000000000000     
  -9.6093750000000000       0.31250000000000006        0.0000000000000000     
  -9.5312500000000000       0.31250000000000006        0.0000000000000000     
  -9.4531250000000000       0.31249999999999994        0.0000000000000000     
  -9.3750000000000018       0.31250000000000000        0.0000000000000000     
  -10.000000000000000       0.39062500000000006        0.0000000000000000     
  -9.9218750000000000       0.39062500000000000        0.0000000000000000     
  -9.8437499999999982       0.39062499999999994        0.0000000000000000     
  -9.7656250000000000       0.39062500000000000        0.0000000000000000     
  -9.6875000000000000       0.39062499999999994        0.0000000000000000     
  -9.6093750000000000       0.39062500000000000        0.0000000000000000     
  -9.5312500000000000       0.39062500000000000        0.0000000000000000     
  -9.4531249999999982       0.39062499999999994        0.0000000000000000     
  -9.3750000000000000       0.39062500000000006        0.0000000000000000     
  -10.000000000000000       0.46875000000000000        0.0000000000000000     
  -9.9218750000000000       0.46875000000000000        0.0000000000000000     
  -9.8437499999999982       0.46875000000000000        0.0000000000000000     
  -9.7656250000000000       0.46875000000000000        0.0000000000000000     
  -9.6875000000000000       0.46875000000000000        0.0000000000000000     
  -9.6093750000000000       0.46875000000000000        0.0000000000000000     
  -9.5312500000000000       0.46875000000000000        0.0000000000000000     
  -9.4531250000000000       0.46875000000000000        0.0000000000000000     
  -9.3750000000000000       0.46875000000000000        0.0000000000000000     
  -9.9999999999999982       0.54687499999999989        0.0000000000000000     
  -9.9218749999999982       0.54687499999999989        0.0000000000000000     
  -9.8437500000000000       0.54687500000000000        0.0000000000000000     
  -9.7656250000000000       0.54687500000000000        0.0000000000000000     
  -9.6875000000000000       0.54687500000000011        0.0000000000000000     
  -9.6093750000000000       0.54687499999999989        0.0000000000000000     
  -9.5312500000000000       0.54687500000000011        0.0000000000000000     
  -9.4531250000000000       0.54687500000000011        0.0000000000000000     
  -9.3750000000000018       0.54687500000000000        0.0000000000000000     
  -10.000000000000000       0.62500000000000011        0.0000000000000000     
  -9.9218750000000018       0.62500000000000000        0.0000000000000000     
  -9.8437500000000000       0.62500000000000000        0.0000000000000000     
  -9.7656250000000000       0.62500000000000011        0.0000000000000000     
  -9.6875000000000018       0.62499999999999989        0.0000000000000000     
  -9.6093750000000000       0.62500000000000011        0.0000000000000000     
  -9.5312500000000000       0.62500000000000011        0.0000000000000000     
  -9.4531250000000000       0.62499999999999989        0.0000000000000000     
  -9.3750000000000018       0.62500000000000022        0.0000000000000000     
  -9.3750000000000000        0.0000000000000000        0.0000000000000000     
  -9.2968750000000000        0.0000000000000000        0.0000000000000000     
  -9.2187500000000000        0.0000000000000000        0.0000000000000000     
  -9.1406250000000000        0.0000000000000000        0.0000000000000000     
  -9.0625000000000000        0.0000000000000000        0.0000000000000000     
  -8.9843750000000018        0.0000000000000000        0.0000000000000000     
  -8.9062499999999982        0.0000000000000000        0.0000000000000000     
  -8.8281250000000000        0.0000000000000000        0.0000000000000000     
  -8.7500000000000018        0.0000000000000000        0.0000000000000000     
  -9.3750000000000018        7.8125000000000000E-002   0.0000000000000000     
  -9.2968749999999982        7.8124999999999986E-002   0.0000000000000000     
  -9.2187500000000018        7.8125000000000000E-002   0.0000000000000000     
  -9.1406250000000018        7.8125000000000000E-002   0.0000000000000000     
  -9.0625000000000000        7.8124999999999986E-002   0.0000000000000000     
  -8.9843750000000000        7.8125000000000000E-002   0.0000000000000000     
  -8.9062500000000036        7.8125000000000014E-002   0.0000000000000000     
  -8.8281249999999982        7.8124999999999986E-002   0.0000000000000000     
  -8.7500000000000018        7.8125000000000000E-002   0.0000000000000000     
  -9.3750000000000000       0.15625000000000000        0.0000000000000000     
  -9.2968750000000018       0.15625000000000003        0.0000000000000000     
  -9.2187500000000000       0.15625000000000000        0.0000000000000000     
  -9.1406250000000018       0.15625000000000000        0.0000000000000000     
  -9.0625000000000018       0.15625000000000000        0.0000000000000000     
  -8.9843750000000000       0.15625000000000000        0.0000000000000000     
  -8.9062500000000018       0.15625000000000003        0.0000000000000000     
  -8.8281250000000018       0.15624999999999997        0.0000000000000000     
  -8.7500000000000000       0.15625000000000000        0.0000000000000000     
  -9.3749999999999982       0.23437500000000000        0.0000000000000000     
  -9.2968750000000000       0.23437500000000000        0.0000000000000000     
  -9.2187500000000000       0.23437500000000003        0.0000000000000000     
  -9.1406250000000000       0.23437500000000000        0.0000000000000000     
  -9.0625000000000018       0.23437500000000000        0.0000000000000000     
  -8.9843750000000018       0.23437500000000003        0.0000000000000000     
  -8.9062500000000000       0.23437500000000000        0.0000000000000000     
  -8.8281250000000000       0.23437500000000000        0.0000000000000000     
  -8.7500000000000018       0.23437500000000006        0.0000000000000000     
  -9.3750000000000018       0.31250000000000000        0.0000000000000000     
  -9.2968749999999982       0.31249999999999994        0.0000000000000000     
  -9.2187500000000000       0.31250000000000000        0.0000000000000000     
  -9.1406250000000000       0.31250000000000000        0.0000000000000000     
  -9.0625000000000000       0.31250000000000000        0.0000000000000000     
  -8.9843750000000000       0.31250000000000000        0.0000000000000000     
  -8.9062500000000000       0.31250000000000006        0.0000000000000000     
  -8.8281250000000018       0.31250000000000000        0.0000000000000000     
  -8.7500000000000000       0.31250000000000000        0.0000000000000000     
  -9.3750000000000000       0.39062500000000006        0.0000000000000000     
  -9.2968750000000000       0.39062500000000000        0.0000000000000000     
  -9.2187500000000000       0.39062500000000011        0.0000000000000000     
  -9.1406250000000000       0.39062500000000000        0.0000000000000000     
  -9.0625000000000018       0.39062500000000000        0.0000000000000000     
  -8.9843750000000018       0.39062500000000011        0.0000000000000000     
  -8.9062500000000018       0.39062500000000006        0.0000000000000000     
  -8.8281250000000000       0.39062500000000000        0.0000000000000000     
  -8.7500000000000000       0.39062500000000011        0.0000000000000000     
  -9.3750000000000000       0.46875000000000000        0.0000000000000000     
  -9.2968750000000018       0.46875000000000000        0.0000000000000000     
  -9.2187500000000000       0.46875000000000000        0.0000000000000000     
  -9.1406250000000000       0.46875000000000000        0.0000000000000000     
  -9.0625000000000018       0.46875000000000000        0.0000000000000000     
  -8.9843750000000018       0.46875000000000006        0.0000000000000000     
  -8.9062500000000000       0.46875000000000000        0.0000000000000000     
  -8.8281250000000018       0.46875000000000000        0.0000000000000000     
  -8.7500000000000018       0.46875000000000006        0.0000000000000000     
  -9.3750000000000018       0.54687500000000000        0.0000000000000000     
  -9.2968749999999982       0.54687500000000000        0.0000000000000000     
  -9.2187500000000000       0.54687500000000000        0.0000000000000000     
  -9.1406250000000000       0.54687500000000000        0.0000000000000000     
  -9.0625000000000000       0.54687500000000011        0.0000000000000000     
  -8.9843750000000000       0.54687499999999989        0.0000000000000000     
  -8.9062500000000018       0.54687500000000000        0.0000000000000000     
  -8.8281250000000000       0.54687500000000000        0.0000000000000000     
  -8.7499999999999982       0.54687499999999989        0.0000000000000000     
  -9.3750000000000018       0.62500000000000022        0.0000000000000000     
  -9.2968750000000018       0.62499999999999989        0.0000000000000000     
  -9.2187500000000036       0.62500000000000011        0.0000000000000000     
  -9.1406250000000000       0.62500000000000000        0.0000000000000000     
  -9.0625000000000000       0.62499999999999989        0.0000000000000000     
  -8.9843750000000000       0.62500000000000011        0.0000000000000000     
  -8.9062500000000000       0.62500000000000011        0.0000000000000000     
  -8.8281250000000000       0.62499999999999989        0.0000000000000000     
  -8.7500000000000018       0.62500000000000011        0.0000000000000000     
  -8.7500000000000018        0.0000000000000000        0.0000000000000000     
  -8.6718750000000000        0.0000000000000000        0.0000000000000000     
  -8.5937500000000000        0.0000000000000000        0.0000000000000000     
  -8.5156250000000018        0.0000000000000000        0.0000000000000000     
  -8.4375000000000018        0.0000000000000000        0.0000000000000000     
  -8.3593750000000000        0.0000000000000000        0.0000000000000000     
  -8.2812500000000000        0.0000000000000000        0.0000000000000000     
  -8.2031250000000000        0.0000000000000000        0.0000000000000000     
  -8.1250000000000000        0.0000000000000000        0.0000000000000000     
  -8.7500000000000018        7.8125000000000000E-002   0.0000000000000000     
  -8.6718750000000018        7.8125000000000000E-002   0.0000000000000000     
  -8.5937500000000018        7.8125000000000000E-002   0.0000000000000000     
  -8.5156250000000000        7.8125000000000000E-002   0.0000000000000000     
  -8.4375000000000000        7.8125000000000000E-002   0.0000000000000000     
  -8.3593750000000000        7.8125000000000000E-002   0.0000000000000000     
  -8.2812500000000018        7.8125000000000014E-002   0.0000000000000000     
  -8.2031250000000018        7.8125000000000000E-002   0.0000000000000000     
  -8.1250000000000018        7.8125000000000000E-002   0.0000000000000000     
  -8.7500000000000000       0.15625000000000000        0.0000000000000000     
  -8.6718750000000000       0.15625000000000003        0.0000000000000000     
  -8.5937500000000000       0.15625000000000000        0.0000000000000000     
  -8.5156250000000018       0.15625000000000000        0.0000000000000000     
  -8.4375000000000018       0.15625000000000003        0.0000000000000000     
  -8.3593750000000000       0.15625000000000000        0.0000000000000000     
  -8.2812500000000000       0.15625000000000003        0.0000000000000000     
  -8.2031250000000000       0.15625000000000003        0.0000000000000000     
  -8.1250000000000000       0.15625000000000000        0.0000000000000000     
  -8.7500000000000018       0.23437500000000006        0.0000000000000000     
  -8.6718750000000000       0.23437500000000000        0.0000000000000000     
  -8.5937500000000000       0.23437500000000003        0.0000000000000000     
  -8.5156250000000018       0.23437500000000000        0.0000000000000000     
  -8.4375000000000018       0.23437500000000000        0.0000000000000000     
  -8.3593750000000018       0.23437500000000003        0.0000000000000000     
  -8.2812500000000018       0.23437500000000003        0.0000000000000000     
  -8.2031250000000000       0.23437500000000000        0.0000000000000000     
  -8.1250000000000018       0.23437500000000006        0.0000000000000000     
  -8.7500000000000000       0.31250000000000000        0.0000000000000000     
  -8.6718750000000018       0.31250000000000006        0.0000000000000000     
  -8.5937500000000000       0.31250000000000000        0.0000000000000000     
  -8.5156250000000000       0.31249999999999989        0.0000000000000000     
  -8.4375000000000018       0.31250000000000011        0.0000000000000000     
  -8.3593750000000000       0.31250000000000000        0.0000000000000000     
  -8.2812500000000000       0.31249999999999989        0.0000000000000000     
  -8.2031250000000036       0.31250000000000011        0.0000000000000000     
  -8.1250000000000000       0.31250000000000000        0.0000000000000000     
  -8.7500000000000000       0.39062500000000011        0.0000000000000000     
  -8.6718750000000018       0.39062499999999994        0.0000000000000000     
  -8.5937500000000018       0.39062500000000011        0.0000000000000000     
  -8.5156250000000018       0.39062500000000006        0.0000000000000000     
  -8.4375000000000018       0.39062499999999994        0.0000000000000000     
  -8.3593750000000018       0.39062500000000011        0.0000000000000000     
  -8.2812500000000018       0.39062500000000011        0.0000000000000000     
  -8.2031250000000000       0.39062499999999994        0.0000000000000000     
  -8.1250000000000018       0.39062500000000011        0.0000000000000000     
  -8.7500000000000018       0.46875000000000006        0.0000000000000000     
  -8.6718750000000000       0.46875000000000000        0.0000000000000000     
  -8.5937500000000000       0.46875000000000000        0.0000000000000000     
  -8.5156250000000000       0.46875000000000000        0.0000000000000000     
  -8.4375000000000000       0.46874999999999994        0.0000000000000000     
  -8.3593750000000018       0.46875000000000006        0.0000000000000000     
  -8.2812500000000000       0.46875000000000000        0.0000000000000000     
  -8.2031250000000000       0.46875000000000000        0.0000000000000000     
  -8.1250000000000018       0.46875000000000006        0.0000000000000000     
  -8.7499999999999982       0.54687499999999989        0.0000000000000000     
  -8.6718750000000036       0.54687500000000022        0.0000000000000000     
  -8.5937500000000018       0.54687500000000000        0.0000000000000000     
  -8.5156250000000018       0.54687500000000000        0.0000000000000000     
  -8.4375000000000018       0.54687500000000011        0.0000000000000000     
  -8.3593750000000000       0.54687499999999989        0.0000000000000000     
  -8.2812500000000018       0.54687500000000000        0.0000000000000000     
  -8.2031250000000036       0.54687500000000022        0.0000000000000000     
  -8.1249999999999982       0.54687499999999989        0.0000000000000000     
  -8.7500000000000018       0.62500000000000011        0.0000000000000000     
  -8.6718750000000018       0.62500000000000000        0.0000000000000000     
  -8.5937500000000018       0.62500000000000022        0.0000000000000000     
  -8.5156250000000000       0.62500000000000000        0.0000000000000000     
  -8.4375000000000000       0.62500000000000000        0.0000000000000000     
  -8.3593750000000000       0.62500000000000011        0.0000000000000000     
  -8.2812500000000000       0.62500000000000000        0.0000000000000000     
  -8.2031250000000018       0.62500000000000011        0.0000000000000000     
  -8.1250000000000018       0.62500000000000011        0.0000000000000000     
  -8.1250000000000000        0.0000000000000000        0.0000000000000000     
  -8.0468750000000000        0.0000000000000000        0.0000000000000000     
  -7.9687499999999991        0.0000000000000000        0.0000000000000000     
  -7.8906250000000009        0.0000000000000000        0.0000000000000000     
  -7.8125000000000009        0.0000000000000000        0.0000000000000000     
  -7.7343750000000018        0.0000000000000000        0.0000000000000000     
  -7.6562500000000009        0.0000000000000000        0.0000000000000000     
  -7.5781250000000009        0.0000000000000000        0.0000000000000000     
  -7.5000000000000009        0.0000000000000000        0.0000000000000000     
  -8.1250000000000018        7.8125000000000000E-002   0.0000000000000000     
  -8.0468750000000018        7.8125000000000000E-002   0.0000000000000000     
  -7.9687500000000009        7.8125000000000000E-002   0.0000000000000000     
  -7.8906250000000009        7.8125000000000000E-002   0.0000000000000000     
  -7.8125000000000009        7.8125000000000000E-002   0.0000000000000000     
  -7.7343750000000018        7.8125000000000000E-002   0.0000000000000000     
  -7.6562500000000018        7.8125000000000014E-002   0.0000000000000000     
  -7.5781250000000009        7.8125000000000000E-002   0.0000000000000000     
  -7.5000000000000018        7.8125000000000000E-002   0.0000000000000000     
  -8.1250000000000000       0.15625000000000000        0.0000000000000000     
  -8.0468750000000018       0.15625000000000003        0.0000000000000000     
  -7.9687500000000000       0.15625000000000000        0.0000000000000000     
  -7.8906250000000000       0.15625000000000000        0.0000000000000000     
  -7.8125000000000009       0.15625000000000003        0.0000000000000000     
  -7.7343750000000000       0.15625000000000000        0.0000000000000000     
  -7.6562500000000000       0.15625000000000003        0.0000000000000000     
  -7.5781250000000000       0.15625000000000003        0.0000000000000000     
  -7.5000000000000000       0.15625000000000000        0.0000000000000000     
  -8.1250000000000018       0.23437500000000006        0.0000000000000000     
  -8.0468750000000000       0.23437500000000000        0.0000000000000000     
  -7.9687500000000000       0.23437500000000003        0.0000000000000000     
  -7.8906250000000000       0.23437500000000000        0.0000000000000000     
  -7.8125000000000009       0.23437500000000000        0.0000000000000000     
  -7.7343750000000000       0.23437500000000003        0.0000000000000000     
  -7.6562500000000000       0.23437500000000003        0.0000000000000000     
  -7.5781250000000009       0.23437500000000000        0.0000000000000000     
  -7.5000000000000009       0.23437500000000006        0.0000000000000000     
  -8.1250000000000000       0.31250000000000000        0.0000000000000000     
  -8.0468750000000000       0.31250000000000006        0.0000000000000000     
  -7.9687500000000000       0.31250000000000000        0.0000000000000000     
  -7.8906249999999991       0.31249999999999989        0.0000000000000000     
  -7.8125000000000009       0.31250000000000011        0.0000000000000000     
  -7.7343750000000000       0.31250000000000000        0.0000000000000000     
  -7.6562499999999982       0.31249999999999989        0.0000000000000000     
  -7.5781250000000018       0.31250000000000011        0.0000000000000000     
  -7.5000000000000018       0.31250000000000000        0.0000000000000000     
  -8.1250000000000018       0.39062500000000011        0.0000000000000000     
  -8.0468750000000018       0.39062499999999994        0.0000000000000000     
  -7.9687500000000009       0.39062500000000011        0.0000000000000000     
  -7.8906250000000009       0.39062500000000006        0.0000000000000000     
  -7.8125000000000009       0.39062499999999994        0.0000000000000000     
  -7.7343750000000009       0.39062500000000011        0.0000000000000000     
  -7.6562500000000000       0.39062500000000011        0.0000000000000000     
  -7.5781249999999991       0.39062499999999994        0.0000000000000000     
  -7.5000000000000009       0.39062500000000011        0.0000000000000000     
  -8.1250000000000018       0.46875000000000006        0.0000000000000000     
  -8.0468750000000000       0.46875000000000000        0.0000000000000000     
  -7.9687500000000018       0.46875000000000000        0.0000000000000000     
  -7.8906250000000018       0.46875000000000000        0.0000000000000000     
  -7.8125000000000009       0.46874999999999994        0.0000000000000000     
  -7.7343750000000009       0.46875000000000006        0.0000000000000000     
  -7.6562500000000000       0.46875000000000000        0.0000000000000000     
  -7.5781250000000009       0.46875000000000000        0.0000000000000000     
  -7.5000000000000009       0.46875000000000006        0.0000000000000000     
  -8.1249999999999982       0.54687499999999989        0.0000000000000000     
  -8.0468750000000053       0.54687500000000022        0.0000000000000000     
  -7.9687500000000009       0.54687500000000000        0.0000000000000000     
  -7.8906250000000009       0.54687500000000000        0.0000000000000000     
  -7.8125000000000009       0.54687500000000011        0.0000000000000000     
  -7.7343750000000000       0.54687499999999989        0.0000000000000000     
  -7.6562500000000009       0.54687500000000000        0.0000000000000000     
  -7.5781250000000018       0.54687500000000022        0.0000000000000000     
  -7.4999999999999991       0.54687499999999989        0.0000000000000000     
  -8.1250000000000018       0.62500000000000011        0.0000000000000000     
  -8.0468750000000000       0.62500000000000000        0.0000000000000000     
  -7.9687500000000009       0.62500000000000022        0.0000000000000000     
  -7.8906250000000000       0.62500000000000000        0.0000000000000000     
  -7.8125000000000009       0.62500000000000000        0.0000000000000000     
  -7.7343750000000000       0.62500000000000011        0.0000000000000000     
  -7.6562500000000009       0.62500000000000000        0.0000000000000000     
  -7.5781250000000018       0.62500000000000011        0.0000000000000000     
  -7.5000000000000000       0.62500000000000011        0.0000000000000000     
  -7.5000000000000009        0.0000000000000000        0.0000000000000000     
  -7.4218749999999991        0.0000000000000000        0.0000000000000000     
  -7.3437500000000000        0.0000000000000000        0.0000000000000000     
  -7.2656250000000018        0.0000000000000000        0.0000000000000000     
  -7.1875000000000009        0.0000000000000000        0.0000000000000000     
  -7.1093750000000018        0.0000000000000000        0.0000000000000000     
  -7.0312500000000009        0.0000000000000000        0.0000000000000000     
  -6.9531249999999991        0.0000000000000000        0.0000000000000000     
  -6.8750000000000009        0.0000000000000000        0.0000000000000000     
  -7.5000000000000018        7.8125000000000000E-002   0.0000000000000000     
  -7.4218750000000009        7.8125000000000000E-002   0.0000000000000000     
  -7.3437500000000018        7.8125000000000000E-002   0.0000000000000000     
  -7.2656250000000009        7.8125000000000000E-002   0.0000000000000000     
  -7.1875000000000009        7.8125000000000000E-002   0.0000000000000000     
  -7.1093750000000000        7.8125000000000000E-002   0.0000000000000000     
  -7.0312500000000009        7.8125000000000014E-002   0.0000000000000000     
  -6.9531250000000009        7.8125000000000000E-002   0.0000000000000000     
  -6.8750000000000009        7.8125000000000000E-002   0.0000000000000000     
  -7.5000000000000000       0.15625000000000000        0.0000000000000000     
  -7.4218750000000000       0.15625000000000003        0.0000000000000000     
  -7.3437500000000000       0.15625000000000000        0.0000000000000000     
  -7.2656250000000000       0.15625000000000000        0.0000000000000000     
  -7.1875000000000000       0.15625000000000003        0.0000000000000000     
  -7.1093750000000000       0.15625000000000000        0.0000000000000000     
  -7.0312500000000000       0.15625000000000003        0.0000000000000000     
  -6.9531250000000000       0.15625000000000003        0.0000000000000000     
  -6.8750000000000000       0.15625000000000000        0.0000000000000000     
  -7.5000000000000009       0.23437500000000006        0.0000000000000000     
  -7.4218749999999991       0.23437500000000000        0.0000000000000000     
  -7.3437500000000000       0.23437500000000003        0.0000000000000000     
  -7.2656250000000009       0.23437500000000000        0.0000000000000000     
  -7.1874999999999991       0.23437500000000000        0.0000000000000000     
  -7.1093750000000000       0.23437500000000003        0.0000000000000000     
  -7.0312500000000009       0.23437500000000003        0.0000000000000000     
  -6.9531249999999991       0.23437500000000000        0.0000000000000000     
  -6.8750000000000018       0.23437500000000006        0.0000000000000000     
  -7.5000000000000018       0.31250000000000000        0.0000000000000000     
  -7.4218750000000018       0.31250000000000006        0.0000000000000000     
  -7.3437500000000000       0.31250000000000000        0.0000000000000000     
  -7.2656249999999991       0.31249999999999989        0.0000000000000000     
  -7.1875000000000018       0.31250000000000011        0.0000000000000000     
  -7.1093750000000000       0.31250000000000000        0.0000000000000000     
  -7.0312499999999973       0.31249999999999989        0.0000000000000000     
  -6.9531250000000027       0.31250000000000011        0.0000000000000000     
  -6.8750000000000000       0.31250000000000000        0.0000000000000000     
  -7.5000000000000009       0.39062500000000011        0.0000000000000000     
  -7.4218750000000018       0.39062499999999994        0.0000000000000000     
  -7.3437500000000000       0.39062500000000011        0.0000000000000000     
  -7.2656250000000009       0.39062500000000006        0.0000000000000000     
  -7.1875000000000009       0.39062499999999994        0.0000000000000000     
  -7.1093750000000000       0.39062500000000011        0.0000000000000000     
  -7.0312500000000009       0.39062500000000011        0.0000000000000000     
  -6.9531250000000000       0.39062499999999994        0.0000000000000000     
  -6.8750000000000009       0.39062500000000011        0.0000000000000000     
  -7.5000000000000009       0.46875000000000006        0.0000000000000000     
  -7.4218749999999991       0.46875000000000000        0.0000000000000000     
  -7.3437500000000000       0.46875000000000000        0.0000000000000000     
  -7.2656250000000000       0.46875000000000000        0.0000000000000000     
  -7.1874999999999991       0.46874999999999994        0.0000000000000000     
  -7.1093750000000000       0.46875000000000006        0.0000000000000000     
  -7.0312500000000000       0.46875000000000000        0.0000000000000000     
  -6.9531249999999991       0.46875000000000000        0.0000000000000000     
  -6.8750000000000009       0.46875000000000006        0.0000000000000000     
  -7.4999999999999991       0.54687499999999989        0.0000000000000000     
  -7.4218750000000036       0.54687500000000022        0.0000000000000000     
  -7.3437500000000000       0.54687500000000000        0.0000000000000000     
  -7.2656249999999991       0.54687500000000000        0.0000000000000000     
  -7.1875000000000027       0.54687500000000011        0.0000000000000000     
  -7.1093750000000000       0.54687499999999989        0.0000000000000000     
  -7.0312500000000000       0.54687500000000000        0.0000000000000000     
  -6.9531250000000036       0.54687500000000022        0.0000000000000000     
  -6.8749999999999982       0.54687499999999989        0.0000000000000000     
  -7.5000000000000000       0.62500000000000011        0.0000000000000000     
  -7.4218750000000000       0.62500000000000000        0.0000000000000000     
  -7.3437500000000018       0.62500000000000022        0.0000000000000000     
  -7.2656250000000000       0.62500000000000000        0.0000000000000000     
  -7.1874999999999991       0.62500000000000000        0.0000000000000000     
  -7.1093750000000000       0.62500000000000011        0.0000000000000000     
  -7.0312500000000000       0.62500000000000000        0.0000000000000000     
  -6.9531250000000000       0.62500000000000011        0.0000000000000000     
  -6.8750000000000009       0.62500000000000011        0.0000000000000000     
  -6.8750000000000009        0.0000000000000000        0.0000000000000000     
  -6.7968750000000000        0.0000000000000000        0.0000000000000000     
  -6.7187500000000000        0.0000000000000000        0.0000000000000000     
  -6.6406250000000009        0.0000000000000000        0.0000000000000000     
  -6.5625000000000009        0.0000000000000000        0.0000000000000000     
  -6.4843750000000009        0.0000000000000000        0.0000000000000000     
  -6.4062500000000000        0.0000000000000000        0.0000000000000000     
  -6.3281249999999991        0.0000000000000000        0.0000000000000000     
  -6.2500000000000000        0.0000000000000000        0.0000000000000000     
  -6.8750000000000009        7.8125000000000000E-002   0.0000000000000000     
  -6.7968750000000009        7.8125000000000000E-002   0.0000000000000000     
  -6.7187500000000009        7.8125000000000000E-002   0.0000000000000000     
  -6.6406250000000000        7.8125000000000000E-002   0.0000000000000000     
  -6.5625000000000009        7.8125000000000000E-002   0.0000000000000000     
  -6.4843750000000009        7.8125000000000000E-002   0.0000000000000000     
  -6.4062500000000009        7.8125000000000014E-002   0.0000000000000000     
  -6.3281250000000009        7.8125000000000000E-002   0.0000000000000000     
  -6.2500000000000009        7.8125000000000000E-002   0.0000000000000000     
  -6.8750000000000000       0.15625000000000000        0.0000000000000000     
  -6.7968750000000000       0.15625000000000003        0.0000000000000000     
  -6.7187500000000000       0.15625000000000000        0.0000000000000000     
  -6.6406250000000000       0.15625000000000000        0.0000000000000000     
  -6.5625000000000009       0.15625000000000003        0.0000000000000000     
  -6.4843750000000009       0.15625000000000000        0.0000000000000000     
  -6.4062500000000000       0.15625000000000003        0.0000000000000000     
  -6.3281250000000009       0.15625000000000003        0.0000000000000000     
  -6.2500000000000000       0.15625000000000000        0.0000000000000000     
  -6.8750000000000018       0.23437500000000006        0.0000000000000000     
  -6.7968750000000000       0.23437500000000000        0.0000000000000000     
  -6.7187500000000000       0.23437500000000003        0.0000000000000000     
  -6.6406250000000000       0.23437500000000000        0.0000000000000000     
  -6.5625000000000000       0.23437500000000000        0.0000000000000000     
  -6.4843750000000018       0.23437500000000003        0.0000000000000000     
  -6.4062500000000009       0.23437500000000003        0.0000000000000000     
  -6.3281250000000000       0.23437500000000000        0.0000000000000000     
  -6.2500000000000018       0.23437500000000006        0.0000000000000000     
  -6.8750000000000000       0.31250000000000000        0.0000000000000000     
  -6.7968750000000000       0.31250000000000006        0.0000000000000000     
  -6.7187500000000000       0.31250000000000000        0.0000000000000000     
  -6.6406249999999982       0.31249999999999989        0.0000000000000000     
  -6.5625000000000027       0.31250000000000011        0.0000000000000000     
  -6.4843750000000009       0.31250000000000000        0.0000000000000000     
  -6.4062499999999982       0.31249999999999989        0.0000000000000000     
  -6.3281250000000027       0.31250000000000011        0.0000000000000000     
  -6.2500000000000009       0.31250000000000000        0.0000000000000000     
  -6.8750000000000009       0.39062500000000011        0.0000000000000000     
  -6.7968750000000009       0.39062499999999994        0.0000000000000000     
  -6.7187500000000009       0.39062500000000011        0.0000000000000000     
  -6.6406250000000009       0.39062500000000006        0.0000000000000000     
  -6.5625000000000000       0.39062499999999994        0.0000000000000000     
  -6.4843750000000018       0.39062500000000011        0.0000000000000000     
  -6.4062500000000000       0.39062500000000011        0.0000000000000000     
  -6.3281250000000000       0.39062499999999994        0.0000000000000000     
  -6.2500000000000009       0.39062500000000011        0.0000000000000000     
  -6.8750000000000009       0.46875000000000006        0.0000000000000000     
  -6.7968750000000000       0.46875000000000000        0.0000000000000000     
  -6.7187500000000000       0.46875000000000000        0.0000000000000000     
  -6.6406250000000000       0.46875000000000000        0.0000000000000000     
  -6.5624999999999982       0.46874999999999994        0.0000000000000000     
  -6.4843750000000009       0.46875000000000006        0.0000000000000000     
  -6.4062500000000009       0.46875000000000000        0.0000000000000000     
  -6.3281250000000000       0.46875000000000000        0.0000000000000000     
  -6.2500000000000009       0.46875000000000006        0.0000000000000000     
  -6.8749999999999982       0.54687499999999989        0.0000000000000000     
  -6.7968750000000027       0.54687500000000022        0.0000000000000000     
  -6.7187500000000000       0.54687500000000000        0.0000000000000000     
  -6.6406249999999991       0.54687500000000000        0.0000000000000000     
  -6.5625000000000018       0.54687500000000011        0.0000000000000000     
  -6.4843750000000000       0.54687499999999989        0.0000000000000000     
  -6.4062499999999991       0.54687500000000000        0.0000000000000000     
  -6.3281250000000027       0.54687500000000022        0.0000000000000000     
  -6.2499999999999991       0.54687499999999989        0.0000000000000000     
  -6.8750000000000009       0.62500000000000011        0.0000000000000000     
  -6.7968750000000009       0.62500000000000000        0.0000000000000000     
  -6.7187500000000018       0.62500000000000022        0.0000000000000000     
  -6.6406250000000009       0.62500000000000000        0.0000000000000000     
  -6.5625000000000000       0.62500000000000000        0.0000000000000000     
  -6.4843750000000000       0.62500000000000011        0.0000000000000000     
  -6.4062500000000000       0.62500000000000000        0.0000000000000000     
  -6.3281250000000009       0.62500000000000011        0.0000000000000000     
  -6.2500000000000009       0.62500000000000011        0.0000000000000000     
  -6.2500000000000000        0.0000000000000000        0.0000000000000000     
  -6.1718750000000000        0.0000000000000000        0.0000000000000000     
  -6.0937500000000000        0.0000000000000000        0.0000000000000000     
  -6.0156250000000009        0.0000000000000000        0.0000000000000000     
  -5.9375000000000000        0.0000000000000000        0.0000000000000000     
  -5.8593750000000000        0.0000000000000000        0.0000000000000000     
  -5.7812500000000000        0.0000000000000000        0.0000000000000000     
  -5.7031250000000009        0.0000000000000000        0.0000000000000000     
  -5.6250000000000009        0.0000000000000000        0.0000000000000000     
  -6.2500000000000009        7.8125000000000000E-002   0.0000000000000000     
  -6.1718750000000009        7.8125000000000000E-002   0.0000000000000000     
  -6.0937500000000000        7.8124999999999986E-002   0.0000000000000000     
  -6.0156250000000009        7.8125000000000000E-002   0.0000000000000000     
  -5.9375000000000009        7.8125000000000000E-002   0.0000000000000000     
  -5.8593750000000000        7.8125000000000000E-002   0.0000000000000000     
  -5.7812500000000009        7.8125000000000000E-002   0.0000000000000000     
  -5.7031250000000000        7.8125000000000000E-002   0.0000000000000000     
  -5.6250000000000018        7.8125000000000000E-002   0.0000000000000000     
  -6.2500000000000000       0.15625000000000000        0.0000000000000000     
  -6.1718750000000000       0.15625000000000003        0.0000000000000000     
  -6.0937500000000000       0.15625000000000000        0.0000000000000000     
  -6.0156250000000000       0.15625000000000000        0.0000000000000000     
  -5.9375000000000009       0.15625000000000003        0.0000000000000000     
  -5.8593750000000009       0.15625000000000000        0.0000000000000000     
  -5.7812500000000009       0.15624999999999997        0.0000000000000000     
  -5.7031250000000009       0.15625000000000003        0.0000000000000000     
  -5.6250000000000009       0.15625000000000000        0.0000000000000000     
  -6.2500000000000018       0.23437500000000006        0.0000000000000000     
  -6.1718750000000009       0.23437500000000000        0.0000000000000000     
  -6.0937500000000000       0.23437500000000000        0.0000000000000000     
  -6.0156250000000009       0.23437500000000000        0.0000000000000000     
  -5.9375000000000018       0.23437500000000000        0.0000000000000000     
  -5.8593750000000018       0.23437500000000006        0.0000000000000000     
  -5.7812500000000000       0.23437500000000003        0.0000000000000000     
  -5.7031250000000009       0.23437500000000000        0.0000000000000000     
  -5.6250000000000009       0.23437500000000006        0.0000000000000000     
  -6.2500000000000009       0.31250000000000000        0.0000000000000000     
  -6.1718750000000000       0.31250000000000011        0.0000000000000000     
  -6.0937500000000000       0.31250000000000000        0.0000000000000000     
  -6.0156250000000000       0.31249999999999989        0.0000000000000000     
  -5.9375000000000009       0.31250000000000011        0.0000000000000000     
  -5.8593750000000009       0.31250000000000000        0.0000000000000000     
  -5.7812499999999991       0.31249999999999989        0.0000000000000000     
  -5.7031250000000000       0.31250000000000011        0.0000000000000000     
  -5.6250000000000000       0.31250000000000000        0.0000000000000000     
  -6.2500000000000009       0.39062500000000011        0.0000000000000000     
  -6.1718750000000009       0.39062500000000000        0.0000000000000000     
  -6.0937500000000009       0.39062500000000000        0.0000000000000000     
  -6.0156250000000009       0.39062500000000006        0.0000000000000000     
  -5.9375000000000018       0.39062500000000006        0.0000000000000000     
  -5.8593750000000009       0.39062500000000006        0.0000000000000000     
  -5.7812500000000000       0.39062500000000011        0.0000000000000000     
  -5.7031250000000009       0.39062500000000000        0.0000000000000000     
  -5.6250000000000009       0.39062500000000011        0.0000000000000000     
  -6.2500000000000009       0.46875000000000006        0.0000000000000000     
  -6.1718750000000009       0.46875000000000000        0.0000000000000000     
  -6.0937500000000000       0.46875000000000000        0.0000000000000000     
  -6.0156250000000000       0.46875000000000000        0.0000000000000000     
  -5.9375000000000009       0.46875000000000000        0.0000000000000000     
  -5.8593750000000000       0.46875000000000000        0.0000000000000000     
  -5.7812500000000009       0.46875000000000000        0.0000000000000000     
  -5.7031250000000009       0.46875000000000000        0.0000000000000000     
  -5.6250000000000000       0.46875000000000000        0.0000000000000000     
  -6.2499999999999991       0.54687499999999989        0.0000000000000000     
  -6.1718750000000000       0.54687500000000011        0.0000000000000000     
  -6.0937500000000000       0.54687500000000011        0.0000000000000000     
  -6.0156250000000009       0.54687500000000000        0.0000000000000000     
  -5.9374999999999991       0.54687500000000011        0.0000000000000000     
  -5.8593750000000018       0.54687500000000011        0.0000000000000000     
  -5.7812500000000000       0.54687500000000000        0.0000000000000000     
  -5.7031249999999991       0.54687500000000011        0.0000000000000000     
  -5.6250000000000000       0.54687500000000000        0.0000000000000000     
  -6.2500000000000009       0.62500000000000011        0.0000000000000000     
  -6.1718750000000018       0.62500000000000000        0.0000000000000000     
  -6.0937500000000009       0.62500000000000011        0.0000000000000000     
  -6.0156250000000009       0.62500000000000000        0.0000000000000000     
  -5.9375000000000009       0.62500000000000000        0.0000000000000000     
  -5.8593750000000000       0.62499999999999989        0.0000000000000000     
  -5.7812500000000000       0.62500000000000000        0.0000000000000000     
  -5.7031250000000009       0.62500000000000000        0.0000000000000000     
  -5.6250000000000009       0.62500000000000022        0.0000000000000000     
  -5.6250000000000009        0.0000000000000000        0.0000000000000000     
  -5.5468750000000018        0.0000000000000000        0.0000000000000000     
  -5.4687500000000000        0.0000000000000000        0.0000000000000000     
  -5.3906250000000009        0.0000000000000000        0.0000000000000000     
  -5.3125000000000000        0.0000000000000000        0.0000000000000000     
  -5.2343750000000009        0.0000000000000000        0.0000000000000000     
  -5.1562500000000009        0.0000000000000000        0.0000000000000000     
  -5.0781249999999991        0.0000000000000000        0.0000000000000000     
  -5.0000000000000000        0.0000000000000000        0.0000000000000000     
  -5.6250000000000018        7.8125000000000000E-002   0.0000000000000000     
  -5.5468750000000009        7.8125000000000000E-002   0.0000000000000000     
  -5.4687500000000009        7.8125000000000000E-002   0.0000000000000000     
  -5.3906250000000009        7.8125000000000014E-002   0.0000000000000000     
  -5.3125000000000009        7.8125000000000000E-002   0.0000000000000000     
  -5.2343750000000000        7.8125000000000000E-002   0.0000000000000000     
  -5.1562499999999991        7.8125000000000000E-002   0.0000000000000000     
  -5.0781250000000000        7.8124999999999986E-002   0.0000000000000000     
  -5.0000000000000000        7.8124999999999986E-002   0.0000000000000000     
  -5.6250000000000009       0.15625000000000000        0.0000000000000000     
  -5.5468750000000009       0.15625000000000000        0.0000000000000000     
  -5.4687500000000009       0.15625000000000000        0.0000000000000000     
  -5.3906250000000009       0.15625000000000000        0.0000000000000000     
  -5.3125000000000009       0.15625000000000000        0.0000000000000000     
  -5.2343750000000009       0.15625000000000000        0.0000000000000000     
  -5.1562500000000009       0.15625000000000000        0.0000000000000000     
  -5.0781250000000009       0.15625000000000000        0.0000000000000000     
  -5.0000000000000000       0.15625000000000000        0.0000000000000000     
  -5.6250000000000009       0.23437500000000006        0.0000000000000000     
  -5.5468750000000009       0.23437500000000000        0.0000000000000000     
  -5.4687500000000009       0.23437500000000000        0.0000000000000000     
  -5.3906250000000000       0.23437500000000000        0.0000000000000000     
  -5.3125000000000000       0.23437500000000000        0.0000000000000000     
  -5.2343750000000000       0.23437500000000000        0.0000000000000000     
  -5.1562500000000000       0.23437500000000000        0.0000000000000000     
  -5.0781250000000000       0.23437500000000000        0.0000000000000000     
  -5.0000000000000000       0.23437500000000000        0.0000000000000000     
  -5.6250000000000000       0.31250000000000000        0.0000000000000000     
  -5.5468750000000018       0.31250000000000011        0.0000000000000000     
  -5.4687500000000009       0.31250000000000000        0.0000000000000000     
  -5.3906250000000009       0.31250000000000000        0.0000000000000000     
  -5.3125000000000018       0.31250000000000011        0.0000000000000000     
  -5.2343750000000000       0.31250000000000000        0.0000000000000000     
  -5.1562500000000000       0.31250000000000000        0.0000000000000000     
  -5.0781249999999991       0.31249999999999994        0.0000000000000000     
  -5.0000000000000000       0.31250000000000006        0.0000000000000000     
  -5.6250000000000009       0.39062500000000011        0.0000000000000000     
  -5.5468750000000009       0.39062500000000011        0.0000000000000000     
  -5.4687500000000000       0.39062500000000000        0.0000000000000000     
  -5.3906250000000018       0.39062500000000011        0.0000000000000000     
  -5.3125000000000000       0.39062499999999994        0.0000000000000000     
  -5.2343750000000000       0.39062500000000000        0.0000000000000000     
  -5.1562500000000000       0.39062499999999994        0.0000000000000000     
  -5.0781250000000000       0.39062500000000006        0.0000000000000000     
  -5.0000000000000000       0.39062500000000006        0.0000000000000000     
  -5.6250000000000000       0.46875000000000000        0.0000000000000000     
  -5.5468750000000000       0.46875000000000000        0.0000000000000000     
  -5.4687500000000000       0.46875000000000000        0.0000000000000000     
  -5.3906250000000000       0.46875000000000000        0.0000000000000000     
  -5.3125000000000009       0.46875000000000000        0.0000000000000000     
  -5.2343750000000000       0.46875000000000000        0.0000000000000000     
  -5.1562500000000000       0.46875000000000000        0.0000000000000000     
  -5.0781250000000000       0.46875000000000000        0.0000000000000000     
  -5.0000000000000000       0.46875000000000000        0.0000000000000000     
  -5.6250000000000000       0.54687500000000000        0.0000000000000000     
  -5.5468750000000009       0.54687500000000000        0.0000000000000000     
  -5.4687500000000009       0.54687500000000000        0.0000000000000000     
  -5.3906250000000000       0.54687500000000000        0.0000000000000000     
  -5.3125000000000018       0.54687500000000011        0.0000000000000000     
  -5.2343750000000009       0.54687500000000000        0.0000000000000000     
  -5.1562500000000000       0.54687500000000000        0.0000000000000000     
  -5.0781250000000009       0.54687500000000011        0.0000000000000000     
  -4.9999999999999991       0.54687499999999989        0.0000000000000000     
  -5.6250000000000009       0.62500000000000022        0.0000000000000000     
  -5.5468750000000000       0.62500000000000000        0.0000000000000000     
  -5.4687500000000000       0.62500000000000000        0.0000000000000000     
  -5.3906250000000009       0.62500000000000000        0.0000000000000000     
  -5.3125000000000000       0.62500000000000000        0.0000000000000000     
  -5.2343750000000000       0.62500000000000011        0.0000000000000000     
  -5.1562500000000009       0.62500000000000011        0.0000000000000000     
  -5.0781250000000000       0.62500000000000000        0.0000000000000000     
  -5.0000000000000000       0.62500000000000011        0.0000000000000000     
  -10.000000000000000       0.62500000000000011        0.0000000000000000     
  -9.9218750000000018       0.62500000000000000        0.0000000000000000     
  -9.8437500000000000       0.62500000000000000        0.0000000000000000     
  -9.7656250000000000       0.62500000000000011        0.0000000000000000     
  -9.6875000000000018       0.62499999999999989        0.0000000000000000     
  -9.6093750000000000       0.62500000000000011        0.0000000000000000     
  -9.5312500000000000       0.62500000000000011        0.0000000000000000     
  -9.4531250000000000       0.62499999999999989        0.0000000000000000     
  -9.3750000000000018       0.62500000000000022        0.0000000000000000     
  -10.000000000000000       0.70312499999999989        0.0000000000000000     
  -9.9218750000000000       0.70312500000000022        0.0000000000000000     
  -9.8437500000000000       0.70312499999999989        0.0000000000000000     
  -9.7656250000000000       0.70312499999999989        0.0000000000000000     
  -9.6875000000000000       0.70312500000000000        0.0000000000000000     
  -9.6093750000000000       0.70312500000000000        0.0000000000000000     
  -9.5312500000000000       0.70312499999999989        0.0000000000000000     
  -9.4531250000000000       0.70312500000000000        0.0000000000000000     
  -9.3750000000000000       0.70312499999999989        0.0000000000000000     
  -9.9999999999999982       0.78124999999999989        0.0000000000000000     
  -9.9218750000000018       0.78125000000000011        0.0000000000000000     
  -9.8437500000000000       0.78125000000000000        0.0000000000000000     
  -9.7656250000000000       0.78125000000000000        0.0000000000000000     
  -9.6875000000000018       0.78124999999999989        0.0000000000000000     
  -9.6093750000000018       0.78125000000000000        0.0000000000000000     
  -9.5312500000000000       0.78125000000000000        0.0000000000000000     
  -9.4531250000000018       0.78125000000000000        0.0000000000000000     
  -9.3750000000000000       0.78124999999999989        0.0000000000000000     
  -10.000000000000002       0.85937500000000022        0.0000000000000000     
  -9.9218750000000000       0.85937500000000000        0.0000000000000000     
  -9.8437500000000000       0.85937500000000011        0.0000000000000000     
  -9.7656250000000018       0.85937500000000011        0.0000000000000000     
  -9.6875000000000018       0.85937500000000011        0.0000000000000000     
  -9.6093750000000018       0.85937500000000011        0.0000000000000000     
  -9.5312500000000000       0.85937500000000011        0.0000000000000000     
  -9.4531250000000000       0.85937499999999978        0.0000000000000000     
  -9.3750000000000000       0.85937499999999989        0.0000000000000000     
  -10.000000000000000       0.93749999999999989        0.0000000000000000     
  -9.9218750000000000       0.93750000000000000        0.0000000000000000     
  -9.8437500000000018       0.93750000000000011        0.0000000000000000     
  -9.7656250000000018       0.93750000000000000        0.0000000000000000     
  -9.6875000000000000       0.93750000000000000        0.0000000000000000     
  -9.6093750000000000       0.93749999999999989        0.0000000000000000     
  -9.5312500000000000       0.93749999999999989        0.0000000000000000     
  -9.4531250000000000       0.93750000000000000        0.0000000000000000     
  -9.3750000000000000       0.93750000000000000        0.0000000000000000     
  -10.000000000000002        1.0156250000000002        0.0000000000000000     
  -9.9218750000000036        1.0156250000000000        0.0000000000000000     
  -9.8437500000000000        1.0156250000000000        0.0000000000000000     
  -9.7656250000000018        1.0156250000000000        0.0000000000000000     
  -9.6875000000000018        1.0156250000000000        0.0000000000000000     
  -9.6093750000000000        1.0156250000000000        0.0000000000000000     
  -9.5312500000000018        1.0156250000000004        0.0000000000000000     
  -9.4531250000000018        1.0156249999999998        0.0000000000000000     
  -9.3750000000000000        1.0156250000000000        0.0000000000000000     
  -10.000000000000000        1.0937499999999998        0.0000000000000000     
  -9.9218750000000000        1.0937500000000002        0.0000000000000000     
  -9.8437500000000000        1.0937499999999998        0.0000000000000000     
  -9.7656250000000000        1.0937499999999998        0.0000000000000000     
  -9.6875000000000000        1.0937500000000002        0.0000000000000000     
  -9.6093750000000018        1.0937500000000000        0.0000000000000000     
  -9.5312500000000018        1.0937500000000000        0.0000000000000000     
  -9.4531250000000000        1.0937500000000004        0.0000000000000000     
  -9.3750000000000000        1.0937499999999998        0.0000000000000000     
  -10.000000000000000        1.1718750000000000        0.0000000000000000     
  -9.9218750000000000        1.1718749999999998        0.0000000000000000     
  -9.8437500000000000        1.1718750000000000        0.0000000000000000     
  -9.7656250000000018        1.1718750000000002        0.0000000000000000     
  -9.6875000000000018        1.1718750000000000        0.0000000000000000     
  -9.6093750000000018        1.1718750000000000        0.0000000000000000     
  -9.5312500000000018        1.1718750000000000        0.0000000000000000     
  -9.4531250000000000        1.1718750000000000        0.0000000000000000     
  -9.3750000000000000        1.1718750000000002        0.0000000000000000     
  -10.000000000000004        1.2500000000000002        0.0000000000000000     
  -9.9218750000000000        1.2499999999999998        0.0000000000000000     
  -9.8437500000000000        1.2500000000000000        0.0000000000000000     
  -9.7656250000000018        1.2500000000000002        0.0000000000000000     
  -9.6875000000000018        1.2500000000000000        0.0000000000000000     
  -9.6093750000000018        1.2500000000000000        0.0000000000000000     
  -9.5312500000000018        1.2500000000000000        0.0000000000000000     
  -9.4531250000000000        1.2500000000000000        0.0000000000000000     
  -9.3750000000000018        1.2500000000000002        0.0000000000000000     
  -9.3750000000000018       0.62500000000000022        0.0000000000000000     
  -9.2968750000000018       0.62499999999999989        0.0000000000000000     
  -9.2187500000000036       0.62500000000000011        0.0000000000000000     
  -9.1406250000000000       0.62500000000000000        0.0000000000000000     
  -9.0625000000000000       0.62499999999999989        0.0000000000000000     
  -8.9843750000000000       0.62500000000000011        0.0000000000000000     
  -8.9062500000000000       0.62500000000000011        0.0000000000000000     
  -8.8281250000000000       0.62499999999999989        0.0000000000000000     
  -8.7500000000000018       0.62500000000000011        0.0000000000000000     
  -9.3750000000000000       0.70312499999999989        0.0000000000000000     
  -9.2968750000000000       0.70312500000000000        0.0000000000000000     
  -9.2187500000000000       0.70312499999999989        0.0000000000000000     
  -9.1406250000000018       0.70312500000000000        0.0000000000000000     
  -9.0625000000000000       0.70312500000000000        0.0000000000000000     
  -8.9843750000000000       0.70312499999999989        0.0000000000000000     
  -8.9062500000000018       0.70312500000000000        0.0000000000000000     
  -8.8281250000000000       0.70312500000000000        0.0000000000000000     
  -8.7500000000000000       0.70312499999999989        0.0000000000000000     
  -9.3750000000000000       0.78124999999999989        0.0000000000000000     
  -9.2968750000000018       0.78125000000000011        0.0000000000000000     
  -9.2187500000000000       0.78125000000000000        0.0000000000000000     
  -9.1406250000000018       0.78125000000000022        0.0000000000000000     
  -9.0625000000000000       0.78125000000000000        0.0000000000000000     
  -8.9843750000000018       0.78125000000000000        0.0000000000000000     
  -8.9062500000000000       0.78124999999999989        0.0000000000000000     
  -8.8281250000000018       0.78125000000000011        0.0000000000000000     
  -8.7500000000000018       0.78125000000000011        0.0000000000000000     
  -9.3750000000000000       0.85937499999999989        0.0000000000000000     
  -9.2968750000000036       0.85937500000000000        0.0000000000000000     
  -9.2187500000000018       0.85937500000000022        0.0000000000000000     
  -9.1406250000000000       0.85937500000000011        0.0000000000000000     
  -9.0625000000000018       0.85937500000000000        0.0000000000000000     
  -8.9843750000000000       0.85937500000000011        0.0000000000000000     
  -8.9062500000000000       0.85937500000000022        0.0000000000000000     
  -8.8281250000000018       0.85937500000000000        0.0000000000000000     
  -8.7500000000000000       0.85937500000000000        0.0000000000000000     
  -9.3750000000000000       0.93750000000000000        0.0000000000000000     
  -9.2968749999999982       0.93750000000000000        0.0000000000000000     
  -9.2187500000000000       0.93749999999999989        0.0000000000000000     
  -9.1406250000000000       0.93749999999999989        0.0000000000000000     
  -9.0624999999999982       0.93749999999999989        0.0000000000000000     
  -8.9843749999999982       0.93749999999999989        0.0000000000000000     
  -8.9062500000000000       0.93749999999999989        0.0000000000000000     
  -8.8281249999999982       0.93750000000000000        0.0000000000000000     
  -8.7500000000000000       0.93749999999999989        0.0000000000000000     
  -9.3750000000000000        1.0156250000000000        0.0000000000000000     
  -9.2968750000000018        1.0156250000000000        0.0000000000000000     
  -9.2187500000000000        1.0156250000000000        0.0000000000000000     
  -9.1406250000000000        1.0156250000000000        0.0000000000000000     
  -9.0625000000000000        1.0156249999999998        0.0000000000000000     
  -8.9843750000000018        1.0156250000000002        0.0000000000000000     
  -8.9062500000000000        1.0156250000000000        0.0000000000000000     
  -8.8281250000000000        1.0156249999999998        0.0000000000000000     
  -8.7500000000000000        1.0156250000000002        0.0000000000000000     
  -9.3750000000000000        1.0937499999999998        0.0000000000000000     
  -9.2968750000000036        1.0937500000000004        0.0000000000000000     
  -9.2187500000000036        1.0937500000000004        0.0000000000000000     
  -9.1406250000000000        1.0937500000000000        0.0000000000000000     
  -9.0625000000000036        1.0937500000000004        0.0000000000000000     
  -8.9843750000000036        1.0937500000000004        0.0000000000000000     
  -8.9062500000000000        1.0937499999999998        0.0000000000000000     
  -8.8281250000000036        1.0937500000000002        0.0000000000000000     
  -8.7500000000000018        1.0937500000000002        0.0000000000000000     
  -9.3750000000000000        1.1718750000000002        0.0000000000000000     
  -9.2968749999999982        1.1718749999999998        0.0000000000000000     
  -9.2187500000000000        1.1718749999999998        0.0000000000000000     
  -9.1406250000000000        1.1718750000000000        0.0000000000000000     
  -9.0624999999999982        1.1718749999999998        0.0000000000000000     
  -8.9843750000000000        1.1718749999999998        0.0000000000000000     
  -8.9062500000000018        1.1718750000000000        0.0000000000000000     
  -8.8281249999999982        1.1718750000000000        0.0000000000000000     
  -8.7500000000000000        1.1718749999999998        0.0000000000000000     
  -9.3750000000000018        1.2500000000000002        0.0000000000000000     
  -9.2968750000000000        1.2500000000000002        0.0000000000000000     
  -9.2187500000000000        1.2500000000000002        0.0000000000000000     
  -9.1406250000000000        1.2500000000000000        0.0000000000000000     
  -9.0625000000000000        1.2499999999999998        0.0000000000000000     
  -8.9843750000000018        1.2500000000000000        0.0000000000000000     
  -8.9062500000000018        1.2500000000000002        0.0000000000000000     
  -8.8281250000000000        1.2500000000000000        0.0000000000000000     
  -8.7500000000000018        1.2500000000000002        0.0000000000000000     
  -8.7500000000000018       0.62500000000000011        0.0000000000000000     
  -8.6718750000000018       0.62500000000000000        0.0000000000000000     
  -8.5937500000000018       0.62500000000000022        0.0000000000000000     
  -8.5156250000000000       0.62500000000000000        0.0000000000000000     
  -8.4375000000000000       0.62500000000000000        0.0000000000000000     
  -8.3593750000000000       0.62500000000000011        0.0000000000000000     
  -8.2812500000000000       0.62500000000000000        0.0000000000000000     
  -8.2031250000000018       0.62500000000000011        0.0000000000000000     
  -8.1250000000000018       0.62500000000000011        0.0000000000000000     
  -8.7500000000000000       0.70312499999999989        0.0000000000000000     
  -8.6718750000000000       0.70312500000000011        0.0000000000000000     
  -8.5937500000000000       0.70312499999999989        0.0000000000000000     
  -8.5156250000000000       0.70312500000000000        0.0000000000000000     
  -8.4375000000000018       0.70312500000000011        0.0000000000000000     
  -8.3593750000000000       0.70312499999999989        0.0000000000000000     
  -8.2812500000000000       0.70312499999999989        0.0000000000000000     
  -8.2031250000000000       0.70312500000000000        0.0000000000000000     
  -8.1250000000000000       0.70312499999999989        0.0000000000000000     
  -8.7500000000000018       0.78125000000000011        0.0000000000000000     
  -8.6718750000000018       0.78125000000000000        0.0000000000000000     
  -8.5937500000000000       0.78125000000000000        0.0000000000000000     
  -8.5156250000000000       0.78125000000000000        0.0000000000000000     
  -8.4375000000000000       0.78124999999999989        0.0000000000000000     
  -8.3593750000000000       0.78125000000000000        0.0000000000000000     
  -8.2812500000000000       0.78125000000000011        0.0000000000000000     
  -8.2031250000000000       0.78125000000000000        0.0000000000000000     
  -8.1250000000000018       0.78125000000000011        0.0000000000000000     
  -8.7500000000000000       0.85937500000000000        0.0000000000000000     
  -8.6718750000000000       0.85937500000000011        0.0000000000000000     
  -8.5937500000000018       0.85937500000000022        0.0000000000000000     
  -8.5156250000000000       0.85937500000000011        0.0000000000000000     
  -8.4375000000000018       0.85937500000000011        0.0000000000000000     
  -8.3593750000000000       0.85937500000000011        0.0000000000000000     
  -8.2812500000000000       0.85937500000000011        0.0000000000000000     
  -8.2031250000000000       0.85937500000000011        0.0000000000000000     
  -8.1250000000000000       0.85937500000000000        0.0000000000000000     
  -8.7500000000000000       0.93749999999999989        0.0000000000000000     
  -8.6718750000000000       0.93750000000000000        0.0000000000000000     
  -8.5937500000000000       0.93749999999999989        0.0000000000000000     
  -8.5156250000000000       0.93749999999999989        0.0000000000000000     
  -8.4374999999999982       0.93750000000000000        0.0000000000000000     
  -8.3593749999999982       0.93749999999999989        0.0000000000000000     
  -8.2812499999999982       0.93749999999999989        0.0000000000000000     
  -8.2031249999999982       0.93750000000000011        0.0000000000000000     
  -8.1249999999999982       0.93749999999999989        0.0000000000000000     
  -8.7500000000000000        1.0156250000000002        0.0000000000000000     
  -8.6718750000000018        1.0156250000000000        0.0000000000000000     
  -8.5937500000000000        1.0156250000000000        0.0000000000000000     
  -8.5156250000000000        1.0156250000000000        0.0000000000000000     
  -8.4375000000000018        1.0156250000000000        0.0000000000000000     
  -8.3593750000000000        1.0156250000000002        0.0000000000000000     
  -8.2812500000000000        1.0156250000000000        0.0000000000000000     
  -8.2031250000000000        1.0156250000000000        0.0000000000000000     
  -8.1250000000000000        1.0156250000000002        0.0000000000000000     
  -8.7500000000000018        1.0937500000000002        0.0000000000000000     
  -8.6718750000000000        1.0937500000000004        0.0000000000000000     
  -8.5937500000000018        1.0937500000000004        0.0000000000000000     
  -8.5156250000000018        1.0937500000000002        0.0000000000000000     
  -8.4375000000000000        1.0937500000000002        0.0000000000000000     
  -8.3593750000000036        1.0937500000000004        0.0000000000000000     
  -8.2812500000000018        1.0937500000000002        0.0000000000000000     
  -8.2031250000000000        1.0937500000000004        0.0000000000000000     
  -8.1250000000000000        1.0937500000000002        0.0000000000000000     
  -8.7500000000000000        1.1718749999999998        0.0000000000000000     
  -8.6718750000000018        1.1718750000000000        0.0000000000000000     
  -8.5937500000000000        1.1718749999999998        0.0000000000000000     
  -8.5156250000000000        1.1718749999999998        0.0000000000000000     
  -8.4375000000000000        1.1718750000000000        0.0000000000000000     
  -8.3593749999999982        1.1718749999999998        0.0000000000000000     
  -8.2812499999999982        1.1718749999999998        0.0000000000000000     
  -8.2031250000000018        1.1718750000000000        0.0000000000000000     
  -8.1250000000000000        1.1718749999999998        0.0000000000000000     
  -8.7500000000000018        1.2500000000000002        0.0000000000000000     
  -8.6718750000000018        1.2500000000000000        0.0000000000000000     
  -8.5937500000000000        1.2500000000000002        0.0000000000000000     
  -8.5156250000000000        1.2500000000000000        0.0000000000000000     
  -8.4375000000000018        1.2500000000000000        0.0000000000000000     
  -8.3593750000000000        1.2500000000000000        0.0000000000000000     
  -8.2812500000000000        1.2500000000000002        0.0000000000000000     
  -8.2031250000000018        1.2500000000000000        0.0000000000000000     
  -8.1250000000000000        1.2500000000000002        0.0000000000000000     
  -8.1250000000000018       0.62500000000000011        0.0000000000000000     
  -8.0468750000000000       0.62500000000000000        0.0000000000000000     
  -7.9687500000000009       0.62500000000000022        0.0000000000000000     
  -7.8906250000000000       0.62500000000000000        0.0000000000000000     
  -7.8125000000000009       0.62500000000000000        0.0000000000000000     
  -7.7343750000000000       0.62500000000000011        0.0000000000000000     
  -7.6562500000000009       0.62500000000000000        0.0000000000000000     
  -7.5781250000000018       0.62500000000000011        0.0000000000000000     
  -7.5000000000000000       0.62500000000000011        0.0000000000000000     
  -8.1250000000000000       0.70312499999999989        0.0000000000000000     
  -8.0468750000000018       0.70312500000000011        0.0000000000000000     
  -7.9687500000000000       0.70312499999999989        0.0000000000000000     
  -7.8906250000000027       0.70312500000000000        0.0000000000000000     
  -7.8125000000000009       0.70312500000000011        0.0000000000000000     
  -7.7343750000000000       0.70312499999999989        0.0000000000000000     
  -7.6562500000000000       0.70312499999999989        0.0000000000000000     
  -7.5781249999999991       0.70312500000000000        0.0000000000000000     
  -7.5000000000000000       0.70312499999999989        0.0000000000000000     
  -8.1250000000000018       0.78125000000000011        0.0000000000000000     
  -8.0468750000000018       0.78125000000000000        0.0000000000000000     
  -7.9687500000000000       0.78125000000000000        0.0000000000000000     
  -7.8906250000000000       0.78125000000000000        0.0000000000000000     
  -7.8125000000000000       0.78124999999999989        0.0000000000000000     
  -7.7343750000000000       0.78125000000000000        0.0000000000000000     
  -7.6562500000000009       0.78125000000000011        0.0000000000000000     
  -7.5781250000000009       0.78125000000000000        0.0000000000000000     
  -7.5000000000000009       0.78125000000000011        0.0000000000000000     
  -8.1250000000000000       0.85937500000000000        0.0000000000000000     
  -8.0468750000000000       0.85937500000000011        0.0000000000000000     
  -7.9687500000000018       0.85937500000000022        0.0000000000000000     
  -7.8906250000000009       0.85937500000000011        0.0000000000000000     
  -7.8125000000000018       0.85937500000000011        0.0000000000000000     
  -7.7343750000000000       0.85937500000000011        0.0000000000000000     
  -7.6562500000000000       0.85937500000000011        0.0000000000000000     
  -7.5781250000000018       0.85937500000000011        0.0000000000000000     
  -7.5000000000000000       0.85937500000000000        0.0000000000000000     
  -8.1249999999999982       0.93749999999999989        0.0000000000000000     
  -8.0468750000000000       0.93750000000000000        0.0000000000000000     
  -7.9687499999999991       0.93749999999999989        0.0000000000000000     
  -7.8906249999999991       0.93749999999999989        0.0000000000000000     
  -7.8124999999999982       0.93750000000000000        0.0000000000000000     
  -7.7343749999999991       0.93749999999999989        0.0000000000000000     
  -7.6562500000000000       0.93749999999999989        0.0000000000000000     
  -7.5781249999999991       0.93750000000000011        0.0000000000000000     
  -7.5000000000000000       0.93749999999999989        0.0000000000000000     
  -8.1250000000000000        1.0156250000000002        0.0000000000000000     
  -8.0468750000000000        1.0156250000000000        0.0000000000000000     
  -7.9687500000000000        1.0156250000000000        0.0000000000000000     
  -7.8906249999999991        1.0156250000000000        0.0000000000000000     
  -7.8125000000000009        1.0156250000000000        0.0000000000000000     
  -7.7343750000000000        1.0156250000000002        0.0000000000000000     
  -7.6562500000000009        1.0156250000000000        0.0000000000000000     
  -7.5781250000000000        1.0156250000000000        0.0000000000000000     
  -7.5000000000000000        1.0156250000000002        0.0000000000000000     
  -8.1250000000000000        1.0937500000000002        0.0000000000000000     
  -8.0468750000000000        1.0937500000000004        0.0000000000000000     
  -7.9687500000000027        1.0937500000000004        0.0000000000000000     
  -7.8906250000000000        1.0937500000000002        0.0000000000000000     
  -7.8125000000000018        1.0937500000000002        0.0000000000000000     
  -7.7343750000000018        1.0937500000000004        0.0000000000000000     
  -7.6562500000000009        1.0937500000000002        0.0000000000000000     
  -7.5781250000000018        1.0937500000000004        0.0000000000000000     
  -7.5000000000000009        1.0937500000000002        0.0000000000000000     
  -8.1250000000000000        1.1718749999999998        0.0000000000000000     
  -8.0468750000000036        1.1718750000000000        0.0000000000000000     
  -7.9687499999999991        1.1718749999999998        0.0000000000000000     
  -7.8906249999999991        1.1718749999999998        0.0000000000000000     
  -7.8125000000000000        1.1718750000000000        0.0000000000000000     
  -7.7343749999999991        1.1718749999999998        0.0000000000000000     
  -7.6562499999999991        1.1718749999999998        0.0000000000000000     
  -7.5781250000000000        1.1718750000000000        0.0000000000000000     
  -7.4999999999999991        1.1718749999999998        0.0000000000000000     
  -8.1250000000000000        1.2500000000000002        0.0000000000000000     
  -8.0468750000000000        1.2500000000000000        0.0000000000000000     
  -7.9687500000000000        1.2500000000000002        0.0000000000000000     
  -7.8906249999999991        1.2500000000000000        0.0000000000000000     
  -7.8125000000000000        1.2500000000000000        0.0000000000000000     
  -7.7343750000000000        1.2500000000000000        0.0000000000000000     
  -7.6562500000000009        1.2500000000000002        0.0000000000000000     
  -7.5781250000000009        1.2500000000000000        0.0000000000000000     
  -7.5000000000000018        1.2500000000000002        0.0000000000000000     
  -7.5000000000000000       0.62500000000000011        0.0000000000000000     
  -7.4218750000000000       0.62500000000000000        0.0000000000000000     
  -7.3437500000000018       0.62500000000000022        0.0000000000000000     
  -7.2656250000000000       0.62500000000000000        0.0000000000000000     
  -7.1874999999999991       0.62500000000000000        0.0000000000000000     
  -7.1093750000000000       0.62500000000000011        0.0000000000000000     
  -7.0312500000000000       0.62500000000000000        0.0000000000000000     
  -6.9531250000000000       0.62500000000000011        0.0000000000000000     
  -6.8750000000000009       0.62500000000000011        0.0000000000000000     
  -7.5000000000000000       0.70312499999999989        0.0000000000000000     
  -7.4218750000000018       0.70312500000000011        0.0000000000000000     
  -7.3437500000000000       0.70312499999999989        0.0000000000000000     
  -7.2656250000000009       0.70312500000000000        0.0000000000000000     
  -7.1875000000000027       0.70312500000000011        0.0000000000000000     
  -7.1093750000000000       0.70312499999999989        0.0000000000000000     
  -7.0312499999999991       0.70312499999999989        0.0000000000000000     
  -6.9531250000000009       0.70312500000000000        0.0000000000000000     
  -6.8750000000000000       0.70312499999999989        0.0000000000000000     
  -7.5000000000000009       0.78125000000000011        0.0000000000000000     
  -7.4218750000000009       0.78125000000000000        0.0000000000000000     
  -7.3437500000000000       0.78125000000000000        0.0000000000000000     
  -7.2656250000000000       0.78125000000000000        0.0000000000000000     
  -7.1875000000000000       0.78124999999999989        0.0000000000000000     
  -7.1093750000000000       0.78125000000000000        0.0000000000000000     
  -7.0312500000000000       0.78125000000000011        0.0000000000000000     
  -6.9531250000000018       0.78125000000000000        0.0000000000000000     
  -6.8750000000000018       0.78125000000000011        0.0000000000000000     
  -7.5000000000000000       0.85937500000000000        0.0000000000000000     
  -7.4218749999999991       0.85937500000000011        0.0000000000000000     
  -7.3437500000000018       0.85937500000000022        0.0000000000000000     
  -7.2656250000000000       0.85937500000000011        0.0000000000000000     
  -7.1875000000000000       0.85937500000000011        0.0000000000000000     
  -7.1093750000000009       0.85937500000000011        0.0000000000000000     
  -7.0312500000000000       0.85937500000000011        0.0000000000000000     
  -6.9531250000000000       0.85937500000000011        0.0000000000000000     
  -6.8750000000000009       0.85937500000000000        0.0000000000000000     
  -7.5000000000000000       0.93749999999999989        0.0000000000000000     
  -7.4218750000000009       0.93750000000000000        0.0000000000000000     
  -7.3437499999999991       0.93749999999999989        0.0000000000000000     
  -7.2656249999999991       0.93749999999999989        0.0000000000000000     
  -7.1875000000000000       0.93750000000000000        0.0000000000000000     
  -7.1093750000000000       0.93749999999999989        0.0000000000000000     
  -7.0312499999999991       0.93749999999999989        0.0000000000000000     
  -6.9531250000000009       0.93750000000000011        0.0000000000000000     
  -6.8750000000000000       0.93749999999999989        0.0000000000000000     
  -7.5000000000000000        1.0156250000000002        0.0000000000000000     
  -7.4218750000000009        1.0156250000000000        0.0000000000000000     
  -7.3437500000000000        1.0156250000000000        0.0000000000000000     
  -7.2656250000000018        1.0156250000000000        0.0000000000000000     
  -7.1875000000000018        1.0156250000000000        0.0000000000000000     
  -7.1093750000000000        1.0156250000000002        0.0000000000000000     
  -7.0312500000000000        1.0156250000000000        0.0000000000000000     
  -6.9531250000000009        1.0156250000000000        0.0000000000000000     
  -6.8749999999999991        1.0156250000000002        0.0000000000000000     
  -7.5000000000000009        1.0937500000000002        0.0000000000000000     
  -7.4218750000000000        1.0937500000000004        0.0000000000000000     
  -7.3437500000000027        1.0937500000000004        0.0000000000000000     
  -7.2656250000000000        1.0937500000000002        0.0000000000000000     
  -7.1874999999999982        1.0937500000000002        0.0000000000000000     
  -7.1093750000000027        1.0937500000000004        0.0000000000000000     
  -7.0312500000000009        1.0937500000000002        0.0000000000000000     
  -6.9531250000000009        1.0937500000000004        0.0000000000000000     
  -6.8750000000000018        1.0937500000000002        0.0000000000000000     
  -7.4999999999999991        1.1718749999999998        0.0000000000000000     
  -7.4218750000000018        1.1718750000000000        0.0000000000000000     
  -7.3437499999999991        1.1718749999999998        0.0000000000000000     
  -7.2656249999999991        1.1718749999999998        0.0000000000000000     
  -7.1875000000000018        1.1718750000000000        0.0000000000000000     
  -7.1093749999999991        1.1718749999999998        0.0000000000000000     
  -7.0312499999999991        1.1718749999999998        0.0000000000000000     
  -6.9531250000000018        1.1718750000000000        0.0000000000000000     
  -6.8749999999999991        1.1718749999999998        0.0000000000000000     
  -7.5000000000000018        1.2500000000000002        0.0000000000000000     
  -7.4218750000000018        1.2500000000000000        0.0000000000000000     
  -7.3437500000000018        1.2500000000000002        0.0000000000000000     
  -7.2656250000000000        1.2500000000000000        0.0000000000000000     
  -7.1875000000000009        1.2500000000000000        0.0000000000000000     
  -7.1093750000000000        1.2500000000000000        0.0000000000000000     
  -7.0312500000000009        1.2500000000000002        0.0000000000000000     
  -6.9531250000000009        1.2500000000000000        0.0000000000000000     
  -6.8750000000000009        1.2500000000000002        0.0000000000000000     
  -6.8750000000000009       0.62500000000000011        0.0000000000000000     
  -6.7968750000000009       0.62500000000000000        0.0000000000000000     
  -6.7187500000000018       0.62500000000000022        0.0000000000000000     
  -6.6406250000000009       0.62500000000000000        0.0000000000000000     
  -6.5625000000000000       0.62500000000000000        0.0000000000000000     
  -6.4843750000000000       0.62500000000000011        0.0000000000000000     
  -6.4062500000000000       0.62500000000000000        0.0000000000000000     
  -6.3281250000000009       0.62500000000000011        0.0000000000000000     
  -6.2500000000000009       0.62500000000000011        0.0000000000000000     
  -6.8750000000000000       0.70312499999999989        0.0000000000000000     
  -6.7968750000000018       0.70312500000000011        0.0000000000000000     
  -6.7187500000000000       0.70312499999999989        0.0000000000000000     
  -6.6406250000000000       0.70312500000000000        0.0000000000000000     
  -6.5625000000000018       0.70312500000000011        0.0000000000000000     
  -6.4843750000000000       0.70312499999999989        0.0000000000000000     
  -6.4062500000000000       0.70312499999999989        0.0000000000000000     
  -6.3281250000000000       0.70312500000000000        0.0000000000000000     
  -6.2500000000000000       0.70312499999999989        0.0000000000000000     
  -6.8750000000000018       0.78125000000000011        0.0000000000000000     
  -6.7968750000000009       0.78125000000000000        0.0000000000000000     
  -6.7187500000000000       0.78125000000000000        0.0000000000000000     
  -6.6406250000000000       0.78125000000000000        0.0000000000000000     
  -6.5625000000000009       0.78124999999999989        0.0000000000000000     
  -6.4843750000000000       0.78125000000000000        0.0000000000000000     
  -6.4062500000000009       0.78125000000000011        0.0000000000000000     
  -6.3281250000000009       0.78125000000000000        0.0000000000000000     
  -6.2500000000000009       0.78125000000000011        0.0000000000000000     
  -6.8750000000000009       0.85937500000000000        0.0000000000000000     
  -6.7968749999999991       0.85937500000000011        0.0000000000000000     
  -6.7187500000000018       0.85937500000000022        0.0000000000000000     
  -6.6406250000000009       0.85937500000000011        0.0000000000000000     
  -6.5625000000000009       0.85937500000000011        0.0000000000000000     
  -6.4843750000000000       0.85937500000000011        0.0000000000000000     
  -6.4062500000000000       0.85937500000000011        0.0000000000000000     
  -6.3281249999999991       0.85937500000000011        0.0000000000000000     
  -6.2500000000000009       0.85937500000000000        0.0000000000000000     
  -6.8750000000000000       0.93749999999999989        0.0000000000000000     
  -6.7968750000000000       0.93750000000000000        0.0000000000000000     
  -6.7187499999999991       0.93749999999999989        0.0000000000000000     
  -6.6406249999999991       0.93749999999999989        0.0000000000000000     
  -6.5624999999999991       0.93750000000000000        0.0000000000000000     
  -6.4843750000000000       0.93749999999999989        0.0000000000000000     
  -6.4062500000000000       0.93749999999999989        0.0000000000000000     
  -6.3281250000000000       0.93750000000000011        0.0000000000000000     
  -6.2500000000000000       0.93749999999999989        0.0000000000000000     
  -6.8749999999999991        1.0156250000000002        0.0000000000000000     
  -6.7968750000000009        1.0156250000000000        0.0000000000000000     
  -6.7187500000000000        1.0156250000000000        0.0000000000000000     
  -6.6406250000000009        1.0156250000000000        0.0000000000000000     
  -6.5625000000000009        1.0156250000000000        0.0000000000000000     
  -6.4843750000000009        1.0156250000000002        0.0000000000000000     
  -6.4062500000000000        1.0156250000000000        0.0000000000000000     
  -6.3281250000000009        1.0156250000000000        0.0000000000000000     
  -6.2500000000000009        1.0156250000000002        0.0000000000000000     
  -6.8750000000000018        1.0937500000000002        0.0000000000000000     
  -6.7968750000000009        1.0937500000000004        0.0000000000000000     
  -6.7187500000000018        1.0937500000000004        0.0000000000000000     
  -6.6406250000000009        1.0937500000000002        0.0000000000000000     
  -6.5625000000000009        1.0937500000000002        0.0000000000000000     
  -6.4843750000000018        1.0937500000000004        0.0000000000000000     
  -6.4062500000000009        1.0937500000000002        0.0000000000000000     
  -6.3281250000000009        1.0937500000000004        0.0000000000000000     
  -6.2500000000000009        1.0937500000000002        0.0000000000000000     
  -6.8749999999999991        1.1718749999999998        0.0000000000000000     
  -6.7968750000000009        1.1718750000000000        0.0000000000000000     
  -6.7187499999999991        1.1718749999999998        0.0000000000000000     
  -6.6406249999999991        1.1718749999999998        0.0000000000000000     
  -6.5625000000000009        1.1718750000000000        0.0000000000000000     
  -6.4843749999999991        1.1718749999999998        0.0000000000000000     
  -6.4062499999999991        1.1718749999999998        0.0000000000000000     
  -6.3281250000000009        1.1718750000000000        0.0000000000000000     
  -6.2500000000000000        1.1718749999999998        0.0000000000000000     
  -6.8750000000000009        1.2500000000000002        0.0000000000000000     
  -6.7968750000000018        1.2500000000000000        0.0000000000000000     
  -6.7187500000000009        1.2500000000000002        0.0000000000000000     
  -6.6406250000000000        1.2500000000000000        0.0000000000000000     
  -6.5625000000000018        1.2500000000000000        0.0000000000000000     
  -6.4843750000000009        1.2500000000000000        0.0000000000000000     
  -6.4062500000000009        1.2500000000000002        0.0000000000000000     
  -6.3281250000000018        1.2500000000000000        0.0000000000000000     
  -6.2500000000000009        1.2500000000000002        0.0000000000000000     
  -6.2500000000000009       0.62500000000000011        0.0000000000000000     
  -6.1718750000000018       0.62500000000000000        0.0000000000000000     
  -6.0937500000000009       0.62500000000000011        0.0000000000000000     
  -6.0156250000000009       0.62500000000000000        0.0000000000000000     
  -5.9375000000000009       0.62500000000000000        0.0000000000000000     
  -5.8593750000000000       0.62499999999999989        0.0000000000000000     
  -5.7812500000000000       0.62500000000000000        0.0000000000000000     
  -5.7031250000000009       0.62500000000000000        0.0000000000000000     
  -5.6250000000000009       0.62500000000000022        0.0000000000000000     
  -6.2500000000000000       0.70312499999999989        0.0000000000000000     
  -6.1718750000000009       0.70312500000000011        0.0000000000000000     
  -6.0937500000000000       0.70312499999999989        0.0000000000000000     
  -6.0156250000000000       0.70312500000000000        0.0000000000000000     
  -5.9375000000000009       0.70312500000000011        0.0000000000000000     
  -5.8593750000000000       0.70312500000000000        0.0000000000000000     
  -5.7812500000000000       0.70312499999999989        0.0000000000000000     
  -5.7031249999999991       0.70312500000000000        0.0000000000000000     
  -5.6250000000000000       0.70312499999999989        0.0000000000000000     
  -6.2500000000000009       0.78125000000000011        0.0000000000000000     
  -6.1718750000000009       0.78125000000000000        0.0000000000000000     
  -6.0937500000000000       0.78125000000000000        0.0000000000000000     
  -6.0156250000000000       0.78125000000000000        0.0000000000000000     
  -5.9375000000000000       0.78124999999999989        0.0000000000000000     
  -5.8593750000000000       0.78125000000000000        0.0000000000000000     
  -5.7812500000000000       0.78125000000000000        0.0000000000000000     
  -5.7031250000000009       0.78124999999999989        0.0000000000000000     
  -5.6250000000000000       0.78125000000000000        0.0000000000000000     
  -6.2500000000000009       0.85937500000000000        0.0000000000000000     
  -6.1718750000000018       0.85937500000000000        0.0000000000000000     
  -6.0937500000000000       0.85937500000000011        0.0000000000000000     
  -6.0156250000000000       0.85937500000000011        0.0000000000000000     
  -5.9375000000000009       0.85937500000000000        0.0000000000000000     
  -5.8593750000000000       0.85937499999999989        0.0000000000000000     
  -5.7812500000000000       0.85937500000000011        0.0000000000000000     
  -5.7031250000000009       0.85937500000000011        0.0000000000000000     
  -5.6250000000000000       0.85937500000000000        0.0000000000000000     
  -6.2500000000000000       0.93749999999999989        0.0000000000000000     
  -6.1718750000000000       0.93750000000000022        0.0000000000000000     
  -6.0937500000000000       0.93750000000000000        0.0000000000000000     
  -6.0156249999999991       0.93749999999999989        0.0000000000000000     
  -5.9375000000000000       0.93750000000000022        0.0000000000000000     
  -5.8593750000000000       0.93750000000000000        0.0000000000000000     
  -5.7812500000000000       0.93749999999999989        0.0000000000000000     
  -5.7031250000000000       0.93750000000000022        0.0000000000000000     
  -5.6250000000000000       0.93749999999999989        0.0000000000000000     
  -6.2500000000000009        1.0156250000000002        0.0000000000000000     
  -6.1718750000000009        1.0156250000000002        0.0000000000000000     
  -6.0937500000000000        1.0156250000000000        0.0000000000000000     
  -6.0156250000000009        1.0156250000000000        0.0000000000000000     
  -5.9375000000000009        1.0156250000000002        0.0000000000000000     
  -5.8593750000000000        1.0156250000000000        0.0000000000000000     
  -5.7812500000000009        1.0156250000000000        0.0000000000000000     
  -5.7031250000000009        1.0156250000000002        0.0000000000000000     
  -5.6250000000000000        1.0156250000000000        0.0000000000000000     
  -6.2500000000000009        1.0937500000000002        0.0000000000000000     
  -6.1718750000000018        1.0937500000000004        0.0000000000000000     
  -6.0937500000000000        1.0937499999999998        0.0000000000000000     
  -6.0156249999999991        1.0937500000000002        0.0000000000000000     
  -5.9375000000000018        1.0937500000000002        0.0000000000000000     
  -5.8593750000000000        1.0937500000000000        0.0000000000000000     
  -5.7812500000000000        1.0937500000000002        0.0000000000000000     
  -5.7031250000000018        1.0937500000000004        0.0000000000000000     
  -5.6250000000000000        1.0937500000000000        0.0000000000000000     
  -6.2500000000000000        1.1718749999999998        0.0000000000000000     
  -6.1718749999999991        1.1718750000000000        0.0000000000000000     
  -6.0937500000000000        1.1718750000000002        0.0000000000000000     
  -6.0156250000000000        1.1718749999999998        0.0000000000000000     
  -5.9374999999999991        1.1718750000000000        0.0000000000000000     
  -5.8593750000000000        1.1718750000000000        0.0000000000000000     
  -5.7812500000000000        1.1718749999999998        0.0000000000000000     
  -5.7031249999999991        1.1718750000000000        0.0000000000000000     
  -5.6249999999999991        1.1718750000000000        0.0000000000000000     
  -6.2500000000000009        1.2500000000000002        0.0000000000000000     
  -6.1718750000000009        1.2500000000000000        0.0000000000000000     
  -6.0937500000000018        1.2500000000000002        0.0000000000000000     
  -6.0156250000000009        1.2500000000000000        0.0000000000000000     
  -5.9375000000000000        1.2500000000000000        0.0000000000000000     
  -5.8593750000000000        1.2500000000000000        0.0000000000000000     
  -5.7812500000000018        1.2500000000000002        0.0000000000000000     
  -5.7031250000000000        1.2500000000000000        0.0000000000000000     
  -5.6250000000000009        1.2500000000000000        0.0000000000000000     
  -5.6250000000000009       0.62500000000000022        0.0000000000000000     
  -5.5468750000000000       0.62500000000000000        0.0000000000000000     
  -5.4687500000000000       0.62500000000000000        0.0000000000000000     
  -5.3906250000000009       0.62500000000000000        0.0000000000000000     
  -5.3125000000000000       0.62500000000000000        0.0000000000000000     
  -5.2343750000000000       0.62500000000000011        0.0000000000000000     
  -5.1562500000000009       0.62500000000000011        0.0000000000000000     
  -5.0781250000000000       0.62500000000000000        0.0000000000000000     
  -5.0000000000000000       0.62500000000000011        0.0000000000000000     
  -5.6250000000000000       0.70312499999999989        0.0000000000000000     
  -5.5468750000000009       0.70312500000000011        0.0000000000000000     
  -5.4687500000000000       0.70312499999999989        0.0000000000000000     
  -5.3906250000000000       0.70312499999999989        0.0000000000000000     
  -5.3125000000000000       0.70312500000000000        0.0000000000000000     
  -5.2343750000000000       0.70312499999999989        0.0000000000000000     
  -5.1562500000000000       0.70312499999999989        0.0000000000000000     
  -5.0781250000000000       0.70312500000000000        0.0000000000000000     
  -5.0000000000000000       0.70312499999999989        0.0000000000000000     
  -5.6250000000000000       0.78125000000000000        0.0000000000000000     
  -5.5468750000000009       0.78125000000000000        0.0000000000000000     
  -5.4687500000000000       0.78125000000000000        0.0000000000000000     
  -5.3906250000000000       0.78125000000000011        0.0000000000000000     
  -5.3125000000000018       0.78125000000000022        0.0000000000000000     
  -5.2343750000000000       0.78125000000000000        0.0000000000000000     
  -5.1562500000000000       0.78125000000000000        0.0000000000000000     
  -5.0781250000000018       0.78125000000000022        0.0000000000000000     
  -4.9999999999999991       0.78124999999999989        0.0000000000000000     
  -5.6250000000000000       0.85937500000000000        0.0000000000000000     
  -5.5468750000000000       0.85937499999999978        0.0000000000000000     
  -5.4687500000000000       0.85937500000000011        0.0000000000000000     
  -5.3906250000000009       0.85937500000000011        0.0000000000000000     
  -5.3125000000000000       0.85937499999999989        0.0000000000000000     
  -5.2343750000000009       0.85937500000000011        0.0000000000000000     
  -5.1562500000000018       0.85937500000000011        0.0000000000000000     
  -5.0781250000000000       0.85937500000000011        0.0000000000000000     
  -5.0000000000000009       0.85937500000000022        0.0000000000000000     
  -5.6250000000000000       0.93749999999999989        0.0000000000000000     
  -5.5468750000000000       0.93750000000000011        0.0000000000000000     
  -5.4687500000000009       0.93750000000000000        0.0000000000000000     
  -5.3906250000000009       0.93749999999999989        0.0000000000000000     
  -5.3125000000000000       0.93750000000000011        0.0000000000000000     
  -5.2343749999999991       0.93749999999999989        0.0000000000000000     
  -5.1562500000000000       0.93749999999999989        0.0000000000000000     
  -5.0781250000000000       0.93750000000000011        0.0000000000000000     
  -5.0000000000000000       0.93749999999999989        0.0000000000000000     
  -5.6250000000000000        1.0156250000000000        0.0000000000000000     
  -5.5468750000000018        1.0156250000000002        0.0000000000000000     
  -5.4687500000000000        1.0156250000000002        0.0000000000000000     
  -5.3906250000000009        1.0156250000000000        0.0000000000000000     
  -5.3125000000000009        1.0156250000000000        0.0000000000000000     
  -5.2343750000000009        1.0156250000000000        0.0000000000000000     
  -5.1562500000000000        1.0156250000000000        0.0000000000000000     
  -5.0781250000000018        1.0156250000000000        0.0000000000000000     
  -5.0000000000000009        1.0156250000000002        0.0000000000000000     
  -5.6250000000000000        1.0937500000000000        0.0000000000000000     
  -5.5468750000000000        1.0937500000000002        0.0000000000000000     
  -5.4687499999999991        1.0937499999999998        0.0000000000000000     
  -5.3906250000000009        1.0937500000000000        0.0000000000000000     
  -5.3125000000000009        1.0937500000000004        0.0000000000000000     
  -5.2343750000000000        1.0937499999999998        0.0000000000000000     
  -5.1562500000000018        1.0937500000000000        0.0000000000000000     
  -5.0781250000000000        1.0937500000000004        0.0000000000000000     
  -5.0000000000000000        1.0937499999999998        0.0000000000000000     
  -5.6249999999999991        1.1718750000000000        0.0000000000000000     
  -5.5468750000000000        1.1718750000000000        0.0000000000000000     
  -5.4687500000000000        1.1718750000000000        0.0000000000000000     
  -5.3906250000000000        1.1718750000000000        0.0000000000000000     
  -5.3125000000000009        1.1718750000000000        0.0000000000000000     
  -5.2343750000000000        1.1718750000000000        0.0000000000000000     
  -5.1562500000000009        1.1718750000000000        0.0000000000000000     
  -5.0781250000000009        1.1718750000000000        0.0000000000000000     
  -5.0000000000000000        1.1718750000000000        0.0000000000000000     
  -5.6250000000000009        1.2500000000000000        0.0000000000000000     
  -5.5468750000000018        1.2500000000000000        0.0000000000000000     
  -5.4687500000000000        1.2500000000000000        0.0000000000000000     
  -5.3906250000000009        1.2500000000000000        0.0000000000000000     
  -5.3125000000000018        1.2500000000000000        0.0000000000000000     
  -5.2343750000000009        1.2500000000000002        0.0000000000000000     
  -5.1562500000000009        1.2500000000000000        0.0000000000000000     
  -5.0781250000000000        1.2499999999999998        0.0000000000000000     
  -5.0000000000000018        1.2500000000000002        0.0000000000000000     
  -10.000000000000004        1.2500000000000002        0.0000000000000000     
  -9.9218750000000000        1.2499999999999998        0.0000000000000000     
  -9.8437500000000000        1.2500000000000000        0.0000000000000000     
  -9.7656250000000018        1.2500000000000002        0.0000000000000000     
  -9.6875000000000018        1.2500000000000000        0.0000000000000000     
  -9.6093750000000018        1.2500000000000000        0.0000000000000000     
  -9.5312500000000018        1.2500000000000000        0.0000000000000000     
  -9.4531250000000000        1.2500000000000000        0.0000000000000000     
  -9.3750000000000018        1.2500000000000002        0.0000000000000000     
  -10.000000000000000        1.3281249999999998        0.0000000000000000     
  -9.9218750000000000        1.3281250000000002        0.0000000000000000     
  -9.8437500000000000        1.3281250000000000        0.0000000000000000     
  -9.7656250000000000        1.3281249999999998        0.0000000000000000     
  -9.6875000000000000        1.3281250000000002        0.0000000000000000     
  -9.6093750000000000        1.3281250000000000        0.0000000000000000     
  -9.5312500000000000        1.3281249999999998        0.0000000000000000     
  -9.4531250000000000        1.3281250000000004        0.0000000000000000     
  -9.3750000000000018        1.3281250000000000        0.0000000000000000     
  -9.9999999999999982        1.4062499999999998        0.0000000000000000     
  -9.9218750000000018        1.4062500000000002        0.0000000000000000     
  -9.8437500000000000        1.4062500000000000        0.0000000000000000     
  -9.7656250000000000        1.4062500000000000        0.0000000000000000     
  -9.6875000000000018        1.4062500000000000        0.0000000000000000     
  -9.6093750000000018        1.4062500000000000        0.0000000000000000     
  -9.5312500000000000        1.4062500000000000        0.0000000000000000     
  -9.4531250000000018        1.4062500000000000        0.0000000000000000     
  -9.3750000000000000        1.4062499999999998        0.0000000000000000     
  -10.000000000000002        1.4843750000000002        0.0000000000000000     
  -9.9218750000000000        1.4843749999999998        0.0000000000000000     
  -9.8437500000000000        1.4843750000000000        0.0000000000000000     
  -9.7656250000000018        1.4843750000000002        0.0000000000000000     
  -9.6875000000000018        1.4843749999999998        0.0000000000000000     
  -9.6093750000000000        1.4843750000000000        0.0000000000000000     
  -9.5312500000000000        1.4843750000000000        0.0000000000000000     
  -9.4531250000000018        1.4843750000000000        0.0000000000000000     
  -9.3750000000000018        1.4843750000000000        0.0000000000000000     
  -10.000000000000002        1.5625000000000002        0.0000000000000000     
  -9.9218750000000018        1.5625000000000002        0.0000000000000000     
  -9.8437500000000000        1.5625000000000002        0.0000000000000000     
  -9.7656250000000018        1.5625000000000002        0.0000000000000000     
  -9.6875000000000036        1.5625000000000004        0.0000000000000000     
  -9.6093750000000000        1.5625000000000000        0.0000000000000000     
  -9.5312499999999982        1.5624999999999996        0.0000000000000000     
  -9.4531250000000018        1.5625000000000004        0.0000000000000000     
  -9.3750000000000000        1.5624999999999998        0.0000000000000000     
  -10.000000000000002        1.6406250000000004        0.0000000000000000     
  -9.9218750000000036        1.6406250000000002        0.0000000000000000     
  -9.8437500000000000        1.6406250000000000        0.0000000000000000     
  -9.7656250000000018        1.6406250000000000        0.0000000000000000     
  -9.6875000000000018        1.6406250000000000        0.0000000000000000     
  -9.6093750000000000        1.6406250000000004        0.0000000000000000     
  -9.5312500000000018        1.6406250000000002        0.0000000000000000     
  -9.4531250000000000        1.6406249999999998        0.0000000000000000     
  -9.3750000000000000        1.6406249999999998        0.0000000000000000     
  -10.000000000000002        1.7187500000000002        0.0000000000000000     
  -9.9218750000000018        1.7187500000000002        0.0000000000000000     
  -9.8437500000000000        1.7187500000000000        0.0000000000000000     
  -9.7656250000000000        1.7187500000000000        0.0000000000000000     
  -9.6875000000000018        1.7187499999999998        0.0000000000000000     
  -9.6093750000000018        1.7187500000000000        0.0000000000000000     
  -9.5312500000000000        1.7187500000000000        0.0000000000000000     
  -9.4531250000000000        1.7187500000000000        0.0000000000000000     
  -9.3750000000000000        1.7187500000000000        0.0000000000000000     
  -10.000000000000000        1.7968749999999998        0.0000000000000000     
  -9.9218750000000018        1.7968750000000004        0.0000000000000000     
  -9.8437500000000000        1.7968750000000000        0.0000000000000000     
  -9.7656250000000018        1.7968750000000000        0.0000000000000000     
  -9.6875000000000018        1.7968750000000004        0.0000000000000000     
  -9.6093750000000000        1.7968749999999996        0.0000000000000000     
  -9.5312500000000018        1.7968750000000000        0.0000000000000000     
  -9.4531250000000018        1.7968750000000004        0.0000000000000000     
  -9.3750000000000018        1.7968750000000000        0.0000000000000000     
  -10.000000000000004        1.8750000000000004        0.0000000000000000     
  -9.9218750000000000        1.8750000000000000        0.0000000000000000     
  -9.8437500000000000        1.8749999999999998        0.0000000000000000     
  -9.7656250000000018        1.8750000000000000        0.0000000000000000     
  -9.6875000000000018        1.8750000000000002        0.0000000000000000     
  -9.6093750000000018        1.8749999999999998        0.0000000000000000     
  -9.5312500000000018        1.8750000000000002        0.0000000000000000     
  -9.4531250000000000        1.8750000000000002        0.0000000000000000     
  -9.3750000000000018        1.8750000000000002        0.0000000000000000     
  -9.3750000000000018        1.2500000000000002        0.0000000000000000     
  -9.2968750000000000        1.2500000000000002        0.0000000000000000     
  -9.2187500000000000        1.2500000000000002        0.0000000000000000     
  -9.1406250000000000        1.2500000000000000        0.0000000000000000     
  -9.0625000000000000        1.2499999999999998        0.0000000000000000     
  -8.9843750000000018        1.2500000000000000        0.0000000000000000     
  -8.9062500000000018        1.2500000000000002        0.0000000000000000     
  -8.8281250000000000        1.2500000000000000        0.0000000000000000     
  -8.7500000000000018        1.2500000000000002        0.0000000000000000     
  -9.3750000000000018        1.3281250000000000        0.0000000000000000     
  -9.2968750000000018        1.3281250000000004        0.0000000000000000     
  -9.2187500000000018        1.3281250000000002        0.0000000000000000     
  -9.1406250000000018        1.3281250000000000        0.0000000000000000     
  -9.0625000000000018        1.3281250000000004        0.0000000000000000     
  -8.9843750000000018        1.3281250000000000        0.0000000000000000     
  -8.9062500000000018        1.3281250000000000        0.0000000000000000     
  -8.8281250000000018        1.3281250000000004        0.0000000000000000     
  -8.7500000000000018        1.3281250000000000        0.0000000000000000     
  -9.3750000000000000        1.4062499999999998        0.0000000000000000     
  -9.2968750000000018        1.4062500000000002        0.0000000000000000     
  -9.2187500000000018        1.4062500000000000        0.0000000000000000     
  -9.1406250000000018        1.4062500000000002        0.0000000000000000     
  -9.0625000000000000        1.4062500000000000        0.0000000000000000     
  -8.9843750000000000        1.4062500000000000        0.0000000000000000     
  -8.9062500000000000        1.4062500000000000        0.0000000000000000     
  -8.8281250000000018        1.4062500000000002        0.0000000000000000     
  -8.7500000000000000        1.4062500000000002        0.0000000000000000     
  -9.3750000000000018        1.4843750000000000        0.0000000000000000     
  -9.2968749999999982        1.4843749999999998        0.0000000000000000     
  -9.2187499999999982        1.4843750000000000        0.0000000000000000     
  -9.1406250000000018        1.4843750000000004        0.0000000000000000     
  -9.0624999999999982        1.4843749999999998        0.0000000000000000     
  -8.9843750000000000        1.4843750000000000        0.0000000000000000     
  -8.9062500000000018        1.4843750000000000        0.0000000000000000     
  -8.8281249999999982        1.4843749999999998        0.0000000000000000     
  -8.7499999999999982        1.4843749999999998        0.0000000000000000     
  -9.3750000000000000        1.5624999999999998        0.0000000000000000     
  -9.2968750000000018        1.5625000000000004        0.0000000000000000     
  -9.2187500000000000        1.5624999999999998        0.0000000000000000     
  -9.1406250000000000        1.5625000000000000        0.0000000000000000     
  -9.0625000000000018        1.5625000000000004        0.0000000000000000     
  -8.9843750000000036        1.5625000000000000        0.0000000000000000     
  -8.9062500000000000        1.5625000000000000        0.0000000000000000     
  -8.8281250000000018        1.5625000000000002        0.0000000000000000     
  -8.7500000000000018        1.5625000000000000        0.0000000000000000     
  -9.3750000000000000        1.6406249999999998        0.0000000000000000     
  -9.2968750000000018        1.6406250000000002        0.0000000000000000     
  -9.2187500000000000        1.6406250000000000        0.0000000000000000     
  -9.1406250000000000        1.6406249999999998        0.0000000000000000     
  -9.0625000000000000        1.6406249999999998        0.0000000000000000     
  -8.9843750000000018        1.6406250000000004        0.0000000000000000     
  -8.9062500000000000        1.6406249999999998        0.0000000000000000     
  -8.8281250000000000        1.6406249999999998        0.0000000000000000     
  -8.7500000000000000        1.6406250000000002        0.0000000000000000     
  -9.3750000000000000        1.7187500000000000        0.0000000000000000     
  -9.2968750000000018        1.7187500000000002        0.0000000000000000     
  -9.2187500000000000        1.7187500000000000        0.0000000000000000     
  -9.1406250000000036        1.7187500000000004        0.0000000000000000     
  -9.0624999999999982        1.7187500000000000        0.0000000000000000     
  -8.9843749999999982        1.7187500000000000        0.0000000000000000     
  -8.9062500000000018        1.7187500000000002        0.0000000000000000     
  -8.8281249999999982        1.7187500000000000        0.0000000000000000     
  -8.7499999999999964        1.7187499999999998        0.0000000000000000     
  -9.3750000000000018        1.7968750000000000        0.0000000000000000     
  -9.2968750000000018        1.7968750000000004        0.0000000000000000     
  -9.2187500000000018        1.7968750000000000        0.0000000000000000     
  -9.1406250000000000        1.7968749999999998        0.0000000000000000     
  -9.0625000000000018        1.7968750000000004        0.0000000000000000     
  -8.9843750000000000        1.7968749999999998        0.0000000000000000     
  -8.9062500000000036        1.7968750000000000        0.0000000000000000     
  -8.8281250000000018        1.7968750000000004        0.0000000000000000     
  -8.7500000000000000        1.7968749999999998        0.0000000000000000     
  -9.3750000000000018        1.8750000000000002        0.0000000000000000     
  -9.2968750000000000        1.8750000000000002        0.0000000000000000     
  -9.2187500000000000        1.8750000000000004        0.0000000000000000     
  -9.1406250000000000        1.8749999999999998        0.0000000000000000     
  -9.0625000000000000        1.8749999999999998        0.0000000000000000     
  -8.9843750000000018        1.8750000000000002        0.0000000000000000     
  -8.9062500000000018        1.8750000000000002        0.0000000000000000     
  -8.8281250000000000        1.8749999999999998        0.0000000000000000     
  -8.7500000000000018        1.8750000000000004        0.0000000000000000     
  -8.7500000000000018        1.2500000000000002        0.0000000000000000     
  -8.6718750000000018        1.2500000000000000        0.0000000000000000     
  -8.5937500000000000        1.2500000000000002        0.0000000000000000     
  -8.5156250000000000        1.2500000000000000        0.0000000000000000     
  -8.4375000000000018        1.2500000000000000        0.0000000000000000     
  -8.3593750000000000        1.2500000000000000        0.0000000000000000     
  -8.2812500000000000        1.2500000000000002        0.0000000000000000     
  -8.2031250000000018        1.2500000000000000        0.0000000000000000     
  -8.1250000000000000        1.2500000000000002        0.0000000000000000     
  -8.7500000000000018        1.3281250000000000        0.0000000000000000     
  -8.6718750000000000        1.3281250000000004        0.0000000000000000     
  -8.5937500000000018        1.3281250000000002        0.0000000000000000     
  -8.5156250000000018        1.3281250000000000        0.0000000000000000     
  -8.4375000000000000        1.3281250000000004        0.0000000000000000     
  -8.3593750000000000        1.3281250000000000        0.0000000000000000     
  -8.2812500000000018        1.3281250000000002        0.0000000000000000     
  -8.2031250000000000        1.3281250000000004        0.0000000000000000     
  -8.1250000000000000        1.3281250000000000        0.0000000000000000     
  -8.7500000000000000        1.4062500000000002        0.0000000000000000     
  -8.6718750000000018        1.4062500000000000        0.0000000000000000     
  -8.5937500000000000        1.4062500000000000        0.0000000000000000     
  -8.5156250000000000        1.4062500000000000        0.0000000000000000     
  -8.4375000000000000        1.4062499999999998        0.0000000000000000     
  -8.3593750000000000        1.4062500000000000        0.0000000000000000     
  -8.2812500000000000        1.4062500000000000        0.0000000000000000     
  -8.2031250000000000        1.4062500000000000        0.0000000000000000     
  -8.1250000000000018        1.4062500000000002        0.0000000000000000     
  -8.7499999999999982        1.4843749999999998        0.0000000000000000     
  -8.6718750000000018        1.4843750000000000        0.0000000000000000     
  -8.5937500000000018        1.4843750000000000        0.0000000000000000     
  -8.5156249999999964        1.4843750000000000        0.0000000000000000     
  -8.4375000000000018        1.4843750000000002        0.0000000000000000     
  -8.3593750000000018        1.4843750000000000        0.0000000000000000     
  -8.2812499999999964        1.4843750000000000        0.0000000000000000     
  -8.2031250000000018        1.4843750000000000        0.0000000000000000     
  -8.1249999999999982        1.4843749999999998        0.0000000000000000     
  -8.7500000000000018        1.5625000000000000        0.0000000000000000     
  -8.6718750000000018        1.5625000000000004        0.0000000000000000     
  -8.5937500000000000        1.5624999999999998        0.0000000000000000     
  -8.5156250000000018        1.5625000000000000        0.0000000000000000     
  -8.4375000000000018        1.5625000000000002        0.0000000000000000     
  -8.3593750000000000        1.5625000000000000        0.0000000000000000     
  -8.2812500000000018        1.5625000000000000        0.0000000000000000     
  -8.2031250000000018        1.5625000000000002        0.0000000000000000     
  -8.1250000000000000        1.5625000000000000        0.0000000000000000     
  -8.7500000000000000        1.6406250000000002        0.0000000000000000     
  -8.6718750000000018        1.6406249999999998        0.0000000000000000     
  -8.5937500000000000        1.6406250000000000        0.0000000000000000     
  -8.5156250000000000        1.6406250000000000        0.0000000000000000     
  -8.4375000000000018        1.6406249999999998        0.0000000000000000     
  -8.3593750000000000        1.6406250000000004        0.0000000000000000     
  -8.2812500000000000        1.6406250000000000        0.0000000000000000     
  -8.2031250000000000        1.6406249999999998        0.0000000000000000     
  -8.1250000000000000        1.6406250000000002        0.0000000000000000     
  -8.7499999999999964        1.7187499999999998        0.0000000000000000     
  -8.6718750000000018        1.7187500000000002        0.0000000000000000     
  -8.5937500000000000        1.7187500000000000        0.0000000000000000     
  -8.5156249999999982        1.7187499999999998        0.0000000000000000     
  -8.4375000000000018        1.7187500000000002        0.0000000000000000     
  -8.3593750000000000        1.7187500000000000        0.0000000000000000     
  -8.2812499999999982        1.7187499999999998        0.0000000000000000     
  -8.2031250000000018        1.7187500000000002        0.0000000000000000     
  -8.1250000000000000        1.7187499999999998        0.0000000000000000     
  -8.7500000000000000        1.7968749999999998        0.0000000000000000     
  -8.6718750000000036        1.7968750000000007        0.0000000000000000     
  -8.5937500000000000        1.7968750000000000        0.0000000000000000     
  -8.5156250000000000        1.7968749999999996        0.0000000000000000     
  -8.4375000000000018        1.7968750000000007        0.0000000000000000     
  -8.3593750000000000        1.7968749999999998        0.0000000000000000     
  -8.2812500000000000        1.7968749999999996        0.0000000000000000     
  -8.2031250000000036        1.7968750000000007        0.0000000000000000     
  -8.1249999999999964        1.7968749999999998        0.0000000000000000     
  -8.7500000000000018        1.8750000000000004        0.0000000000000000     
  -8.6718750000000018        1.8750000000000000        0.0000000000000000     
  -8.5937500000000000        1.8750000000000004        0.0000000000000000     
  -8.5156250000000000        1.8750000000000002        0.0000000000000000     
  -8.4375000000000018        1.8749999999999998        0.0000000000000000     
  -8.3593750000000000        1.8750000000000002        0.0000000000000000     
  -8.2812500000000000        1.8750000000000002        0.0000000000000000     
  -8.2031250000000018        1.8750000000000000        0.0000000000000000     
  -8.1250000000000000        1.8750000000000004        0.0000000000000000     
  -8.1250000000000000        1.2500000000000002        0.0000000000000000     
  -8.0468750000000000        1.2500000000000000        0.0000000000000000     
  -7.9687500000000000        1.2500000000000002        0.0000000000000000     
  -7.8906249999999991        1.2500000000000000        0.0000000000000000     
  -7.8125000000000000        1.2500000000000000        0.0000000000000000     
  -7.7343750000000000        1.2500000000000000        0.0000000000000000     
  -7.6562500000000009        1.2500000000000002        0.0000000000000000     
  -7.5781250000000009        1.2500000000000000        0.0000000000000000     
  -7.5000000000000018        1.2500000000000002        0.0000000000000000     
  -8.1250000000000000        1.3281250000000000        0.0000000000000000     
  -8.0468750000000018        1.3281250000000004        0.0000000000000000     
  -7.9687500000000000        1.3281250000000002        0.0000000000000000     
  -7.8906250000000009        1.3281250000000000        0.0000000000000000     
  -7.8125000000000000        1.3281250000000004        0.0000000000000000     
  -7.7343750000000009        1.3281250000000000        0.0000000000000000     
  -7.6562500000000018        1.3281250000000002        0.0000000000000000     
  -7.5781250000000000        1.3281250000000004        0.0000000000000000     
  -7.5000000000000009        1.3281250000000000        0.0000000000000000     
  -8.1250000000000018        1.4062500000000002        0.0000000000000000     
  -8.0468750000000018        1.4062500000000000        0.0000000000000000     
  -7.9687500000000000        1.4062500000000000        0.0000000000000000     
  -7.8906250000000000        1.4062500000000000        0.0000000000000000     
  -7.8125000000000000        1.4062499999999998        0.0000000000000000     
  -7.7343750000000000        1.4062500000000000        0.0000000000000000     
  -7.6562500000000009        1.4062500000000000        0.0000000000000000     
  -7.5781250000000009        1.4062500000000000        0.0000000000000000     
  -7.5000000000000009        1.4062500000000002        0.0000000000000000     
  -8.1249999999999982        1.4843749999999998        0.0000000000000000     
  -8.0468750000000000        1.4843750000000000        0.0000000000000000     
  -7.9687500000000000        1.4843750000000000        0.0000000000000000     
  -7.8906249999999982        1.4843750000000000        0.0000000000000000     
  -7.8125000000000000        1.4843750000000002        0.0000000000000000     
  -7.7343750000000000        1.4843750000000000        0.0000000000000000     
  -7.6562499999999982        1.4843750000000000        0.0000000000000000     
  -7.5781250000000000        1.4843750000000000        0.0000000000000000     
  -7.4999999999999991        1.4843749999999998        0.0000000000000000     
  -8.1250000000000000        1.5625000000000000        0.0000000000000000     
  -8.0468750000000000        1.5625000000000004        0.0000000000000000     
  -7.9687500000000000        1.5624999999999998        0.0000000000000000     
  -7.8906250000000009        1.5625000000000000        0.0000000000000000     
  -7.8125000000000009        1.5625000000000002        0.0000000000000000     
  -7.7343750000000009        1.5625000000000000        0.0000000000000000     
  -7.6562500000000009        1.5625000000000000        0.0000000000000000     
  -7.5781250000000009        1.5625000000000002        0.0000000000000000     
  -7.5000000000000009        1.5625000000000000        0.0000000000000000     
  -8.1250000000000000        1.6406250000000002        0.0000000000000000     
  -8.0468750000000018        1.6406249999999998        0.0000000000000000     
  -7.9687500000000000        1.6406250000000000        0.0000000000000000     
  -7.8906249999999991        1.6406250000000000        0.0000000000000000     
  -7.8125000000000009        1.6406249999999998        0.0000000000000000     
  -7.7343750000000000        1.6406250000000004        0.0000000000000000     
  -7.6562500000000009        1.6406250000000000        0.0000000000000000     
  -7.5781250000000000        1.6406249999999998        0.0000000000000000     
  -7.5000000000000000        1.6406250000000002        0.0000000000000000     
  -8.1250000000000000        1.7187499999999998        0.0000000000000000     
  -8.0468750000000036        1.7187500000000002        0.0000000000000000     
  -7.9687500000000000        1.7187500000000000        0.0000000000000000     
  -7.8906249999999982        1.7187499999999998        0.0000000000000000     
  -7.8125000000000000        1.7187500000000002        0.0000000000000000     
  -7.7343750000000000        1.7187500000000000        0.0000000000000000     
  -7.6562499999999982        1.7187499999999998        0.0000000000000000     
  -7.5781250000000000        1.7187500000000002        0.0000000000000000     
  -7.5000000000000000        1.7187499999999998        0.0000000000000000     
  -8.1249999999999964        1.7968749999999998        0.0000000000000000     
  -8.0468750000000000        1.7968750000000007        0.0000000000000000     
  -7.9687500000000000        1.7968750000000000        0.0000000000000000     
  -7.8906249999999991        1.7968749999999996        0.0000000000000000     
  -7.8125000000000018        1.7968750000000007        0.0000000000000000     
  -7.7343750000000000        1.7968749999999998        0.0000000000000000     
  -7.6562499999999991        1.7968749999999996        0.0000000000000000     
  -7.5781250000000027        1.7968750000000007        0.0000000000000000     
  -7.4999999999999982        1.7968749999999998        0.0000000000000000     
  -8.1250000000000000        1.8750000000000004        0.0000000000000000     
  -8.0468750000000000        1.8750000000000000        0.0000000000000000     
  -7.9687500000000000        1.8750000000000004        0.0000000000000000     
  -7.8906249999999991        1.8750000000000002        0.0000000000000000     
  -7.8125000000000000        1.8749999999999998        0.0000000000000000     
  -7.7343750000000000        1.8750000000000002        0.0000000000000000     
  -7.6562500000000009        1.8750000000000002        0.0000000000000000     
  -7.5781250000000009        1.8750000000000000        0.0000000000000000     
  -7.5000000000000018        1.8750000000000004        0.0000000000000000     
  -7.5000000000000018        1.2500000000000002        0.0000000000000000     
  -7.4218750000000018        1.2500000000000000        0.0000000000000000     
  -7.3437500000000018        1.2500000000000002        0.0000000000000000     
  -7.2656250000000000        1.2500000000000000        0.0000000000000000     
  -7.1875000000000009        1.2500000000000000        0.0000000000000000     
  -7.1093750000000000        1.2500000000000000        0.0000000000000000     
  -7.0312500000000009        1.2500000000000002        0.0000000000000000     
  -6.9531250000000009        1.2500000000000000        0.0000000000000000     
  -6.8750000000000009        1.2500000000000002        0.0000000000000000     
  -7.5000000000000009        1.3281250000000000        0.0000000000000000     
  -7.4218750000000009        1.3281250000000004        0.0000000000000000     
  -7.3437500000000009        1.3281250000000002        0.0000000000000000     
  -7.2656250000000009        1.3281250000000000        0.0000000000000000     
  -7.1875000000000009        1.3281250000000004        0.0000000000000000     
  -7.1093750000000009        1.3281250000000000        0.0000000000000000     
  -7.0312500000000009        1.3281250000000002        0.0000000000000000     
  -6.9531250000000009        1.3281250000000004        0.0000000000000000     
  -6.8750000000000009        1.3281250000000000        0.0000000000000000     
  -7.5000000000000009        1.4062500000000002        0.0000000000000000     
  -7.4218750000000009        1.4062500000000000        0.0000000000000000     
  -7.3437500000000000        1.4062500000000000        0.0000000000000000     
  -7.2656250000000000        1.4062500000000000        0.0000000000000000     
  -7.1875000000000000        1.4062499999999998        0.0000000000000000     
  -7.1093750000000000        1.4062500000000000        0.0000000000000000     
  -7.0312500000000000        1.4062500000000000        0.0000000000000000     
  -6.9531250000000018        1.4062500000000000        0.0000000000000000     
  -6.8750000000000018        1.4062500000000002        0.0000000000000000     
  -7.4999999999999991        1.4843749999999998        0.0000000000000000     
  -7.4218750000000000        1.4843750000000000        0.0000000000000000     
  -7.3437500000000009        1.4843750000000000        0.0000000000000000     
  -7.2656249999999991        1.4843750000000000        0.0000000000000000     
  -7.1875000000000018        1.4843750000000002        0.0000000000000000     
  -7.1093750000000009        1.4843750000000000        0.0000000000000000     
  -7.0312499999999982        1.4843750000000000        0.0000000000000000     
  -6.9531250000000009        1.4843750000000000        0.0000000000000000     
  -6.8749999999999982        1.4843749999999998        0.0000000000000000     
  -7.5000000000000009        1.5625000000000000        0.0000000000000000     
  -7.4218750000000000        1.5625000000000004        0.0000000000000000     
  -7.3437500000000009        1.5624999999999998        0.0000000000000000     
  -7.2656250000000009        1.5625000000000000        0.0000000000000000     
  -7.1875000000000000        1.5625000000000002        0.0000000000000000     
  -7.1093750000000009        1.5625000000000000        0.0000000000000000     
  -7.0312500000000000        1.5625000000000000        0.0000000000000000     
  -6.9531250000000018        1.5625000000000002        0.0000000000000000     
  -6.8750000000000009        1.5625000000000000        0.0000000000000000     
  -7.5000000000000000        1.6406250000000002        0.0000000000000000     
  -7.4218750000000009        1.6406249999999998        0.0000000000000000     
  -7.3437500000000000        1.6406250000000000        0.0000000000000000     
  -7.2656250000000018        1.6406250000000000        0.0000000000000000     
  -7.1875000000000018        1.6406249999999998        0.0000000000000000     
  -7.1093750000000000        1.6406250000000004        0.0000000000000000     
  -7.0312500000000000        1.6406250000000000        0.0000000000000000     
  -6.9531250000000018        1.6406249999999998        0.0000000000000000     
  -6.8749999999999991        1.6406250000000002        0.0000000000000000     
  -7.5000000000000000        1.7187499999999998        0.0000000000000000     
  -7.4218750000000018        1.7187500000000002        0.0000000000000000     
  -7.3437500000000009        1.7187500000000000        0.0000000000000000     
  -7.2656249999999991        1.7187499999999998        0.0000000000000000     
  -7.1874999999999991        1.7187500000000002        0.0000000000000000     
  -7.1093750000000000        1.7187500000000000        0.0000000000000000     
  -7.0312499999999991        1.7187499999999998        0.0000000000000000     
  -6.9531250000000009        1.7187500000000002        0.0000000000000000     
  -6.8749999999999991        1.7187499999999998        0.0000000000000000     
  -7.4999999999999982        1.7968749999999998        0.0000000000000000     
  -7.4218750000000018        1.7968750000000007        0.0000000000000000     
  -7.3437500000000009        1.7968750000000000        0.0000000000000000     
  -7.2656249999999982        1.7968749999999996        0.0000000000000000     
  -7.1875000000000027        1.7968750000000007        0.0000000000000000     
  -7.1093750000000009        1.7968749999999998        0.0000000000000000     
  -7.0312499999999982        1.7968749999999996        0.0000000000000000     
  -6.9531250000000036        1.7968750000000007        0.0000000000000000     
  -6.8749999999999991        1.7968749999999998        0.0000000000000000     
  -7.5000000000000018        1.8750000000000004        0.0000000000000000     
  -7.4218750000000018        1.8750000000000000        0.0000000000000000     
  -7.3437500000000018        1.8750000000000004        0.0000000000000000     
  -7.2656250000000000        1.8750000000000002        0.0000000000000000     
  -7.1875000000000009        1.8749999999999998        0.0000000000000000     
  -7.1093750000000000        1.8750000000000002        0.0000000000000000     
  -7.0312500000000009        1.8750000000000002        0.0000000000000000     
  -6.9531250000000009        1.8750000000000000        0.0000000000000000     
  -6.8750000000000009        1.8750000000000004        0.0000000000000000     
  -6.8750000000000009        1.2500000000000002        0.0000000000000000     
  -6.7968750000000018        1.2500000000000000        0.0000000000000000     
  -6.7187500000000009        1.2500000000000002        0.0000000000000000     
  -6.6406250000000000        1.2500000000000000        0.0000000000000000     
  -6.5625000000000018        1.2500000000000000        0.0000000000000000     
  -6.4843750000000009        1.2500000000000000        0.0000000000000000     
  -6.4062500000000009        1.2500000000000002        0.0000000000000000     
  -6.3281250000000018        1.2500000000000000        0.0000000000000000     
  -6.2500000000000009        1.2500000000000002        0.0000000000000000     
  -6.8750000000000009        1.3281250000000000        0.0000000000000000     
  -6.7968750000000009        1.3281250000000004        0.0000000000000000     
  -6.7187500000000009        1.3281250000000002        0.0000000000000000     
  -6.6406250000000009        1.3281250000000000        0.0000000000000000     
  -6.5625000000000009        1.3281250000000004        0.0000000000000000     
  -6.4843750000000009        1.3281250000000000        0.0000000000000000     
  -6.4062500000000000        1.3281250000000002        0.0000000000000000     
  -6.3281250000000009        1.3281250000000004        0.0000000000000000     
  -6.2500000000000009        1.3281250000000000        0.0000000000000000     
  -6.8750000000000018        1.4062500000000002        0.0000000000000000     
  -6.7968750000000009        1.4062500000000000        0.0000000000000000     
  -6.7187500000000000        1.4062500000000000        0.0000000000000000     
  -6.6406250000000000        1.4062500000000000        0.0000000000000000     
  -6.5625000000000009        1.4062499999999998        0.0000000000000000     
  -6.4843750000000000        1.4062500000000000        0.0000000000000000     
  -6.4062500000000009        1.4062500000000000        0.0000000000000000     
  -6.3281250000000009        1.4062500000000000        0.0000000000000000     
  -6.2500000000000009        1.4062500000000002        0.0000000000000000     
  -6.8749999999999982        1.4843749999999998        0.0000000000000000     
  -6.7968750000000018        1.4843750000000000        0.0000000000000000     
  -6.7187500000000009        1.4843750000000000        0.0000000000000000     
  -6.6406249999999982        1.4843750000000000        0.0000000000000000     
  -6.5625000000000018        1.4843750000000002        0.0000000000000000     
  -6.4843750000000009        1.4843750000000000        0.0000000000000000     
  -6.4062499999999982        1.4843750000000000        0.0000000000000000     
  -6.3281250000000018        1.4843750000000000        0.0000000000000000     
  -6.2499999999999991        1.4843749999999998        0.0000000000000000     
  -6.8750000000000009        1.5625000000000000        0.0000000000000000     
  -6.7968750000000000        1.5625000000000004        0.0000000000000000     
  -6.7187499999999991        1.5624999999999998        0.0000000000000000     
  -6.6406250000000000        1.5625000000000000        0.0000000000000000     
  -6.5625000000000000        1.5625000000000002        0.0000000000000000     
  -6.4843750000000000        1.5625000000000000        0.0000000000000000     
  -6.4062500000000000        1.5625000000000000        0.0000000000000000     
  -6.3281250000000000        1.5625000000000002        0.0000000000000000     
  -6.2500000000000000        1.5625000000000000        0.0000000000000000     
  -6.8749999999999991        1.6406250000000002        0.0000000000000000     
  -6.7968750000000009        1.6406249999999998        0.0000000000000000     
  -6.7187500000000000        1.6406250000000000        0.0000000000000000     
  -6.6406250000000009        1.6406250000000000        0.0000000000000000     
  -6.5625000000000009        1.6406249999999998        0.0000000000000000     
  -6.4843750000000009        1.6406250000000004        0.0000000000000000     
  -6.4062499999999991        1.6406250000000000        0.0000000000000000     
  -6.3281250000000009        1.6406249999999998        0.0000000000000000     
  -6.2500000000000009        1.6406250000000002        0.0000000000000000     
  -6.8749999999999991        1.7187499999999998        0.0000000000000000     
  -6.7968750000000018        1.7187500000000002        0.0000000000000000     
  -6.7187500000000009        1.7187500000000000        0.0000000000000000     
  -6.6406249999999982        1.7187499999999998        0.0000000000000000     
  -6.5625000000000018        1.7187500000000002        0.0000000000000000     
  -6.4843750000000009        1.7187500000000000        0.0000000000000000     
  -6.4062499999999982        1.7187499999999998        0.0000000000000000     
  -6.3281250000000018        1.7187500000000002        0.0000000000000000     
  -6.2499999999999991        1.7187499999999998        0.0000000000000000     
  -6.8749999999999991        1.7968749999999998        0.0000000000000000     
  -6.7968750000000018        1.7968750000000007        0.0000000000000000     
  -6.7187500000000000        1.7968750000000000        0.0000000000000000     
  -6.6406249999999991        1.7968749999999996        0.0000000000000000     
  -6.5625000000000018        1.7968750000000007        0.0000000000000000     
  -6.4843750000000000        1.7968749999999998        0.0000000000000000     
  -6.4062499999999991        1.7968749999999996        0.0000000000000000     
  -6.3281250000000009        1.7968750000000007        0.0000000000000000     
  -6.2499999999999991        1.7968749999999998        0.0000000000000000     
  -6.8750000000000009        1.8750000000000004        0.0000000000000000     
  -6.7968750000000018        1.8750000000000000        0.0000000000000000     
  -6.7187500000000009        1.8750000000000004        0.0000000000000000     
  -6.6406250000000000        1.8750000000000002        0.0000000000000000     
  -6.5625000000000018        1.8749999999999998        0.0000000000000000     
  -6.4843750000000009        1.8750000000000002        0.0000000000000000     
  -6.4062500000000009        1.8750000000000002        0.0000000000000000     
  -6.3281250000000018        1.8750000000000000        0.0000000000000000     
  -6.2500000000000009        1.8750000000000004        0.0000000000000000     
  -6.2500000000000009        1.2500000000000002        0.0000000000000000     
  -6.1718750000000009        1.2500000000000000        0.0000000000000000     
  -6.0937500000000018        1.2500000000000002        0.0000000000000000     
  -6.0156250000000009        1.2500000000000000        0.0000000000000000     
  -5.9375000000000000        1.2500000000000000        0.0000000000000000     
  -5.8593750000000000        1.2500000000000000        0.0000000000000000     
  -5.7812500000000018        1.2500000000000002        0.0000000000000000     
  -5.7031250000000000        1.2500000000000000        0.0000000000000000     
  -5.6250000000000009        1.2500000000000000        0.0000000000000000     
  -6.2500000000000009        1.3281250000000000        0.0000000000000000     
  -6.1718750000000009        1.3281250000000004        0.0000000000000000     
  -6.0937500000000009        1.3281250000000002        0.0000000000000000     
  -6.0156250000000009        1.3281249999999998        0.0000000000000000     
  -5.9375000000000009        1.3281250000000004        0.0000000000000000     
  -5.8593750000000000        1.3281250000000000        0.0000000000000000     
  -5.7812500000000009        1.3281249999999998        0.0000000000000000     
  -5.7031250000000000        1.3281250000000004        0.0000000000000000     
  -5.6250000000000000        1.3281249999999998        0.0000000000000000     
  -6.2500000000000009        1.4062500000000002        0.0000000000000000     
  -6.1718750000000009        1.4062500000000000        0.0000000000000000     
  -6.0937500000000000        1.4062500000000000        0.0000000000000000     
  -6.0156250000000000        1.4062500000000000        0.0000000000000000     
  -5.9375000000000000        1.4062499999999998        0.0000000000000000     
  -5.8593750000000000        1.4062500000000000        0.0000000000000000     
  -5.7812500000000000        1.4062500000000000        0.0000000000000000     
  -5.7031250000000009        1.4062500000000000        0.0000000000000000     
  -5.6250000000000000        1.4062500000000000        0.0000000000000000     
  -6.2499999999999991        1.4843749999999998        0.0000000000000000     
  -6.1718750000000009        1.4843750000000000        0.0000000000000000     
  -6.0937500000000000        1.4843750000000000        0.0000000000000000     
  -6.0156250000000000        1.4843750000000000        0.0000000000000000     
  -5.9374999999999991        1.4843749999999998        0.0000000000000000     
  -5.8593750000000000        1.4843750000000000        0.0000000000000000     
  -5.7812500000000000        1.4843750000000000        0.0000000000000000     
  -5.7031250000000000        1.4843750000000000        0.0000000000000000     
  -5.6250000000000000        1.4843750000000000        0.0000000000000000     
  -6.2500000000000000        1.5625000000000000        0.0000000000000000     
  -6.1718750000000009        1.5625000000000004        0.0000000000000000     
  -6.0937500000000000        1.5625000000000000        0.0000000000000000     
  -6.0156250000000009        1.5625000000000000        0.0000000000000000     
  -5.9375000000000009        1.5625000000000002        0.0000000000000000     
  -5.8593750000000000        1.5625000000000000        0.0000000000000000     
  -5.7812500000000000        1.5625000000000000        0.0000000000000000     
  -5.7031250000000009        1.5625000000000004        0.0000000000000000     
  -5.6250000000000000        1.5625000000000000        0.0000000000000000     
  -6.2500000000000009        1.6406250000000002        0.0000000000000000     
  -6.1718750000000009        1.6406250000000000        0.0000000000000000     
  -6.0937500000000000        1.6406250000000000        0.0000000000000000     
  -6.0156250000000000        1.6406250000000000        0.0000000000000000     
  -5.9375000000000009        1.6406250000000000        0.0000000000000000     
  -5.8593750000000000        1.6406250000000000        0.0000000000000000     
  -5.7812500000000009        1.6406250000000000        0.0000000000000000     
  -5.7031250000000009        1.6406250000000002        0.0000000000000000     
  -5.6250000000000000        1.6406250000000000        0.0000000000000000     
  -6.2499999999999991        1.7187499999999998        0.0000000000000000     
  -6.1718749999999991        1.7187500000000000        0.0000000000000000     
  -6.0937500000000009        1.7187500000000000        0.0000000000000000     
  -6.0156250000000000        1.7187499999999998        0.0000000000000000     
  -5.9374999999999991        1.7187500000000000        0.0000000000000000     
  -5.8593750000000009        1.7187500000000004        0.0000000000000000     
  -5.7812500000000000        1.7187499999999998        0.0000000000000000     
  -5.7031249999999991        1.7187500000000000        0.0000000000000000     
  -5.6250000000000000        1.7187500000000000        0.0000000000000000     
  -6.2499999999999991        1.7968749999999998        0.0000000000000000     
  -6.1718750000000009        1.7968750000000007        0.0000000000000000     
  -6.0937500000000000        1.7968750000000000        0.0000000000000000     
  -6.0156250000000000        1.7968749999999996        0.0000000000000000     
  -5.9375000000000000        1.7968750000000007        0.0000000000000000     
  -5.8593750000000000        1.7968749999999998        0.0000000000000000     
  -5.7812500000000000        1.7968749999999996        0.0000000000000000     
  -5.7031250000000000        1.7968750000000004        0.0000000000000000     
  -5.6250000000000009        1.7968750000000000        0.0000000000000000     
  -6.2500000000000009        1.8750000000000004        0.0000000000000000     
  -6.1718750000000009        1.8750000000000002        0.0000000000000000     
  -6.0937500000000018        1.8750000000000004        0.0000000000000000     
  -6.0156250000000009        1.8750000000000002        0.0000000000000000     
  -5.9375000000000000        1.8750000000000004        0.0000000000000000     
  -5.8593750000000000        1.8749999999999998        0.0000000000000000     
  -5.7812500000000018        1.8750000000000002        0.0000000000000000     
  -5.7031250000000000        1.8750000000000002        0.0000000000000000     
  -5.6250000000000009        1.8750000000000004        0.0000000000000000     
  -5.6250000000000009        1.2500000000000000        0.0000000000000000     
  -5.5468750000000018        1.2500000000000000        0.0000000000000000     
  -5.4687500000000000        1.2500000000000000        0.0000000000000000     
  -5.3906250000000009        1.2500000000000000        0.0000000000000000     
  -5.3125000000000018        1.2500000000000000        0.0000000000000000     
  -5.2343750000000009        1.2500000000000002        0.0000000000000000     
  -5.1562500000000009        1.2500000000000000        0.0000000000000000     
  -5.0781250000000000        1.2499999999999998        0.0000000000000000     
  -5.0000000000000018        1.2500000000000002        0.0000000000000000     
  -5.6250000000000000        1.3281249999999998        0.0000000000000000     
  -5.5468750000000000        1.3281250000000002        0.0000000000000000     
  -5.4687500000000009        1.3281250000000000        0.0000000000000000     
  -5.3906250000000018        1.3281249999999998        0.0000000000000000     
  -5.3125000000000009        1.3281250000000004        0.0000000000000000     
  -5.2343750000000009        1.3281250000000000        0.0000000000000000     
  -5.1562500000000018        1.3281250000000000        0.0000000000000000     
  -5.0781250000000000        1.3281250000000002        0.0000000000000000     
  -5.0000000000000000        1.3281249999999998        0.0000000000000000     
  -5.6250000000000000        1.4062500000000000        0.0000000000000000     
  -5.5468750000000009        1.4062500000000000        0.0000000000000000     
  -5.4687500000000000        1.4062500000000000        0.0000000000000000     
  -5.3906250000000000        1.4062500000000002        0.0000000000000000     
  -5.3125000000000018        1.4062500000000002        0.0000000000000000     
  -5.2343750000000000        1.4062500000000000        0.0000000000000000     
  -5.1562500000000000        1.4062500000000000        0.0000000000000000     
  -5.0781250000000018        1.4062500000000002        0.0000000000000000     
  -4.9999999999999991        1.4062499999999998        0.0000000000000000     
  -5.6250000000000000        1.4843750000000000        0.0000000000000000     
  -5.5468750000000000        1.4843749999999998        0.0000000000000000     
  -5.4687500000000000        1.4843750000000002        0.0000000000000000     
  -5.3906250000000018        1.4843750000000002        0.0000000000000000     
  -5.3125000000000018        1.4843750000000002        0.0000000000000000     
  -5.2343750000000000        1.4843750000000002        0.0000000000000000     
  -5.1562500000000018        1.4843750000000007        0.0000000000000000     
  -5.0781250000000000        1.4843749999999996        0.0000000000000000     
  -5.0000000000000009        1.4843750000000002        0.0000000000000000     
  -5.6250000000000000        1.5625000000000000        0.0000000000000000     
  -5.5468750000000009        1.5625000000000004        0.0000000000000000     
  -5.4687500000000009        1.5624999999999998        0.0000000000000000     
  -5.3906250000000009        1.5624999999999998        0.0000000000000000     
  -5.3125000000000009        1.5625000000000004        0.0000000000000000     
  -5.2343750000000009        1.5625000000000000        0.0000000000000000     
  -5.1562500000000018        1.5625000000000002        0.0000000000000000     
  -5.0781250000000000        1.5625000000000004        0.0000000000000000     
  -5.0000000000000009        1.5625000000000002        0.0000000000000000     
  -5.6250000000000000        1.6406250000000000        0.0000000000000000     
  -5.5468750000000018        1.6406250000000007        0.0000000000000000     
  -5.4687500000000000        1.6406250000000002        0.0000000000000000     
  -5.3906250000000009        1.6406250000000000        0.0000000000000000     
  -5.3125000000000009        1.6406250000000000        0.0000000000000000     
  -5.2343750000000009        1.6406250000000000        0.0000000000000000     
  -5.1562500000000000        1.6406250000000000        0.0000000000000000     
  -5.0781250000000018        1.6406250000000002        0.0000000000000000     
  -5.0000000000000009        1.6406250000000004        0.0000000000000000     
  -5.6250000000000000        1.7187500000000000        0.0000000000000000     
  -5.5468750000000000        1.7187500000000002        0.0000000000000000     
  -5.4687500000000000        1.7187500000000000        0.0000000000000000     
  -5.3906250000000009        1.7187500000000000        0.0000000000000000     
  -5.3125000000000009        1.7187500000000007        0.0000000000000000     
  -5.2343750000000009        1.7187500000000000        0.0000000000000000     
  -5.1562500000000000        1.7187500000000000        0.0000000000000000     
  -5.0781250000000009        1.7187500000000002        0.0000000000000000     
  -5.0000000000000009        1.7187500000000002        0.0000000000000000     
  -5.6250000000000009        1.7968750000000000        0.0000000000000000     
  -5.5468750000000000        1.7968750000000002        0.0000000000000000     
  -5.4687500000000000        1.7968749999999998        0.0000000000000000     
  -5.3906249999999991        1.7968749999999993        0.0000000000000000     
  -5.3125000000000018        1.7968750000000011        0.0000000000000000     
  -5.2343750000000009        1.7968750000000000        0.0000000000000000     
  -5.1562500000000009        1.7968750000000000        0.0000000000000000     
  -5.0781250000000000        1.7968750000000004        0.0000000000000000     
  -5.0000000000000000        1.7968749999999998        0.0000000000000000     
  -5.6250000000000009        1.8750000000000004        0.0000000000000000     
  -5.5468750000000000        1.8750000000000002        0.0000000000000000     
  -5.4687500000000000        1.8750000000000002        0.0000000000000000     
  -5.3906250000000009        1.8750000000000000        0.0000000000000000     
  -5.3125000000000018        1.8750000000000002        0.0000000000000000     
  -5.2343750000000009        1.8750000000000000        0.0000000000000000     
  -5.1562500000000009        1.8749999999999998        0.0000000000000000     
  -5.0781249999999991        1.8750000000000000        0.0000000000000000     
  -5.0000000000000018        1.8750000000000004        0.0000000000000000     
  -10.000000000000004        1.8750000000000004        0.0000000000000000     
  -9.9218750000000000        1.8750000000000000        0.0000000000000000     
  -9.8437500000000000        1.8749999999999998        0.0000000000000000     
  -9.7656250000000018        1.8750000000000000        0.0000000000000000     
  -9.6875000000000018        1.8750000000000002        0.0000000000000000     
  -9.6093750000000018        1.8749999999999998        0.0000000000000000     
  -9.5312500000000018        1.8750000000000002        0.0000000000000000     
  -9.4531250000000000        1.8750000000000002        0.0000000000000000     
  -9.3750000000000018        1.8750000000000002        0.0000000000000000     
  -10.000000000000000        1.9531250000000000        0.0000000000000000     
  -9.9218750000000000        1.9531250000000000        0.0000000000000000     
  -9.8437500000000018        1.9531250000000002        0.0000000000000000     
  -9.7656250000000018        1.9531250000000002        0.0000000000000000     
  -9.6875000000000018        1.9531250000000000        0.0000000000000000     
  -9.6093750000000000        1.9531250000000002        0.0000000000000000     
  -9.5312500000000000        1.9531249999999998        0.0000000000000000     
  -9.4531250000000000        1.9531250000000000        0.0000000000000000     
  -9.3750000000000018        1.9531250000000002        0.0000000000000000     
  -9.9999999999999982        2.0312500000000000        0.0000000000000000     
  -9.9218750000000018        2.0312500000000004        0.0000000000000000     
  -9.8437500000000000        2.0312500000000000        0.0000000000000000     
  -9.7656250000000000        2.0312500000000000        0.0000000000000000     
  -9.6875000000000018        2.0312500000000000        0.0000000000000000     
  -9.6093750000000018        2.0312500000000000        0.0000000000000000     
  -9.5312500000000000        2.0312500000000000        0.0000000000000000     
  -9.4531250000000000        2.0312500000000000        0.0000000000000000     
  -9.3750000000000000        2.0312500000000000        0.0000000000000000     
  -10.000000000000002        2.1093750000000004        0.0000000000000000     
  -9.9218750000000000        2.1093749999999996        0.0000000000000000     
  -9.8437500000000000        2.1093750000000000        0.0000000000000000     
  -9.7656250000000018        2.1093750000000004        0.0000000000000000     
  -9.6875000000000018        2.1093750000000000        0.0000000000000000     
  -9.6093750000000018        2.1093750000000000        0.0000000000000000     
  -9.5312500000000000        2.1093750000000004        0.0000000000000000     
  -9.4531250000000018        2.1093749999999996        0.0000000000000000     
  -9.3750000000000018        2.1093750000000000        0.0000000000000000     
  -10.000000000000002        2.1875000000000004        0.0000000000000000     
  -9.9218750000000018        2.1875000000000004        0.0000000000000000     
  -9.8437500000000018        2.1875000000000000        0.0000000000000000     
  -9.7656250000000018        2.1875000000000000        0.0000000000000000     
  -9.6875000000000036        2.1875000000000009        0.0000000000000000     
  -9.6093750000000000        2.1874999999999996        0.0000000000000000     
  -9.5312500000000018        2.1875000000000000        0.0000000000000000     
  -9.4531250000000018        2.1875000000000009        0.0000000000000000     
  -9.3750000000000000        2.1875000000000000        0.0000000000000000     
  -10.000000000000002        2.2656250000000004        0.0000000000000000     
  -9.9218750000000036        2.2656250000000000        0.0000000000000000     
  -9.8437500000000000        2.2656250000000000        0.0000000000000000     
  -9.7656250000000018        2.2656250000000000        0.0000000000000000     
  -9.6875000000000018        2.2656250000000000        0.0000000000000000     
  -9.6093750000000000        2.2656250000000000        0.0000000000000000     
  -9.5312500000000018        2.2656250000000009        0.0000000000000000     
  -9.4531250000000018        2.2656250000000004        0.0000000000000000     
  -9.3750000000000000        2.2656250000000000        0.0000000000000000     
  -10.000000000000002        2.3437500000000004        0.0000000000000000     
  -9.9218750000000018        2.3437500000000000        0.0000000000000000     
  -9.8437500000000000        2.3437500000000000        0.0000000000000000     
  -9.7656250000000000        2.3437500000000000        0.0000000000000000     
  -9.6875000000000018        2.3437499999999996        0.0000000000000000     
  -9.6093750000000018        2.3437500000000004        0.0000000000000000     
  -9.5312500000000000        2.3437500000000004        0.0000000000000000     
  -9.4531250000000018        2.3437500000000000        0.0000000000000000     
  -9.3750000000000000        2.3437500000000000        0.0000000000000000     
  -10.000000000000000        2.4218749999999996        0.0000000000000000     
  -9.9218750000000018        2.4218750000000004        0.0000000000000000     
  -9.8437500000000000        2.4218750000000000        0.0000000000000000     
  -9.7656250000000018        2.4218750000000004        0.0000000000000000     
  -9.6875000000000036        2.4218750000000009        0.0000000000000000     
  -9.6093750000000000        2.4218749999999996        0.0000000000000000     
  -9.5312500000000018        2.4218750000000004        0.0000000000000000     
  -9.4531250000000018        2.4218750000000009        0.0000000000000000     
  -9.3750000000000018        2.4218750000000000        0.0000000000000000     
  -10.000000000000004        2.5000000000000004        0.0000000000000000     
  -9.9218750000000018        2.5000000000000004        0.0000000000000000     
  -9.8437500000000000        2.5000000000000000        0.0000000000000000     
  -9.7656250000000018        2.5000000000000000        0.0000000000000000     
  -9.6875000000000018        2.5000000000000004        0.0000000000000000     
  -9.6093750000000018        2.5000000000000000        0.0000000000000000     
  -9.5312500000000018        2.5000000000000000        0.0000000000000000     
  -9.4531250000000000        2.5000000000000004        0.0000000000000000     
  -9.3750000000000018        2.5000000000000000        0.0000000000000000     
  -9.3750000000000018        1.8750000000000002        0.0000000000000000     
  -9.2968750000000000        1.8750000000000002        0.0000000000000000     
  -9.2187500000000000        1.8750000000000004        0.0000000000000000     
  -9.1406250000000000        1.8749999999999998        0.0000000000000000     
  -9.0625000000000000        1.8749999999999998        0.0000000000000000     
  -8.9843750000000018        1.8750000000000002        0.0000000000000000     
  -8.9062500000000018        1.8750000000000002        0.0000000000000000     
  -8.8281250000000000        1.8749999999999998        0.0000000000000000     
  -8.7500000000000018        1.8750000000000004        0.0000000000000000     
  -9.3750000000000018        1.9531250000000002        0.0000000000000000     
  -9.2968750000000018        1.9531250000000004        0.0000000000000000     
  -9.2187500000000018        1.9531250000000000        0.0000000000000000     
  -9.1406250000000018        1.9531250000000002        0.0000000000000000     
  -9.0625000000000018        1.9531250000000002        0.0000000000000000     
  -8.9843750000000018        1.9531249999999998        0.0000000000000000     
  -8.9062500000000018        1.9531250000000004        0.0000000000000000     
  -8.8281250000000018        1.9531250000000002        0.0000000000000000     
  -8.7500000000000018        1.9531250000000000        0.0000000000000000     
  -9.3750000000000000        2.0312500000000000        0.0000000000000000     
  -9.2968750000000018        2.0312500000000000        0.0000000000000000     
  -9.2187500000000018        2.0312500000000000        0.0000000000000000     
  -9.1406250000000018        2.0312500000000004        0.0000000000000000     
  -9.0625000000000000        2.0312500000000000        0.0000000000000000     
  -8.9843750000000000        2.0312500000000000        0.0000000000000000     
  -8.9062500000000000        2.0312500000000004        0.0000000000000000     
  -8.8281250000000018        2.0312500000000004        0.0000000000000000     
  -8.7500000000000000        2.0312500000000004        0.0000000000000000     
  -9.3750000000000018        2.1093750000000000        0.0000000000000000     
  -9.2968749999999982        2.1093749999999996        0.0000000000000000     
  -9.2187499999999982        2.1093750000000000        0.0000000000000000     
  -9.1406250000000000        2.1093750000000000        0.0000000000000000     
  -9.0624999999999982        2.1093749999999996        0.0000000000000000     
  -8.9843750000000000        2.1093750000000004        0.0000000000000000     
  -8.9062500000000018        2.1093750000000000        0.0000000000000000     
  -8.8281249999999982        2.1093749999999996        0.0000000000000000     
  -8.7499999999999982        2.1093750000000000        0.0000000000000000     
  -9.3750000000000000        2.1875000000000000        0.0000000000000000     
  -9.2968750000000018        2.1875000000000004        0.0000000000000000     
  -9.2187500000000000        2.1875000000000000        0.0000000000000000     
  -9.1406250000000000        2.1875000000000000        0.0000000000000000     
  -9.0625000000000018        2.1875000000000004        0.0000000000000000     
  -8.9843750000000036        2.1875000000000000        0.0000000000000000     
  -8.9062500000000000        2.1874999999999996        0.0000000000000000     
  -8.8281250000000018        2.1875000000000004        0.0000000000000000     
  -8.7500000000000018        2.1875000000000000        0.0000000000000000     
  -9.3750000000000000        2.2656250000000000        0.0000000000000000     
  -9.2968750000000018        2.2656250000000000        0.0000000000000000     
  -9.2187500000000000        2.2656250000000000        0.0000000000000000     
  -9.1406250000000000        2.2656250000000000        0.0000000000000000     
  -9.0625000000000000        2.2656249999999996        0.0000000000000000     
  -8.9843750000000018        2.2656250000000000        0.0000000000000000     
  -8.9062500000000000        2.2656250000000000        0.0000000000000000     
  -8.8281250000000000        2.2656249999999996        0.0000000000000000     
  -8.7500000000000000        2.2656250000000000        0.0000000000000000     
  -9.3750000000000000        2.3437500000000000        0.0000000000000000     
  -9.2968750000000018        2.3437500000000000        0.0000000000000000     
  -9.2187500000000000        2.3437500000000000        0.0000000000000000     
  -9.1406250000000036        2.3437500000000004        0.0000000000000000     
  -9.0624999999999982        2.3437499999999996        0.0000000000000000     
  -8.9843749999999982        2.3437500000000004        0.0000000000000000     
  -8.9062500000000018        2.3437500000000000        0.0000000000000000     
  -8.8281249999999982        2.3437499999999996        0.0000000000000000     
  -8.7499999999999964        2.3437500000000000        0.0000000000000000     
  -9.3750000000000018        2.4218750000000000        0.0000000000000000     
  -9.2968750000000036        2.4218750000000004        0.0000000000000000     
  -9.2187500000000018        2.4218750000000000        0.0000000000000000     
  -9.1406250000000000        2.4218749999999996        0.0000000000000000     
  -9.0625000000000018        2.4218750000000004        0.0000000000000000     
  -8.9843750000000000        2.4218750000000000        0.0000000000000000     
  -8.9062500000000036        2.4218750000000004        0.0000000000000000     
  -8.8281250000000018        2.4218750000000009        0.0000000000000000     
  -8.7500000000000000        2.4218750000000000        0.0000000000000000     
  -9.3750000000000018        2.5000000000000000        0.0000000000000000     
  -9.2968750000000000        2.5000000000000004        0.0000000000000000     
  -9.2187500000000000        2.5000000000000004        0.0000000000000000     
  -9.1406250000000000        2.5000000000000000        0.0000000000000000     
  -9.0625000000000000        2.5000000000000000        0.0000000000000000     
  -8.9843750000000018        2.5000000000000004        0.0000000000000000     
  -8.9062500000000018        2.5000000000000000        0.0000000000000000     
  -8.8281250000000000        2.5000000000000000        0.0000000000000000     
  -8.7500000000000018        2.5000000000000009        0.0000000000000000     
  -8.7500000000000018        1.8750000000000004        0.0000000000000000     
  -8.6718750000000018        1.8750000000000000        0.0000000000000000     
  -8.5937500000000000        1.8750000000000004        0.0000000000000000     
  -8.5156250000000000        1.8750000000000002        0.0000000000000000     
  -8.4375000000000018        1.8749999999999998        0.0000000000000000     
  -8.3593750000000000        1.8750000000000002        0.0000000000000000     
  -8.2812500000000000        1.8750000000000002        0.0000000000000000     
  -8.2031250000000018        1.8750000000000000        0.0000000000000000     
  -8.1250000000000000        1.8750000000000004        0.0000000000000000     
  -8.7500000000000018        1.9531250000000000        0.0000000000000000     
  -8.6718750000000000        1.9531250000000004        0.0000000000000000     
  -8.5937500000000018        1.9531250000000000        0.0000000000000000     
  -8.5156250000000018        1.9531249999999998        0.0000000000000000     
  -8.4375000000000000        1.9531250000000007        0.0000000000000000     
  -8.3593750000000000        1.9531250000000000        0.0000000000000000     
  -8.2812500000000018        1.9531250000000002        0.0000000000000000     
  -8.2031250000000000        1.9531250000000004        0.0000000000000000     
  -8.1250000000000000        1.9531250000000000        0.0000000000000000     
  -8.7500000000000000        2.0312500000000004        0.0000000000000000     
  -8.6718750000000018        2.0312500000000004        0.0000000000000000     
  -8.5937500000000000        2.0312500000000000        0.0000000000000000     
  -8.5156250000000000        2.0312500000000004        0.0000000000000000     
  -8.4375000000000000        2.0312500000000004        0.0000000000000000     
  -8.3593750000000000        2.0312500000000000        0.0000000000000000     
  -8.2812500000000000        2.0312500000000004        0.0000000000000000     
  -8.2031250000000000        2.0312500000000004        0.0000000000000000     
  -8.1250000000000018        2.0312500000000004        0.0000000000000000     
  -8.7499999999999982        2.1093750000000000        0.0000000000000000     
  -8.6718750000000018        2.1093749999999996        0.0000000000000000     
  -8.5937500000000018        2.1093750000000000        0.0000000000000000     
  -8.5156249999999964        2.1093750000000000        0.0000000000000000     
  -8.4375000000000018        2.1093750000000000        0.0000000000000000     
  -8.3593750000000018        2.1093750000000004        0.0000000000000000     
  -8.2812499999999964        2.1093750000000000        0.0000000000000000     
  -8.2031250000000018        2.1093750000000000        0.0000000000000000     
  -8.1249999999999982        2.1093750000000000        0.0000000000000000     
  -8.7500000000000018        2.1875000000000000        0.0000000000000000     
  -8.6718750000000018        2.1875000000000004        0.0000000000000000     
  -8.5937500000000000        2.1875000000000000        0.0000000000000000     
  -8.5156250000000018        2.1875000000000004        0.0000000000000000     
  -8.4375000000000018        2.1875000000000004        0.0000000000000000     
  -8.3593750000000000        2.1875000000000000        0.0000000000000000     
  -8.2812500000000018        2.1875000000000000        0.0000000000000000     
  -8.2031250000000018        2.1875000000000004        0.0000000000000000     
  -8.1250000000000000        2.1875000000000000        0.0000000000000000     
  -8.7500000000000000        2.2656250000000000        0.0000000000000000     
  -8.6718750000000018        2.2656250000000004        0.0000000000000000     
  -8.5937500000000000        2.2656250000000000        0.0000000000000000     
  -8.5156250000000000        2.2656250000000000        0.0000000000000000     
  -8.4375000000000018        2.2656250000000004        0.0000000000000000     
  -8.3593750000000000        2.2656250000000000        0.0000000000000000     
  -8.2812500000000000        2.2656250000000004        0.0000000000000000     
  -8.2031250000000000        2.2656250000000004        0.0000000000000000     
  -8.1250000000000000        2.2656250000000000        0.0000000000000000     
  -8.7499999999999964        2.3437500000000000        0.0000000000000000     
  -8.6718750000000018        2.3437500000000000        0.0000000000000000     
  -8.5937500000000000        2.3437500000000000        0.0000000000000000     
  -8.5156249999999982        2.3437500000000000        0.0000000000000000     
  -8.4375000000000018        2.3437500000000000        0.0000000000000000     
  -8.3593750000000000        2.3437500000000004        0.0000000000000000     
  -8.2812499999999982        2.3437500000000000        0.0000000000000000     
  -8.2031250000000018        2.3437500000000000        0.0000000000000000     
  -8.1250000000000000        2.3437500000000000        0.0000000000000000     
  -8.7500000000000000        2.4218750000000000        0.0000000000000000     
  -8.6718750000000036        2.4218750000000009        0.0000000000000000     
  -8.5937500000000000        2.4218750000000000        0.0000000000000000     
  -8.5156250000000000        2.4218750000000000        0.0000000000000000     
  -8.4375000000000018        2.4218750000000013        0.0000000000000000     
  -8.3593750000000000        2.4218750000000000        0.0000000000000000     
  -8.2812500000000000        2.4218750000000000        0.0000000000000000     
  -8.2031250000000036        2.4218750000000009        0.0000000000000000     
  -8.1249999999999964        2.4218750000000000        0.0000000000000000     
  -8.7500000000000018        2.5000000000000009        0.0000000000000000     
  -8.6718750000000018        2.5000000000000004        0.0000000000000000     
  -8.5937500000000000        2.5000000000000004        0.0000000000000000     
  -8.5156250000000000        2.5000000000000004        0.0000000000000000     
  -8.4375000000000018        2.5000000000000000        0.0000000000000000     
  -8.3593750000000000        2.5000000000000004        0.0000000000000000     
  -8.2812500000000000        2.5000000000000004        0.0000000000000000     
  -8.2031250000000018        2.5000000000000004        0.0000000000000000     
  -8.1250000000000000        2.5000000000000009        0.0000000000000000     
  -8.1250000000000000        1.8750000000000004        0.0000000000000000     
  -8.0468750000000000        1.8750000000000000        0.0000000000000000     
  -7.9687500000000000        1.8750000000000004        0.0000000000000000     
  -7.8906249999999991        1.8750000000000002        0.0000000000000000     
  -7.8125000000000000        1.8749999999999998        0.0000000000000000     
  -7.7343750000000000        1.8750000000000002        0.0000000000000000     
  -7.6562500000000009        1.8750000000000002        0.0000000000000000     
  -7.5781250000000009        1.8750000000000000        0.0000000000000000     
  -7.5000000000000018        1.8750000000000004        0.0000000000000000     
  -8.1250000000000000        1.9531250000000000        0.0000000000000000     
  -8.0468750000000018        1.9531250000000004        0.0000000000000000     
  -7.9687500000000000        1.9531250000000000        0.0000000000000000     
  -7.8906250000000009        1.9531249999999998        0.0000000000000000     
  -7.8125000000000000        1.9531250000000007        0.0000000000000000     
  -7.7343750000000009        1.9531250000000000        0.0000000000000000     
  -7.6562500000000018        1.9531250000000002        0.0000000000000000     
  -7.5781250000000000        1.9531250000000004        0.0000000000000000     
  -7.5000000000000009        1.9531250000000000        0.0000000000000000     
  -8.1250000000000018        2.0312500000000004        0.0000000000000000     
  -8.0468750000000018        2.0312500000000004        0.0000000000000000     
  -7.9687500000000000        2.0312500000000000        0.0000000000000000     
  -7.8906250000000000        2.0312500000000004        0.0000000000000000     
  -7.8125000000000000        2.0312500000000004        0.0000000000000000     
  -7.7343750000000000        2.0312500000000000        0.0000000000000000     
  -7.6562500000000009        2.0312500000000004        0.0000000000000000     
  -7.5781250000000009        2.0312500000000004        0.0000000000000000     
  -7.5000000000000009        2.0312500000000004        0.0000000000000000     
  -8.1249999999999982        2.1093750000000000        0.0000000000000000     
  -8.0468750000000000        2.1093749999999996        0.0000000000000000     
  -7.9687500000000000        2.1093750000000000        0.0000000000000000     
  -7.8906249999999982        2.1093750000000000        0.0000000000000000     
  -7.8125000000000000        2.1093750000000000        0.0000000000000000     
  -7.7343750000000000        2.1093750000000004        0.0000000000000000     
  -7.6562499999999982        2.1093750000000000        0.0000000000000000     
  -7.5781250000000000        2.1093750000000000        0.0000000000000000     
  -7.4999999999999991        2.1093750000000000        0.0000000000000000     
  -8.1250000000000000        2.1875000000000000        0.0000000000000000     
  -8.0468750000000000        2.1875000000000004        0.0000000000000000     
  -7.9687500000000000        2.1875000000000000        0.0000000000000000     
  -7.8906250000000009        2.1875000000000004        0.0000000000000000     
  -7.8125000000000009        2.1875000000000004        0.0000000000000000     
  -7.7343750000000009        2.1875000000000000        0.0000000000000000     
  -7.6562500000000009        2.1875000000000000        0.0000000000000000     
  -7.5781250000000009        2.1875000000000004        0.0000000000000000     
  -7.5000000000000009        2.1875000000000000        0.0000000000000000     
  -8.1250000000000000        2.2656250000000000        0.0000000000000000     
  -8.0468750000000018        2.2656250000000004        0.0000000000000000     
  -7.9687500000000000        2.2656250000000000        0.0000000000000000     
  -7.8906249999999991        2.2656250000000000        0.0000000000000000     
  -7.8125000000000009        2.2656250000000004        0.0000000000000000     
  -7.7343750000000000        2.2656250000000000        0.0000000000000000     
  -7.6562500000000009        2.2656250000000004        0.0000000000000000     
  -7.5781250000000000        2.2656250000000004        0.0000000000000000     
  -7.5000000000000000        2.2656250000000000        0.0000000000000000     
  -8.1250000000000000        2.3437500000000000        0.0000000000000000     
  -8.0468750000000036        2.3437500000000000        0.0000000000000000     
  -7.9687500000000000        2.3437500000000000        0.0000000000000000     
  -7.8906249999999982        2.3437500000000000        0.0000000000000000     
  -7.8125000000000000        2.3437500000000000        0.0000000000000000     
  -7.7343750000000000        2.3437500000000004        0.0000000000000000     
  -7.6562499999999982        2.3437500000000000        0.0000000000000000     
  -7.5781250000000000        2.3437500000000000        0.0000000000000000     
  -7.5000000000000000        2.3437500000000000        0.0000000000000000     
  -8.1249999999999964        2.4218750000000000        0.0000000000000000     
  -8.0468750000000000        2.4218750000000009        0.0000000000000000     
  -7.9687500000000000        2.4218750000000000        0.0000000000000000     
  -7.8906249999999991        2.4218750000000000        0.0000000000000000     
  -7.8125000000000018        2.4218750000000013        0.0000000000000000     
  -7.7343750000000000        2.4218750000000000        0.0000000000000000     
  -7.6562499999999991        2.4218750000000000        0.0000000000000000     
  -7.5781250000000027        2.4218750000000009        0.0000000000000000     
  -7.4999999999999982        2.4218750000000000        0.0000000000000000     
  -8.1250000000000000        2.5000000000000009        0.0000000000000000     
  -8.0468750000000000        2.5000000000000004        0.0000000000000000     
  -7.9687500000000000        2.5000000000000004        0.0000000000000000     
  -7.8906249999999991        2.5000000000000004        0.0000000000000000     
  -7.8125000000000000        2.5000000000000000        0.0000000000000000     
  -7.7343750000000000        2.5000000000000004        0.0000000000000000     
  -7.6562500000000009        2.5000000000000004        0.0000000000000000     
  -7.5781250000000009        2.5000000000000004        0.0000000000000000     
  -7.5000000000000018        2.5000000000000009        0.0000000000000000     
  -7.5000000000000018        1.8750000000000004        0.0000000000000000     
  -7.4218750000000018        1.8750000000000000        0.0000000000000000     
  -7.3437500000000018        1.8750000000000004        0.0000000000000000     
  -7.2656250000000000        1.8750000000000002        0.0000000000000000     
  -7.1875000000000009        1.8749999999999998        0.0000000000000000     
  -7.1093750000000000        1.8750000000000002        0.0000000000000000     
  -7.0312500000000009        1.8750000000000002        0.0000000000000000     
  -6.9531250000000009        1.8750000000000000        0.0000000000000000     
  -6.8750000000000009        1.8750000000000004        0.0000000000000000     
  -7.5000000000000009        1.9531250000000000        0.0000000000000000     
  -7.4218750000000009        1.9531250000000004        0.0000000000000000     
  -7.3437500000000009        1.9531250000000000        0.0000000000000000     
  -7.2656250000000009        1.9531249999999998        0.0000000000000000     
  -7.1875000000000009        1.9531250000000007        0.0000000000000000     
  -7.1093750000000009        1.9531250000000000        0.0000000000000000     
  -7.0312500000000009        1.9531250000000002        0.0000000000000000     
  -6.9531250000000009        1.9531250000000004        0.0000000000000000     
  -6.8750000000000009        1.9531250000000000        0.0000000000000000     
  -7.5000000000000009        2.0312500000000004        0.0000000000000000     
  -7.4218750000000009        2.0312500000000004        0.0000000000000000     
  -7.3437500000000000        2.0312500000000000        0.0000000000000000     
  -7.2656250000000000        2.0312500000000004        0.0000000000000000     
  -7.1875000000000000        2.0312500000000004        0.0000000000000000     
  -7.1093750000000000        2.0312500000000000        0.0000000000000000     
  -7.0312500000000000        2.0312500000000004        0.0000000000000000     
  -6.9531250000000018        2.0312500000000004        0.0000000000000000     
  -6.8750000000000018        2.0312500000000004        0.0000000000000000     
  -7.4999999999999991        2.1093750000000000        0.0000000000000000     
  -7.4218750000000000        2.1093749999999996        0.0000000000000000     
  -7.3437500000000009        2.1093750000000000        0.0000000000000000     
  -7.2656249999999991        2.1093750000000000        0.0000000000000000     
  -7.1875000000000018        2.1093750000000000        0.0000000000000000     
  -7.1093750000000009        2.1093750000000004        0.0000000000000000     
  -7.0312499999999982        2.1093750000000000        0.0000000000000000     
  -6.9531250000000009        2.1093750000000000        0.0000000000000000     
  -6.8749999999999982        2.1093750000000000        0.0000000000000000     
  -7.5000000000000009        2.1875000000000000        0.0000000000000000     
  -7.4218750000000000        2.1875000000000004        0.0000000000000000     
  -7.3437500000000009        2.1875000000000000        0.0000000000000000     
  -7.2656250000000009        2.1875000000000004        0.0000000000000000     
  -7.1875000000000000        2.1875000000000004        0.0000000000000000     
  -7.1093750000000009        2.1875000000000000        0.0000000000000000     
  -7.0312500000000000        2.1875000000000000        0.0000000000000000     
  -6.9531250000000018        2.1875000000000004        0.0000000000000000     
  -6.8750000000000009        2.1875000000000000        0.0000000000000000     
  -7.5000000000000000        2.2656250000000000        0.0000000000000000     
  -7.4218750000000009        2.2656250000000004        0.0000000000000000     
  -7.3437500000000000        2.2656250000000000        0.0000000000000000     
  -7.2656250000000018        2.2656250000000000        0.0000000000000000     
  -7.1875000000000018        2.2656250000000004        0.0000000000000000     
  -7.1093750000000000        2.2656250000000000        0.0000000000000000     
  -7.0312500000000000        2.2656250000000004        0.0000000000000000     
  -6.9531250000000018        2.2656250000000004        0.0000000000000000     
  -6.8749999999999991        2.2656250000000000        0.0000000000000000     
  -7.5000000000000000        2.3437500000000000        0.0000000000000000     
  -7.4218750000000018        2.3437500000000000        0.0000000000000000     
  -7.3437500000000009        2.3437500000000000        0.0000000000000000     
  -7.2656249999999991        2.3437500000000000        0.0000000000000000     
  -7.1874999999999991        2.3437500000000000        0.0000000000000000     
  -7.1093750000000000        2.3437500000000004        0.0000000000000000     
  -7.0312499999999991        2.3437500000000000        0.0000000000000000     
  -6.9531250000000009        2.3437500000000000        0.0000000000000000     
  -6.8749999999999991        2.3437500000000000        0.0000000000000000     
  -7.4999999999999982        2.4218750000000000        0.0000000000000000     
  -7.4218750000000018        2.4218750000000009        0.0000000000000000     
  -7.3437500000000009        2.4218750000000000        0.0000000000000000     
  -7.2656249999999982        2.4218750000000000        0.0000000000000000     
  -7.1875000000000027        2.4218750000000013        0.0000000000000000     
  -7.1093750000000009        2.4218750000000000        0.0000000000000000     
  -7.0312499999999982        2.4218750000000000        0.0000000000000000     
  -6.9531250000000036        2.4218750000000009        0.0000000000000000     
  -6.8749999999999991        2.4218750000000000        0.0000000000000000     
  -7.5000000000000018        2.5000000000000009        0.0000000000000000     
  -7.4218750000000018        2.5000000000000004        0.0000000000000000     
  -7.3437500000000018        2.5000000000000004        0.0000000000000000     
  -7.2656250000000000        2.5000000000000004        0.0000000000000000     
  -7.1875000000000009        2.5000000000000000        0.0000000000000000     
  -7.1093750000000000        2.5000000000000004        0.0000000000000000     
  -7.0312500000000009        2.5000000000000004        0.0000000000000000     
  -6.9531250000000009        2.5000000000000004        0.0000000000000000     
  -6.8750000000000009        2.5000000000000009        0.0000000000000000     
  -6.8750000000000009        1.8750000000000004        0.0000000000000000     
  -6.7968750000000018        1.8750000000000000        0.0000000000000000     
  -6.7187500000000009        1.8750000000000004        0.0000000000000000     
  -6.6406250000000000        1.8750000000000002        0.0000000000000000     
  -6.5625000000000018        1.8749999999999998        0.0000000000000000     
  -6.4843750000000009        1.8750000000000002        0.0000000000000000     
  -6.4062500000000009        1.8750000000000002        0.0000000000000000     
  -6.3281250000000018        1.8750000000000000        0.0000000000000000     
  -6.2500000000000009        1.8750000000000004        0.0000000000000000     
  -6.8750000000000009        1.9531250000000000        0.0000000000000000     
  -6.7968750000000009        1.9531250000000004        0.0000000000000000     
  -6.7187500000000009        1.9531250000000000        0.0000000000000000     
  -6.6406250000000009        1.9531249999999998        0.0000000000000000     
  -6.5625000000000009        1.9531250000000007        0.0000000000000000     
  -6.4843750000000009        1.9531250000000000        0.0000000000000000     
  -6.4062500000000000        1.9531250000000002        0.0000000000000000     
  -6.3281250000000009        1.9531250000000004        0.0000000000000000     
  -6.2500000000000009        1.9531250000000000        0.0000000000000000     
  -6.8750000000000018        2.0312500000000004        0.0000000000000000     
  -6.7968750000000009        2.0312500000000004        0.0000000000000000     
  -6.7187500000000000        2.0312500000000000        0.0000000000000000     
  -6.6406250000000000        2.0312500000000004        0.0000000000000000     
  -6.5625000000000009        2.0312500000000004        0.0000000000000000     
  -6.4843750000000000        2.0312500000000000        0.0000000000000000     
  -6.4062500000000009        2.0312500000000004        0.0000000000000000     
  -6.3281250000000009        2.0312500000000004        0.0000000000000000     
  -6.2500000000000009        2.0312500000000004        0.0000000000000000     
  -6.8749999999999982        2.1093750000000000        0.0000000000000000     
  -6.7968750000000018        2.1093749999999996        0.0000000000000000     
  -6.7187500000000009        2.1093750000000000        0.0000000000000000     
  -6.6406249999999982        2.1093750000000000        0.0000000000000000     
  -6.5625000000000018        2.1093750000000000        0.0000000000000000     
  -6.4843750000000009        2.1093750000000004        0.0000000000000000     
  -6.4062499999999982        2.1093750000000000        0.0000000000000000     
  -6.3281250000000018        2.1093750000000000        0.0000000000000000     
  -6.2499999999999991        2.1093750000000000        0.0000000000000000     
  -6.8750000000000009        2.1875000000000000        0.0000000000000000     
  -6.7968750000000000        2.1875000000000004        0.0000000000000000     
  -6.7187499999999991        2.1875000000000000        0.0000000000000000     
  -6.6406250000000000        2.1875000000000004        0.0000000000000000     
  -6.5625000000000000        2.1875000000000004        0.0000000000000000     
  -6.4843750000000000        2.1875000000000000        0.0000000000000000     
  -6.4062500000000000        2.1875000000000000        0.0000000000000000     
  -6.3281250000000000        2.1875000000000004        0.0000000000000000     
  -6.2500000000000000        2.1875000000000000        0.0000000000000000     
  -6.8749999999999991        2.2656250000000000        0.0000000000000000     
  -6.7968750000000009        2.2656250000000004        0.0000000000000000     
  -6.7187500000000000        2.2656250000000000        0.0000000000000000     
  -6.6406250000000009        2.2656250000000000        0.0000000000000000     
  -6.5625000000000009        2.2656250000000004        0.0000000000000000     
  -6.4843750000000009        2.2656250000000000        0.0000000000000000     
  -6.4062499999999991        2.2656250000000004        0.0000000000000000     
  -6.3281250000000009        2.2656250000000004        0.0000000000000000     
  -6.2500000000000009        2.2656250000000000        0.0000000000000000     
  -6.8749999999999991        2.3437500000000000        0.0000000000000000     
  -6.7968750000000018        2.3437500000000000        0.0000000000000000     
  -6.7187500000000009        2.3437500000000000        0.0000000000000000     
  -6.6406249999999982        2.3437500000000000        0.0000000000000000     
  -6.5625000000000018        2.3437500000000000        0.0000000000000000     
  -6.4843750000000009        2.3437500000000004        0.0000000000000000     
  -6.4062499999999982        2.3437500000000000        0.0000000000000000     
  -6.3281250000000018        2.3437500000000000        0.0000000000000000     
  -6.2499999999999991        2.3437500000000000        0.0000000000000000     
  -6.8749999999999991        2.4218750000000000        0.0000000000000000     
  -6.7968750000000018        2.4218750000000009        0.0000000000000000     
  -6.7187500000000000        2.4218750000000000        0.0000000000000000     
  -6.6406249999999991        2.4218750000000000        0.0000000000000000     
  -6.5625000000000018        2.4218750000000013        0.0000000000000000     
  -6.4843750000000000        2.4218750000000000        0.0000000000000000     
  -6.4062499999999991        2.4218750000000000        0.0000000000000000     
  -6.3281250000000009        2.4218750000000009        0.0000000000000000     
  -6.2499999999999991        2.4218750000000000        0.0000000000000000     
  -6.8750000000000009        2.5000000000000009        0.0000000000000000     
  -6.7968750000000018        2.5000000000000004        0.0000000000000000     
  -6.7187500000000009        2.5000000000000004        0.0000000000000000     
  -6.6406250000000000        2.5000000000000004        0.0000000000000000     
  -6.5625000000000018        2.5000000000000000        0.0000000000000000     
  -6.4843750000000009        2.5000000000000004        0.0000000000000000     
  -6.4062500000000009        2.5000000000000004        0.0000000000000000     
  -6.3281250000000018        2.5000000000000004        0.0000000000000000     
  -6.2500000000000009        2.5000000000000009        0.0000000000000000     
  -6.2500000000000009        1.8750000000000004        0.0000000000000000     
  -6.1718750000000009        1.8750000000000002        0.0000000000000000     
  -6.0937500000000018        1.8750000000000004        0.0000000000000000     
  -6.0156250000000009        1.8750000000000002        0.0000000000000000     
  -5.9375000000000000        1.8750000000000004        0.0000000000000000     
  -5.8593750000000000        1.8749999999999998        0.0000000000000000     
  -5.7812500000000018        1.8750000000000002        0.0000000000000000     
  -5.7031250000000000        1.8750000000000002        0.0000000000000000     
  -5.6250000000000009        1.8750000000000004        0.0000000000000000     
  -6.2500000000000009        1.9531250000000000        0.0000000000000000     
  -6.1718750000000009        1.9531250000000004        0.0000000000000000     
  -6.0937500000000009        1.9531250000000004        0.0000000000000000     
  -6.0156250000000009        1.9531249999999998        0.0000000000000000     
  -5.9375000000000009        1.9531250000000004        0.0000000000000000     
  -5.8593750000000000        1.9531250000000000        0.0000000000000000     
  -5.7812500000000009        1.9531250000000002        0.0000000000000000     
  -5.7031250000000000        1.9531250000000002        0.0000000000000000     
  -5.6250000000000000        1.9531250000000002        0.0000000000000000     
  -6.2500000000000009        2.0312500000000004        0.0000000000000000     
  -6.1718750000000009        2.0312500000000004        0.0000000000000000     
  -6.0937500000000000        2.0312500000000000        0.0000000000000000     
  -6.0156250000000000        2.0312500000000004        0.0000000000000000     
  -5.9375000000000000        2.0312500000000004        0.0000000000000000     
  -5.8593750000000000        2.0312500000000000        0.0000000000000000     
  -5.7812500000000000        2.0312500000000004        0.0000000000000000     
  -5.7031250000000009        2.0312500000000004        0.0000000000000000     
  -5.6250000000000000        2.0312500000000000        0.0000000000000000     
  -6.2499999999999991        2.1093750000000000        0.0000000000000000     
  -6.1718750000000009        2.1093749999999996        0.0000000000000000     
  -6.0937500000000000        2.1093750000000004        0.0000000000000000     
  -6.0156250000000000        2.1093750000000000        0.0000000000000000     
  -5.9374999999999991        2.1093749999999996        0.0000000000000000     
  -5.8593750000000000        2.1093750000000000        0.0000000000000000     
  -5.7812500000000000        2.1093750000000000        0.0000000000000000     
  -5.7031250000000000        2.1093750000000000        0.0000000000000000     
  -5.6250000000000000        2.1093750000000004        0.0000000000000000     
  -6.2500000000000000        2.1875000000000000        0.0000000000000000     
  -6.1718750000000009        2.1875000000000004        0.0000000000000000     
  -6.0937500000000000        2.1875000000000000        0.0000000000000000     
  -6.0156250000000009        2.1875000000000004        0.0000000000000000     
  -5.9375000000000009        2.1875000000000004        0.0000000000000000     
  -5.8593750000000000        2.1875000000000000        0.0000000000000000     
  -5.7812500000000000        2.1875000000000000        0.0000000000000000     
  -5.7031250000000009        2.1875000000000004        0.0000000000000000     
  -5.6250000000000009        2.1875000000000000        0.0000000000000000     
  -6.2500000000000009        2.2656250000000000        0.0000000000000000     
  -6.1718750000000009        2.2656250000000000        0.0000000000000000     
  -6.0937500000000000        2.2656250000000000        0.0000000000000000     
  -6.0156250000000000        2.2656250000000000        0.0000000000000000     
  -5.9375000000000009        2.2656250000000000        0.0000000000000000     
  -5.8593750000000000        2.2656250000000000        0.0000000000000000     
  -5.7812500000000009        2.2656250000000004        0.0000000000000000     
  -5.7031250000000009        2.2656250000000004        0.0000000000000000     
  -5.6250000000000000        2.2656250000000000        0.0000000000000000     
  -6.2499999999999991        2.3437500000000000        0.0000000000000000     
  -6.1718749999999991        2.3437499999999996        0.0000000000000000     
  -6.0937500000000009        2.3437500000000004        0.0000000000000000     
  -6.0156250000000000        2.3437500000000000        0.0000000000000000     
  -5.9374999999999991        2.3437499999999996        0.0000000000000000     
  -5.8593750000000009        2.3437500000000009        0.0000000000000000     
  -5.7812500000000000        2.3437500000000000        0.0000000000000000     
  -5.7031249999999991        2.3437499999999996        0.0000000000000000     
  -5.6250000000000000        2.3437500000000004        0.0000000000000000     
  -6.2499999999999991        2.4218750000000000        0.0000000000000000     
  -6.1718750000000009        2.4218750000000009        0.0000000000000000     
  -6.0937500000000000        2.4218750000000000        0.0000000000000000     
  -6.0156250000000000        2.4218750000000000        0.0000000000000000     
  -5.9375000000000000        2.4218750000000009        0.0000000000000000     
  -5.8593750000000000        2.4218750000000000        0.0000000000000000     
  -5.7812500000000000        2.4218750000000000        0.0000000000000000     
  -5.7031250000000000        2.4218750000000009        0.0000000000000000     
  -5.6250000000000009        2.4218750000000000        0.0000000000000000     
  -6.2500000000000009        2.5000000000000009        0.0000000000000000     
  -6.1718750000000009        2.5000000000000004        0.0000000000000000     
  -6.0937500000000018        2.5000000000000000        0.0000000000000000     
  -6.0156250000000009        2.5000000000000004        0.0000000000000000     
  -5.9375000000000000        2.5000000000000004        0.0000000000000000     
  -5.8593750000000000        2.5000000000000000        0.0000000000000000     
  -5.7812500000000018        2.5000000000000004        0.0000000000000000     
  -5.7031250000000000        2.5000000000000004        0.0000000000000000     
  -5.6250000000000009        2.5000000000000000        0.0000000000000000     
  -5.6250000000000009        1.8750000000000004        0.0000000000000000     
  -5.5468750000000000        1.8750000000000002        0.0000000000000000     
  -5.4687500000000000        1.8750000000000002        0.0000000000000000     
  -5.3906250000000009        1.8750000000000000        0.0000000000000000     
  -5.3125000000000018        1.8750000000000002        0.0000000000000000     
  -5.2343750000000009        1.8750000000000000        0.0000000000000000     
  -5.1562500000000009        1.8749999999999998        0.0000000000000000     
  -5.0781249999999991        1.8750000000000000        0.0000000000000000     
  -5.0000000000000018        1.8750000000000004        0.0000000000000000     
  -5.6250000000000000        1.9531250000000002        0.0000000000000000     
  -5.5468750000000000        1.9531250000000000        0.0000000000000000     
  -5.4687500000000000        1.9531249999999998        0.0000000000000000     
  -5.3906250000000018        1.9531250000000000        0.0000000000000000     
  -5.3125000000000009        1.9531250000000004        0.0000000000000000     
  -5.2343750000000009        1.9531250000000002        0.0000000000000000     
  -5.1562500000000018        1.9531250000000002        0.0000000000000000     
  -5.0781250000000000        1.9531250000000000        0.0000000000000000     
  -5.0000000000000000        1.9531250000000000        0.0000000000000000     
  -5.6250000000000000        2.0312500000000000        0.0000000000000000     
  -5.5468750000000018        2.0312500000000004        0.0000000000000000     
  -5.4687500000000000        2.0312500000000000        0.0000000000000000     
  -5.3906250000000000        2.0312500000000000        0.0000000000000000     
  -5.3125000000000018        2.0312500000000009        0.0000000000000000     
  -5.2343750000000000        2.0312500000000000        0.0000000000000000     
  -5.1562500000000000        2.0312500000000000        0.0000000000000000     
  -5.0781250000000018        2.0312500000000004        0.0000000000000000     
  -4.9999999999999991        2.0312500000000000        0.0000000000000000     
  -5.6250000000000000        2.1093750000000004        0.0000000000000000     
  -5.5468750000000000        2.1093749999999996        0.0000000000000000     
  -5.4687500000000000        2.1093750000000004        0.0000000000000000     
  -5.3906250000000018        2.1093750000000004        0.0000000000000000     
  -5.3125000000000018        2.1093749999999996        0.0000000000000000     
  -5.2343750000000009        2.1093750000000004        0.0000000000000000     
  -5.1562500000000009        2.1093750000000000        0.0000000000000000     
  -5.0781250000000000        2.1093749999999996        0.0000000000000000     
  -5.0000000000000009        2.1093750000000004        0.0000000000000000     
  -5.6250000000000009        2.1875000000000000        0.0000000000000000     
  -5.5468750000000009        2.1875000000000004        0.0000000000000000     
  -5.4687500000000009        2.1875000000000000        0.0000000000000000     
  -5.3906250000000009        2.1875000000000000        0.0000000000000000     
  -5.3125000000000009        2.1875000000000009        0.0000000000000000     
  -5.2343750000000009        2.1875000000000000        0.0000000000000000     
  -5.1562500000000009        2.1875000000000000        0.0000000000000000     
  -5.0781250000000000        2.1875000000000004        0.0000000000000000     
  -5.0000000000000009        2.1875000000000004        0.0000000000000000     
  -5.6250000000000000        2.2656250000000000        0.0000000000000000     
  -5.5468750000000018        2.2656250000000004        0.0000000000000000     
  -5.4687500000000000        2.2656250000000000        0.0000000000000000     
  -5.3906250000000009        2.2656250000000000        0.0000000000000000     
  -5.3125000000000000        2.2656250000000000        0.0000000000000000     
  -5.2343750000000000        2.2656250000000000        0.0000000000000000     
  -5.1562500000000000        2.2656250000000000        0.0000000000000000     
  -5.0781250000000018        2.2656250000000004        0.0000000000000000     
  -5.0000000000000009        2.2656250000000004        0.0000000000000000     
  -5.6250000000000000        2.3437500000000004        0.0000000000000000     
  -5.5468750000000000        2.3437499999999996        0.0000000000000000     
  -5.4687500000000000        2.3437500000000004        0.0000000000000000     
  -5.3906250000000009        2.3437500000000004        0.0000000000000000     
  -5.3125000000000009        2.3437500000000004        0.0000000000000000     
  -5.2343750000000009        2.3437500000000000        0.0000000000000000     
  -5.1562500000000000        2.3437500000000004        0.0000000000000000     
  -5.0781250000000000        2.3437499999999996        0.0000000000000000     
  -5.0000000000000009        2.3437500000000004        0.0000000000000000     
  -5.6250000000000009        2.4218750000000000        0.0000000000000000     
  -5.5468750000000000        2.4218750000000004        0.0000000000000000     
  -5.4687500000000000        2.4218749999999996        0.0000000000000000     
  -5.3906249999999991        2.4218749999999991        0.0000000000000000     
  -5.3125000000000009        2.4218750000000013        0.0000000000000000     
  -5.2343750000000000        2.4218749999999996        0.0000000000000000     
  -5.1562500000000009        2.4218750000000000        0.0000000000000000     
  -5.0781250000000000        2.4218750000000004        0.0000000000000000     
  -5.0000000000000000        2.4218749999999996        0.0000000000000000     
  -5.6250000000000009        2.5000000000000000        0.0000000000000000     
  -5.5468750000000009        2.5000000000000000        0.0000000000000000     
  -5.4687500000000000        2.5000000000000000        0.0000000000000000     
  -5.3906250000000009        2.5000000000000000        0.0000000000000000     
  -5.3125000000000018        2.5000000000000004        0.0000000000000000     
  -5.2343750000000009        2.5000000000000004        0.0000000000000000     
  -5.1562500000000009        2.5000000000000000        0.0000000000000000     
  -5.0781250000000000        2.5000000000000000        0.0000000000000000     
  -5.0000000000000018        2.5000000000000004        0.0000000000000000     
  -10.000000000000004        2.5000000000000004        0.0000000000000000     
  -9.9218750000000018        2.5000000000000004        0.0000000000000000     
  -9.8437500000000000        2.5000000000000000        0.0000000000000000     
  -9.7656250000000018        2.5000000000000000        0.0000000000000000     
  -9.6875000000000018        2.5000000000000004        0.0000000000000000     
  -9.6093750000000018        2.5000000000000000        0.0000000000000000     
  -9.5312500000000018        2.5000000000000000        0.0000000000000000     
  -9.4531250000000000        2.5000000000000004        0.0000000000000000     
  -9.3750000000000018        2.5000000000000000        0.0000000000000000     
  -10.000000000000000        2.5781250000000000        0.0000000000000000     
  -9.9218750000000000        2.5781250000000000        0.0000000000000000     
  -9.8437500000000000        2.5781250000000000        0.0000000000000000     
  -9.7656250000000000        2.5781249999999996        0.0000000000000000     
  -9.6875000000000000        2.5781250000000004        0.0000000000000000     
  -9.6093750000000000        2.5781250000000000        0.0000000000000000     
  -9.5312500000000000        2.5781250000000000        0.0000000000000000     
  -9.4531250000000000        2.5781250000000004        0.0000000000000000     
  -9.3750000000000018        2.5781250000000000        0.0000000000000000     
  -9.9999999999999982        2.6562500000000000        0.0000000000000000     
  -9.9218750000000018        2.6562500000000004        0.0000000000000000     
  -9.8437500000000000        2.6562500000000000        0.0000000000000000     
  -9.7656250000000000        2.6562500000000000        0.0000000000000000     
  -9.6875000000000018        2.6562500000000000        0.0000000000000000     
  -9.6093750000000018        2.6562500000000000        0.0000000000000000     
  -9.5312500000000000        2.6562500000000000        0.0000000000000000     
  -9.4531250000000018        2.6562500000000000        0.0000000000000000     
  -9.3750000000000000        2.6562499999999996        0.0000000000000000     
  -10.000000000000002        2.7343750000000004        0.0000000000000000     
  -9.9218750000000000        2.7343750000000000        0.0000000000000000     
  -9.8437500000000000        2.7343750000000000        0.0000000000000000     
  -9.7656250000000018        2.7343750000000000        0.0000000000000000     
  -9.6875000000000018        2.7343750000000004        0.0000000000000000     
  -9.6093750000000000        2.7343750000000000        0.0000000000000000     
  -9.5312500000000000        2.7343750000000000        0.0000000000000000     
  -9.4531250000000018        2.7343750000000004        0.0000000000000000     
  -9.3750000000000018        2.7343750000000000        0.0000000000000000     
  -10.000000000000002        2.8125000000000004        0.0000000000000000     
  -9.9218750000000018        2.8125000000000000        0.0000000000000000     
  -9.8437500000000000        2.8125000000000000        0.0000000000000000     
  -9.7656250000000018        2.8125000000000000        0.0000000000000000     
  -9.6875000000000036        2.8125000000000009        0.0000000000000000     
  -9.6093750000000000        2.8125000000000000        0.0000000000000000     
  -9.5312499999999982        2.8124999999999996        0.0000000000000000     
  -9.4531250000000018        2.8125000000000009        0.0000000000000000     
  -9.3750000000000000        2.8125000000000000        0.0000000000000000     
  -10.000000000000002        2.8906250000000004        0.0000000000000000     
  -9.9218750000000036        2.8906250000000004        0.0000000000000000     
  -9.8437500000000000        2.8906250000000000        0.0000000000000000     
  -9.7656250000000018        2.8906250000000004        0.0000000000000000     
  -9.6875000000000018        2.8906250000000004        0.0000000000000000     
  -9.6093750000000000        2.8906250000000000        0.0000000000000000     
  -9.5312500000000018        2.8906250000000009        0.0000000000000000     
  -9.4531250000000000        2.8906250000000004        0.0000000000000000     
  -9.3750000000000000        2.8906250000000004        0.0000000000000000     
  -10.000000000000002        2.9687500000000000        0.0000000000000000     
  -9.9218750000000018        2.9687500000000009        0.0000000000000000     
  -9.8437500000000000        2.9687500000000004        0.0000000000000000     
  -9.7656250000000000        2.9687500000000004        0.0000000000000000     
  -9.6875000000000018        2.9687500000000004        0.0000000000000000     
  -9.6093750000000018        2.9687500000000000        0.0000000000000000     
  -9.5312500000000000        2.9687500000000004        0.0000000000000000     
  -9.4531250000000000        2.9687500000000004        0.0000000000000000     
  -9.3750000000000000        2.9687500000000000        0.0000000000000000     
  -10.000000000000000        3.0468749999999996        0.0000000000000000     
  -9.9218750000000018        3.0468750000000009        0.0000000000000000     
  -9.8437500000000000        3.0468750000000000        0.0000000000000000     
  -9.7656250000000018        3.0468750000000004        0.0000000000000000     
  -9.6875000000000018        3.0468750000000009        0.0000000000000000     
  -9.6093750000000000        3.0468749999999996        0.0000000000000000     
  -9.5312500000000018        3.0468750000000004        0.0000000000000000     
  -9.4531250000000018        3.0468750000000009        0.0000000000000000     
  -9.3750000000000018        3.0468750000000000        0.0000000000000000     
  -10.000000000000004        3.1250000000000000        0.0000000000000000     
  -9.9218750000000000        3.1250000000000000        0.0000000000000000     
  -9.8437500000000000        3.1250000000000000        0.0000000000000000     
  -9.7656250000000018        3.1250000000000004        0.0000000000000000     
  -9.6875000000000018        3.1250000000000004        0.0000000000000000     
  -9.6093750000000018        3.1250000000000004        0.0000000000000000     
  -9.5312500000000018        3.1250000000000004        0.0000000000000000     
  -9.4531250000000000        3.1250000000000004        0.0000000000000000     
  -9.3750000000000018        3.1250000000000004        0.0000000000000000     
  -9.3750000000000018        2.5000000000000000        0.0000000000000000     
  -9.2968750000000000        2.5000000000000004        0.0000000000000000     
  -9.2187500000000000        2.5000000000000004        0.0000000000000000     
  -9.1406250000000000        2.5000000000000000        0.0000000000000000     
  -9.0625000000000000        2.5000000000000000        0.0000000000000000     
  -8.9843750000000018        2.5000000000000004        0.0000000000000000     
  -8.9062500000000018        2.5000000000000000        0.0000000000000000     
  -8.8281250000000000        2.5000000000000000        0.0000000000000000     
  -8.7500000000000018        2.5000000000000009        0.0000000000000000     
  -9.3750000000000018        2.5781250000000000        0.0000000000000000     
  -9.2968750000000018        2.5781250000000004        0.0000000000000000     
  -9.2187500000000018        2.5781249999999996        0.0000000000000000     
  -9.1406250000000018        2.5781250000000000        0.0000000000000000     
  -9.0625000000000018        2.5781250000000004        0.0000000000000000     
  -8.9843750000000018        2.5781249999999996        0.0000000000000000     
  -8.9062500000000018        2.5781250000000004        0.0000000000000000     
  -8.8281250000000018        2.5781250000000004        0.0000000000000000     
  -8.7500000000000018        2.5781249999999996        0.0000000000000000     
  -9.3750000000000000        2.6562499999999996        0.0000000000000000     
  -9.2968750000000018        2.6562500000000004        0.0000000000000000     
  -9.2187500000000018        2.6562500000000000        0.0000000000000000     
  -9.1406250000000018        2.6562500000000004        0.0000000000000000     
  -9.0625000000000000        2.6562500000000000        0.0000000000000000     
  -8.9843750000000000        2.6562500000000000        0.0000000000000000     
  -8.9062500000000000        2.6562500000000000        0.0000000000000000     
  -8.8281250000000018        2.6562500000000004        0.0000000000000000     
  -8.7500000000000000        2.6562500000000004        0.0000000000000000     
  -9.3750000000000018        2.7343750000000000        0.0000000000000000     
  -9.2968749999999982        2.7343750000000000        0.0000000000000000     
  -9.2187499999999982        2.7343750000000004        0.0000000000000000     
  -9.1406250000000018        2.7343750000000004        0.0000000000000000     
  -9.0624999999999982        2.7343750000000000        0.0000000000000000     
  -8.9843750000000000        2.7343750000000004        0.0000000000000000     
  -8.9062500000000018        2.7343750000000000        0.0000000000000000     
  -8.8281249999999982        2.7343750000000000        0.0000000000000000     
  -8.7499999999999982        2.7343750000000000        0.0000000000000000     
  -9.3750000000000000        2.8125000000000000        0.0000000000000000     
  -9.2968750000000018        2.8125000000000009        0.0000000000000000     
  -9.2187500000000000        2.8124999999999996        0.0000000000000000     
  -9.1406250000000000        2.8125000000000000        0.0000000000000000     
  -9.0625000000000018        2.8125000000000004        0.0000000000000000     
  -8.9843750000000036        2.8124999999999996        0.0000000000000000     
  -8.9062500000000000        2.8125000000000000        0.0000000000000000     
  -8.8281250000000018        2.8125000000000004        0.0000000000000000     
  -8.7500000000000018        2.8124999999999996        0.0000000000000000     
  -9.3750000000000000        2.8906250000000004        0.0000000000000000     
  -9.2968750000000018        2.8906250000000004        0.0000000000000000     
  -9.2187500000000000        2.8906250000000000        0.0000000000000000     
  -9.1406250000000000        2.8906249999999996        0.0000000000000000     
  -9.0625000000000000        2.8906250000000000        0.0000000000000000     
  -8.9843750000000018        2.8906250000000000        0.0000000000000000     
  -8.9062500000000000        2.8906249999999996        0.0000000000000000     
  -8.8281250000000000        2.8906250000000000        0.0000000000000000     
  -8.7500000000000000        2.8906250000000004        0.0000000000000000     
  -9.3750000000000000        2.9687500000000000        0.0000000000000000     
  -9.2968750000000018        2.9687500000000004        0.0000000000000000     
  -9.2187500000000000        2.9687500000000004        0.0000000000000000     
  -9.1406250000000036        2.9687500000000004        0.0000000000000000     
  -9.0624999999999982        2.9687500000000000        0.0000000000000000     
  -8.9843749999999982        2.9687500000000000        0.0000000000000000     
  -8.9062500000000018        2.9687500000000004        0.0000000000000000     
  -8.8281249999999982        2.9687500000000000        0.0000000000000000     
  -8.7499999999999964        2.9687500000000000        0.0000000000000000     
  -9.3750000000000018        3.0468750000000000        0.0000000000000000     
  -9.2968750000000018        3.0468750000000004        0.0000000000000000     
  -9.2187500000000018        3.0468749999999996        0.0000000000000000     
  -9.1406250000000000        3.0468750000000000        0.0000000000000000     
  -9.0625000000000018        3.0468750000000004        0.0000000000000000     
  -8.9843750000000000        3.0468749999999996        0.0000000000000000     
  -8.9062500000000036        3.0468750000000000        0.0000000000000000     
  -8.8281250000000018        3.0468750000000004        0.0000000000000000     
  -8.7500000000000000        3.0468749999999991        0.0000000000000000     
  -9.3750000000000018        3.1250000000000004        0.0000000000000000     
  -9.2968750000000000        3.1250000000000000        0.0000000000000000     
  -9.2187500000000000        3.1250000000000004        0.0000000000000000     
  -9.1406250000000000        3.1250000000000000        0.0000000000000000     
  -9.0625000000000000        3.1249999999999996        0.0000000000000000     
  -8.9843750000000018        3.1250000000000004        0.0000000000000000     
  -8.9062500000000018        3.1250000000000004        0.0000000000000000     
  -8.8281250000000000        3.1249999999999996        0.0000000000000000     
  -8.7500000000000018        3.1250000000000009        0.0000000000000000     
  -8.7500000000000018        2.5000000000000009        0.0000000000000000     
  -8.6718750000000018        2.5000000000000004        0.0000000000000000     
  -8.5937500000000000        2.5000000000000004        0.0000000000000000     
  -8.5156250000000000        2.5000000000000004        0.0000000000000000     
  -8.4375000000000018        2.5000000000000000        0.0000000000000000     
  -8.3593750000000000        2.5000000000000004        0.0000000000000000     
  -8.2812500000000000        2.5000000000000004        0.0000000000000000     
  -8.2031250000000018        2.5000000000000004        0.0000000000000000     
  -8.1250000000000000        2.5000000000000009        0.0000000000000000     
  -8.7500000000000018        2.5781249999999996        0.0000000000000000     
  -8.6718750000000000        2.5781250000000004        0.0000000000000000     
  -8.5937500000000018        2.5781249999999996        0.0000000000000000     
  -8.5156250000000018        2.5781249999999996        0.0000000000000000     
  -8.4375000000000000        2.5781250000000004        0.0000000000000000     
  -8.3593750000000000        2.5781249999999996        0.0000000000000000     
  -8.2812500000000018        2.5781249999999996        0.0000000000000000     
  -8.2031250000000000        2.5781250000000004        0.0000000000000000     
  -8.1250000000000000        2.5781249999999996        0.0000000000000000     
  -8.7500000000000000        2.6562500000000004        0.0000000000000000     
  -8.6718750000000018        2.6562500000000000        0.0000000000000000     
  -8.5937500000000000        2.6562500000000000        0.0000000000000000     
  -8.5156250000000000        2.6562500000000004        0.0000000000000000     
  -8.4375000000000000        2.6562499999999996        0.0000000000000000     
  -8.3593750000000000        2.6562500000000000        0.0000000000000000     
  -8.2812500000000000        2.6562500000000000        0.0000000000000000     
  -8.2031250000000000        2.6562500000000000        0.0000000000000000     
  -8.1250000000000018        2.6562500000000004        0.0000000000000000     
  -8.7499999999999982        2.7343750000000000        0.0000000000000000     
  -8.6718750000000018        2.7343750000000000        0.0000000000000000     
  -8.5937500000000018        2.7343750000000004        0.0000000000000000     
  -8.5156249999999964        2.7343750000000000        0.0000000000000000     
  -8.4375000000000018        2.7343750000000004        0.0000000000000000     
  -8.3593750000000018        2.7343750000000004        0.0000000000000000     
  -8.2812499999999964        2.7343750000000000        0.0000000000000000     
  -8.2031250000000018        2.7343750000000004        0.0000000000000000     
  -8.1249999999999982        2.7343750000000000        0.0000000000000000     
  -8.7500000000000018        2.8124999999999996        0.0000000000000000     
  -8.6718750000000018        2.8125000000000004        0.0000000000000000     
  -8.5937500000000000        2.8124999999999996        0.0000000000000000     
  -8.5156250000000018        2.8124999999999996        0.0000000000000000     
  -8.4375000000000018        2.8125000000000004        0.0000000000000000     
  -8.3593750000000000        2.8124999999999996        0.0000000000000000     
  -8.2812500000000018        2.8124999999999996        0.0000000000000000     
  -8.2031250000000018        2.8125000000000004        0.0000000000000000     
  -8.1250000000000000        2.8124999999999996        0.0000000000000000     
  -8.7500000000000000        2.8906250000000004        0.0000000000000000     
  -8.6718750000000018        2.8906250000000000        0.0000000000000000     
  -8.5937500000000000        2.8906250000000000        0.0000000000000000     
  -8.5156250000000000        2.8906250000000000        0.0000000000000000     
  -8.4375000000000018        2.8906250000000000        0.0000000000000000     
  -8.3593750000000000        2.8906250000000000        0.0000000000000000     
  -8.2812500000000000        2.8906250000000000        0.0000000000000000     
  -8.2031250000000000        2.8906250000000000        0.0000000000000000     
  -8.1250000000000000        2.8906250000000004        0.0000000000000000     
  -8.7499999999999964        2.9687500000000000        0.0000000000000000     
  -8.6718750000000018        2.9687500000000004        0.0000000000000000     
  -8.5937500000000000        2.9687500000000004        0.0000000000000000     
  -8.5156249999999982        2.9687500000000000        0.0000000000000000     
  -8.4375000000000018        2.9687500000000004        0.0000000000000000     
  -8.3593750000000000        2.9687500000000000        0.0000000000000000     
  -8.2812499999999982        2.9687500000000000        0.0000000000000000     
  -8.2031250000000018        2.9687500000000009        0.0000000000000000     
  -8.1250000000000000        2.9687500000000000        0.0000000000000000     
  -8.7500000000000000        3.0468749999999991        0.0000000000000000     
  -8.6718750000000036        3.0468750000000009        0.0000000000000000     
  -8.5937500000000000        3.0468749999999996        0.0000000000000000     
  -8.5156250000000000        3.0468749999999991        0.0000000000000000     
  -8.4375000000000018        3.0468750000000009        0.0000000000000000     
  -8.3593750000000000        3.0468749999999996        0.0000000000000000     
  -8.2812500000000000        3.0468749999999991        0.0000000000000000     
  -8.2031250000000036        3.0468750000000009        0.0000000000000000     
  -8.1249999999999964        3.0468749999999991        0.0000000000000000     
  -8.7500000000000018        3.1250000000000009        0.0000000000000000     
  -8.6718750000000018        3.1249999999999996        0.0000000000000000     
  -8.5937500000000000        3.1250000000000004        0.0000000000000000     
  -8.5156250000000000        3.1250000000000009        0.0000000000000000     
  -8.4375000000000018        3.1249999999999996        0.0000000000000000     
  -8.3593750000000000        3.1250000000000004        0.0000000000000000     
  -8.2812500000000000        3.1250000000000004        0.0000000000000000     
  -8.2031250000000018        3.1249999999999996        0.0000000000000000     
  -8.1250000000000000        3.1250000000000009        0.0000000000000000     
  -8.1250000000000000        2.5000000000000009        0.0000000000000000     
  -8.0468750000000000        2.5000000000000004        0.0000000000000000     
  -7.9687500000000000        2.5000000000000004        0.0000000000000000     
  -7.8906249999999991        2.5000000000000004        0.0000000000000000     
  -7.8125000000000000        2.5000000000000000        0.0000000000000000     
  -7.7343750000000000        2.5000000000000004        0.0000000000000000     
  -7.6562500000000009        2.5000000000000004        0.0000000000000000     
  -7.5781250000000009        2.5000000000000004        0.0000000000000000     
  -7.5000000000000018        2.5000000000000009        0.0000000000000000     
  -8.1250000000000000        2.5781249999999996        0.0000000000000000     
  -8.0468750000000018        2.5781250000000004        0.0000000000000000     
  -7.9687500000000000        2.5781249999999996        0.0000000000000000     
  -7.8906250000000009        2.5781249999999996        0.0000000000000000     
  -7.8125000000000000        2.5781250000000004        0.0000000000000000     
  -7.7343750000000009        2.5781249999999996        0.0000000000000000     
  -7.6562500000000018        2.5781249999999996        0.0000000000000000     
  -7.5781250000000000        2.5781250000000004        0.0000000000000000     
  -7.5000000000000009        2.5781249999999996        0.0000000000000000     
  -8.1250000000000018        2.6562500000000004        0.0000000000000000     
  -8.0468750000000018        2.6562500000000000        0.0000000000000000     
  -7.9687500000000000        2.6562500000000000        0.0000000000000000     
  -7.8906250000000000        2.6562500000000004        0.0000000000000000     
  -7.8125000000000000        2.6562499999999996        0.0000000000000000     
  -7.7343750000000000        2.6562500000000000        0.0000000000000000     
  -7.6562500000000009        2.6562500000000000        0.0000000000000000     
  -7.5781250000000009        2.6562500000000000        0.0000000000000000     
  -7.5000000000000009        2.6562500000000004        0.0000000000000000     
  -8.1249999999999982        2.7343750000000000        0.0000000000000000     
  -8.0468750000000000        2.7343750000000000        0.0000000000000000     
  -7.9687500000000000        2.7343750000000004        0.0000000000000000     
  -7.8906249999999982        2.7343750000000000        0.0000000000000000     
  -7.8125000000000000        2.7343750000000004        0.0000000000000000     
  -7.7343750000000000        2.7343750000000004        0.0000000000000000     
  -7.6562499999999982        2.7343750000000000        0.0000000000000000     
  -7.5781250000000000        2.7343750000000004        0.0000000000000000     
  -7.4999999999999991        2.7343750000000000        0.0000000000000000     
  -8.1250000000000000        2.8124999999999996        0.0000000000000000     
  -8.0468750000000000        2.8125000000000004        0.0000000000000000     
  -7.9687500000000000        2.8124999999999996        0.0000000000000000     
  -7.8906250000000009        2.8124999999999996        0.0000000000000000     
  -7.8125000000000009        2.8125000000000004        0.0000000000000000     
  -7.7343750000000009        2.8124999999999996        0.0000000000000000     
  -7.6562500000000009        2.8124999999999996        0.0000000000000000     
  -7.5781250000000009        2.8125000000000004        0.0000000000000000     
  -7.5000000000000009        2.8124999999999996        0.0000000000000000     
  -8.1250000000000000        2.8906250000000004        0.0000000000000000     
  -8.0468750000000018        2.8906250000000000        0.0000000000000000     
  -7.9687500000000000        2.8906250000000000        0.0000000000000000     
  -7.8906249999999991        2.8906250000000000        0.0000000000000000     
  -7.8125000000000009        2.8906250000000000        0.0000000000000000     
  -7.7343750000000000        2.8906250000000000        0.0000000000000000     
  -7.6562500000000009        2.8906250000000000        0.0000000000000000     
  -7.5781250000000000        2.8906250000000000        0.0000000000000000     
  -7.5000000000000000        2.8906250000000004        0.0000000000000000     
  -8.1250000000000000        2.9687500000000000        0.0000000000000000     
  -8.0468750000000036        2.9687500000000004        0.0000000000000000     
  -7.9687500000000000        2.9687500000000004        0.0000000000000000     
  -7.8906249999999982        2.9687500000000000        0.0000000000000000     
  -7.8125000000000000        2.9687500000000004        0.0000000000000000     
  -7.7343750000000000        2.9687500000000000        0.0000000000000000     
  -7.6562499999999982        2.9687500000000000        0.0000000000000000     
  -7.5781250000000000        2.9687500000000009        0.0000000000000000     
  -7.5000000000000000        2.9687500000000000        0.0000000000000000     
  -8.1249999999999964        3.0468749999999991        0.0000000000000000     
  -8.0468750000000000        3.0468750000000009        0.0000000000000000     
  -7.9687500000000000        3.0468749999999996        0.0000000000000000     
  -7.8906249999999991        3.0468749999999991        0.0000000000000000     
  -7.8125000000000018        3.0468750000000009        0.0000000000000000     
  -7.7343750000000000        3.0468749999999996        0.0000000000000000     
  -7.6562499999999991        3.0468749999999991        0.0000000000000000     
  -7.5781250000000027        3.0468750000000009        0.0000000000000000     
  -7.4999999999999982        3.0468749999999991        0.0000000000000000     
  -8.1250000000000000        3.1250000000000009        0.0000000000000000     
  -8.0468750000000000        3.1249999999999996        0.0000000000000000     
  -7.9687500000000000        3.1250000000000004        0.0000000000000000     
  -7.8906249999999991        3.1250000000000009        0.0000000000000000     
  -7.8125000000000000        3.1249999999999996        0.0000000000000000     
  -7.7343750000000000        3.1250000000000004        0.0000000000000000     
  -7.6562500000000009        3.1250000000000004        0.0000000000000000     
  -7.5781250000000009        3.1249999999999996        0.0000000000000000     
  -7.5000000000000018        3.1250000000000009        0.0000000000000000     
  -7.5000000000000018        2.5000000000000009        0.0000000000000000     
  -7.4218750000000018        2.5000000000000004        0.0000000000000000     
  -7.3437500000000018        2.5000000000000004        0.0000000000000000     
  -7.2656250000000000        2.5000000000000004        0.0000000000000000     
  -7.1875000000000009        2.5000000000000000        0.0000000000000000     
  -7.1093750000000000        2.5000000000000004        0.0000000000000000     
  -7.0312500000000009        2.5000000000000004        0.0000000000000000     
  -6.9531250000000009        2.5000000000000004        0.0000000000000000     
  -6.8750000000000009        2.5000000000000009        0.0000000000000000     
  -7.5000000000000009        2.5781249999999996        0.0000000000000000     
  -7.4218750000000009        2.5781250000000004        0.0000000000000000     
  -7.3437500000000009        2.5781249999999996        0.0000000000000000     
  -7.2656250000000009        2.5781249999999996        0.0000000000000000     
  -7.1875000000000009        2.5781250000000004        0.0000000000000000     
  -7.1093750000000009        2.5781249999999996        0.0000000000000000     
  -7.0312500000000009        2.5781249999999996        0.0000000000000000     
  -6.9531250000000009        2.5781250000000004        0.0000000000000000     
  -6.8750000000000009        2.5781249999999996        0.0000000000000000     
  -7.5000000000000009        2.6562500000000004        0.0000000000000000     
  -7.4218750000000009        2.6562500000000000        0.0000000000000000     
  -7.3437500000000000        2.6562500000000000        0.0000000000000000     
  -7.2656250000000000        2.6562500000000004        0.0000000000000000     
  -7.1875000000000000        2.6562499999999996        0.0000000000000000     
  -7.1093750000000000        2.6562500000000000        0.0000000000000000     
  -7.0312500000000000        2.6562500000000000        0.0000000000000000     
  -6.9531250000000018        2.6562500000000000        0.0000000000000000     
  -6.8750000000000018        2.6562500000000004        0.0000000000000000     
  -7.4999999999999991        2.7343750000000000        0.0000000000000000     
  -7.4218750000000000        2.7343750000000000        0.0000000000000000     
  -7.3437500000000009        2.7343750000000004        0.0000000000000000     
  -7.2656249999999991        2.7343750000000000        0.0000000000000000     
  -7.1875000000000018        2.7343750000000004        0.0000000000000000     
  -7.1093750000000009        2.7343750000000004        0.0000000000000000     
  -7.0312499999999982        2.7343750000000000        0.0000000000000000     
  -6.9531250000000009        2.7343750000000004        0.0000000000000000     
  -6.8749999999999982        2.7343750000000000        0.0000000000000000     
  -7.5000000000000009        2.8124999999999996        0.0000000000000000     
  -7.4218750000000000        2.8125000000000004        0.0000000000000000     
  -7.3437500000000009        2.8124999999999996        0.0000000000000000     
  -7.2656250000000009        2.8124999999999996        0.0000000000000000     
  -7.1875000000000000        2.8125000000000004        0.0000000000000000     
  -7.1093750000000009        2.8124999999999996        0.0000000000000000     
  -7.0312500000000000        2.8124999999999996        0.0000000000000000     
  -6.9531250000000018        2.8125000000000004        0.0000000000000000     
  -6.8750000000000009        2.8124999999999996        0.0000000000000000     
  -7.5000000000000000        2.8906250000000004        0.0000000000000000     
  -7.4218750000000009        2.8906250000000000        0.0000000000000000     
  -7.3437500000000000        2.8906250000000000        0.0000000000000000     
  -7.2656250000000018        2.8906250000000000        0.0000000000000000     
  -7.1875000000000018        2.8906250000000000        0.0000000000000000     
  -7.1093750000000000        2.8906250000000000        0.0000000000000000     
  -7.0312500000000000        2.8906250000000000        0.0000000000000000     
  -6.9531250000000018        2.8906250000000000        0.0000000000000000     
  -6.8749999999999991        2.8906250000000004        0.0000000000000000     
  -7.5000000000000000        2.9687500000000000        0.0000000000000000     
  -7.4218750000000018        2.9687500000000004        0.0000000000000000     
  -7.3437500000000009        2.9687500000000004        0.0000000000000000     
  -7.2656249999999991        2.9687500000000000        0.0000000000000000     
  -7.1874999999999991        2.9687500000000004        0.0000000000000000     
  -7.1093750000000000        2.9687500000000000        0.0000000000000000     
  -7.0312499999999991        2.9687500000000000        0.0000000000000000     
  -6.9531250000000009        2.9687500000000009        0.0000000000000000     
  -6.8749999999999991        2.9687500000000000        0.0000000000000000     
  -7.4999999999999982        3.0468749999999991        0.0000000000000000     
  -7.4218750000000018        3.0468750000000009        0.0000000000000000     
  -7.3437500000000009        3.0468749999999996        0.0000000000000000     
  -7.2656249999999982        3.0468749999999991        0.0000000000000000     
  -7.1875000000000027        3.0468750000000009        0.0000000000000000     
  -7.1093750000000009        3.0468749999999996        0.0000000000000000     
  -7.0312499999999982        3.0468749999999991        0.0000000000000000     
  -6.9531250000000036        3.0468750000000009        0.0000000000000000     
  -6.8749999999999991        3.0468749999999991        0.0000000000000000     
  -7.5000000000000018        3.1250000000000009        0.0000000000000000     
  -7.4218750000000018        3.1249999999999996        0.0000000000000000     
  -7.3437500000000018        3.1250000000000004        0.0000000000000000     
  -7.2656250000000000        3.1250000000000009        0.0000000000000000     
  -7.1875000000000009        3.1249999999999996        0.0000000000000000     
  -7.1093750000000000        3.1250000000000004        0.0000000000000000     
  -7.0312500000000009        3.1250000000000004        0.0000000000000000     
  -6.9531250000000009        3.1249999999999996        0.0000000000000000     
  -6.8750000000000009        3.1250000000000009        0.0000000000000000     
  -6.8750000000000009        2.5000000000000009        0.0000000000000000     
  -6.7968750000000018        2.5000000000000004        0.0000000000000000     
  -6.7187500000000009        2.5000000000000004        0.0000000000000000     
  -6.6406250000000000        2.5000000000000004        0.0000000000000000     
  -6.5625000000000018        2.5000000000000000        0.0000000000000000     
  -6.4843750000000009        2.5000000000000004        0.0000000000000000     
  -6.4062500000000009        2.5000000000000004        0.0000000000000000     
  -6.3281250000000018        2.5000000000000004        0.0000000000000000     
  -6.2500000000000009        2.5000000000000009        0.0000000000000000     
  -6.8750000000000009        2.5781249999999996        0.0000000000000000     
  -6.7968750000000009        2.5781250000000004        0.0000000000000000     
  -6.7187500000000009        2.5781249999999996        0.0000000000000000     
  -6.6406250000000009        2.5781249999999996        0.0000000000000000     
  -6.5625000000000009        2.5781250000000004        0.0000000000000000     
  -6.4843750000000009        2.5781249999999996        0.0000000000000000     
  -6.4062500000000000        2.5781249999999996        0.0000000000000000     
  -6.3281250000000009        2.5781250000000004        0.0000000000000000     
  -6.2500000000000009        2.5781249999999996        0.0000000000000000     
  -6.8750000000000018        2.6562500000000004        0.0000000000000000     
  -6.7968750000000009        2.6562500000000000        0.0000000000000000     
  -6.7187500000000000        2.6562500000000000        0.0000000000000000     
  -6.6406250000000000        2.6562500000000004        0.0000000000000000     
  -6.5625000000000009        2.6562499999999996        0.0000000000000000     
  -6.4843750000000000        2.6562500000000000        0.0000000000000000     
  -6.4062500000000009        2.6562500000000000        0.0000000000000000     
  -6.3281250000000009        2.6562500000000000        0.0000000000000000     
  -6.2500000000000009        2.6562500000000004        0.0000000000000000     
  -6.8749999999999982        2.7343750000000000        0.0000000000000000     
  -6.7968750000000018        2.7343750000000000        0.0000000000000000     
  -6.7187500000000009        2.7343750000000004        0.0000000000000000     
  -6.6406249999999982        2.7343750000000000        0.0000000000000000     
  -6.5625000000000018        2.7343750000000004        0.0000000000000000     
  -6.4843750000000009        2.7343750000000004        0.0000000000000000     
  -6.4062499999999982        2.7343750000000000        0.0000000000000000     
  -6.3281250000000018        2.7343750000000004        0.0000000000000000     
  -6.2499999999999991        2.7343750000000000        0.0000000000000000     
  -6.8750000000000009        2.8124999999999996        0.0000000000000000     
  -6.7968750000000000        2.8125000000000004        0.0000000000000000     
  -6.7187499999999991        2.8124999999999996        0.0000000000000000     
  -6.6406250000000000        2.8124999999999996        0.0000000000000000     
  -6.5625000000000000        2.8125000000000004        0.0000000000000000     
  -6.4843750000000000        2.8124999999999996        0.0000000000000000     
  -6.4062500000000000        2.8124999999999996        0.0000000000000000     
  -6.3281250000000000        2.8125000000000004        0.0000000000000000     
  -6.2500000000000000        2.8124999999999996        0.0000000000000000     
  -6.8749999999999991        2.8906250000000004        0.0000000000000000     
  -6.7968750000000009        2.8906250000000000        0.0000000000000000     
  -6.7187500000000000        2.8906250000000000        0.0000000000000000     
  -6.6406250000000009        2.8906250000000000        0.0000000000000000     
  -6.5625000000000009        2.8906250000000000        0.0000000000000000     
  -6.4843750000000009        2.8906250000000000        0.0000000000000000     
  -6.4062499999999991        2.8906250000000000        0.0000000000000000     
  -6.3281250000000009        2.8906250000000000        0.0000000000000000     
  -6.2500000000000009        2.8906250000000004        0.0000000000000000     
  -6.8749999999999991        2.9687500000000000        0.0000000000000000     
  -6.7968750000000018        2.9687500000000004        0.0000000000000000     
  -6.7187500000000009        2.9687500000000004        0.0000000000000000     
  -6.6406249999999982        2.9687500000000000        0.0000000000000000     
  -6.5625000000000018        2.9687500000000004        0.0000000000000000     
  -6.4843750000000009        2.9687500000000000        0.0000000000000000     
  -6.4062499999999982        2.9687500000000000        0.0000000000000000     
  -6.3281250000000018        2.9687500000000009        0.0000000000000000     
  -6.2499999999999991        2.9687500000000000        0.0000000000000000     
  -6.8749999999999991        3.0468749999999991        0.0000000000000000     
  -6.7968750000000018        3.0468750000000009        0.0000000000000000     
  -6.7187500000000000        3.0468749999999996        0.0000000000000000     
  -6.6406249999999991        3.0468749999999991        0.0000000000000000     
  -6.5625000000000018        3.0468750000000009        0.0000000000000000     
  -6.4843750000000000        3.0468749999999996        0.0000000000000000     
  -6.4062499999999991        3.0468749999999991        0.0000000000000000     
  -6.3281250000000009        3.0468750000000009        0.0000000000000000     
  -6.2499999999999991        3.0468749999999991        0.0000000000000000     
  -6.8750000000000009        3.1250000000000009        0.0000000000000000     
  -6.7968750000000018        3.1249999999999996        0.0000000000000000     
  -6.7187500000000009        3.1250000000000004        0.0000000000000000     
  -6.6406250000000000        3.1250000000000009        0.0000000000000000     
  -6.5625000000000018        3.1249999999999996        0.0000000000000000     
  -6.4843750000000009        3.1250000000000004        0.0000000000000000     
  -6.4062500000000009        3.1250000000000004        0.0000000000000000     
  -6.3281250000000018        3.1249999999999996        0.0000000000000000     
  -6.2500000000000009        3.1250000000000009        0.0000000000000000     
  -6.2500000000000009        2.5000000000000009        0.0000000000000000     
  -6.1718750000000009        2.5000000000000004        0.0000000000000000     
  -6.0937500000000018        2.5000000000000000        0.0000000000000000     
  -6.0156250000000009        2.5000000000000004        0.0000000000000000     
  -5.9375000000000000        2.5000000000000004        0.0000000000000000     
  -5.8593750000000000        2.5000000000000000        0.0000000000000000     
  -5.7812500000000018        2.5000000000000004        0.0000000000000000     
  -5.7031250000000000        2.5000000000000004        0.0000000000000000     
  -5.6250000000000009        2.5000000000000000        0.0000000000000000     
  -6.2500000000000009        2.5781249999999996        0.0000000000000000     
  -6.1718750000000009        2.5781250000000004        0.0000000000000000     
  -6.0937500000000009        2.5781250000000000        0.0000000000000000     
  -6.0156250000000009        2.5781249999999996        0.0000000000000000     
  -5.9375000000000009        2.5781250000000004        0.0000000000000000     
  -5.8593750000000000        2.5781250000000000        0.0000000000000000     
  -5.7812500000000009        2.5781249999999996        0.0000000000000000     
  -5.7031250000000000        2.5781250000000004        0.0000000000000000     
  -5.6250000000000000        2.5781250000000000        0.0000000000000000     
  -6.2500000000000009        2.6562500000000004        0.0000000000000000     
  -6.1718750000000009        2.6562500000000000        0.0000000000000000     
  -6.0937500000000000        2.6562500000000000        0.0000000000000000     
  -6.0156250000000000        2.6562500000000004        0.0000000000000000     
  -5.9375000000000000        2.6562500000000000        0.0000000000000000     
  -5.8593750000000000        2.6562500000000000        0.0000000000000000     
  -5.7812500000000000        2.6562500000000000        0.0000000000000000     
  -5.7031250000000009        2.6562500000000000        0.0000000000000000     
  -5.6250000000000000        2.6562500000000000        0.0000000000000000     
  -6.2499999999999991        2.7343750000000000        0.0000000000000000     
  -6.1718750000000009        2.7343750000000000        0.0000000000000000     
  -6.0937500000000000        2.7343750000000000        0.0000000000000000     
  -6.0156250000000000        2.7343750000000000        0.0000000000000000     
  -5.9374999999999991        2.7343749999999996        0.0000000000000000     
  -5.8593750000000000        2.7343750000000000        0.0000000000000000     
  -5.7812500000000000        2.7343750000000000        0.0000000000000000     
  -5.7031250000000000        2.7343750000000004        0.0000000000000000     
  -5.6250000000000000        2.7343750000000000        0.0000000000000000     
  -6.2500000000000000        2.8124999999999996        0.0000000000000000     
  -6.1718750000000009        2.8125000000000000        0.0000000000000000     
  -6.0937500000000000        2.8125000000000000        0.0000000000000000     
  -6.0156250000000009        2.8124999999999996        0.0000000000000000     
  -5.9375000000000009        2.8125000000000004        0.0000000000000000     
  -5.8593750000000000        2.8125000000000000        0.0000000000000000     
  -5.7812500000000000        2.8124999999999996        0.0000000000000000     
  -5.7031250000000009        2.8125000000000004        0.0000000000000000     
  -5.6250000000000000        2.8125000000000000        0.0000000000000000     
  -6.2500000000000009        2.8906250000000004        0.0000000000000000     
  -6.1718750000000009        2.8906250000000000        0.0000000000000000     
  -6.0937500000000000        2.8906250000000000        0.0000000000000000     
  -6.0156250000000000        2.8906250000000000        0.0000000000000000     
  -5.9375000000000009        2.8906250000000000        0.0000000000000000     
  -5.8593750000000000        2.8906250000000000        0.0000000000000000     
  -5.7812500000000009        2.8906250000000000        0.0000000000000000     
  -5.7031250000000009        2.8906250000000000        0.0000000000000000     
  -5.6250000000000000        2.8906250000000009        0.0000000000000000     
  -6.2499999999999991        2.9687500000000000        0.0000000000000000     
  -6.1718749999999991        2.9687500000000000        0.0000000000000000     
  -6.0937500000000009        2.9687500000000000        0.0000000000000000     
  -6.0156250000000000        2.9687500000000000        0.0000000000000000     
  -5.9374999999999991        2.9687500000000000        0.0000000000000000     
  -5.8593750000000009        2.9687500000000004        0.0000000000000000     
  -5.7812500000000000        2.9687500000000000        0.0000000000000000     
  -5.7031249999999991        2.9687500000000004        0.0000000000000000     
  -5.6250000000000000        2.9687499999999996        0.0000000000000000     
  -6.2499999999999991        3.0468749999999991        0.0000000000000000     
  -6.1718750000000009        3.0468750000000004        0.0000000000000000     
  -6.0937500000000000        3.0468750000000000        0.0000000000000000     
  -6.0156250000000000        3.0468749999999991        0.0000000000000000     
  -5.9375000000000000        3.0468750000000004        0.0000000000000000     
  -5.8593750000000000        3.0468750000000000        0.0000000000000000     
  -5.7812500000000000        3.0468749999999991        0.0000000000000000     
  -5.7031250000000000        3.0468750000000009        0.0000000000000000     
  -5.6250000000000009        3.0468750000000000        0.0000000000000000     
  -6.2500000000000009        3.1250000000000009        0.0000000000000000     
  -6.1718750000000009        3.1250000000000004        0.0000000000000000     
  -6.0937500000000018        3.1250000000000009        0.0000000000000000     
  -6.0156250000000009        3.1250000000000004        0.0000000000000000     
  -5.9375000000000000        3.1250000000000000        0.0000000000000000     
  -5.8593750000000000        3.1250000000000000        0.0000000000000000     
  -5.7812500000000018        3.1250000000000004        0.0000000000000000     
  -5.7031250000000000        3.1250000000000000        0.0000000000000000     
  -5.6250000000000009        3.1250000000000009        0.0000000000000000     
  -5.6250000000000009        2.5000000000000000        0.0000000000000000     
  -5.5468750000000009        2.5000000000000000        0.0000000000000000     
  -5.4687500000000000        2.5000000000000000        0.0000000000000000     
  -5.3906250000000009        2.5000000000000000        0.0000000000000000     
  -5.3125000000000018        2.5000000000000004        0.0000000000000000     
  -5.2343750000000009        2.5000000000000004        0.0000000000000000     
  -5.1562500000000009        2.5000000000000000        0.0000000000000000     
  -5.0781250000000000        2.5000000000000000        0.0000000000000000     
  -5.0000000000000018        2.5000000000000004        0.0000000000000000     
  -5.6250000000000000        2.5781250000000000        0.0000000000000000     
  -5.5468750000000000        2.5781250000000000        0.0000000000000000     
  -5.4687500000000009        2.5781250000000000        0.0000000000000000     
  -5.3906250000000009        2.5781250000000000        0.0000000000000000     
  -5.3125000000000009        2.5781250000000009        0.0000000000000000     
  -5.2343750000000009        2.5781250000000004        0.0000000000000000     
  -5.1562500000000009        2.5781250000000000        0.0000000000000000     
  -5.0781250000000000        2.5781250000000004        0.0000000000000000     
  -5.0000000000000000        2.5781250000000000        0.0000000000000000     
  -5.6250000000000000        2.6562500000000000        0.0000000000000000     
  -5.5468750000000009        2.6562500000000000        0.0000000000000000     
  -5.4687500000000000        2.6562500000000000        0.0000000000000000     
  -5.3906250000000000        2.6562500000000004        0.0000000000000000     
  -5.3125000000000018        2.6562500000000004        0.0000000000000000     
  -5.2343750000000000        2.6562500000000000        0.0000000000000000     
  -5.1562500000000000        2.6562500000000000        0.0000000000000000     
  -5.0781250000000018        2.6562500000000004        0.0000000000000000     
  -4.9999999999999991        2.6562500000000000        0.0000000000000000     
  -5.6250000000000000        2.7343750000000000        0.0000000000000000     
  -5.5468750000000000        2.7343750000000000        0.0000000000000000     
  -5.4687500000000000        2.7343750000000004        0.0000000000000000     
  -5.3906250000000018        2.7343750000000000        0.0000000000000000     
  -5.3125000000000018        2.7343750000000009        0.0000000000000000     
  -5.2343750000000000        2.7343750000000000        0.0000000000000000     
  -5.1562500000000018        2.7343750000000009        0.0000000000000000     
  -5.0781250000000000        2.7343749999999996        0.0000000000000000     
  -5.0000000000000009        2.7343750000000004        0.0000000000000000     
  -5.6250000000000000        2.8125000000000000        0.0000000000000000     
  -5.5468750000000009        2.8125000000000009        0.0000000000000000     
  -5.4687500000000009        2.8125000000000000        0.0000000000000000     
  -5.3906250000000009        2.8125000000000000        0.0000000000000000     
  -5.3125000000000009        2.8125000000000009        0.0000000000000000     
  -5.2343750000000009        2.8125000000000000        0.0000000000000000     
  -5.1562500000000018        2.8125000000000000        0.0000000000000000     
  -5.0781250000000000        2.8125000000000000        0.0000000000000000     
  -5.0000000000000009        2.8125000000000004        0.0000000000000000     
  -5.6250000000000000        2.8906250000000009        0.0000000000000000     
  -5.5468750000000018        2.8906250000000009        0.0000000000000000     
  -5.4687500000000000        2.8906250000000004        0.0000000000000000     
  -5.3906250000000009        2.8906250000000009        0.0000000000000000     
  -5.3125000000000009        2.8906250000000000        0.0000000000000000     
  -5.2343750000000009        2.8906250000000000        0.0000000000000000     
  -5.1562500000000000        2.8906250000000000        0.0000000000000000     
  -5.0781250000000018        2.8906250000000004        0.0000000000000000     
  -5.0000000000000009        2.8906250000000004        0.0000000000000000     
  -5.6250000000000000        2.9687499999999996        0.0000000000000000     
  -5.5468750000000000        2.9687500000000004        0.0000000000000000     
  -5.4687500000000000        2.9687500000000004        0.0000000000000000     
  -5.3906250000000009        2.9687499999999996        0.0000000000000000     
  -5.3125000000000009        2.9687500000000013        0.0000000000000000     
  -5.2343750000000009        2.9687500000000000        0.0000000000000000     
  -5.1562500000000000        2.9687500000000000        0.0000000000000000     
  -5.0781250000000009        2.9687500000000009        0.0000000000000000     
  -5.0000000000000009        2.9687500000000000        0.0000000000000000     
  -5.6250000000000009        3.0468750000000000        0.0000000000000000     
  -5.5468750000000000        3.0468750000000000        0.0000000000000000     
  -5.4687500000000000        3.0468749999999996        0.0000000000000000     
  -5.3906249999999991        3.0468749999999996        0.0000000000000000     
  -5.3125000000000018        3.0468750000000013        0.0000000000000000     
  -5.2343750000000009        3.0468750000000000        0.0000000000000000     
  -5.1562500000000009        3.0468750000000000        0.0000000000000000     
  -5.0781250000000000        3.0468750000000009        0.0000000000000000     
  -5.0000000000000000        3.0468749999999996        0.0000000000000000     
  -5.6250000000000009        3.1250000000000009        0.0000000000000000     
  -5.5468750000000000        3.1250000000000000        0.0000000000000000     
  -5.4687500000000000        3.1250000000000004        0.0000000000000000     
  -5.3906250000000009        3.1250000000000009        0.0000000000000000     
  -5.3125000000000018        3.1250000000000004        0.0000000000000000     
  -5.2343750000000009        3.1250000000000004        0.0000000000000000     
  -5.1562500000000009        3.1250000000000000        0.0000000000000000     
  -5.0781249999999991        3.1250000000000000        0.0000000000000000     
  -5.0000000000000018        3.1250000000000000        0.0000000000000000     
  -10.000000000000004        3.1250000000000000        0.0000000000000000     
  -9.9218750000000000        3.1250000000000000        0.0000000000000000     
  -9.8437500000000000        3.1250000000000000        0.0000000000000000     
  -9.7656250000000018        3.1250000000000004        0.0000000000000000     
  -9.6875000000000018        3.1250000000000004        0.0000000000000000     
  -9.6093750000000018        3.1250000000000004        0.0000000000000000     
  -9.5312500000000018        3.1250000000000004        0.0000000000000000     
  -9.4531250000000000        3.1250000000000004        0.0000000000000000     
  -9.3750000000000018        3.1250000000000004        0.0000000000000000     
  -10.000000000000000        3.2031250000000000        0.0000000000000000     
  -9.9218750000000000        3.2031250000000000        0.0000000000000000     
  -9.8437500000000018        3.2031250000000004        0.0000000000000000     
  -9.7656250000000018        3.2031250000000009        0.0000000000000000     
  -9.6875000000000018        3.2031250000000009        0.0000000000000000     
  -9.6093750000000000        3.2031250000000004        0.0000000000000000     
  -9.5312500000000000        3.2031250000000000        0.0000000000000000     
  -9.4531250000000000        3.2031250000000000        0.0000000000000000     
  -9.3750000000000018        3.2031250000000004        0.0000000000000000     
  -9.9999999999999982        3.2812500000000000        0.0000000000000000     
  -9.9218750000000018        3.2812500000000004        0.0000000000000000     
  -9.8437500000000000        3.2812500000000000        0.0000000000000000     
  -9.7656250000000000        3.2812500000000004        0.0000000000000000     
  -9.6875000000000018        3.2812499999999996        0.0000000000000000     
  -9.6093750000000018        3.2812500000000000        0.0000000000000000     
  -9.5312500000000000        3.2812500000000004        0.0000000000000000     
  -9.4531250000000000        3.2812499999999996        0.0000000000000000     
  -9.3750000000000000        3.2812500000000000        0.0000000000000000     
  -10.000000000000002        3.3593750000000004        0.0000000000000000     
  -9.9218750000000000        3.3593750000000000        0.0000000000000000     
  -9.8437500000000000        3.3593750000000000        0.0000000000000000     
  -9.7656250000000018        3.3593750000000000        0.0000000000000000     
  -9.6875000000000018        3.3593750000000004        0.0000000000000000     
  -9.6093750000000018        3.3593750000000004        0.0000000000000000     
  -9.5312500000000000        3.3593750000000000        0.0000000000000000     
  -9.4531250000000018        3.3593750000000004        0.0000000000000000     
  -9.3750000000000018        3.3593750000000000        0.0000000000000000     
  -10.000000000000002        3.4375000000000004        0.0000000000000000     
  -9.9218750000000018        3.4375000000000000        0.0000000000000000     
  -9.8437500000000018        3.4375000000000004        0.0000000000000000     
  -9.7656250000000018        3.4375000000000000        0.0000000000000000     
  -9.6875000000000036        3.4375000000000000        0.0000000000000000     
  -9.6093750000000000        3.4375000000000004        0.0000000000000000     
  -9.5312500000000018        3.4375000000000004        0.0000000000000000     
  -9.4531250000000018        3.4375000000000000        0.0000000000000000     
  -9.3750000000000000        3.4375000000000000        0.0000000000000000     
  -10.000000000000002        3.5156250000000004        0.0000000000000000     
  -9.9218750000000036        3.5156250000000000        0.0000000000000000     
  -9.8437500000000000        3.5156250000000000        0.0000000000000000     
  -9.7656250000000018        3.5156250000000000        0.0000000000000000     
  -9.6875000000000018        3.5156249999999996        0.0000000000000000     
  -9.6093750000000000        3.5156250000000004        0.0000000000000000     
  -9.5312500000000018        3.5156250000000013        0.0000000000000000     
  -9.4531250000000018        3.5156250000000000        0.0000000000000000     
  -9.3750000000000000        3.5156250000000000        0.0000000000000000     
  -10.000000000000002        3.5937500000000004        0.0000000000000000     
  -9.9218750000000018        3.5937500000000009        0.0000000000000000     
  -9.8437500000000000        3.5937500000000000        0.0000000000000000     
  -9.7656250000000000        3.5937500000000000        0.0000000000000000     
  -9.6875000000000018        3.5937500000000004        0.0000000000000000     
  -9.6093750000000018        3.5937500000000000        0.0000000000000000     
  -9.5312500000000000        3.5937500000000000        0.0000000000000000     
  -9.4531250000000018        3.5937500000000000        0.0000000000000000     
  -9.3750000000000000        3.5937500000000000        0.0000000000000000     
  -10.000000000000000        3.6718750000000004        0.0000000000000000     
  -9.9218750000000018        3.6718750000000000        0.0000000000000000     
  -9.8437500000000000        3.6718750000000004        0.0000000000000000     
  -9.7656250000000018        3.6718750000000004        0.0000000000000000     
  -9.6875000000000036        3.6718750000000004        0.0000000000000000     
  -9.6093750000000000        3.6718749999999996        0.0000000000000000     
  -9.5312500000000018        3.6718750000000004        0.0000000000000000     
  -9.4531250000000018        3.6718750000000004        0.0000000000000000     
  -9.3750000000000018        3.6718750000000004        0.0000000000000000     
  -10.000000000000004        3.7500000000000004        0.0000000000000000     
  -9.9218750000000018        3.7500000000000000        0.0000000000000000     
  -9.8437500000000000        3.7500000000000004        0.0000000000000000     
  -9.7656250000000018        3.7500000000000004        0.0000000000000000     
  -9.6875000000000018        3.7500000000000000        0.0000000000000000     
  -9.6093750000000018        3.7500000000000004        0.0000000000000000     
  -9.5312500000000018        3.7500000000000004        0.0000000000000000     
  -9.4531250000000000        3.7500000000000000        0.0000000000000000     
  -9.3750000000000018        3.7500000000000004        0.0000000000000000     
  -9.3750000000000018        3.1250000000000004        0.0000000000000000     
  -9.2968750000000000        3.1250000000000000        0.0000000000000000     
  -9.2187500000000000        3.1250000000000004        0.0000000000000000     
  -9.1406250000000000        3.1250000000000000        0.0000000000000000     
  -9.0625000000000000        3.1249999999999996        0.0000000000000000     
  -8.9843750000000018        3.1250000000000004        0.0000000000000000     
  -8.9062500000000018        3.1250000000000004        0.0000000000000000     
  -8.8281250000000000        3.1249999999999996        0.0000000000000000     
  -8.7500000000000018        3.1250000000000009        0.0000000000000000     
  -9.3750000000000018        3.2031250000000004        0.0000000000000000     
  -9.2968750000000018        3.2031250000000009        0.0000000000000000     
  -9.2187500000000018        3.2031250000000000        0.0000000000000000     
  -9.1406250000000018        3.2031250000000009        0.0000000000000000     
  -9.0625000000000018        3.2031250000000004        0.0000000000000000     
  -8.9843750000000018        3.2031250000000000        0.0000000000000000     
  -8.9062500000000018        3.2031250000000009        0.0000000000000000     
  -8.8281250000000018        3.2031250000000000        0.0000000000000000     
  -8.7500000000000018        3.2031250000000000        0.0000000000000000     
  -9.3750000000000000        3.2812500000000000        0.0000000000000000     
  -9.2968750000000018        3.2812500000000004        0.0000000000000000     
  -9.2187500000000018        3.2812500000000000        0.0000000000000000     
  -9.1406250000000018        3.2812500000000009        0.0000000000000000     
  -9.0625000000000000        3.2812499999999996        0.0000000000000000     
  -8.9843750000000000        3.2812500000000000        0.0000000000000000     
  -8.9062500000000000        3.2812500000000004        0.0000000000000000     
  -8.8281250000000018        3.2812500000000000        0.0000000000000000     
  -8.7500000000000000        3.2812500000000000        0.0000000000000000     
  -9.3750000000000018        3.3593750000000000        0.0000000000000000     
  -9.2968749999999982        3.3593749999999991        0.0000000000000000     
  -9.2187499999999982        3.3593750000000004        0.0000000000000000     
  -9.1406250000000000        3.3593750000000000        0.0000000000000000     
  -9.0624999999999982        3.3593749999999991        0.0000000000000000     
  -8.9843750000000000        3.3593750000000004        0.0000000000000000     
  -8.9062500000000018        3.3593750000000000        0.0000000000000000     
  -8.8281249999999982        3.3593749999999991        0.0000000000000000     
  -8.7499999999999982        3.3593750000000000        0.0000000000000000     
  -9.3750000000000000        3.4375000000000000        0.0000000000000000     
  -9.2968750000000018        3.4375000000000009        0.0000000000000000     
  -9.2187500000000000        3.4375000000000000        0.0000000000000000     
  -9.1406250000000000        3.4375000000000004        0.0000000000000000     
  -9.0625000000000018        3.4375000000000000        0.0000000000000000     
  -8.9843750000000036        3.4375000000000000        0.0000000000000000     
  -8.9062500000000000        3.4375000000000004        0.0000000000000000     
  -8.8281250000000018        3.4375000000000000        0.0000000000000000     
  -8.7500000000000018        3.4375000000000000        0.0000000000000000     
  -9.3750000000000000        3.5156250000000000        0.0000000000000000     
  -9.2968750000000018        3.5156250000000004        0.0000000000000000     
  -9.2187500000000000        3.5156250000000000        0.0000000000000000     
  -9.1406250000000000        3.5156250000000004        0.0000000000000000     
  -9.0625000000000000        3.5156249999999996        0.0000000000000000     
  -8.9843750000000018        3.5156250000000000        0.0000000000000000     
  -8.9062500000000000        3.5156250000000004        0.0000000000000000     
  -8.8281250000000000        3.5156249999999991        0.0000000000000000     
  -8.7500000000000000        3.5156249999999996        0.0000000000000000     
  -9.3750000000000000        3.5937500000000000        0.0000000000000000     
  -9.2968750000000018        3.5937500000000000        0.0000000000000000     
  -9.2187500000000000        3.5937500000000004        0.0000000000000000     
  -9.1406250000000036        3.5937500000000009        0.0000000000000000     
  -9.0624999999999982        3.5937499999999996        0.0000000000000000     
  -8.9843749999999982        3.5937500000000004        0.0000000000000000     
  -8.9062500000000018        3.5937500000000004        0.0000000000000000     
  -8.8281249999999982        3.5937499999999996        0.0000000000000000     
  -8.7499999999999964        3.5937500000000000        0.0000000000000000     
  -9.3750000000000018        3.6718750000000004        0.0000000000000000     
  -9.2968750000000036        3.6718750000000004        0.0000000000000000     
  -9.2187500000000018        3.6718750000000004        0.0000000000000000     
  -9.1406250000000000        3.6718750000000000        0.0000000000000000     
  -9.0625000000000018        3.6718750000000004        0.0000000000000000     
  -8.9843750000000000        3.6718750000000000        0.0000000000000000     
  -8.9062500000000036        3.6718750000000009        0.0000000000000000     
  -8.8281250000000018        3.6718750000000004        0.0000000000000000     
  -8.7500000000000000        3.6718749999999996        0.0000000000000000     
  -9.3750000000000018        3.7500000000000004        0.0000000000000000     
  -9.2968750000000000        3.7500000000000009        0.0000000000000000     
  -9.2187500000000000        3.7500000000000000        0.0000000000000000     
  -9.1406250000000000        3.7500000000000000        0.0000000000000000     
  -9.0625000000000000        3.7500000000000000        0.0000000000000000     
  -8.9843750000000018        3.7499999999999996        0.0000000000000000     
  -8.9062500000000018        3.7500000000000013        0.0000000000000000     
  -8.8281250000000000        3.7500000000000000        0.0000000000000000     
  -8.7500000000000018        3.7500000000000000        0.0000000000000000     
  -8.7500000000000018        3.1250000000000009        0.0000000000000000     
  -8.6718750000000018        3.1249999999999996        0.0000000000000000     
  -8.5937500000000000        3.1250000000000004        0.0000000000000000     
  -8.5156250000000000        3.1250000000000009        0.0000000000000000     
  -8.4375000000000018        3.1249999999999996        0.0000000000000000     
  -8.3593750000000000        3.1250000000000004        0.0000000000000000     
  -8.2812500000000000        3.1250000000000004        0.0000000000000000     
  -8.2031250000000018        3.1249999999999996        0.0000000000000000     
  -8.1250000000000000        3.1250000000000009        0.0000000000000000     
  -8.7500000000000018        3.2031250000000000        0.0000000000000000     
  -8.6718750000000000        3.2031250000000009        0.0000000000000000     
  -8.5937500000000018        3.2031250000000000        0.0000000000000000     
  -8.5156250000000018        3.2031250000000000        0.0000000000000000     
  -8.4375000000000000        3.2031250000000009        0.0000000000000000     
  -8.3593750000000000        3.2031250000000000        0.0000000000000000     
  -8.2812500000000018        3.2031250000000000        0.0000000000000000     
  -8.2031250000000000        3.2031250000000004        0.0000000000000000     
  -8.1250000000000000        3.2031250000000000        0.0000000000000000     
  -8.7500000000000000        3.2812500000000000        0.0000000000000000     
  -8.6718750000000018        3.2812500000000004        0.0000000000000000     
  -8.5937500000000000        3.2812500000000000        0.0000000000000000     
  -8.5156250000000000        3.2812500000000000        0.0000000000000000     
  -8.4375000000000000        3.2812500000000000        0.0000000000000000     
  -8.3593750000000000        3.2812500000000000        0.0000000000000000     
  -8.2812500000000000        3.2812500000000000        0.0000000000000000     
  -8.2031250000000000        3.2812500000000004        0.0000000000000000     
  -8.1250000000000018        3.2812500000000000        0.0000000000000000     
  -8.7499999999999982        3.3593750000000000        0.0000000000000000     
  -8.6718750000000018        3.3593749999999991        0.0000000000000000     
  -8.5937500000000018        3.3593750000000000        0.0000000000000000     
  -8.5156249999999964        3.3593750000000000        0.0000000000000000     
  -8.4375000000000018        3.3593749999999996        0.0000000000000000     
  -8.3593750000000018        3.3593750000000004        0.0000000000000000     
  -8.2812499999999964        3.3593750000000000        0.0000000000000000     
  -8.2031250000000018        3.3593749999999996        0.0000000000000000     
  -8.1249999999999982        3.3593750000000000        0.0000000000000000     
  -8.7500000000000018        3.4375000000000000        0.0000000000000000     
  -8.6718750000000018        3.4375000000000004        0.0000000000000000     
  -8.5937500000000000        3.4375000000000000        0.0000000000000000     
  -8.5156250000000018        3.4375000000000004        0.0000000000000000     
  -8.4375000000000018        3.4375000000000004        0.0000000000000000     
  -8.3593750000000000        3.4375000000000000        0.0000000000000000     
  -8.2812500000000018        3.4374999999999996        0.0000000000000000     
  -8.2031250000000018        3.4375000000000004        0.0000000000000000     
  -8.1250000000000000        3.4375000000000000        0.0000000000000000     
  -8.7500000000000000        3.5156249999999996        0.0000000000000000     
  -8.6718750000000018        3.5156250000000009        0.0000000000000000     
  -8.5937500000000000        3.5156250000000000        0.0000000000000000     
  -8.5156250000000000        3.5156249999999996        0.0000000000000000     
  -8.4375000000000018        3.5156250000000009        0.0000000000000000     
  -8.3593750000000000        3.5156250000000000        0.0000000000000000     
  -8.2812500000000000        3.5156250000000000        0.0000000000000000     
  -8.2031250000000000        3.5156250000000009        0.0000000000000000     
  -8.1250000000000000        3.5156249999999996        0.0000000000000000     
  -8.7499999999999964        3.5937500000000000        0.0000000000000000     
  -8.6718750000000018        3.5937499999999996        0.0000000000000000     
  -8.5937500000000000        3.5937500000000004        0.0000000000000000     
  -8.5156249999999982        3.5937499999999996        0.0000000000000000     
  -8.4375000000000018        3.5937499999999996        0.0000000000000000     
  -8.3593750000000000        3.5937500000000004        0.0000000000000000     
  -8.2812499999999982        3.5937499999999996        0.0000000000000000     
  -8.2031250000000018        3.5937499999999996        0.0000000000000000     
  -8.1250000000000000        3.5937500000000000        0.0000000000000000     
  -8.7500000000000000        3.6718749999999996        0.0000000000000000     
  -8.6718750000000036        3.6718750000000013        0.0000000000000000     
  -8.5937500000000000        3.6718750000000004        0.0000000000000000     
  -8.5156250000000000        3.6718749999999991        0.0000000000000000     
  -8.4375000000000018        3.6718750000000013        0.0000000000000000     
  -8.3593750000000000        3.6718750000000000        0.0000000000000000     
  -8.2812500000000000        3.6718749999999996        0.0000000000000000     
  -8.2031250000000036        3.6718750000000013        0.0000000000000000     
  -8.1249999999999964        3.6718749999999996        0.0000000000000000     
  -8.7500000000000018        3.7500000000000000        0.0000000000000000     
  -8.6718750000000018        3.7500000000000013        0.0000000000000000     
  -8.5937500000000000        3.7500000000000000        0.0000000000000000     
  -8.5156250000000000        3.7499999999999996        0.0000000000000000     
  -8.4375000000000018        3.7500000000000013        0.0000000000000000     
  -8.3593750000000000        3.7499999999999996        0.0000000000000000     
  -8.2812500000000000        3.7500000000000009        0.0000000000000000     
  -8.2031250000000018        3.7500000000000009        0.0000000000000000     
  -8.1250000000000000        3.7500000000000000        0.0000000000000000     
  -8.1250000000000000        3.1250000000000009        0.0000000000000000     
  -8.0468750000000000        3.1249999999999996        0.0000000000000000     
  -7.9687500000000000        3.1250000000000004        0.0000000000000000     
  -7.8906249999999991        3.1250000000000009        0.0000000000000000     
  -7.8125000000000000        3.1249999999999996        0.0000000000000000     
  -7.7343750000000000        3.1250000000000004        0.0000000000000000     
  -7.6562500000000009        3.1250000000000004        0.0000000000000000     
  -7.5781250000000009        3.1249999999999996        0.0000000000000000     
  -7.5000000000000018        3.1250000000000009        0.0000000000000000     
  -8.1250000000000000        3.2031250000000000        0.0000000000000000     
  -8.0468750000000018        3.2031250000000009        0.0000000000000000     
  -7.9687500000000000        3.2031250000000000        0.0000000000000000     
  -7.8906250000000009        3.2031250000000000        0.0000000000000000     
  -7.8125000000000000        3.2031250000000009        0.0000000000000000     
  -7.7343750000000009        3.2031250000000000        0.0000000000000000     
  -7.6562500000000018        3.2031250000000000        0.0000000000000000     
  -7.5781250000000000        3.2031250000000004        0.0000000000000000     
  -7.5000000000000009        3.2031250000000000        0.0000000000000000     
  -8.1250000000000018        3.2812500000000000        0.0000000000000000     
  -8.0468750000000018        3.2812500000000004        0.0000000000000000     
  -7.9687500000000000        3.2812500000000000        0.0000000000000000     
  -7.8906250000000000        3.2812500000000000        0.0000000000000000     
  -7.8125000000000000        3.2812500000000000        0.0000000000000000     
  -7.7343750000000000        3.2812500000000000        0.0000000000000000     
  -7.6562500000000009        3.2812500000000000        0.0000000000000000     
  -7.5781250000000009        3.2812500000000004        0.0000000000000000     
  -7.5000000000000009        3.2812500000000000        0.0000000000000000     
  -8.1249999999999982        3.3593750000000000        0.0000000000000000     
  -8.0468750000000000        3.3593749999999991        0.0000000000000000     
  -7.9687500000000000        3.3593750000000000        0.0000000000000000     
  -7.8906249999999982        3.3593750000000000        0.0000000000000000     
  -7.8125000000000000        3.3593749999999996        0.0000000000000000     
  -7.7343750000000000        3.3593750000000004        0.0000000000000000     
  -7.6562499999999982        3.3593750000000000        0.0000000000000000     
  -7.5781250000000000        3.3593749999999996        0.0000000000000000     
  -7.4999999999999991        3.3593750000000000        0.0000000000000000     
  -8.1250000000000000        3.4375000000000000        0.0000000000000000     
  -8.0468750000000000        3.4375000000000004        0.0000000000000000     
  -7.9687500000000000        3.4375000000000000        0.0000000000000000     
  -7.8906250000000009        3.4375000000000004        0.0000000000000000     
  -7.8125000000000009        3.4375000000000004        0.0000000000000000     
  -7.7343750000000009        3.4375000000000000        0.0000000000000000     
  -7.6562500000000009        3.4374999999999996        0.0000000000000000     
  -7.5781250000000009        3.4375000000000004        0.0000000000000000     
  -7.5000000000000009        3.4375000000000000        0.0000000000000000     
  -8.1250000000000000        3.5156249999999996        0.0000000000000000     
  -8.0468750000000018        3.5156250000000009        0.0000000000000000     
  -7.9687500000000000        3.5156250000000000        0.0000000000000000     
  -7.8906249999999991        3.5156249999999996        0.0000000000000000     
  -7.8125000000000009        3.5156250000000009        0.0000000000000000     
  -7.7343750000000000        3.5156250000000000        0.0000000000000000     
  -7.6562500000000009        3.5156250000000000        0.0000000000000000     
  -7.5781250000000000        3.5156250000000009        0.0000000000000000     
  -7.5000000000000000        3.5156249999999996        0.0000000000000000     
  -8.1250000000000000        3.5937500000000000        0.0000000000000000     
  -8.0468750000000036        3.5937499999999996        0.0000000000000000     
  -7.9687500000000000        3.5937500000000004        0.0000000000000000     
  -7.8906249999999982        3.5937499999999996        0.0000000000000000     
  -7.8125000000000000        3.5937499999999996        0.0000000000000000     
  -7.7343750000000000        3.5937500000000004        0.0000000000000000     
  -7.6562499999999982        3.5937499999999996        0.0000000000000000     
  -7.5781250000000000        3.5937499999999996        0.0000000000000000     
  -7.5000000000000000        3.5937500000000000        0.0000000000000000     
  -8.1249999999999964        3.6718749999999996        0.0000000000000000     
  -8.0468750000000000        3.6718750000000013        0.0000000000000000     
  -7.9687500000000000        3.6718750000000004        0.0000000000000000     
  -7.8906249999999991        3.6718749999999991        0.0000000000000000     
  -7.8125000000000018        3.6718750000000013        0.0000000000000000     
  -7.7343750000000000        3.6718750000000000        0.0000000000000000     
  -7.6562499999999991        3.6718749999999996        0.0000000000000000     
  -7.5781250000000027        3.6718750000000013        0.0000000000000000     
  -7.4999999999999982        3.6718749999999996        0.0000000000000000     
  -8.1250000000000000        3.7500000000000000        0.0000000000000000     
  -8.0468750000000000        3.7500000000000013        0.0000000000000000     
  -7.9687500000000000        3.7500000000000000        0.0000000000000000     
  -7.8906249999999991        3.7499999999999996        0.0000000000000000     
  -7.8125000000000000        3.7500000000000013        0.0000000000000000     
  -7.7343750000000000        3.7499999999999996        0.0000000000000000     
  -7.6562500000000009        3.7500000000000009        0.0000000000000000     
  -7.5781250000000009        3.7500000000000009        0.0000000000000000     
  -7.5000000000000018        3.7500000000000000        0.0000000000000000     
  -7.5000000000000018        3.1250000000000009        0.0000000000000000     
  -7.4218750000000018        3.1249999999999996        0.0000000000000000     
  -7.3437500000000018        3.1250000000000004        0.0000000000000000     
  -7.2656250000000000        3.1250000000000009        0.0000000000000000     
  -7.1875000000000009        3.1249999999999996        0.0000000000000000     
  -7.1093750000000000        3.1250000000000004        0.0000000000000000     
  -7.0312500000000009        3.1250000000000004        0.0000000000000000     
  -6.9531250000000009        3.1249999999999996        0.0000000000000000     
  -6.8750000000000009        3.1250000000000009        0.0000000000000000     
  -7.5000000000000009        3.2031250000000000        0.0000000000000000     
  -7.4218750000000009        3.2031250000000009        0.0000000000000000     
  -7.3437500000000009        3.2031250000000000        0.0000000000000000     
  -7.2656250000000009        3.2031250000000000        0.0000000000000000     
  -7.1875000000000009        3.2031250000000009        0.0000000000000000     
  -7.1093750000000009        3.2031250000000000        0.0000000000000000     
  -7.0312500000000009        3.2031250000000000        0.0000000000000000     
  -6.9531250000000009        3.2031250000000004        0.0000000000000000     
  -6.8750000000000009        3.2031250000000000        0.0000000000000000     
  -7.5000000000000009        3.2812500000000000        0.0000000000000000     
  -7.4218750000000009        3.2812500000000004        0.0000000000000000     
  -7.3437500000000000        3.2812500000000000        0.0000000000000000     
  -7.2656250000000000        3.2812500000000000        0.0000000000000000     
  -7.1875000000000000        3.2812500000000000        0.0000000000000000     
  -7.1093750000000000        3.2812500000000000        0.0000000000000000     
  -7.0312500000000000        3.2812500000000000        0.0000000000000000     
  -6.9531250000000018        3.2812500000000004        0.0000000000000000     
  -6.8750000000000018        3.2812500000000000        0.0000000000000000     
  -7.4999999999999991        3.3593750000000000        0.0000000000000000     
  -7.4218750000000000        3.3593749999999991        0.0000000000000000     
  -7.3437500000000009        3.3593750000000000        0.0000000000000000     
  -7.2656249999999991        3.3593750000000000        0.0000000000000000     
  -7.1875000000000018        3.3593749999999996        0.0000000000000000     
  -7.1093750000000009        3.3593750000000004        0.0000000000000000     
  -7.0312499999999982        3.3593750000000000        0.0000000000000000     
  -6.9531250000000009        3.3593749999999996        0.0000000000000000     
  -6.8749999999999982        3.3593750000000000        0.0000000000000000     
  -7.5000000000000009        3.4375000000000000        0.0000000000000000     
  -7.4218750000000000        3.4375000000000004        0.0000000000000000     
  -7.3437500000000009        3.4375000000000000        0.0000000000000000     
  -7.2656250000000009        3.4375000000000004        0.0000000000000000     
  -7.1875000000000000        3.4375000000000004        0.0000000000000000     
  -7.1093750000000009        3.4375000000000000        0.0000000000000000     
  -7.0312500000000000        3.4374999999999996        0.0000000000000000     
  -6.9531250000000018        3.4375000000000004        0.0000000000000000     
  -6.8750000000000009        3.4375000000000000        0.0000000000000000     
  -7.5000000000000000        3.5156249999999996        0.0000000000000000     
  -7.4218750000000009        3.5156250000000009        0.0000000000000000     
  -7.3437500000000000        3.5156250000000000        0.0000000000000000     
  -7.2656250000000018        3.5156249999999996        0.0000000000000000     
  -7.1875000000000018        3.5156250000000009        0.0000000000000000     
  -7.1093750000000000        3.5156250000000000        0.0000000000000000     
  -7.0312500000000000        3.5156250000000000        0.0000000000000000     
  -6.9531250000000018        3.5156250000000009        0.0000000000000000     
  -6.8749999999999991        3.5156249999999996        0.0000000000000000     
  -7.5000000000000000        3.5937500000000000        0.0000000000000000     
  -7.4218750000000018        3.5937499999999996        0.0000000000000000     
  -7.3437500000000009        3.5937500000000004        0.0000000000000000     
  -7.2656249999999991        3.5937499999999996        0.0000000000000000     
  -7.1874999999999991        3.5937499999999996        0.0000000000000000     
  -7.1093750000000000        3.5937500000000004        0.0000000000000000     
  -7.0312499999999991        3.5937499999999996        0.0000000000000000     
  -6.9531250000000009        3.5937499999999996        0.0000000000000000     
  -6.8749999999999991        3.5937500000000000        0.0000000000000000     
  -7.4999999999999982        3.6718749999999996        0.0000000000000000     
  -7.4218750000000018        3.6718750000000013        0.0000000000000000     
  -7.3437500000000009        3.6718750000000004        0.0000000000000000     
  -7.2656249999999982        3.6718749999999991        0.0000000000000000     
  -7.1875000000000027        3.6718750000000013        0.0000000000000000     
  -7.1093750000000009        3.6718750000000000        0.0000000000000000     
  -7.0312499999999982        3.6718749999999996        0.0000000000000000     
  -6.9531250000000036        3.6718750000000013        0.0000000000000000     
  -6.8749999999999991        3.6718749999999996        0.0000000000000000     
  -7.5000000000000018        3.7500000000000000        0.0000000000000000     
  -7.4218750000000018        3.7500000000000013        0.0000000000000000     
  -7.3437500000000018        3.7500000000000000        0.0000000000000000     
  -7.2656250000000000        3.7499999999999996        0.0000000000000000     
  -7.1875000000000009        3.7500000000000013        0.0000000000000000     
  -7.1093750000000000        3.7499999999999996        0.0000000000000000     
  -7.0312500000000009        3.7500000000000009        0.0000000000000000     
  -6.9531250000000009        3.7500000000000009        0.0000000000000000     
  -6.8750000000000009        3.7500000000000000        0.0000000000000000     
  -6.8750000000000009        3.1250000000000009        0.0000000000000000     
  -6.7968750000000018        3.1249999999999996        0.0000000000000000     
  -6.7187500000000009        3.1250000000000004        0.0000000000000000     
  -6.6406250000000000        3.1250000000000009        0.0000000000000000     
  -6.5625000000000018        3.1249999999999996        0.0000000000000000     
  -6.4843750000000009        3.1250000000000004        0.0000000000000000     
  -6.4062500000000009        3.1250000000000004        0.0000000000000000     
  -6.3281250000000018        3.1249999999999996        0.0000000000000000     
  -6.2500000000000009        3.1250000000000009        0.0000000000000000     
  -6.8750000000000009        3.2031250000000000        0.0000000000000000     
  -6.7968750000000009        3.2031250000000009        0.0000000000000000     
  -6.7187500000000009        3.2031250000000000        0.0000000000000000     
  -6.6406250000000009        3.2031250000000000        0.0000000000000000     
  -6.5625000000000009        3.2031250000000009        0.0000000000000000     
  -6.4843750000000009        3.2031250000000000        0.0000000000000000     
  -6.4062500000000000        3.2031250000000000        0.0000000000000000     
  -6.3281250000000009        3.2031250000000004        0.0000000000000000     
  -6.2500000000000009        3.2031250000000000        0.0000000000000000     
  -6.8750000000000018        3.2812500000000000        0.0000000000000000     
  -6.7968750000000009        3.2812500000000004        0.0000000000000000     
  -6.7187500000000000        3.2812500000000000        0.0000000000000000     
  -6.6406250000000000        3.2812500000000000        0.0000000000000000     
  -6.5625000000000009        3.2812500000000000        0.0000000000000000     
  -6.4843750000000000        3.2812500000000000        0.0000000000000000     
  -6.4062500000000009        3.2812500000000000        0.0000000000000000     
  -6.3281250000000009        3.2812500000000004        0.0000000000000000     
  -6.2500000000000009        3.2812500000000000        0.0000000000000000     
  -6.8749999999999982        3.3593750000000000        0.0000000000000000     
  -6.7968750000000018        3.3593749999999991        0.0000000000000000     
  -6.7187500000000009        3.3593750000000000        0.0000000000000000     
  -6.6406249999999982        3.3593750000000000        0.0000000000000000     
  -6.5625000000000018        3.3593749999999996        0.0000000000000000     
  -6.4843750000000009        3.3593750000000004        0.0000000000000000     
  -6.4062499999999982        3.3593750000000000        0.0000000000000000     
  -6.3281250000000018        3.3593749999999996        0.0000000000000000     
  -6.2499999999999991        3.3593750000000000        0.0000000000000000     
  -6.8750000000000009        3.4375000000000000        0.0000000000000000     
  -6.7968750000000000        3.4375000000000004        0.0000000000000000     
  -6.7187499999999991        3.4375000000000000        0.0000000000000000     
  -6.6406250000000000        3.4375000000000004        0.0000000000000000     
  -6.5625000000000000        3.4375000000000004        0.0000000000000000     
  -6.4843750000000000        3.4375000000000000        0.0000000000000000     
  -6.4062500000000000        3.4374999999999996        0.0000000000000000     
  -6.3281250000000000        3.4375000000000004        0.0000000000000000     
  -6.2500000000000000        3.4375000000000000        0.0000000000000000     
  -6.8749999999999991        3.5156249999999996        0.0000000000000000     
  -6.7968750000000009        3.5156250000000009        0.0000000000000000     
  -6.7187500000000000        3.5156250000000000        0.0000000000000000     
  -6.6406250000000009        3.5156249999999996        0.0000000000000000     
  -6.5625000000000009        3.5156250000000009        0.0000000000000000     
  -6.4843750000000009        3.5156250000000000        0.0000000000000000     
  -6.4062499999999991        3.5156250000000000        0.0000000000000000     
  -6.3281250000000009        3.5156250000000009        0.0000000000000000     
  -6.2500000000000009        3.5156249999999996        0.0000000000000000     
  -6.8749999999999991        3.5937500000000000        0.0000000000000000     
  -6.7968750000000018        3.5937499999999996        0.0000000000000000     
  -6.7187500000000009        3.5937500000000004        0.0000000000000000     
  -6.6406249999999982        3.5937499999999996        0.0000000000000000     
  -6.5625000000000018        3.5937499999999996        0.0000000000000000     
  -6.4843750000000009        3.5937500000000004        0.0000000000000000     
  -6.4062499999999982        3.5937499999999996        0.0000000000000000     
  -6.3281250000000018        3.5937499999999996        0.0000000000000000     
  -6.2499999999999991        3.5937500000000000        0.0000000000000000     
  -6.8749999999999991        3.6718749999999996        0.0000000000000000     
  -6.7968750000000018        3.6718750000000013        0.0000000000000000     
  -6.7187500000000000        3.6718750000000004        0.0000000000000000     
  -6.6406249999999991        3.6718749999999991        0.0000000000000000     
  -6.5625000000000018        3.6718750000000013        0.0000000000000000     
  -6.4843750000000000        3.6718750000000000        0.0000000000000000     
  -6.4062499999999991        3.6718749999999996        0.0000000000000000     
  -6.3281250000000009        3.6718750000000013        0.0000000000000000     
  -6.2499999999999991        3.6718749999999996        0.0000000000000000     
  -6.8750000000000009        3.7500000000000000        0.0000000000000000     
  -6.7968750000000018        3.7500000000000013        0.0000000000000000     
  -6.7187500000000009        3.7500000000000000        0.0000000000000000     
  -6.6406250000000000        3.7499999999999996        0.0000000000000000     
  -6.5625000000000018        3.7500000000000013        0.0000000000000000     
  -6.4843750000000009        3.7499999999999996        0.0000000000000000     
  -6.4062500000000009        3.7500000000000009        0.0000000000000000     
  -6.3281250000000018        3.7500000000000009        0.0000000000000000     
  -6.2500000000000009        3.7500000000000000        0.0000000000000000     
  -6.2500000000000009        3.1250000000000009        0.0000000000000000     
  -6.1718750000000009        3.1250000000000004        0.0000000000000000     
  -6.0937500000000018        3.1250000000000009        0.0000000000000000     
  -6.0156250000000009        3.1250000000000004        0.0000000000000000     
  -5.9375000000000000        3.1250000000000000        0.0000000000000000     
  -5.8593750000000000        3.1250000000000000        0.0000000000000000     
  -5.7812500000000018        3.1250000000000004        0.0000000000000000     
  -5.7031250000000000        3.1250000000000000        0.0000000000000000     
  -5.6250000000000009        3.1250000000000009        0.0000000000000000     
  -6.2500000000000009        3.2031250000000000        0.0000000000000000     
  -6.1718750000000009        3.2031250000000004        0.0000000000000000     
  -6.0937500000000009        3.2031250000000004        0.0000000000000000     
  -6.0156250000000009        3.2031250000000000        0.0000000000000000     
  -5.9375000000000009        3.2031250000000004        0.0000000000000000     
  -5.8593750000000000        3.2031250000000004        0.0000000000000000     
  -5.7812500000000009        3.2031250000000000        0.0000000000000000     
  -5.7031250000000000        3.2031250000000009        0.0000000000000000     
  -5.6250000000000000        3.2031250000000004        0.0000000000000000     
  -6.2500000000000009        3.2812500000000000        0.0000000000000000     
  -6.1718750000000009        3.2812500000000004        0.0000000000000000     
  -6.0937500000000000        3.2812500000000000        0.0000000000000000     
  -6.0156250000000000        3.2812500000000000        0.0000000000000000     
  -5.9375000000000000        3.2812500000000004        0.0000000000000000     
  -5.8593750000000000        3.2812500000000000        0.0000000000000000     
  -5.7812500000000000        3.2812500000000000        0.0000000000000000     
  -5.7031250000000009        3.2812500000000009        0.0000000000000000     
  -5.6250000000000000        3.2812500000000000        0.0000000000000000     
  -6.2499999999999991        3.3593750000000000        0.0000000000000000     
  -6.1718750000000009        3.3593750000000004        0.0000000000000000     
  -6.0937500000000000        3.3593749999999996        0.0000000000000000     
  -6.0156250000000000        3.3593750000000000        0.0000000000000000     
  -5.9374999999999991        3.3593749999999996        0.0000000000000000     
  -5.8593750000000000        3.3593750000000000        0.0000000000000000     
  -5.7812500000000000        3.3593750000000000        0.0000000000000000     
  -5.7031250000000000        3.3593750000000000        0.0000000000000000     
  -5.6250000000000000        3.3593750000000004        0.0000000000000000     
  -6.2500000000000000        3.4375000000000000        0.0000000000000000     
  -6.1718750000000009        3.4375000000000004        0.0000000000000000     
  -6.0937500000000000        3.4375000000000004        0.0000000000000000     
  -6.0156250000000009        3.4375000000000004        0.0000000000000000     
  -5.9375000000000009        3.4375000000000004        0.0000000000000000     
  -5.8593750000000000        3.4375000000000004        0.0000000000000000     
  -5.7812500000000000        3.4374999999999996        0.0000000000000000     
  -5.7031250000000009        3.4375000000000000        0.0000000000000000     
  -5.6250000000000009        3.4375000000000000        0.0000000000000000     
  -6.2500000000000009        3.5156249999999996        0.0000000000000000     
  -6.1718750000000009        3.5156250000000004        0.0000000000000000     
  -6.0937500000000000        3.5156250000000009        0.0000000000000000     
  -6.0156250000000000        3.5156249999999996        0.0000000000000000     
  -5.9375000000000009        3.5156250000000009        0.0000000000000000     
  -5.8593750000000000        3.5156250000000004        0.0000000000000000     
  -5.7812500000000009        3.5156250000000000        0.0000000000000000     
  -5.7031250000000009        3.5156250000000004        0.0000000000000000     
  -5.6250000000000000        3.5156250000000000        0.0000000000000000     
  -6.2499999999999991        3.5937500000000000        0.0000000000000000     
  -6.1718749999999991        3.5937499999999996        0.0000000000000000     
  -6.0937500000000009        3.5937500000000000        0.0000000000000000     
  -6.0156250000000000        3.5937500000000000        0.0000000000000000     
  -5.9374999999999991        3.5937499999999996        0.0000000000000000     
  -5.8593750000000009        3.5937500000000013        0.0000000000000000     
  -5.7812500000000000        3.5937499999999996        0.0000000000000000     
  -5.7031249999999991        3.5937499999999996        0.0000000000000000     
  -5.6250000000000000        3.5937500000000000        0.0000000000000000     
  -6.2499999999999991        3.6718749999999996        0.0000000000000000     
  -6.1718750000000009        3.6718750000000004        0.0000000000000000     
  -6.0937500000000000        3.6718750000000009        0.0000000000000000     
  -6.0156250000000000        3.6718749999999991        0.0000000000000000     
  -5.9375000000000000        3.6718750000000000        0.0000000000000000     
  -5.8593750000000000        3.6718750000000000        0.0000000000000000     
  -5.7812500000000000        3.6718749999999996        0.0000000000000000     
  -5.7031250000000000        3.6718750000000004        0.0000000000000000     
  -5.6250000000000009        3.6718750000000009        0.0000000000000000     
  -6.2500000000000009        3.7500000000000000        0.0000000000000000     
  -6.1718750000000009        3.7500000000000009        0.0000000000000000     
  -6.0937500000000018        3.7500000000000009        0.0000000000000000     
  -6.0156250000000009        3.7499999999999996        0.0000000000000000     
  -5.9375000000000000        3.7500000000000009        0.0000000000000000     
  -5.8593750000000000        3.7500000000000000        0.0000000000000000     
  -5.7812500000000018        3.7500000000000009        0.0000000000000000     
  -5.7031250000000000        3.7500000000000009        0.0000000000000000     
  -5.6250000000000009        3.7500000000000004        0.0000000000000000     
  -5.6250000000000009        3.1250000000000009        0.0000000000000000     
  -5.5468750000000000        3.1250000000000000        0.0000000000000000     
  -5.4687500000000000        3.1250000000000004        0.0000000000000000     
  -5.3906250000000009        3.1250000000000009        0.0000000000000000     
  -5.3125000000000018        3.1250000000000004        0.0000000000000000     
  -5.2343750000000009        3.1250000000000004        0.0000000000000000     
  -5.1562500000000009        3.1250000000000000        0.0000000000000000     
  -5.0781249999999991        3.1250000000000000        0.0000000000000000     
  -5.0000000000000018        3.1250000000000000        0.0000000000000000     
  -5.6250000000000000        3.2031250000000004        0.0000000000000000     
  -5.5468750000000000        3.2031250000000000        0.0000000000000000     
  -5.4687500000000000        3.2031250000000000        0.0000000000000000     
  -5.3906250000000018        3.2031250000000009        0.0000000000000000     
  -5.3125000000000009        3.2031250000000000        0.0000000000000000     
  -5.2343750000000009        3.2031250000000004        0.0000000000000000     
  -5.1562500000000018        3.2031250000000004        0.0000000000000000     
  -5.0781250000000000        3.2031250000000000        0.0000000000000000     
  -5.0000000000000000        3.2031250000000000        0.0000000000000000     
  -5.6250000000000000        3.2812500000000000        0.0000000000000000     
  -5.5468750000000018        3.2812500000000009        0.0000000000000000     
  -5.4687500000000000        3.2812500000000000        0.0000000000000000     
  -5.3906250000000000        3.2812500000000000        0.0000000000000000     
  -5.3125000000000018        3.2812500000000013        0.0000000000000000     
  -5.2343750000000000        3.2812500000000000        0.0000000000000000     
  -5.1562500000000000        3.2812500000000000        0.0000000000000000     
  -5.0781250000000018        3.2812500000000009        0.0000000000000000     
  -4.9999999999999991        3.2812500000000000        0.0000000000000000     
  -5.6250000000000000        3.3593750000000004        0.0000000000000000     
  -5.5468750000000000        3.3593750000000000        0.0000000000000000     
  -5.4687500000000000        3.3593749999999996        0.0000000000000000     
  -5.3906250000000018        3.3593750000000004        0.0000000000000000     
  -5.3125000000000018        3.3593750000000004        0.0000000000000000     
  -5.2343750000000009        3.3593750000000004        0.0000000000000000     
  -5.1562500000000009        3.3593750000000000        0.0000000000000000     
  -5.0781250000000000        3.3593750000000000        0.0000000000000000     
  -5.0000000000000009        3.3593750000000004        0.0000000000000000     
  -5.6250000000000009        3.4375000000000000        0.0000000000000000     
  -5.5468750000000009        3.4375000000000004        0.0000000000000000     
  -5.4687500000000009        3.4375000000000004        0.0000000000000000     
  -5.3906250000000009        3.4375000000000004        0.0000000000000000     
  -5.3125000000000009        3.4375000000000000        0.0000000000000000     
  -5.2343750000000009        3.4375000000000000        0.0000000000000000     
  -5.1562500000000009        3.4375000000000004        0.0000000000000000     
  -5.0781250000000000        3.4374999999999996        0.0000000000000000     
  -5.0000000000000009        3.4375000000000004        0.0000000000000000     
  -5.6250000000000000        3.5156250000000000        0.0000000000000000     
  -5.5468750000000018        3.5156250000000013        0.0000000000000000     
  -5.4687500000000000        3.5156250000000004        0.0000000000000000     
  -5.3906250000000009        3.5156250000000000        0.0000000000000000     
  -5.3125000000000000        3.5156250000000000        0.0000000000000000     
  -5.2343750000000000        3.5156250000000000        0.0000000000000000     
  -5.1562500000000000        3.5156250000000000        0.0000000000000000     
  -5.0781250000000018        3.5156250000000004        0.0000000000000000     
  -5.0000000000000009        3.5156250000000004        0.0000000000000000     
  -5.6250000000000000        3.5937500000000000        0.0000000000000000     
  -5.5468750000000000        3.5937500000000004        0.0000000000000000     
  -5.4687500000000000        3.5937500000000000        0.0000000000000000     
  -5.3906250000000009        3.5937500000000000        0.0000000000000000     
  -5.3125000000000009        3.5937500000000013        0.0000000000000000     
  -5.2343750000000009        3.5937500000000000        0.0000000000000000     
  -5.1562500000000000        3.5937500000000000        0.0000000000000000     
  -5.0781250000000000        3.5937500000000000        0.0000000000000000     
  -5.0000000000000009        3.5937500000000004        0.0000000000000000     
  -5.6250000000000009        3.6718750000000009        0.0000000000000000     
  -5.5468750000000000        3.6718749999999996        0.0000000000000000     
  -5.4687500000000000        3.6718750000000000        0.0000000000000000     
  -5.3906249999999991        3.6718749999999987        0.0000000000000000     
  -5.3125000000000009        3.6718750000000009        0.0000000000000000     
  -5.2343750000000000        3.6718750000000000        0.0000000000000000     
  -5.1562500000000009        3.6718750000000000        0.0000000000000000     
  -5.0781250000000000        3.6718750000000000        0.0000000000000000     
  -5.0000000000000000        3.6718750000000004        0.0000000000000000     
  -5.6250000000000009        3.7500000000000004        0.0000000000000000     
  -5.5468750000000009        3.7499999999999996        0.0000000000000000     
  -5.4687500000000000        3.7500000000000004        0.0000000000000000     
  -5.3906250000000009        3.7500000000000000        0.0000000000000000     
  -5.3125000000000018        3.7500000000000000        0.0000000000000000     
  -5.2343750000000009        3.7500000000000004        0.0000000000000000     
  -5.1562500000000009        3.7500000000000004        0.0000000000000000     
  -5.0781250000000000        3.7499999999999991        0.0000000000000000     
  -5.0000000000000018        3.7500000000000004        0.0000000000000000     
  -10.000000000000004        3.7500000000000004        0.0000000000000000     
  -9.9218750000000018        3.7500000000000000        0.0000000000000000     
  -9.8437500000000000        3.7500000000000004        0.0000000000000000     
  -9.7656250000000018        3.7500000000000004        0.0000000000000000     
  -9.6875000000000018        3.7500000000000000        0.0000000000000000     
  -9.6093750000000018        3.7500000000000004        0.0000000000000000     
  -9.5312500000000018        3.7500000000000004        0.0000000000000000     
  -9.4531250000000000        3.7500000000000000        0.0000000000000000     
  -9.3750000000000018        3.7500000000000004        0.0000000000000000     
  -10.000000000000000        3.8281249999999996        0.0000000000000000     
  -9.9218750000000000        3.8281250000000009        0.0000000000000000     
  -9.8437500000000018        3.8281249999999996        0.0000000000000000     
  -9.7656250000000000        3.8281249999999996        0.0000000000000000     
  -9.6875000000000000        3.8281250000000004        0.0000000000000000     
  -9.6093750000000018        3.8281250000000004        0.0000000000000000     
  -9.5312500000000000        3.8281249999999991        0.0000000000000000     
  -9.4531250000000000        3.8281250000000009        0.0000000000000000     
  -9.3750000000000000        3.8281250000000004        0.0000000000000000     
  -10.000000000000000        3.9062500000000000        0.0000000000000000     
  -9.9218750000000000        3.9062500000000000        0.0000000000000000     
  -9.8437500000000000        3.9062500000000000        0.0000000000000000     
  -9.7656250000000000        3.9062500000000000        0.0000000000000000     
  -9.6875000000000018        3.9062500000000000        0.0000000000000000     
  -9.6093750000000000        3.9062500000000000        0.0000000000000000     
  -9.5312500000000000        3.9062500000000000        0.0000000000000000     
  -9.4531250000000018        3.9062500000000000        0.0000000000000000     
  -9.3750000000000000        3.9062500000000000        0.0000000000000000     
  -10.000000000000002        3.9843750000000009        0.0000000000000000     
  -9.9218750000000000        3.9843749999999991        0.0000000000000000     
  -9.8437500000000000        3.9843750000000000        0.0000000000000000     
  -9.7656250000000018        3.9843750000000004        0.0000000000000000     
  -9.6875000000000018        3.9843750000000000        0.0000000000000000     
  -9.6093750000000018        3.9843750000000004        0.0000000000000000     
  -9.5312500000000000        3.9843750000000004        0.0000000000000000     
  -9.4531250000000018        3.9843750000000000        0.0000000000000000     
  -9.3750000000000018        3.9843750000000004        0.0000000000000000     
  -10.000000000000000        4.0625000000000000        0.0000000000000000     
  -9.9218750000000018        4.0625000000000000        0.0000000000000000     
  -9.8437500000000000        4.0625000000000000        0.0000000000000000     
  -9.7656250000000000        4.0625000000000000        0.0000000000000000     
  -9.6875000000000036        4.0625000000000000        0.0000000000000000     
  -9.6093750000000018        4.0625000000000000        0.0000000000000000     
  -9.5312500000000000        4.0624999999999991        0.0000000000000000     
  -9.4531250000000000        4.0625000000000000        0.0000000000000000     
  -9.3750000000000000        4.0625000000000000        0.0000000000000000     
  -10.000000000000002        4.1406250000000000        0.0000000000000000     
  -9.9218750000000018        4.1406250000000000        0.0000000000000000     
  -9.8437500000000000        4.1406250000000000        0.0000000000000000     
  -9.7656250000000000        4.1406250000000000        0.0000000000000000     
  -9.6875000000000018        4.1406250000000000        0.0000000000000000     
  -9.6093750000000000        4.1406250000000000        0.0000000000000000     
  -9.5312500000000000        4.1406250000000000        0.0000000000000000     
  -9.4531250000000036        4.1406250000000009        0.0000000000000000     
  -9.3750000000000000        4.1406250000000000        0.0000000000000000     
  -10.000000000000002        4.2187500000000000        0.0000000000000000     
  -9.9218750000000018        4.2187500000000009        0.0000000000000000     
  -9.8437500000000000        4.2187500000000000        0.0000000000000000     
  -9.7656250000000000        4.2187500000000000        0.0000000000000000     
  -9.6875000000000018        4.2187500000000000        0.0000000000000000     
  -9.6093750000000000        4.2187500000000000        0.0000000000000000     
  -9.5312500000000000        4.2187499999999991        0.0000000000000000     
  -9.4531250000000018        4.2187500000000009        0.0000000000000000     
  -9.3750000000000000        4.2187499999999991        0.0000000000000000     
  -10.000000000000000        4.2968750000000000        0.0000000000000000     
  -9.9218750000000018        4.2968750000000000        0.0000000000000000     
  -9.8437500000000000        4.2968750000000000        0.0000000000000000     
  -9.7656250000000000        4.2968750000000000        0.0000000000000000     
  -9.6875000000000018        4.2968750000000000        0.0000000000000000     
  -9.6093750000000000        4.2968750000000000        0.0000000000000000     
  -9.5312500000000000        4.2968750000000000        0.0000000000000000     
  -9.4531250000000000        4.2968750000000000        0.0000000000000000     
  -9.3750000000000000        4.2968750000000000        0.0000000000000000     
  -10.000000000000000        4.3750000000000000        0.0000000000000000     
  -9.9218749999999982        4.3750000000000000        0.0000000000000000     
  -9.8437500000000000        4.3750000000000000        0.0000000000000000     
  -9.7656250000000018        4.3750000000000009        0.0000000000000000     
  -9.6875000000000000        4.3750000000000000        0.0000000000000000     
  -9.6093750000000018        4.3750000000000000        0.0000000000000000     
  -9.5312500000000000        4.3750000000000009        0.0000000000000000     
  -9.4531250000000000        4.3749999999999991        0.0000000000000000     
  -9.3750000000000018        4.3750000000000009        0.0000000000000000     
  -9.3750000000000018        3.7500000000000004        0.0000000000000000     
  -9.2968750000000000        3.7500000000000009        0.0000000000000000     
  -9.2187500000000000        3.7500000000000000        0.0000000000000000     
  -9.1406250000000000        3.7500000000000000        0.0000000000000000     
  -9.0625000000000000        3.7500000000000000        0.0000000000000000     
  -8.9843750000000018        3.7499999999999996        0.0000000000000000     
  -8.9062500000000018        3.7500000000000013        0.0000000000000000     
  -8.8281250000000000        3.7500000000000000        0.0000000000000000     
  -8.7500000000000018        3.7500000000000000        0.0000000000000000     
  -9.3750000000000000        3.8281250000000004        0.0000000000000000     
  -9.2968750000000018        3.8281250000000004        0.0000000000000000     
  -9.2187500000000018        3.8281250000000009        0.0000000000000000     
  -9.1406250000000000        3.8281249999999996        0.0000000000000000     
  -9.0625000000000018        3.8281250000000004        0.0000000000000000     
  -8.9843750000000018        3.8281250000000004        0.0000000000000000     
  -8.9062500000000018        3.8281250000000004        0.0000000000000000     
  -8.8281250000000018        3.8281250000000004        0.0000000000000000     
  -8.7499999999999982        3.8281250000000000        0.0000000000000000     
  -9.3750000000000000        3.9062500000000000        0.0000000000000000     
  -9.2968750000000000        3.9062500000000004        0.0000000000000000     
  -9.2187499999999982        3.9062499999999996        0.0000000000000000     
  -9.1406250000000018        3.9062500000000009        0.0000000000000000     
  -9.0625000000000000        3.9062500000000000        0.0000000000000000     
  -8.9843750000000000        3.9062500000000009        0.0000000000000000     
  -8.9062500000000000        3.9062500000000004        0.0000000000000000     
  -8.8281250000000018        3.9062500000000004        0.0000000000000000     
  -8.7500000000000018        3.9062500000000009        0.0000000000000000     
  -9.3750000000000018        3.9843750000000004        0.0000000000000000     
  -9.2968749999999982        3.9843749999999996        0.0000000000000000     
  -9.2187499999999982        3.9843750000000000        0.0000000000000000     
  -9.1406250000000000        3.9843750000000004        0.0000000000000000     
  -9.0624999999999982        3.9843749999999996        0.0000000000000000     
  -8.9843750000000000        3.9843750000000000        0.0000000000000000     
  -8.9062500000000018        3.9843750000000013        0.0000000000000000     
  -8.8281249999999982        3.9843749999999996        0.0000000000000000     
  -8.7499999999999982        3.9843749999999991        0.0000000000000000     
  -9.3750000000000000        4.0625000000000000        0.0000000000000000     
  -9.2968750000000018        4.0625000000000000        0.0000000000000000     
  -9.2187500000000000        4.0625000000000000        0.0000000000000000     
  -9.1406250000000000        4.0625000000000000        0.0000000000000000     
  -9.0625000000000018        4.0625000000000000        0.0000000000000000     
  -8.9843750000000018        4.0625000000000009        0.0000000000000000     
  -8.9062500000000018        4.0625000000000009        0.0000000000000000     
  -8.8281250000000018        4.0625000000000000        0.0000000000000000     
  -8.7500000000000000        4.0624999999999991        0.0000000000000000     
  -9.3750000000000000        4.1406250000000000        0.0000000000000000     
  -9.2968750000000018        4.1406250000000000        0.0000000000000000     
  -9.2187500000000000        4.1406250000000000        0.0000000000000000     
  -9.1406250000000000        4.1406250000000000        0.0000000000000000     
  -9.0625000000000000        4.1406250000000000        0.0000000000000000     
  -8.9843750000000000        4.1406250000000000        0.0000000000000000     
  -8.9062500000000000        4.1406250000000000        0.0000000000000000     
  -8.8281250000000000        4.1406250000000000        0.0000000000000000     
  -8.7500000000000000        4.1406250000000000        0.0000000000000000     
  -9.3750000000000000        4.2187499999999991        0.0000000000000000     
  -9.2968750000000018        4.2187500000000018        0.0000000000000000     
  -9.2187500000000000        4.2187500000000000        0.0000000000000000     
  -9.1406250000000036        4.2187500000000009        0.0000000000000000     
  -9.0624999999999982        4.2187500000000000        0.0000000000000000     
  -8.9843749999999982        4.2187499999999991        0.0000000000000000     
  -8.9062500000000036        4.2187500000000009        0.0000000000000000     
  -8.8281249999999982        4.2187500000000000        0.0000000000000000     
  -8.7499999999999964        4.2187499999999991        0.0000000000000000     
  -9.3750000000000000        4.2968750000000000        0.0000000000000000     
  -9.2968750000000036        4.2968750000000000        0.0000000000000000     
  -9.2187500000000000        4.2968750000000000        0.0000000000000000     
  -9.1406250000000018        4.2968750000000000        0.0000000000000000     
  -9.0625000000000036        4.2968750000000000        0.0000000000000000     
  -8.9843750000000000        4.2968750000000000        0.0000000000000000     
  -8.9062500000000000        4.2968750000000000        0.0000000000000000     
  -8.8281250000000018        4.2968750000000000        0.0000000000000000     
  -8.7500000000000000        4.2968750000000000        0.0000000000000000     
  -9.3750000000000018        4.3750000000000009        0.0000000000000000     
  -9.2968750000000018        4.3750000000000000        0.0000000000000000     
  -9.2187499999999982        4.3750000000000000        0.0000000000000000     
  -9.1406250000000000        4.3750000000000000        0.0000000000000000     
  -9.0625000000000000        4.3750000000000000        0.0000000000000000     
  -8.9843750000000018        4.3750000000000000        0.0000000000000000     
  -8.9062500000000000        4.3750000000000000        0.0000000000000000     
  -8.8281250000000018        4.3750000000000009        0.0000000000000000     
  -8.7500000000000018        4.3750000000000009        0.0000000000000000     
  -8.7500000000000018        3.7500000000000000        0.0000000000000000     
  -8.6718750000000018        3.7500000000000013        0.0000000000000000     
  -8.5937500000000000        3.7500000000000000        0.0000000000000000     
  -8.5156250000000000        3.7499999999999996        0.0000000000000000     
  -8.4375000000000018        3.7500000000000013        0.0000000000000000     
  -8.3593750000000000        3.7499999999999996        0.0000000000000000     
  -8.2812500000000000        3.7500000000000009        0.0000000000000000     
  -8.2031250000000018        3.7500000000000009        0.0000000000000000     
  -8.1250000000000000        3.7500000000000000        0.0000000000000000     
  -8.7499999999999982        3.8281250000000000        0.0000000000000000     
  -8.6718750000000000        3.8281250000000000        0.0000000000000000     
  -8.5937500000000018        3.8281250000000009        0.0000000000000000     
  -8.5156250000000018        3.8281250000000004        0.0000000000000000     
  -8.4375000000000000        3.8281249999999996        0.0000000000000000     
  -8.3593750000000000        3.8281250000000004        0.0000000000000000     
  -8.2812500000000018        3.8281250000000004        0.0000000000000000     
  -8.2031250000000000        3.8281250000000000        0.0000000000000000     
  -8.1250000000000000        3.8281250000000000        0.0000000000000000     
  -8.7500000000000018        3.9062500000000009        0.0000000000000000     
  -8.6718750000000018        3.9062500000000004        0.0000000000000000     
  -8.5937499999999982        3.9062499999999996        0.0000000000000000     
  -8.5156250000000018        3.9062500000000004        0.0000000000000000     
  -8.4375000000000000        3.9062500000000004        0.0000000000000000     
  -8.3593750000000000        3.9062500000000009        0.0000000000000000     
  -8.2812500000000018        3.9062500000000004        0.0000000000000000     
  -8.2031250000000000        3.9062500000000004        0.0000000000000000     
  -8.1250000000000018        3.9062500000000009        0.0000000000000000     
  -8.7499999999999982        3.9843749999999991        0.0000000000000000     
  -8.6718750000000018        3.9843750000000013        0.0000000000000000     
  -8.5937500000000018        3.9843750000000000        0.0000000000000000     
  -8.5156249999999964        3.9843749999999987        0.0000000000000000     
  -8.4375000000000018        3.9843750000000013        0.0000000000000000     
  -8.3593750000000018        3.9843750000000000        0.0000000000000000     
  -8.2812499999999964        3.9843749999999991        0.0000000000000000     
  -8.2031250000000018        3.9843750000000009        0.0000000000000000     
  -8.1249999999999982        3.9843749999999991        0.0000000000000000     
  -8.7500000000000000        4.0624999999999991        0.0000000000000000     
  -8.6718750000000018        4.0625000000000009        0.0000000000000000     
  -8.5937500000000000        4.0625000000000000        0.0000000000000000     
  -8.5156250000000018        4.0625000000000000        0.0000000000000000     
  -8.4375000000000018        4.0625000000000009        0.0000000000000000     
  -8.3593750000000000        4.0625000000000009        0.0000000000000000     
  -8.2812500000000000        4.0625000000000000        0.0000000000000000     
  -8.2031250000000018        4.0625000000000009        0.0000000000000000     
  -8.1250000000000000        4.0624999999999991        0.0000000000000000     
  -8.7500000000000000        4.1406250000000000        0.0000000000000000     
  -8.6718750000000018        4.1406250000000000        0.0000000000000000     
  -8.5937500000000000        4.1406250000000000        0.0000000000000000     
  -8.5156250000000000        4.1406250000000000        0.0000000000000000     
  -8.4375000000000018        4.1406250000000000        0.0000000000000000     
  -8.3593750000000000        4.1406250000000000        0.0000000000000000     
  -8.2812499999999982        4.1406250000000009        0.0000000000000000     
  -8.2031250000000018        4.1406249999999991        0.0000000000000000     
  -8.1250000000000000        4.1406250000000000        0.0000000000000000     
  -8.7499999999999964        4.2187499999999991        0.0000000000000000     
  -8.6718750000000018        4.2187500000000009        0.0000000000000000     
  -8.5937500000000000        4.2187500000000000        0.0000000000000000     
  -8.5156249999999982        4.2187500000000000        0.0000000000000000     
  -8.4375000000000018        4.2187500000000009        0.0000000000000000     
  -8.3593750000000000        4.2187500000000000        0.0000000000000000     
  -8.2812499999999982        4.2187500000000000        0.0000000000000000     
  -8.2031250000000018        4.2187500000000009        0.0000000000000000     
  -8.1250000000000000        4.2187499999999991        0.0000000000000000     
  -8.7500000000000000        4.2968750000000000        0.0000000000000000     
  -8.6718750000000036        4.2968750000000000        0.0000000000000000     
  -8.5937499999999982        4.2968750000000000        0.0000000000000000     
  -8.5156250000000000        4.2968750000000000        0.0000000000000000     
  -8.4375000000000036        4.2968750000000000        0.0000000000000000     
  -8.3593749999999982        4.2968750000000000        0.0000000000000000     
  -8.2812500000000000        4.2968750000000009        0.0000000000000000     
  -8.2031250000000036        4.2968750000000000        0.0000000000000000     
  -8.1249999999999982        4.2968750000000000        0.0000000000000000     
  -8.7500000000000018        4.3750000000000009        0.0000000000000000     
  -8.6718750000000018        4.3750000000000000        0.0000000000000000     
  -8.5937500000000000        4.3750000000000000        0.0000000000000000     
  -8.5156250000000000        4.3750000000000009        0.0000000000000000     
  -8.4375000000000018        4.3750000000000000        0.0000000000000000     
  -8.3593750000000000        4.3750000000000000        0.0000000000000000     
  -8.2812499999999982        4.3750000000000000        0.0000000000000000     
  -8.2031250000000018        4.3750000000000009        0.0000000000000000     
  -8.1250000000000000        4.3750000000000009        0.0000000000000000     
  -8.1250000000000000        3.7500000000000000        0.0000000000000000     
  -8.0468750000000000        3.7500000000000013        0.0000000000000000     
  -7.9687500000000000        3.7500000000000000        0.0000000000000000     
  -7.8906249999999991        3.7499999999999996        0.0000000000000000     
  -7.8125000000000000        3.7500000000000013        0.0000000000000000     
  -7.7343750000000000        3.7499999999999996        0.0000000000000000     
  -7.6562500000000009        3.7500000000000009        0.0000000000000000     
  -7.5781250000000009        3.7500000000000009        0.0000000000000000     
  -7.5000000000000018        3.7500000000000000        0.0000000000000000     
  -8.1250000000000000        3.8281250000000000        0.0000000000000000     
  -8.0468750000000018        3.8281250000000000        0.0000000000000000     
  -7.9687500000000000        3.8281250000000009        0.0000000000000000     
  -7.8906250000000009        3.8281250000000004        0.0000000000000000     
  -7.8125000000000000        3.8281249999999996        0.0000000000000000     
  -7.7343750000000009        3.8281250000000004        0.0000000000000000     
  -7.6562500000000018        3.8281250000000004        0.0000000000000000     
  -7.5781250000000018        3.8281250000000000        0.0000000000000000     
  -7.4999999999999991        3.8281250000000000        0.0000000000000000     
  -8.1250000000000018        3.9062500000000009        0.0000000000000000     
  -8.0468750000000018        3.9062500000000004        0.0000000000000000     
  -7.9687499999999991        3.9062499999999996        0.0000000000000000     
  -7.8906250000000009        3.9062500000000004        0.0000000000000000     
  -7.8125000000000009        3.9062500000000004        0.0000000000000000     
  -7.7343750000000000        3.9062500000000009        0.0000000000000000     
  -7.6562500000000009        3.9062500000000004        0.0000000000000000     
  -7.5781250000000009        3.9062500000000004        0.0000000000000000     
  -7.5000000000000018        3.9062500000000009        0.0000000000000000     
  -8.1249999999999982        3.9843749999999991        0.0000000000000000     
  -8.0468750000000000        3.9843750000000013        0.0000000000000000     
  -7.9687500000000000        3.9843750000000000        0.0000000000000000     
  -7.8906249999999982        3.9843749999999987        0.0000000000000000     
  -7.8125000000000000        3.9843750000000013        0.0000000000000000     
  -7.7343750000000000        3.9843750000000000        0.0000000000000000     
  -7.6562499999999982        3.9843749999999991        0.0000000000000000     
  -7.5781250000000000        3.9843750000000009        0.0000000000000000     
  -7.4999999999999991        3.9843749999999991        0.0000000000000000     
  -8.1250000000000000        4.0624999999999991        0.0000000000000000     
  -8.0468750000000000        4.0625000000000009        0.0000000000000000     
  -7.9687500000000000        4.0625000000000000        0.0000000000000000     
  -7.8906250000000009        4.0625000000000000        0.0000000000000000     
  -7.8125000000000009        4.0625000000000009        0.0000000000000000     
  -7.7343750000000009        4.0625000000000009        0.0000000000000000     
  -7.6562500000000009        4.0625000000000000        0.0000000000000000     
  -7.5781250000000027        4.0625000000000009        0.0000000000000000     
  -7.5000000000000000        4.0624999999999991        0.0000000000000000     
  -8.1250000000000000        4.1406250000000000        0.0000000000000000     
  -8.0468750000000018        4.1406250000000000        0.0000000000000000     
  -7.9687500000000000        4.1406250000000000        0.0000000000000000     
  -7.8906250000000000        4.1406250000000000        0.0000000000000000     
  -7.8125000000000009        4.1406250000000000        0.0000000000000000     
  -7.7343750000000000        4.1406250000000000        0.0000000000000000     
  -7.6562499999999991        4.1406250000000009        0.0000000000000000     
  -7.5781249999999991        4.1406249999999991        0.0000000000000000     
  -7.5000000000000000        4.1406250000000000        0.0000000000000000     
  -8.1250000000000000        4.2187499999999991        0.0000000000000000     
  -8.0468750000000036        4.2187500000000009        0.0000000000000000     
  -7.9687500000000000        4.2187500000000000        0.0000000000000000     
  -7.8906249999999991        4.2187500000000000        0.0000000000000000     
  -7.8125000000000000        4.2187500000000009        0.0000000000000000     
  -7.7343750000000000        4.2187500000000000        0.0000000000000000     
  -7.6562499999999991        4.2187500000000000        0.0000000000000000     
  -7.5781250000000000        4.2187500000000009        0.0000000000000000     
  -7.5000000000000000        4.2187499999999991        0.0000000000000000     
  -8.1249999999999982        4.2968750000000000        0.0000000000000000     
  -8.0468750000000000        4.2968750000000000        0.0000000000000000     
  -7.9687500000000000        4.2968750000000000        0.0000000000000000     
  -7.8906250000000000        4.2968750000000000        0.0000000000000000     
  -7.8125000000000027        4.2968750000000000        0.0000000000000000     
  -7.7343750000000000        4.2968750000000000        0.0000000000000000     
  -7.6562500000000000        4.2968750000000009        0.0000000000000000     
  -7.5781250000000018        4.2968750000000000        0.0000000000000000     
  -7.5000000000000000        4.2968750000000000        0.0000000000000000     
  -8.1250000000000000        4.3750000000000009        0.0000000000000000     
  -8.0468750000000000        4.3750000000000000        0.0000000000000000     
  -7.9687500000000000        4.3750000000000000        0.0000000000000000     
  -7.8906250000000000        4.3750000000000009        0.0000000000000000     
  -7.8125000000000000        4.3750000000000000        0.0000000000000000     
  -7.7343750000000000        4.3750000000000000        0.0000000000000000     
  -7.6562499999999991        4.3750000000000000        0.0000000000000000     
  -7.5781250000000009        4.3750000000000009        0.0000000000000000     
  -7.5000000000000000        4.3750000000000009        0.0000000000000000     
  -7.5000000000000018        3.7500000000000000        0.0000000000000000     
  -7.4218750000000018        3.7500000000000013        0.0000000000000000     
  -7.3437500000000018        3.7500000000000000        0.0000000000000000     
  -7.2656250000000000        3.7499999999999996        0.0000000000000000     
  -7.1875000000000009        3.7500000000000013        0.0000000000000000     
  -7.1093750000000000        3.7499999999999996        0.0000000000000000     
  -7.0312500000000009        3.7500000000000009        0.0000000000000000     
  -6.9531250000000009        3.7500000000000009        0.0000000000000000     
  -6.8750000000000009        3.7500000000000000        0.0000000000000000     
  -7.4999999999999991        3.8281250000000000        0.0000000000000000     
  -7.4218750000000009        3.8281250000000000        0.0000000000000000     
  -7.3437500000000009        3.8281250000000009        0.0000000000000000     
  -7.2656250000000009        3.8281250000000004        0.0000000000000000     
  -7.1875000000000009        3.8281249999999996        0.0000000000000000     
  -7.1093750000000009        3.8281250000000004        0.0000000000000000     
  -7.0312500000000009        3.8281250000000004        0.0000000000000000     
  -6.9531250000000009        3.8281250000000000        0.0000000000000000     
  -6.8750000000000000        3.8281250000000000        0.0000000000000000     
  -7.5000000000000018        3.9062500000000009        0.0000000000000000     
  -7.4218750000000009        3.9062500000000004        0.0000000000000000     
  -7.3437499999999991        3.9062499999999996        0.0000000000000000     
  -7.2656250000000018        3.9062500000000004        0.0000000000000000     
  -7.1875000000000000        3.9062500000000004        0.0000000000000000     
  -7.1093750000000000        3.9062500000000009        0.0000000000000000     
  -7.0312500000000000        3.9062500000000004        0.0000000000000000     
  -6.9531250000000018        3.9062500000000004        0.0000000000000000     
  -6.8750000000000018        3.9062500000000009        0.0000000000000000     
  -7.4999999999999991        3.9843749999999991        0.0000000000000000     
  -7.4218750000000000        3.9843750000000013        0.0000000000000000     
  -7.3437500000000009        3.9843750000000000        0.0000000000000000     
  -7.2656249999999991        3.9843749999999987        0.0000000000000000     
  -7.1875000000000018        3.9843750000000013        0.0000000000000000     
  -7.1093750000000009        3.9843750000000000        0.0000000000000000     
  -7.0312499999999982        3.9843749999999991        0.0000000000000000     
  -6.9531250000000009        3.9843750000000009        0.0000000000000000     
  -6.8749999999999982        3.9843749999999991        0.0000000000000000     
  -7.5000000000000000        4.0624999999999991        0.0000000000000000     
  -7.4218750000000000        4.0625000000000009        0.0000000000000000     
  -7.3437500000000009        4.0625000000000000        0.0000000000000000     
  -7.2656250000000009        4.0625000000000000        0.0000000000000000     
  -7.1875000000000000        4.0625000000000009        0.0000000000000000     
  -7.1093750000000009        4.0625000000000009        0.0000000000000000     
  -7.0312500000000000        4.0625000000000000        0.0000000000000000     
  -6.9531250000000018        4.0625000000000009        0.0000000000000000     
  -6.8750000000000000        4.0624999999999991        0.0000000000000000     
  -7.5000000000000000        4.1406250000000000        0.0000000000000000     
  -7.4218750000000000        4.1406250000000000        0.0000000000000000     
  -7.3437500000000000        4.1406250000000000        0.0000000000000000     
  -7.2656250000000000        4.1406250000000000        0.0000000000000000     
  -7.1875000000000018        4.1406250000000000        0.0000000000000000     
  -7.1093750000000000        4.1406250000000000        0.0000000000000000     
  -7.0312500000000000        4.1406250000000009        0.0000000000000000     
  -6.9531250000000018        4.1406249999999991        0.0000000000000000     
  -6.8749999999999991        4.1406250000000000        0.0000000000000000     
  -7.5000000000000000        4.2187499999999991        0.0000000000000000     
  -7.4218750000000000        4.2187500000000009        0.0000000000000000     
  -7.3437500000000009        4.2187500000000000        0.0000000000000000     
  -7.2656250000000000        4.2187500000000000        0.0000000000000000     
  -7.1874999999999991        4.2187500000000009        0.0000000000000000     
  -7.1093750000000000        4.2187500000000000        0.0000000000000000     
  -7.0312500000000000        4.2187500000000000        0.0000000000000000     
  -6.9531250000000009        4.2187500000000009        0.0000000000000000     
  -6.8749999999999982        4.2187499999999991        0.0000000000000000     
  -7.5000000000000000        4.2968750000000000        0.0000000000000000     
  -7.4218750000000009        4.2968750000000000        0.0000000000000000     
  -7.3437500000000000        4.2968750000000000        0.0000000000000000     
  -7.2656250000000000        4.2968750000000000        0.0000000000000000     
  -7.1875000000000000        4.2968750000000000        0.0000000000000000     
  -7.1093750000000000        4.2968750000000000        0.0000000000000000     
  -7.0312500000000000        4.2968750000000009        0.0000000000000000     
  -6.9531250000000000        4.2968750000000000        0.0000000000000000     
  -6.8750000000000000        4.2968750000000000        0.0000000000000000     
  -7.5000000000000000        4.3750000000000009        0.0000000000000000     
  -7.4218750000000018        4.3750000000000000        0.0000000000000000     
  -7.3437500000000000        4.3750000000000000        0.0000000000000000     
  -7.2656250000000000        4.3750000000000009        0.0000000000000000     
  -7.1875000000000009        4.3750000000000000        0.0000000000000000     
  -7.1093750000000000        4.3750000000000000        0.0000000000000000     
  -7.0312500000000000        4.3750000000000000        0.0000000000000000     
  -6.9531250000000009        4.3750000000000009        0.0000000000000000     
  -6.8750000000000000        4.3750000000000009        0.0000000000000000     
  -6.8750000000000009        3.7500000000000000        0.0000000000000000     
  -6.7968750000000018        3.7500000000000013        0.0000000000000000     
  -6.7187500000000009        3.7500000000000000        0.0000000000000000     
  -6.6406250000000000        3.7499999999999996        0.0000000000000000     
  -6.5625000000000018        3.7500000000000013        0.0000000000000000     
  -6.4843750000000009        3.7499999999999996        0.0000000000000000     
  -6.4062500000000009        3.7500000000000009        0.0000000000000000     
  -6.3281250000000018        3.7500000000000009        0.0000000000000000     
  -6.2500000000000009        3.7500000000000000        0.0000000000000000     
  -6.8750000000000000        3.8281250000000000        0.0000000000000000     
  -6.7968750000000009        3.8281250000000000        0.0000000000000000     
  -6.7187500000000009        3.8281250000000009        0.0000000000000000     
  -6.6406250000000009        3.8281250000000004        0.0000000000000000     
  -6.5625000000000009        3.8281249999999996        0.0000000000000000     
  -6.4843750000000009        3.8281250000000004        0.0000000000000000     
  -6.4062500000000000        3.8281250000000004        0.0000000000000000     
  -6.3281250000000009        3.8281250000000000        0.0000000000000000     
  -6.2499999999999991        3.8281250000000000        0.0000000000000000     
  -6.8750000000000018        3.9062500000000009        0.0000000000000000     
  -6.7968750000000009        3.9062500000000004        0.0000000000000000     
  -6.7187499999999991        3.9062499999999996        0.0000000000000000     
  -6.6406249999999991        3.9062500000000004        0.0000000000000000     
  -6.5625000000000009        3.9062500000000004        0.0000000000000000     
  -6.4843750000000000        3.9062500000000009        0.0000000000000000     
  -6.4062500000000000        3.9062500000000004        0.0000000000000000     
  -6.3281250000000009        3.9062500000000004        0.0000000000000000     
  -6.2500000000000009        3.9062500000000009        0.0000000000000000     
  -6.8749999999999982        3.9843749999999991        0.0000000000000000     
  -6.7968750000000018        3.9843750000000013        0.0000000000000000     
  -6.7187500000000009        3.9843750000000000        0.0000000000000000     
  -6.6406249999999982        3.9843749999999987        0.0000000000000000     
  -6.5625000000000018        3.9843750000000013        0.0000000000000000     
  -6.4843750000000009        3.9843750000000000        0.0000000000000000     
  -6.4062499999999982        3.9843749999999991        0.0000000000000000     
  -6.3281250000000018        3.9843750000000009        0.0000000000000000     
  -6.2499999999999991        3.9843749999999991        0.0000000000000000     
  -6.8750000000000000        4.0624999999999991        0.0000000000000000     
  -6.7968750000000000        4.0625000000000009        0.0000000000000000     
  -6.7187500000000009        4.0625000000000000        0.0000000000000000     
  -6.6406250000000000        4.0625000000000000        0.0000000000000000     
  -6.5625000000000000        4.0625000000000009        0.0000000000000000     
  -6.4843750000000009        4.0625000000000009        0.0000000000000000     
  -6.4062500000000000        4.0625000000000000        0.0000000000000000     
  -6.3281250000000000        4.0625000000000009        0.0000000000000000     
  -6.2499999999999991        4.0624999999999991        0.0000000000000000     
  -6.8749999999999991        4.1406250000000000        0.0000000000000000     
  -6.7968750000000009        4.1406250000000000        0.0000000000000000     
  -6.7187500000000000        4.1406250000000000        0.0000000000000000     
  -6.6406250000000000        4.1406250000000000        0.0000000000000000     
  -6.5625000000000009        4.1406250000000000        0.0000000000000000     
  -6.4843750000000000        4.1406250000000000        0.0000000000000000     
  -6.4062499999999991        4.1406250000000009        0.0000000000000000     
  -6.3281250000000009        4.1406249999999991        0.0000000000000000     
  -6.2500000000000009        4.1406250000000000        0.0000000000000000     
  -6.8749999999999982        4.2187499999999991        0.0000000000000000     
  -6.7968750000000018        4.2187500000000009        0.0000000000000000     
  -6.7187500000000009        4.2187500000000000        0.0000000000000000     
  -6.6406249999999991        4.2187500000000000        0.0000000000000000     
  -6.5625000000000018        4.2187500000000009        0.0000000000000000     
  -6.4843750000000009        4.2187500000000000        0.0000000000000000     
  -6.4062499999999991        4.2187500000000000        0.0000000000000000     
  -6.3281250000000018        4.2187500000000009        0.0000000000000000     
  -6.2499999999999991        4.2187499999999991        0.0000000000000000     
  -6.8750000000000000        4.2968750000000000        0.0000000000000000     
  -6.7968750000000000        4.2968750000000000        0.0000000000000000     
  -6.7187499999999991        4.2968750000000000        0.0000000000000000     
  -6.6406250000000000        4.2968750000000000        0.0000000000000000     
  -6.5625000000000000        4.2968750000000000        0.0000000000000000     
  -6.4843749999999991        4.2968750000000000        0.0000000000000000     
  -6.4062500000000000        4.2968750000000009        0.0000000000000000     
  -6.3281250000000000        4.2968750000000000        0.0000000000000000     
  -6.2499999999999991        4.2968750000000000        0.0000000000000000     
  -6.8750000000000000        4.3750000000000009        0.0000000000000000     
  -6.7968750000000009        4.3750000000000000        0.0000000000000000     
  -6.7187500000000000        4.3750000000000000        0.0000000000000000     
  -6.6406250000000000        4.3750000000000009        0.0000000000000000     
  -6.5625000000000009        4.3750000000000000        0.0000000000000000     
  -6.4843750000000009        4.3750000000000000        0.0000000000000000     
  -6.4062500000000009        4.3750000000000000        0.0000000000000000     
  -6.3281250000000000        4.3750000000000009        0.0000000000000000     
  -6.2500000000000000        4.3750000000000009        0.0000000000000000     
  -6.2500000000000009        3.7500000000000000        0.0000000000000000     
  -6.1718750000000009        3.7500000000000009        0.0000000000000000     
  -6.0937500000000018        3.7500000000000009        0.0000000000000000     
  -6.0156250000000009        3.7499999999999996        0.0000000000000000     
  -5.9375000000000000        3.7500000000000009        0.0000000000000000     
  -5.8593750000000000        3.7500000000000000        0.0000000000000000     
  -5.7812500000000018        3.7500000000000009        0.0000000000000000     
  -5.7031250000000000        3.7500000000000009        0.0000000000000000     
  -5.6250000000000009        3.7500000000000004        0.0000000000000000     
  -6.2499999999999991        3.8281250000000000        0.0000000000000000     
  -6.1718750000000009        3.8281250000000004        0.0000000000000000     
  -6.0937500000000009        3.8281250000000004        0.0000000000000000     
  -6.0156250000000009        3.8281250000000004        0.0000000000000000     
  -5.9375000000000000        3.8281250000000009        0.0000000000000000     
  -5.8593750000000000        3.8281250000000000        0.0000000000000000     
  -5.7812500000000009        3.8281250000000004        0.0000000000000000     
  -5.7031250000000000        3.8281250000000004        0.0000000000000000     
  -5.6250000000000000        3.8281250000000004        0.0000000000000000     
  -6.2500000000000009        3.9062500000000009        0.0000000000000000     
  -6.1718750000000009        3.9062500000000004        0.0000000000000000     
  -6.0937499999999991        3.9062499999999996        0.0000000000000000     
  -6.0156250000000009        3.9062500000000004        0.0000000000000000     
  -5.9375000000000009        3.9062500000000004        0.0000000000000000     
  -5.8593750000000000        3.9062500000000000        0.0000000000000000     
  -5.7812500000000009        3.9062500000000004        0.0000000000000000     
  -5.7031250000000009        3.9062500000000004        0.0000000000000000     
  -5.6250000000000000        3.9062500000000000        0.0000000000000000     
  -6.2499999999999991        3.9843749999999991        0.0000000000000000     
  -6.1718749999999991        3.9843750000000009        0.0000000000000000     
  -6.0937500000000000        3.9843750000000009        0.0000000000000000     
  -6.0156250000000000        3.9843749999999991        0.0000000000000000     
  -5.9374999999999991        3.9843750000000000        0.0000000000000000     
  -5.8593750000000000        3.9843750000000004        0.0000000000000000     
  -5.7812500000000000        3.9843749999999987        0.0000000000000000     
  -5.7031250000000000        3.9843750000000004        0.0000000000000000     
  -5.6250000000000000        3.9843750000000000        0.0000000000000000     
  -6.2499999999999991        4.0624999999999991        0.0000000000000000     
  -6.1718750000000009        4.0625000000000009        0.0000000000000000     
  -6.0937500000000000        4.0625000000000009        0.0000000000000000     
  -6.0156250000000009        4.0625000000000000        0.0000000000000000     
  -5.9375000000000009        4.0625000000000000        0.0000000000000000     
  -5.8593750000000000        4.0625000000000009        0.0000000000000000     
  -5.7812500000000000        4.0625000000000000        0.0000000000000000     
  -5.7031250000000009        4.0625000000000009        0.0000000000000000     
  -5.6250000000000000        4.0625000000000000        0.0000000000000000     
  -6.2500000000000009        4.1406250000000000        0.0000000000000000     
  -6.1718750000000009        4.1406250000000000        0.0000000000000000     
  -6.0937500000000000        4.1406250000000000        0.0000000000000000     
  -6.0156250000000000        4.1406250000000000        0.0000000000000000     
  -5.9375000000000009        4.1406250000000000        0.0000000000000000     
  -5.8593750000000000        4.1406250000000000        0.0000000000000000     
  -5.7812500000000000        4.1406250000000009        0.0000000000000000     
  -5.7031250000000009        4.1406249999999991        0.0000000000000000     
  -5.6249999999999991        4.1406250000000000        0.0000000000000000     
  -6.2499999999999991        4.2187499999999991        0.0000000000000000     
  -6.1718749999999991        4.2187500000000000        0.0000000000000000     
  -6.0937500000000018        4.2187500000000009        0.0000000000000000     
  -6.0156250000000009        4.2187500000000000        0.0000000000000000     
  -5.9374999999999991        4.2187500000000000        0.0000000000000000     
  -5.8593750000000009        4.2187500000000009        0.0000000000000000     
  -5.7812500000000009        4.2187500000000000        0.0000000000000000     
  -5.7031249999999991        4.2187500000000000        0.0000000000000000     
  -5.6250000000000009        4.2187500000000018        0.0000000000000000     
  -6.2499999999999991        4.2968750000000000        0.0000000000000000     
  -6.1718750000000027        4.2968750000000000        0.0000000000000000     
  -6.0937500000000009        4.2968750000000009        0.0000000000000000     
  -6.0156250000000000        4.2968750000000000        0.0000000000000000     
  -5.9375000000000009        4.2968750000000000        0.0000000000000000     
  -5.8593750000000000        4.2968750000000000        0.0000000000000000     
  -5.7812500000000000        4.2968750000000009        0.0000000000000000     
  -5.7031250000000009        4.2968750000000000        0.0000000000000000     
  -5.6250000000000018        4.2968750000000018        0.0000000000000000     
  -6.2500000000000000        4.3750000000000009        0.0000000000000000     
  -6.1718750000000000        4.3750000000000000        0.0000000000000000     
  -6.0937500000000000        4.3750000000000000        0.0000000000000000     
  -6.0156250000000000        4.3750000000000009        0.0000000000000000     
  -5.9375000000000000        4.3750000000000009        0.0000000000000000     
  -5.8593750000000000        4.3750000000000000        0.0000000000000000     
  -5.7812500000000000        4.3750000000000000        0.0000000000000000     
  -5.7031250000000000        4.3750000000000000        0.0000000000000000     
  -5.6250000000000000        4.3750000000000000        0.0000000000000000     
  -5.6250000000000009        3.7500000000000004        0.0000000000000000     
  -5.5468750000000009        3.7499999999999996        0.0000000000000000     
  -5.4687500000000000        3.7500000000000004        0.0000000000000000     
  -5.3906250000000009        3.7500000000000000        0.0000000000000000     
  -5.3125000000000018        3.7500000000000000        0.0000000000000000     
  -5.2343750000000009        3.7500000000000004        0.0000000000000000     
  -5.1562500000000009        3.7500000000000004        0.0000000000000000     
  -5.0781250000000000        3.7499999999999991        0.0000000000000000     
  -5.0000000000000018        3.7500000000000004        0.0000000000000000     
  -5.6250000000000000        3.8281250000000004        0.0000000000000000     
  -5.5468750000000000        3.8281250000000004        0.0000000000000000     
  -5.4687500000000000        3.8281249999999996        0.0000000000000000     
  -5.3906250000000009        3.8281250000000000        0.0000000000000000     
  -5.3125000000000009        3.8281250000000013        0.0000000000000000     
  -5.2343750000000009        3.8281250000000000        0.0000000000000000     
  -5.1562500000000009        3.8281250000000004        0.0000000000000000     
  -5.0781250000000000        3.8281250000000009        0.0000000000000000     
  -5.0000000000000000        3.8281249999999996        0.0000000000000000     
  -5.6250000000000000        3.9062500000000000        0.0000000000000000     
  -5.5468750000000009        3.9062500000000004        0.0000000000000000     
  -5.4687500000000000        3.9062500000000000        0.0000000000000000     
  -5.3906250000000000        3.9062500000000000        0.0000000000000000     
  -5.3125000000000018        3.9062500000000013        0.0000000000000000     
  -5.2343750000000000        3.9062499999999996        0.0000000000000000     
  -5.1562500000000000        3.9062500000000000        0.0000000000000000     
  -5.0781250000000009        3.9062500000000009        0.0000000000000000     
  -5.0000000000000000        3.9062500000000000        0.0000000000000000     
  -5.6250000000000000        3.9843750000000000        0.0000000000000000     
  -5.5468750000000000        3.9843750000000004        0.0000000000000000     
  -5.4687500000000000        3.9843750000000004        0.0000000000000000     
  -5.3906250000000018        3.9843750000000004        0.0000000000000000     
  -5.3125000000000009        3.9843750000000000        0.0000000000000000     
  -5.2343750000000009        3.9843750000000004        0.0000000000000000     
  -5.1562500000000009        3.9843750000000004        0.0000000000000000     
  -5.0781250000000000        3.9843749999999991        0.0000000000000000     
  -5.0000000000000009        3.9843750000000009        0.0000000000000000     
  -5.6250000000000000        4.0625000000000000        0.0000000000000000     
  -5.5468750000000000        4.0625000000000000        0.0000000000000000     
  -5.4687500000000009        4.0625000000000009        0.0000000000000000     
  -5.3906250000000009        4.0625000000000009        0.0000000000000000     
  -5.3125000000000009        4.0625000000000009        0.0000000000000000     
  -5.2343750000000009        4.0625000000000000        0.0000000000000000     
  -5.1562500000000000        4.0625000000000000        0.0000000000000000     
  -5.0781250000000009        4.0625000000000000        0.0000000000000000     
  -5.0000000000000000        4.0625000000000000        0.0000000000000000     
  -5.6249999999999991        4.1406250000000000        0.0000000000000000     
  -5.5468750000000009        4.1406250000000000        0.0000000000000000     
  -5.4687500000000000        4.1406250000000000        0.0000000000000000     
  -5.3906250000000000        4.1406250000000000        0.0000000000000000     
  -5.3125000000000009        4.1406249999999991        0.0000000000000000     
  -5.2343750000000009        4.1406250000000000        0.0000000000000000     
  -5.1562500000000000        4.1406250000000000        0.0000000000000000     
  -5.0781250000000009        4.1406250000000000        0.0000000000000000     
  -5.0000000000000009        4.1406250000000000        0.0000000000000000     
  -5.6250000000000009        4.2187500000000018        0.0000000000000000     
  -5.5468750000000000        4.2187500000000009        0.0000000000000000     
  -5.4687500000000018        4.2187500000000009        0.0000000000000000     
  -5.3906250000000009        4.2187500000000000        0.0000000000000000     
  -5.3125000000000009        4.2187500000000009        0.0000000000000000     
  -5.2343750000000018        4.2187500000000009        0.0000000000000000     
  -5.1562500000000000        4.2187500000000000        0.0000000000000000     
  -5.0781250000000009        4.2187500000000009        0.0000000000000000     
  -5.0000000000000009        4.2187500000000000        0.0000000000000000     
  -5.6250000000000018        4.2968750000000018        0.0000000000000000     
  -5.5468750000000000        4.2968749999999991        0.0000000000000000     
  -5.4687500000000009        4.2968750000000000        0.0000000000000000     
  -5.3906249999999991        4.2968749999999991        0.0000000000000000     
  -5.3125000000000018        4.2968750000000000        0.0000000000000000     
  -5.2343750000000000        4.2968750000000000        0.0000000000000000     
  -5.1562500000000000        4.2968750000000000        0.0000000000000000     
  -5.0781250000000000        4.2968750000000000        0.0000000000000000     
  -5.0000000000000000        4.2968750000000000        0.0000000000000000     
  -5.6250000000000000        4.3750000000000000        0.0000000000000000     
  -5.5468750000000018        4.3750000000000000        0.0000000000000000     
  -5.4687500000000009        4.3750000000000000        0.0000000000000000     
  -5.3906250000000009        4.3750000000000000        0.0000000000000000     
  -5.3124999999999991        4.3749999999999991        0.0000000000000000     
  -5.2343750000000000        4.3750000000000000        0.0000000000000000     
  -5.1562500000000009        4.3750000000000000        0.0000000000000000     
  -5.0781250000000018        4.3750000000000009        0.0000000000000000     
  -5.0000000000000000        4.3750000000000000        0.0000000000000000     
  -10.000000000000000        4.3750000000000000        0.0000000000000000     
  -9.9218749999999982        4.3750000000000000        0.0000000000000000     
  -9.8437500000000000        4.3750000000000000        0.0000000000000000     
  -9.7656250000000018        4.3750000000000009        0.0000000000000000     
  -9.6875000000000000        4.3750000000000000        0.0000000000000000     
  -9.6093750000000018        4.3750000000000000        0.0000000000000000     
  -9.5312500000000000        4.3750000000000009        0.0000000000000000     
  -9.4531250000000000        4.3749999999999991        0.0000000000000000     
  -9.3750000000000018        4.3750000000000009        0.0000000000000000     
  -10.000000000000002        4.4531250000000000        0.0000000000000000     
  -9.9218750000000000        4.4531250000000000        0.0000000000000000     
  -9.8437500000000000        4.4531250000000000        0.0000000000000000     
  -9.7656250000000018        4.4531250000000000        0.0000000000000000     
  -9.6875000000000018        4.4531250000000009        0.0000000000000000     
  -9.6093750000000018        4.4531250000000009        0.0000000000000000     
  -9.5312500000000000        4.4531250000000000        0.0000000000000000     
  -9.4531250000000018        4.4531250000000009        0.0000000000000000     
  -9.3750000000000000        4.4531250000000000        0.0000000000000000     
  -10.000000000000000        4.5312500000000000        0.0000000000000000     
  -9.9218750000000000        4.5312500000000000        0.0000000000000000     
  -9.8437500000000000        4.5312500000000000        0.0000000000000000     
  -9.7656249999999982        4.5312499999999991        0.0000000000000000     
  -9.6875000000000000        4.5312500000000000        0.0000000000000000     
  -9.6093750000000000        4.5312499999999991        0.0000000000000000     
  -9.5312500000000018        4.5312500000000000        0.0000000000000000     
  -9.4531250000000018        4.5312500000000000        0.0000000000000000     
  -9.3750000000000000        4.5312500000000000        0.0000000000000000     
  -10.000000000000000        4.6093750000000009        0.0000000000000000     
  -9.9218749999999982        4.6093749999999991        0.0000000000000000     
  -9.8437500000000018        4.6093750000000009        0.0000000000000000     
  -9.7656250000000000        4.6093750000000000        0.0000000000000000     
  -9.6875000000000000        4.6093750000000000        0.0000000000000000     
  -9.6093750000000018        4.6093750000000009        0.0000000000000000     
  -9.5312500000000000        4.6093749999999991        0.0000000000000000     
  -9.4531250000000000        4.6093750000000009        0.0000000000000000     
  -9.3750000000000000        4.6093750000000000        0.0000000000000000     
  -10.000000000000002        4.6875000000000000        0.0000000000000000     
  -9.9218750000000000        4.6875000000000000        0.0000000000000000     
  -9.8437500000000000        4.6875000000000000        0.0000000000000000     
  -9.7656250000000000        4.6875000000000000        0.0000000000000000     
  -9.6875000000000018        4.6875000000000000        0.0000000000000000     
  -9.6093750000000000        4.6875000000000000        0.0000000000000000     
  -9.5312500000000018        4.6875000000000009        0.0000000000000000     
  -9.4531250000000036        4.6875000000000009        0.0000000000000000     
  -9.3750000000000000        4.6875000000000000        0.0000000000000000     
  -10.000000000000000        4.7656250000000000        0.0000000000000000     
  -9.9218750000000000        4.7656250000000000        0.0000000000000000     
  -9.8437499999999982        4.7656250000000000        0.0000000000000000     
  -9.7656250000000000        4.7656250000000000        0.0000000000000000     
  -9.6875000000000000        4.7656250000000000        0.0000000000000000     
  -9.6093750000000000        4.7656250000000000        0.0000000000000000     
  -9.5312500000000000        4.7656249999999991        0.0000000000000000     
  -9.4531250000000000        4.7656249999999991        0.0000000000000000     
  -9.3750000000000018        4.7656250000000000        0.0000000000000000     
  -10.000000000000000        4.8437499999999991        0.0000000000000000     
  -9.9218750000000000        4.8437500000000000        0.0000000000000000     
  -9.8437499999999982        4.8437499999999991        0.0000000000000000     
  -9.7656249999999982        4.8437499999999991        0.0000000000000000     
  -9.6875000000000000        4.8437500000000000        0.0000000000000000     
  -9.6093750000000000        4.8437499999999991        0.0000000000000000     
  -9.5312500000000000        4.8437500000000000        0.0000000000000000     
  -9.4531250000000018        4.8437500000000000        0.0000000000000000     
  -9.3750000000000000        4.8437500000000000        0.0000000000000000     
  -10.000000000000000        4.9218750000000000        0.0000000000000000     
  -9.9218749999999982        4.9218749999999991        0.0000000000000000     
  -9.8437500000000000        4.9218750000000000        0.0000000000000000     
  -9.7656250000000000        4.9218750000000000        0.0000000000000000     
  -9.6875000000000000        4.9218750000000000        0.0000000000000000     
  -9.6093750000000000        4.9218750000000000        0.0000000000000000     
  -9.5312500000000000        4.9218750000000000        0.0000000000000000     
  -9.4531250000000018        4.9218750000000009        0.0000000000000000     
  -9.3750000000000000        4.9218750000000000        0.0000000000000000     
  -10.000000000000000        5.0000000000000000        0.0000000000000000     
  -9.9218750000000000        5.0000000000000000        0.0000000000000000     
  -9.8437500000000000        5.0000000000000000        0.0000000000000000     
  -9.7656250000000018        5.0000000000000000        0.0000000000000000     
  -9.6875000000000000        5.0000000000000000        0.0000000000000000     
  -9.6093750000000000        5.0000000000000000        0.0000000000000000     
  -9.5312500000000000        5.0000000000000000        0.0000000000000000     
  -9.4531250000000000        4.9999999999999991        0.0000000000000000     
  -9.3750000000000000        5.0000000000000000        0.0000000000000000     
  -9.3750000000000018        4.3750000000000009        0.0000000000000000     
  -9.2968750000000018        4.3750000000000000        0.0000000000000000     
  -9.2187499999999982        4.3750000000000000        0.0000000000000000     
  -9.1406250000000000        4.3750000000000000        0.0000000000000000     
  -9.0625000000000000        4.3750000000000000        0.0000000000000000     
  -8.9843750000000018        4.3750000000000000        0.0000000000000000     
  -8.9062500000000000        4.3750000000000000        0.0000000000000000     
  -8.8281250000000018        4.3750000000000009        0.0000000000000000     
  -8.7500000000000018        4.3750000000000009        0.0000000000000000     
  -9.3750000000000000        4.4531250000000000        0.0000000000000000     
  -9.2968750000000018        4.4531250000000000        0.0000000000000000     
  -9.2187500000000036        4.4531249999999991        0.0000000000000000     
  -9.1406250000000000        4.4531250000000000        0.0000000000000000     
  -9.0625000000000018        4.4531250000000000        0.0000000000000000     
  -8.9843750000000036        4.4531249999999991        0.0000000000000000     
  -8.9062500000000018        4.4531250000000009        0.0000000000000000     
  -8.8281250000000018        4.4531250000000000        0.0000000000000000     
  -8.7500000000000018        4.4531250000000000        0.0000000000000000     
  -9.3750000000000000        4.5312500000000000        0.0000000000000000     
  -9.2968750000000000        4.5312499999999991        0.0000000000000000     
  -9.2187500000000000        4.5312500000000000        0.0000000000000000     
  -9.1406250000000000        4.5312500000000000        0.0000000000000000     
  -9.0625000000000018        4.5312500000000000        0.0000000000000000     
  -8.9843750000000000        4.5312500000000000        0.0000000000000000     
  -8.9062500000000018        4.5312500000000000        0.0000000000000000     
  -8.8281250000000000        4.5312500000000000        0.0000000000000000     
  -8.7500000000000000        4.5312500000000000        0.0000000000000000     
  -9.3750000000000000        4.6093750000000000        0.0000000000000000     
  -9.2968750000000018        4.6093750000000000        0.0000000000000000     
  -9.2187500000000000        4.6093750000000009        0.0000000000000000     
  -9.1406250000000018        4.6093750000000000        0.0000000000000000     
  -9.0625000000000000        4.6093750000000000        0.0000000000000000     
  -8.9843750000000000        4.6093750000000018        0.0000000000000000     
  -8.9062500000000036        4.6093750000000000        0.0000000000000000     
  -8.8281250000000000        4.6093750000000000        0.0000000000000000     
  -8.7500000000000000        4.6093750000000009        0.0000000000000000     
  -9.3750000000000000        4.6875000000000000        0.0000000000000000     
  -9.2968750000000018        4.6875000000000000        0.0000000000000000     
  -9.2187500000000018        4.6874999999999991        0.0000000000000000     
  -9.1406250000000000        4.6875000000000000        0.0000000000000000     
  -9.0625000000000036        4.6875000000000009        0.0000000000000000     
  -8.9843750000000036        4.6874999999999991        0.0000000000000000     
  -8.9062500000000000        4.6875000000000000        0.0000000000000000     
  -8.8281250000000018        4.6875000000000000        0.0000000000000000     
  -8.7500000000000053        4.6875000000000009        0.0000000000000000     
  -9.3750000000000018        4.7656250000000000        0.0000000000000000     
  -9.2968750000000000        4.7656250000000000        0.0000000000000000     
  -9.2187500000000018        4.7656250000000000        0.0000000000000000     
  -9.1406250000000000        4.7656250000000000        0.0000000000000000     
  -9.0625000000000000        4.7656250000000000        0.0000000000000000     
  -8.9843750000000000        4.7656250000000000        0.0000000000000000     
  -8.9062500000000000        4.7656250000000000        0.0000000000000000     
  -8.8281250000000000        4.7656250000000000        0.0000000000000000     
  -8.7500000000000018        4.7656250000000009        0.0000000000000000     
  -9.3750000000000000        4.8437500000000000        0.0000000000000000     
  -9.2968750000000000        4.8437500000000000        0.0000000000000000     
  -9.2187500000000000        4.8437500000000009        0.0000000000000000     
  -9.1406250000000000        4.8437500000000009        0.0000000000000000     
  -9.0625000000000018        4.8437500000000000        0.0000000000000000     
  -8.9843750000000000        4.8437500000000009        0.0000000000000000     
  -8.9062500000000000        4.8437500000000000        0.0000000000000000     
  -8.8281250000000018        4.8437500000000009        0.0000000000000000     
  -8.7500000000000000        4.8437500000000018        0.0000000000000000     
  -9.3750000000000000        4.9218750000000000        0.0000000000000000     
  -9.2968750000000000        4.9218749999999991        0.0000000000000000     
  -9.2187500000000000        4.9218749999999982        0.0000000000000000     
  -9.1406250000000018        4.9218750000000009        0.0000000000000000     
  -9.0625000000000018        4.9218750000000000        0.0000000000000000     
  -8.9843750000000000        4.9218749999999982        0.0000000000000000     
  -8.9062500000000018        4.9218750000000009        0.0000000000000000     
  -8.8281250000000018        4.9218750000000000        0.0000000000000000     
  -8.7500000000000000        4.9218749999999982        0.0000000000000000     
  -9.3750000000000000        5.0000000000000000        0.0000000000000000     
  -9.2968750000000000        5.0000000000000000        0.0000000000000000     
  -9.2187500000000000        4.9999999999999991        0.0000000000000000     
  -9.1406250000000000        5.0000000000000009        0.0000000000000000     
  -9.0625000000000000        5.0000000000000000        0.0000000000000000     
  -8.9843750000000018        5.0000000000000009        0.0000000000000000     
  -8.9062499999999982        5.0000000000000000        0.0000000000000000     
  -8.8281250000000000        5.0000000000000000        0.0000000000000000     
  -8.7500000000000018        5.0000000000000018        0.0000000000000000     
  -8.7500000000000018        4.3750000000000009        0.0000000000000000     
  -8.6718750000000018        4.3750000000000000        0.0000000000000000     
  -8.5937500000000000        4.3750000000000000        0.0000000000000000     
  -8.5156250000000000        4.3750000000000009        0.0000000000000000     
  -8.4375000000000018        4.3750000000000000        0.0000000000000000     
  -8.3593750000000000        4.3750000000000000        0.0000000000000000     
  -8.2812499999999982        4.3750000000000000        0.0000000000000000     
  -8.2031250000000018        4.3750000000000009        0.0000000000000000     
  -8.1250000000000000        4.3750000000000009        0.0000000000000000     
  -8.7500000000000018        4.4531250000000000        0.0000000000000000     
  -8.6718750000000036        4.4531250000000018        0.0000000000000000     
  -8.5937500000000018        4.4531249999999991        0.0000000000000000     
  -8.5156250000000018        4.4531249999999991        0.0000000000000000     
  -8.4375000000000000        4.4531250000000000        0.0000000000000000     
  -8.3593750000000000        4.4531249999999991        0.0000000000000000     
  -8.2812500000000018        4.4531249999999991        0.0000000000000000     
  -8.2031250000000000        4.4531250000000009        0.0000000000000000     
  -8.1250000000000018        4.4531250000000000        0.0000000000000000     
  -8.7500000000000000        4.5312500000000000        0.0000000000000000     
  -8.6718750000000000        4.5312500000000000        0.0000000000000000     
  -8.5937500000000018        4.5312500000000000        0.0000000000000000     
  -8.5156250000000018        4.5312500000000000        0.0000000000000000     
  -8.4375000000000018        4.5312500000000000        0.0000000000000000     
  -8.3593750000000018        4.5312500000000000        0.0000000000000000     
  -8.2812500000000018        4.5312500000000000        0.0000000000000000     
  -8.2031250000000000        4.5312500000000000        0.0000000000000000     
  -8.1250000000000000        4.5312500000000000        0.0000000000000000     
  -8.7500000000000000        4.6093750000000009        0.0000000000000000     
  -8.6718750000000000        4.6093750000000000        0.0000000000000000     
  -8.5937500000000018        4.6093750000000018        0.0000000000000000     
  -8.5156250000000000        4.6093750000000009        0.0000000000000000     
  -8.4375000000000000        4.6093750000000000        0.0000000000000000     
  -8.3593750000000036        4.6093750000000018        0.0000000000000000     
  -8.2812499999999982        4.6093750000000018        0.0000000000000000     
  -8.2031250000000000        4.6093750000000000        0.0000000000000000     
  -8.1250000000000000        4.6093750000000009        0.0000000000000000     
  -8.7500000000000053        4.6875000000000009        0.0000000000000000     
  -8.6718750000000036        4.6875000000000009        0.0000000000000000     
  -8.5937500000000000        4.6874999999999991        0.0000000000000000     
  -8.5156250000000018        4.6874999999999991        0.0000000000000000     
  -8.4375000000000018        4.6875000000000009        0.0000000000000000     
  -8.3593750000000000        4.6874999999999991        0.0000000000000000     
  -8.2812500000000018        4.6874999999999982        0.0000000000000000     
  -8.2031250000000053        4.6875000000000009        0.0000000000000000     
  -8.1250000000000036        4.6875000000000009        0.0000000000000000     
  -8.7500000000000018        4.7656250000000009        0.0000000000000000     
  -8.6718750000000000        4.7656250000000000        0.0000000000000000     
  -8.5937500000000018        4.7656250000000000        0.0000000000000000     
  -8.5156250000000018        4.7656250000000000        0.0000000000000000     
  -8.4375000000000018        4.7656250000000000        0.0000000000000000     
  -8.3593750000000000        4.7656250000000000        0.0000000000000000     
  -8.2812500000000000        4.7656250000000000        0.0000000000000000     
  -8.2031250000000000        4.7656250000000000        0.0000000000000000     
  -8.1250000000000018        4.7656250000000009        0.0000000000000000     
  -8.7500000000000000        4.8437500000000018        0.0000000000000000     
  -8.6718750000000018        4.8437500000000009        0.0000000000000000     
  -8.5937500000000036        4.8437500000000018        0.0000000000000000     
  -8.5156250000000036        4.8437500000000027        0.0000000000000000     
  -8.4375000000000018        4.8437500000000009        0.0000000000000000     
  -8.3593750000000036        4.8437500000000009        0.0000000000000000     
  -8.2812500000000018        4.8437500000000018        0.0000000000000000     
  -8.2031250000000018        4.8437500000000009        0.0000000000000000     
  -8.1250000000000018        4.8437500000000018        0.0000000000000000     
  -8.7500000000000000        4.9218749999999982        0.0000000000000000     
  -8.6718750000000036        4.9218750000000009        0.0000000000000000     
  -8.5937500000000000        4.9218749999999982        0.0000000000000000     
  -8.5156250000000000        4.9218749999999991        0.0000000000000000     
  -8.4375000000000036        4.9218750000000018        0.0000000000000000     
  -8.3593750000000000        4.9218749999999982        0.0000000000000000     
  -8.2812500000000018        4.9218750000000000        0.0000000000000000     
  -8.2031250000000018        4.9218750000000009        0.0000000000000000     
  -8.1249999999999982        4.9218749999999982        0.0000000000000000     
  -8.7500000000000018        5.0000000000000018        0.0000000000000000     
  -8.6718750000000000        5.0000000000000000        0.0000000000000000     
  -8.5937500000000000        4.9999999999999991        0.0000000000000000     
  -8.5156250000000018        5.0000000000000009        0.0000000000000000     
  -8.4375000000000018        5.0000000000000009        0.0000000000000000     
  -8.3593750000000000        5.0000000000000009        0.0000000000000000     
  -8.2812500000000000        5.0000000000000009        0.0000000000000000     
  -8.2031250000000000        5.0000000000000000        0.0000000000000000     
  -8.1250000000000000        5.0000000000000018        0.0000000000000000     
  -8.1250000000000000        4.3750000000000009        0.0000000000000000     
  -8.0468750000000000        4.3750000000000000        0.0000000000000000     
  -7.9687500000000000        4.3750000000000000        0.0000000000000000     
  -7.8906250000000000        4.3750000000000009        0.0000000000000000     
  -7.8125000000000000        4.3750000000000000        0.0000000000000000     
  -7.7343750000000000        4.3750000000000000        0.0000000000000000     
  -7.6562499999999991        4.3750000000000000        0.0000000000000000     
  -7.5781250000000009        4.3750000000000009        0.0000000000000000     
  -7.5000000000000000        4.3750000000000009        0.0000000000000000     
  -8.1250000000000018        4.4531250000000000        0.0000000000000000     
  -8.0468750000000036        4.4531250000000018        0.0000000000000000     
  -7.9687500000000009        4.4531249999999991        0.0000000000000000     
  -7.8906250000000009        4.4531249999999991        0.0000000000000000     
  -7.8125000000000000        4.4531250000000000        0.0000000000000000     
  -7.7343750000000000        4.4531249999999991        0.0000000000000000     
  -7.6562500000000009        4.4531249999999991        0.0000000000000000     
  -7.5781250000000009        4.4531250000000009        0.0000000000000000     
  -7.5000000000000000        4.4531250000000000        0.0000000000000000     
  -8.1250000000000000        4.5312500000000000        0.0000000000000000     
  -8.0468750000000000        4.5312500000000000        0.0000000000000000     
  -7.9687500000000000        4.5312500000000000        0.0000000000000000     
  -7.8906250000000000        4.5312500000000000        0.0000000000000000     
  -7.8125000000000009        4.5312500000000000        0.0000000000000000     
  -7.7343750000000000        4.5312500000000000        0.0000000000000000     
  -7.6562500000000000        4.5312500000000000        0.0000000000000000     
  -7.5781250000000000        4.5312500000000000        0.0000000000000000     
  -7.5000000000000000        4.5312500000000000        0.0000000000000000     
  -8.1250000000000000        4.6093750000000009        0.0000000000000000     
  -8.0468750000000018        4.6093750000000000        0.0000000000000000     
  -7.9687500000000009        4.6093750000000018        0.0000000000000000     
  -7.8906250000000000        4.6093750000000009        0.0000000000000000     
  -7.8125000000000009        4.6093750000000000        0.0000000000000000     
  -7.7343750000000000        4.6093750000000018        0.0000000000000000     
  -7.6562499999999991        4.6093750000000018        0.0000000000000000     
  -7.5781250000000000        4.6093750000000000        0.0000000000000000     
  -7.5000000000000000        4.6093750000000009        0.0000000000000000     
  -8.1250000000000036        4.6875000000000009        0.0000000000000000     
  -8.0468750000000018        4.6875000000000009        0.0000000000000000     
  -7.9687500000000000        4.6874999999999991        0.0000000000000000     
  -7.8906250000000009        4.6874999999999991        0.0000000000000000     
  -7.8125000000000018        4.6875000000000009        0.0000000000000000     
  -7.7343750000000009        4.6874999999999991        0.0000000000000000     
  -7.6562500000000009        4.6874999999999982        0.0000000000000000     
  -7.5781250000000027        4.6875000000000009        0.0000000000000000     
  -7.5000000000000027        4.6875000000000009        0.0000000000000000     
  -8.1250000000000018        4.7656250000000009        0.0000000000000000     
  -8.0468750000000000        4.7656250000000000        0.0000000000000000     
  -7.9687500000000000        4.7656250000000000        0.0000000000000000     
  -7.8906250000000000        4.7656250000000000        0.0000000000000000     
  -7.8125000000000000        4.7656250000000000        0.0000000000000000     
  -7.7343750000000000        4.7656250000000000        0.0000000000000000     
  -7.6562500000000000        4.7656250000000000        0.0000000000000000     
  -7.5781250000000000        4.7656250000000000        0.0000000000000000     
  -7.5000000000000009        4.7656250000000009        0.0000000000000000     
  -8.1250000000000018        4.8437500000000018        0.0000000000000000     
  -8.0468750000000053        4.8437500000000009        0.0000000000000000     
  -7.9687500000000009        4.8437500000000018        0.0000000000000000     
  -7.8906250000000027        4.8437500000000027        0.0000000000000000     
  -7.8125000000000009        4.8437500000000009        0.0000000000000000     
  -7.7343750000000000        4.8437500000000009        0.0000000000000000     
  -7.6562500000000000        4.8437500000000018        0.0000000000000000     
  -7.5781250000000009        4.8437500000000009        0.0000000000000000     
  -7.5000000000000009        4.8437500000000018        0.0000000000000000     
  -8.1249999999999982        4.9218749999999982        0.0000000000000000     
  -8.0468750000000000        4.9218750000000009        0.0000000000000000     
  -7.9687500000000000        4.9218749999999982        0.0000000000000000     
  -7.8906250000000009        4.9218749999999991        0.0000000000000000     
  -7.8125000000000018        4.9218750000000018        0.0000000000000000     
  -7.7343749999999991        4.9218749999999982        0.0000000000000000     
  -7.6562500000000027        4.9218750000000000        0.0000000000000000     
  -7.5781250000000009        4.9218750000000009        0.0000000000000000     
  -7.4999999999999991        4.9218749999999982        0.0000000000000000     
  -8.1250000000000000        5.0000000000000018        0.0000000000000000     
  -8.0468750000000000        5.0000000000000000        0.0000000000000000     
  -7.9687499999999991        4.9999999999999991        0.0000000000000000     
  -7.8906250000000009        5.0000000000000009        0.0000000000000000     
  -7.8125000000000009        5.0000000000000009        0.0000000000000000     
  -7.7343750000000018        5.0000000000000009        0.0000000000000000     
  -7.6562500000000009        5.0000000000000009        0.0000000000000000     
  -7.5781250000000009        5.0000000000000000        0.0000000000000000     
  -7.5000000000000009        5.0000000000000018        0.0000000000000000     
  -7.5000000000000000        4.3750000000000009        0.0000000000000000     
  -7.4218750000000018        4.3750000000000000        0.0000000000000000     
  -7.3437500000000000        4.3750000000000000        0.0000000000000000     
  -7.2656250000000000        4.3750000000000009        0.0000000000000000     
  -7.1875000000000009        4.3750000000000000        0.0000000000000000     
  -7.1093750000000000        4.3750000000000000        0.0000000000000000     
  -7.0312500000000000        4.3750000000000000        0.0000000000000000     
  -6.9531250000000009        4.3750000000000009        0.0000000000000000     
  -6.8750000000000000        4.3750000000000009        0.0000000000000000     
  -7.5000000000000000        4.4531250000000000        0.0000000000000000     
  -7.4218750000000018        4.4531250000000018        0.0000000000000000     
  -7.3437500000000009        4.4531249999999991        0.0000000000000000     
  -7.2656250000000000        4.4531249999999991        0.0000000000000000     
  -7.1874999999999991        4.4531250000000000        0.0000000000000000     
  -7.1093750000000009        4.4531249999999991        0.0000000000000000     
  -7.0312500000000009        4.4531249999999991        0.0000000000000000     
  -6.9531249999999991        4.4531250000000009        0.0000000000000000     
  -6.8750000000000009        4.4531250000000000        0.0000000000000000     
  -7.5000000000000000        4.5312500000000000        0.0000000000000000     
  -7.4218750000000000        4.5312500000000000        0.0000000000000000     
  -7.3437500000000000        4.5312500000000000        0.0000000000000000     
  -7.2656250000000000        4.5312500000000000        0.0000000000000000     
  -7.1875000000000000        4.5312500000000000        0.0000000000000000     
  -7.1093750000000000        4.5312500000000000        0.0000000000000000     
  -7.0312500000000000        4.5312500000000000        0.0000000000000000     
  -6.9531250000000000        4.5312500000000000        0.0000000000000000     
  -6.8750000000000000        4.5312500000000000        0.0000000000000000     
  -7.5000000000000000        4.6093750000000009        0.0000000000000000     
  -7.4218750000000009        4.6093750000000000        0.0000000000000000     
  -7.3437500000000009        4.6093750000000018        0.0000000000000000     
  -7.2656250000000000        4.6093750000000009        0.0000000000000000     
  -7.1875000000000000        4.6093750000000000        0.0000000000000000     
  -7.1093750000000009        4.6093750000000018        0.0000000000000000     
  -7.0312500000000009        4.6093750000000018        0.0000000000000000     
  -6.9531250000000009        4.6093750000000000        0.0000000000000000     
  -6.8750000000000009        4.6093750000000009        0.0000000000000000     
  -7.5000000000000027        4.6875000000000009        0.0000000000000000     
  -7.4218750000000027        4.6875000000000009        0.0000000000000000     
  -7.3437500000000000        4.6874999999999991        0.0000000000000000     
  -7.2656250000000000        4.6874999999999991        0.0000000000000000     
  -7.1875000000000009        4.6875000000000009        0.0000000000000000     
  -7.1093750000000000        4.6874999999999991        0.0000000000000000     
  -7.0312500000000000        4.6874999999999982        0.0000000000000000     
  -6.9531250000000018        4.6875000000000009        0.0000000000000000     
  -6.8750000000000027        4.6875000000000009        0.0000000000000000     
  -7.5000000000000009        4.7656250000000009        0.0000000000000000     
  -7.4218749999999991        4.7656250000000000        0.0000000000000000     
  -7.3437500000000000        4.7656250000000000        0.0000000000000000     
  -7.2656250000000000        4.7656250000000000        0.0000000000000000     
  -7.1875000000000000        4.7656250000000000        0.0000000000000000     
  -7.1093749999999982        4.7656250000000000        0.0000000000000000     
  -7.0312500000000000        4.7656250000000000        0.0000000000000000     
  -6.9531249999999991        4.7656250000000000        0.0000000000000000     
  -6.8750000000000009        4.7656250000000009        0.0000000000000000     
  -7.5000000000000009        4.8437500000000018        0.0000000000000000     
  -7.4218750000000009        4.8437500000000009        0.0000000000000000     
  -7.3437500000000000        4.8437500000000018        0.0000000000000000     
  -7.2656250000000018        4.8437500000000027        0.0000000000000000     
  -7.1875000000000009        4.8437500000000009        0.0000000000000000     
  -7.1093750000000000        4.8437500000000009        0.0000000000000000     
  -7.0312500000000009        4.8437500000000018        0.0000000000000000     
  -6.9531250000000018        4.8437500000000009        0.0000000000000000     
  -6.8750000000000000        4.8437500000000018        0.0000000000000000     
  -7.4999999999999991        4.9218749999999982        0.0000000000000000     
  -7.4218750000000027        4.9218750000000009        0.0000000000000000     
  -7.3437500000000000        4.9218749999999982        0.0000000000000000     
  -7.2656250000000009        4.9218749999999991        0.0000000000000000     
  -7.1875000000000036        4.9218750000000018        0.0000000000000000     
  -7.1093749999999991        4.9218749999999982        0.0000000000000000     
  -7.0312500000000009        4.9218750000000000        0.0000000000000000     
  -6.9531250000000036        4.9218750000000009        0.0000000000000000     
  -6.8749999999999991        4.9218749999999982        0.0000000000000000     
  -7.5000000000000009        5.0000000000000018        0.0000000000000000     
  -7.4218749999999991        5.0000000000000000        0.0000000000000000     
  -7.3437500000000000        4.9999999999999991        0.0000000000000000     
  -7.2656250000000018        5.0000000000000009        0.0000000000000000     
  -7.1875000000000009        5.0000000000000009        0.0000000000000000     
  -7.1093750000000018        5.0000000000000009        0.0000000000000000     
  -7.0312500000000009        5.0000000000000009        0.0000000000000000     
  -6.9531249999999991        5.0000000000000000        0.0000000000000000     
  -6.8750000000000009        5.0000000000000018        0.0000000000000000     
  -6.8750000000000000        4.3750000000000009        0.0000000000000000     
  -6.7968750000000009        4.3750000000000000        0.0000000000000000     
  -6.7187500000000000        4.3750000000000000        0.0000000000000000     
  -6.6406250000000000        4.3750000000000009        0.0000000000000000     
  -6.5625000000000009        4.3750000000000000        0.0000000000000000     
  -6.4843750000000009        4.3750000000000000        0.0000000000000000     
  -6.4062500000000009        4.3750000000000000        0.0000000000000000     
  -6.3281250000000000        4.3750000000000009        0.0000000000000000     
  -6.2500000000000000        4.3750000000000009        0.0000000000000000     
  -6.8750000000000009        4.4531250000000000        0.0000000000000000     
  -6.7968750000000027        4.4531250000000018        0.0000000000000000     
  -6.7187500000000000        4.4531249999999991        0.0000000000000000     
  -6.6406250000000009        4.4531249999999991        0.0000000000000000     
  -6.5625000000000009        4.4531250000000000        0.0000000000000000     
  -6.4843750000000000        4.4531249999999991        0.0000000000000000     
  -6.4062500000000000        4.4531249999999991        0.0000000000000000     
  -6.3281250000000009        4.4531250000000009        0.0000000000000000     
  -6.2500000000000000        4.4531250000000000        0.0000000000000000     
  -6.8750000000000000        4.5312500000000000        0.0000000000000000     
  -6.7968750000000000        4.5312500000000000        0.0000000000000000     
  -6.7187500000000000        4.5312500000000000        0.0000000000000000     
  -6.6406250000000000        4.5312500000000000        0.0000000000000000     
  -6.5625000000000000        4.5312500000000000        0.0000000000000000     
  -6.4843750000000000        4.5312500000000000        0.0000000000000000     
  -6.4062500000000000        4.5312500000000000        0.0000000000000000     
  -6.3281250000000000        4.5312500000000000        0.0000000000000000     
  -6.2500000000000000        4.5312500000000000        0.0000000000000000     
  -6.8750000000000009        4.6093750000000009        0.0000000000000000     
  -6.7968750000000009        4.6093750000000000        0.0000000000000000     
  -6.7187500000000009        4.6093750000000018        0.0000000000000000     
  -6.6406250000000009        4.6093750000000009        0.0000000000000000     
  -6.5625000000000009        4.6093750000000000        0.0000000000000000     
  -6.4843750000000009        4.6093750000000018        0.0000000000000000     
  -6.4062500000000009        4.6093750000000018        0.0000000000000000     
  -6.3281250000000018        4.6093750000000000        0.0000000000000000     
  -6.2500000000000009        4.6093750000000009        0.0000000000000000     
  -6.8750000000000027        4.6875000000000009        0.0000000000000000     
  -6.7968750000000018        4.6875000000000009        0.0000000000000000     
  -6.7187500000000000        4.6874999999999991        0.0000000000000000     
  -6.6406250000000000        4.6874999999999991        0.0000000000000000     
  -6.5625000000000018        4.6875000000000009        0.0000000000000000     
  -6.4843750000000009        4.6874999999999991        0.0000000000000000     
  -6.4062500000000000        4.6874999999999982        0.0000000000000000     
  -6.3281250000000018        4.6875000000000009        0.0000000000000000     
  -6.2500000000000018        4.6875000000000009        0.0000000000000000     
  -6.8750000000000009        4.7656250000000009        0.0000000000000000     
  -6.7968750000000000        4.7656250000000000        0.0000000000000000     
  -6.7187500000000000        4.7656250000000000        0.0000000000000000     
  -6.6406250000000000        4.7656250000000000        0.0000000000000000     
  -6.5625000000000000        4.7656250000000000        0.0000000000000000     
  -6.4843750000000000        4.7656250000000000        0.0000000000000000     
  -6.4062500000000000        4.7656250000000000        0.0000000000000000     
  -6.3281250000000000        4.7656250000000000        0.0000000000000000     
  -6.2500000000000009        4.7656250000000009        0.0000000000000000     
  -6.8750000000000000        4.8437500000000018        0.0000000000000000     
  -6.7968750000000018        4.8437500000000009        0.0000000000000000     
  -6.7187500000000000        4.8437500000000018        0.0000000000000000     
  -6.6406250000000027        4.8437500000000027        0.0000000000000000     
  -6.5625000000000018        4.8437500000000009        0.0000000000000000     
  -6.4843750000000000        4.8437500000000009        0.0000000000000000     
  -6.4062500000000000        4.8437500000000018        0.0000000000000000     
  -6.3281250000000009        4.8437500000000009        0.0000000000000000     
  -6.2500000000000000        4.8437500000000018        0.0000000000000000     
  -6.8749999999999991        4.9218749999999982        0.0000000000000000     
  -6.7968750000000027        4.9218750000000009        0.0000000000000000     
  -6.7187499999999991        4.9218749999999982        0.0000000000000000     
  -6.6406250000000000        4.9218749999999991        0.0000000000000000     
  -6.5625000000000027        4.9218750000000018        0.0000000000000000     
  -6.4843750000000000        4.9218749999999982        0.0000000000000000     
  -6.4062500000000009        4.9218750000000000        0.0000000000000000     
  -6.3281250000000027        4.9218750000000009        0.0000000000000000     
  -6.2500000000000000        4.9218749999999982        0.0000000000000000     
  -6.8750000000000009        5.0000000000000018        0.0000000000000000     
  -6.7968750000000000        5.0000000000000000        0.0000000000000000     
  -6.7187500000000000        4.9999999999999991        0.0000000000000000     
  -6.6406250000000009        5.0000000000000009        0.0000000000000000     
  -6.5625000000000009        5.0000000000000009        0.0000000000000000     
  -6.4843750000000009        5.0000000000000009        0.0000000000000000     
  -6.4062500000000000        5.0000000000000009        0.0000000000000000     
  -6.3281249999999991        5.0000000000000000        0.0000000000000000     
  -6.2500000000000000        5.0000000000000018        0.0000000000000000     
  -6.2500000000000000        4.3750000000000009        0.0000000000000000     
  -6.1718750000000000        4.3750000000000000        0.0000000000000000     
  -6.0937500000000000        4.3750000000000000        0.0000000000000000     
  -6.0156250000000000        4.3750000000000009        0.0000000000000000     
  -5.9375000000000000        4.3750000000000009        0.0000000000000000     
  -5.8593750000000000        4.3750000000000000        0.0000000000000000     
  -5.7812500000000000        4.3750000000000000        0.0000000000000000     
  -5.7031250000000000        4.3750000000000000        0.0000000000000000     
  -5.6250000000000000        4.3750000000000000        0.0000000000000000     
  -6.2500000000000000        4.4531250000000000        0.0000000000000000     
  -6.1718750000000018        4.4531250000000018        0.0000000000000000     
  -6.0937500000000000        4.4531250000000000        0.0000000000000000     
  -6.0156250000000000        4.4531249999999991        0.0000000000000000     
  -5.9375000000000009        4.4531250000000000        0.0000000000000000     
  -5.8593750000000009        4.4531250000000000        0.0000000000000000     
  -5.7812500000000000        4.4531249999999991        0.0000000000000000     
  -5.7031250000000018        4.4531250000000009        0.0000000000000000     
  -5.6250000000000000        4.4531250000000000        0.0000000000000000     
  -6.2500000000000000        4.5312500000000000        0.0000000000000000     
  -6.1718750000000000        4.5312500000000000        0.0000000000000000     
  -6.0937500000000009        4.5312500000000000        0.0000000000000000     
  -6.0156250000000000        4.5312500000000000        0.0000000000000000     
  -5.9375000000000009        4.5312500000000000        0.0000000000000000     
  -5.8593750000000000        4.5312500000000000        0.0000000000000000     
  -5.7812500000000000        4.5312500000000000        0.0000000000000000     
  -5.7031250000000009        4.5312500000000000        0.0000000000000000     
  -5.6250000000000000        4.5312500000000000        0.0000000000000000     
  -6.2500000000000009        4.6093750000000009        0.0000000000000000     
  -6.1718750000000009        4.6093750000000000        0.0000000000000000     
  -6.0937500000000018        4.6093750000000000        0.0000000000000000     
  -6.0156250000000018        4.6093750000000009        0.0000000000000000     
  -5.9375000000000000        4.6093750000000009        0.0000000000000000     
  -5.8593750000000009        4.6093750000000009        0.0000000000000000     
  -5.7812500000000009        4.6093750000000018        0.0000000000000000     
  -5.7031250000000000        4.6093750000000000        0.0000000000000000     
  -5.6250000000000018        4.6093750000000009        0.0000000000000000     
  -6.2500000000000018        4.6875000000000009        0.0000000000000000     
  -6.1718750000000009        4.6875000000000009        0.0000000000000000     
  -6.0937500000000000        4.6875000000000000        0.0000000000000000     
  -6.0156250000000009        4.6874999999999991        0.0000000000000000     
  -5.9375000000000009        4.6875000000000000        0.0000000000000000     
  -5.8593750000000009        4.6875000000000000        0.0000000000000000     
  -5.7812500000000009        4.6874999999999982        0.0000000000000000     
  -5.7031250000000018        4.6875000000000009        0.0000000000000000     
  -5.6250000000000000        4.6874999999999991        0.0000000000000000     
  -6.2500000000000009        4.7656250000000009        0.0000000000000000     
  -6.1718750000000000        4.7656250000000000        0.0000000000000000     
  -6.0937500000000000        4.7656250000000000        0.0000000000000000     
  -6.0156250000000009        4.7656250000000000        0.0000000000000000     
  -5.9375000000000000        4.7656250000000000        0.0000000000000000     
  -5.8593750000000000        4.7656250000000000        0.0000000000000000     
  -5.7812500000000000        4.7656250000000000        0.0000000000000000     
  -5.7031250000000000        4.7656249999999991        0.0000000000000000     
  -5.6250000000000000        4.7656250000000000        0.0000000000000000     
  -6.2500000000000000        4.8437500000000018        0.0000000000000000     
  -6.1718750000000009        4.8437500000000009        0.0000000000000000     
  -6.0937500000000009        4.8437500000000000        0.0000000000000000     
  -6.0156250000000009        4.8437500000000027        0.0000000000000000     
  -5.9375000000000000        4.8437500000000009        0.0000000000000000     
  -5.8593750000000009        4.8437500000000000        0.0000000000000000     
  -5.7812500000000000        4.8437500000000018        0.0000000000000000     
  -5.7031250000000000        4.8437500000000000        0.0000000000000000     
  -5.6250000000000009        4.8437500000000000        0.0000000000000000     
  -6.2500000000000000        4.9218749999999982        0.0000000000000000     
  -6.1718750000000009        4.9218750000000000        0.0000000000000000     
  -6.0937500000000018        4.9218750000000009        0.0000000000000000     
  -6.0156250000000009        4.9218749999999991        0.0000000000000000     
  -5.9375000000000000        4.9218749999999991        0.0000000000000000     
  -5.8593750000000000        4.9218750000000000        0.0000000000000000     
  -5.7812500000000009        4.9218749999999991        0.0000000000000000     
  -5.7031250000000000        4.9218750000000000        0.0000000000000000     
  -5.6250000000000000        4.9218750000000000        0.0000000000000000     
  -6.2500000000000000        5.0000000000000018        0.0000000000000000     
  -6.1718750000000000        5.0000000000000000        0.0000000000000000     
  -6.0937500000000000        5.0000000000000000        0.0000000000000000     
  -6.0156250000000009        5.0000000000000009        0.0000000000000000     
  -5.9375000000000000        5.0000000000000000        0.0000000000000000     
  -5.8593750000000000        5.0000000000000009        0.0000000000000000     
  -5.7812500000000000        5.0000000000000009        0.0000000000000000     
  -5.7031250000000009        5.0000000000000000        0.0000000000000000     
  -5.6250000000000009        5.0000000000000000        0.0000000000000000     
  -5.6250000000000000        4.3750000000000000        0.0000000000000000     
  -5.5468750000000018        4.3750000000000000        0.0000000000000000     
  -5.4687500000000009        4.3750000000000000        0.0000000000000000     
  -5.3906250000000009        4.3750000000000000        0.0000000000000000     
  -5.3124999999999991        4.3749999999999991        0.0000000000000000     
  -5.2343750000000000        4.3750000000000000        0.0000000000000000     
  -5.1562500000000009        4.3750000000000000        0.0000000000000000     
  -5.0781250000000018        4.3750000000000009        0.0000000000000000     
  -5.0000000000000000        4.3750000000000000        0.0000000000000000     
  -5.6250000000000000        4.4531250000000000        0.0000000000000000     
  -5.5468750000000009        4.4531250000000009        0.0000000000000000     
  -5.4687500000000009        4.4531250000000000        0.0000000000000000     
  -5.3906250000000000        4.4531250000000000        0.0000000000000000     
  -5.3125000000000018        4.4531250000000009        0.0000000000000000     
  -5.2343750000000009        4.4531250000000000        0.0000000000000000     
  -5.1562500000000000        4.4531250000000000        0.0000000000000000     
  -5.0781250000000009        4.4531250000000000        0.0000000000000000     
  -5.0000000000000009        4.4531250000000000        0.0000000000000000     
  -5.6250000000000000        4.5312500000000000        0.0000000000000000     
  -5.5468750000000009        4.5312500000000000        0.0000000000000000     
  -5.4687500000000009        4.5312500000000000        0.0000000000000000     
  -5.3906250000000009        4.5312500000000000        0.0000000000000000     
  -5.3125000000000009        4.5312500000000000        0.0000000000000000     
  -5.2343750000000009        4.5312500000000000        0.0000000000000000     
  -5.1562500000000009        4.5312500000000000        0.0000000000000000     
  -5.0781250000000000        4.5312500000000000        0.0000000000000000     
  -5.0000000000000000        4.5312500000000000        0.0000000000000000     
  -5.6250000000000018        4.6093750000000009        0.0000000000000000     
  -5.5468750000000009        4.6093750000000000        0.0000000000000000     
  -5.4687500000000009        4.6093750000000009        0.0000000000000000     
  -5.3906250000000009        4.6093750000000009        0.0000000000000000     
  -5.3125000000000018        4.6093750000000000        0.0000000000000000     
  -5.2343750000000009        4.6093750000000000        0.0000000000000000     
  -5.1562500000000018        4.6093750000000000        0.0000000000000000     
  -5.0781250000000009        4.6093750000000009        0.0000000000000000     
  -5.0000000000000000        4.6093750000000009        0.0000000000000000     
  -5.6250000000000000        4.6874999999999991        0.0000000000000000     
  -5.5468750000000018        4.6875000000000009        0.0000000000000000     
  -5.4687500000000018        4.6875000000000000        0.0000000000000000     
  -5.3906250000000009        4.6875000000000000        0.0000000000000000     
  -5.3125000000000018        4.6875000000000009        0.0000000000000000     
  -5.2343750000000000        4.6874999999999991        0.0000000000000000     
  -5.1562500000000009        4.6875000000000000        0.0000000000000000     
  -5.0781250000000009        4.6875000000000000        0.0000000000000000     
  -5.0000000000000009        4.6875000000000000        0.0000000000000000     
  -5.6250000000000000        4.7656250000000000        0.0000000000000000     
  -5.5468750000000009        4.7656250000000000        0.0000000000000000     
  -5.4687500000000000        4.7656249999999991        0.0000000000000000     
  -5.3906250000000009        4.7656250000000000        0.0000000000000000     
  -5.3125000000000000        4.7656250000000000        0.0000000000000000     
  -5.2343750000000009        4.7656250000000000        0.0000000000000000     
  -5.1562500000000000        4.7656249999999991        0.0000000000000000     
  -5.0781250000000000        4.7656250000000000        0.0000000000000000     
  -5.0000000000000000        4.7656250000000000        0.0000000000000000     
  -5.6250000000000009        4.8437500000000000        0.0000000000000000     
  -5.5468750000000000        4.8437500000000009        0.0000000000000000     
  -5.4687500000000000        4.8437499999999991        0.0000000000000000     
  -5.3906250000000009        4.8437500000000000        0.0000000000000000     
  -5.3125000000000000        4.8437500000000009        0.0000000000000000     
  -5.2343750000000000        4.8437499999999991        0.0000000000000000     
  -5.1562500000000000        4.8437499999999991        0.0000000000000000     
  -5.0781250000000000        4.8437500000000000        0.0000000000000000     
  -5.0000000000000000        4.8437499999999991        0.0000000000000000     
  -5.6250000000000000        4.9218750000000000        0.0000000000000000     
  -5.5468750000000009        4.9218749999999991        0.0000000000000000     
  -5.4687500000000000        4.9218750000000000        0.0000000000000000     
  -5.3906250000000000        4.9218750000000000        0.0000000000000000     
  -5.3125000000000009        4.9218750000000000        0.0000000000000000     
  -5.2343750000000000        4.9218750000000000        0.0000000000000000     
  -5.1562500000000000        4.9218750000000000        0.0000000000000000     
  -5.0781249999999991        4.9218749999999991        0.0000000000000000     
  -5.0000000000000000        4.9218750000000000        0.0000000000000000     
  -5.6250000000000009        5.0000000000000000        0.0000000000000000     
  -5.5468750000000018        5.0000000000000009        0.0000000000000000     
  -5.4687500000000000        5.0000000000000000        0.0000000000000000     
  -5.3906250000000009        5.0000000000000000        0.0000000000000000     
  -5.3125000000000000        5.0000000000000009        0.0000000000000000     
  -5.2343750000000009        5.0000000000000000        0.0000000000000000     
  -5.1562500000000009        5.0000000000000000        0.0000000000000000     
  -5.0781249999999991        5.0000000000000000        0.0000000000000000     
  -5.0000000000000000        5.0000000000000000        0.0000000000000000     
 </DataArray>
 </Points>
 <Cells>
 <DataArray  type="Int32"  Name="connectivity"  format="ascii">
           0           1          10           9
           1           2          11          10
           2           3          12          11
           3           4          13          12
           4           5          14          13
           5           6          15          14
           6           7          16          15
           7           8          17          16
           9          10          19          18
          10          11          20          19
          11          12          21          20
          12          13          22          21
          13          14          23          22
          14          15          24          23
          15          16          25          24
          16          17          26          25
          18          19          28          27
          19          20          29          28
          20          21          30          29
          21          22          31          30
          22          23          32          31
          23          24          33          32
          24          25          34          33
          25          26          35          34
          27          28          37          36
          28          29          38          37
          29          30          39          38
          30          31          40          39
          31          32          41          40
          32          33          42          41
          33          34          43          42
          34          35          44          43
          36          37          46          45
          37          38          47          46
          38          39          48          47
          39          40          49          48
          40          41          50          49
          41          42          51          50
          42          43          52          51
          43          44          53          52
          45          46          55          54
          46          47          56          55
          47          48          57          56
          48          49          58          57
          49          50          59          58
          50          51          60          59
          51          52          61          60
          52          53          62          61
          54          55          64          63
          55          56          65          64
          56          57          66          65
          57          58          67          66
          58          59          68          67
          59          60          69          68
          60          61          70          69
          61          62          71          70
          63          64          73          72
          64          65          74          73
          65          66          75          74
          66          67          76          75
          67          68          77          76
          68          69          78          77
          69          70          79          78
          70          71          80          79
          81          82          91          90
          82          83          92          91
          83          84          93          92
          84          85          94          93
          85          86          95          94
          86          87          96          95
          87          88          97          96
          88          89          98          97
          90          91         100          99
          91          92         101         100
          92          93         102         101
          93          94         103         102
          94          95         104         103
          95          96         105         104
          96          97         106         105
          97          98         107         106
          99         100         109         108
         100         101         110         109
         101         102         111         110
         102         103         112         111
         103         104         113         112
         104         105         114         113
         105         106         115         114
         106         107         116         115
         108         109         118         117
         109         110         119         118
         110         111         120         119
         111         112         121         120
         112         113         122         121
         113         114         123         122
         114         115         124         123
         115         116         125         124
         117         118         127         126
         118         119         128         127
         119         120         129         128
         120         121         130         129
         121         122         131         130
         122         123         132         131
         123         124         133         132
         124         125         134         133
         126         127         136         135
         127         128         137         136
         128         129         138         137
         129         130         139         138
         130         131         140         139
         131         132         141         140
         132         133         142         141
         133         134         143         142
         135         136         145         144
         136         137         146         145
         137         138         147         146
         138         139         148         147
         139         140         149         148
         140         141         150         149
         141         142         151         150
         142         143         152         151
         144         145         154         153
         145         146         155         154
         146         147         156         155
         147         148         157         156
         148         149         158         157
         149         150         159         158
         150         151         160         159
         151         152         161         160
         162         163         172         171
         163         164         173         172
         164         165         174         173
         165         166         175         174
         166         167         176         175
         167         168         177         176
         168         169         178         177
         169         170         179         178
         171         172         181         180
         172         173         182         181
         173         174         183         182
         174         175         184         183
         175         176         185         184
         176         177         186         185
         177         178         187         186
         178         179         188         187
         180         181         190         189
         181         182         191         190
         182         183         192         191
         183         184         193         192
         184         185         194         193
         185         186         195         194
         186         187         196         195
         187         188         197         196
         189         190         199         198
         190         191         200         199
         191         192         201         200
         192         193         202         201
         193         194         203         202
         194         195         204         203
         195         196         205         204
         196         197         206         205
         198         199         208         207
         199         200         209         208
         200         201         210         209
         201         202         211         210
         202         203         212         211
         203         204         213         212
         204         205         214         213
         205         206         215         214
         207         208         217         216
         208         209         218         217
         209         210         219         218
         210         211         220         219
         211         212         221         220
         212         213         222         221
         213         214         223         222
         214         215         224         223
         216         217         226         225
         217         218         227         226
         218         219         228         227
         219         220         229         228
         220         221         230         229
         221         222         231         230
         222         223         232         231
         223         224         233         232
         225         226         235         234
         226         227         236         235
         227         228         237         236
         228         229         238         237
         229         230         239         238
         230         231         240         239
         231         232         241         240
         232         233         242         241
         243         244         253         252
         244         245         254         253
         245         246         255         254
         246         247         256         255
         247         248         257         256
         248         249         258         257
         249         250         259         258
         250         251         260         259
         252         253         262         261
         253         254         263         262
         254         255         264         263
         255         256         265         264
         256         257         266         265
         257         258         267         266
         258         259         268         267
         259         260         269         268
         261         262         271         270
         262         263         272         271
         263         264         273         272
         264         265         274         273
         265         266         275         274
         266         267         276         275
         267         268         277         276
         268         269         278         277
         270         271         280         279
         271         272         281         280
         272         273         282         281
         273         274         283         282
         274         275         284         283
         275         276         285         284
         276         277         286         285
         277         278         287         286
         279         280         289         288
         280         281         290         289
         281         282         291         290
         282         283         292         291
         283         284         293         292
         284         285         294         293
         285         286         295         294
         286         287         296         295
         288         289         298         297
         289         290         299         298
         290         291         300         299
         291         292         301         300
         292         293         302         301
         293         294         303         302
         294         295         304         303
         295         296         305         304
         297         298         307         306
         298         299         308         307
         299         300         309         308
         300         301         310         309
         301         302         311         310
         302         303         312         311
         303         304         313         312
         304         305         314         313
         306         307         316         315
         307         308         317         316
         308         309         318         317
         309         310         319         318
         310         311         320         319
         311         312         321         320
         312         313         322         321
         313         314         323         322
         324         325         334         333
         325         326         335         334
         326         327         336         335
         327         328         337         336
         328         329         338         337
         329         330         339         338
         330         331         340         339
         331         332         341         340
         333         334         343         342
         334         335         344         343
         335         336         345         344
         336         337         346         345
         337         338         347         346
         338         339         348         347
         339         340         349         348
         340         341         350         349
         342         343         352         351
         343         344         353         352
         344         345         354         353
         345         346         355         354
         346         347         356         355
         347         348         357         356
         348         349         358         357
         349         350         359         358
         351         352         361         360
         352         353         362         361
         353         354         363         362
         354         355         364         363
         355         356         365         364
         356         357         366         365
         357         358         367         366
         358         359         368         367
         360         361         370         369
         361         362         371         370
         362         363         372         371
         363         364         373         372
         364         365         374         373
         365         366         375         374
         366         367         376         375
         367         368         377         376
         369         370         379         378
         370         371         380         379
         371         372         381         380
         372         373         382         381
         373         374         383         382
         374         375         384         383
         375         376         385         384
         376         377         386         385
         378         379         388         387
         379         380         389         388
         380         381         390         389
         381         382         391         390
         382         383         392         391
         383         384         393         392
         384         385         394         393
         385         386         395         394
         387         388         397         396
         388         389         398         397
         389         390         399         398
         390         391         400         399
         391         392         401         400
         392         393         402         401
         393         394         403         402
         394         395         404         403
         405         406         415         414
         406         407         416         415
         407         408         417         416
         408         409         418         417
         409         410         419         418
         410         411         420         419
         411         412         421         420
         412         413         422         421
         414         415         424         423
         415         416         425         424
         416         417         426         425
         417         418         427         426
         418         419         428         427
         419         420         429         428
         420         421         430         429
         421         422         431         430
         423         424         433         432
         424         425         434         433
         425         426         435         434
         426         427         436         435
         427         428         437         436
         428         429         438         437
         429         430         439         438
         430         431         440         439
         432         433         442         441
         433         434         443         442
         434         435         444         443
         435         436         445         444
         436         437         446         445
         437         438         447         446
         438         439         448         447
         439         440         449         448
         441         442         451         450
         442         443         452         451
         443         444         453         452
         444         445         454         453
         445         446         455         454
         446         447         456         455
         447         448         457         456
         448         449         458         457
         450         451         460         459
         451         452         461         460
         452         453         462         461
         453         454         463         462
         454         455         464         463
         455         456         465         464
         456         457         466         465
         457         458         467         466
         459         460         469         468
         460         461         470         469
         461         462         471         470
         462         463         472         471
         463         464         473         472
         464         465         474         473
         465         466         475         474
         466         467         476         475
         468         469         478         477
         469         470         479         478
         470         471         480         479
         471         472         481         480
         472         473         482         481
         473         474         483         482
         474         475         484         483
         475         476         485         484
         486         487         496         495
         487         488         497         496
         488         489         498         497
         489         490         499         498
         490         491         500         499
         491         492         501         500
         492         493         502         501
         493         494         503         502
         495         496         505         504
         496         497         506         505
         497         498         507         506
         498         499         508         507
         499         500         509         508
         500         501         510         509
         501         502         511         510
         502         503         512         511
         504         505         514         513
         505         506         515         514
         506         507         516         515
         507         508         517         516
         508         509         518         517
         509         510         519         518
         510         511         520         519
         511         512         521         520
         513         514         523         522
         514         515         524         523
         515         516         525         524
         516         517         526         525
         517         518         527         526
         518         519         528         527
         519         520         529         528
         520         521         530         529
         522         523         532         531
         523         524         533         532
         524         525         534         533
         525         526         535         534
         526         527         536         535
         527         528         537         536
         528         529         538         537
         529         530         539         538
         531         532         541         540
         532         533         542         541
         533         534         543         542
         534         535         544         543
         535         536         545         544
         536         537         546         545
         537         538         547         546
         538         539         548         547
         540         541         550         549
         541         542         551         550
         542         543         552         551
         543         544         553         552
         544         545         554         553
         545         546         555         554
         546         547         556         555
         547         548         557         556
         549         550         559         558
         550         551         560         559
         551         552         561         560
         552         553         562         561
         553         554         563         562
         554         555         564         563
         555         556         565         564
         556         557         566         565
         567         568         577         576
         568         569         578         577
         569         570         579         578
         570         571         580         579
         571         572         581         580
         572         573         582         581
         573         574         583         582
         574         575         584         583
         576         577         586         585
         577         578         587         586
         578         579         588         587
         579         580         589         588
         580         581         590         589
         581         582         591         590
         582         583         592         591
         583         584         593         592
         585         586         595         594
         586         587         596         595
         587         588         597         596
         588         589         598         597
         589         590         599         598
         590         591         600         599
         591         592         601         600
         592         593         602         601
         594         595         604         603
         595         596         605         604
         596         597         606         605
         597         598         607         606
         598         599         608         607
         599         600         609         608
         600         601         610         609
         601         602         611         610
         603         604         613         612
         604         605         614         613
         605         606         615         614
         606         607         616         615
         607         608         617         616
         608         609         618         617
         609         610         619         618
         610         611         620         619
         612         613         622         621
         613         614         623         622
         614         615         624         623
         615         616         625         624
         616         617         626         625
         617         618         627         626
         618         619         628         627
         619         620         629         628
         621         622         631         630
         622         623         632         631
         623         624         633         632
         624         625         634         633
         625         626         635         634
         626         627         636         635
         627         628         637         636
         628         629         638         637
         630         631         640         639
         631         632         641         640
         632         633         642         641
         633         634         643         642
         634         635         644         643
         635         636         645         644
         636         637         646         645
         637         638         647         646
         648         649         658         657
         649         650         659         658
         650         651         660         659
         651         652         661         660
         652         653         662         661
         653         654         663         662
         654         655         664         663
         655         656         665         664
         657         658         667         666
         658         659         668         667
         659         660         669         668
         660         661         670         669
         661         662         671         670
         662         663         672         671
         663         664         673         672
         664         665         674         673
         666         667         676         675
         667         668         677         676
         668         669         678         677
         669         670         679         678
         670         671         680         679
         671         672         681         680
         672         673         682         681
         673         674         683         682
         675         676         685         684
         676         677         686         685
         677         678         687         686
         678         679         688         687
         679         680         689         688
         680         681         690         689
         681         682         691         690
         682         683         692         691
         684         685         694         693
         685         686         695         694
         686         687         696         695
         687         688         697         696
         688         689         698         697
         689         690         699         698
         690         691         700         699
         691         692         701         700
         693         694         703         702
         694         695         704         703
         695         696         705         704
         696         697         706         705
         697         698         707         706
         698         699         708         707
         699         700         709         708
         700         701         710         709
         702         703         712         711
         703         704         713         712
         704         705         714         713
         705         706         715         714
         706         707         716         715
         707         708         717         716
         708         709         718         717
         709         710         719         718
         711         712         721         720
         712         713         722         721
         713         714         723         722
         714         715         724         723
         715         716         725         724
         716         717         726         725
         717         718         727         726
         718         719         728         727
         729         730         739         738
         730         731         740         739
         731         732         741         740
         732         733         742         741
         733         734         743         742
         734         735         744         743
         735         736         745         744
         736         737         746         745
         738         739         748         747
         739         740         749         748
         740         741         750         749
         741         742         751         750
         742         743         752         751
         743         744         753         752
         744         745         754         753
         745         746         755         754
         747         748         757         756
         748         749         758         757
         749         750         759         758
         750         751         760         759
         751         752         761         760
         752         753         762         761
         753         754         763         762
         754         755         764         763
         756         757         766         765
         757         758         767         766
         758         759         768         767
         759         760         769         768
         760         761         770         769
         761         762         771         770
         762         763         772         771
         763         764         773         772
         765         766         775         774
         766         767         776         775
         767         768         777         776
         768         769         778         777
         769         770         779         778
         770         771         780         779
         771         772         781         780
         772         773         782         781
         774         775         784         783
         775         776         785         784
         776         777         786         785
         777         778         787         786
         778         779         788         787
         779         780         789         788
         780         781         790         789
         781         782         791         790
         783         784         793         792
         784         785         794         793
         785         786         795         794
         786         787         796         795
         787         788         797         796
         788         789         798         797
         789         790         799         798
         790         791         800         799
         792         793         802         801
         793         794         803         802
         794         795         804         803
         795         796         805         804
         796         797         806         805
         797         798         807         806
         798         799         808         807
         799         800         809         808
         810         811         820         819
         811         812         821         820
         812         813         822         821
         813         814         823         822
         814         815         824         823
         815         816         825         824
         816         817         826         825
         817         818         827         826
         819         820         829         828
         820         821         830         829
         821         822         831         830
         822         823         832         831
         823         824         833         832
         824         825         834         833
         825         826         835         834
         826         827         836         835
         828         829         838         837
         829         830         839         838
         830         831         840         839
         831         832         841         840
         832         833         842         841
         833         834         843         842
         834         835         844         843
         835         836         845         844
         837         838         847         846
         838         839         848         847
         839         840         849         848
         840         841         850         849
         841         842         851         850
         842         843         852         851
         843         844         853         852
         844         845         854         853
         846         847         856         855
         847         848         857         856
         848         849         858         857
         849         850         859         858
         850         851         860         859
         851         852         861         860
         852         853         862         861
         853         854         863         862
         855         856         865         864
         856         857         866         865
         857         858         867         866
         858         859         868         867
         859         860         869         868
         860         861         870         869
         861         862         871         870
         862         863         872         871
         864         865         874         873
         865         866         875         874
         866         867         876         875
         867         868         877         876
         868         869         878         877
         869         870         879         878
         870         871         880         879
         871         872         881         880
         873         874         883         882
         874         875         884         883
         875         876         885         884
         876         877         886         885
         877         878         887         886
         878         879         888         887
         879         880         889         888
         880         881         890         889
         891         892         901         900
         892         893         902         901
         893         894         903         902
         894         895         904         903
         895         896         905         904
         896         897         906         905
         897         898         907         906
         898         899         908         907
         900         901         910         909
         901         902         911         910
         902         903         912         911
         903         904         913         912
         904         905         914         913
         905         906         915         914
         906         907         916         915
         907         908         917         916
         909         910         919         918
         910         911         920         919
         911         912         921         920
         912         913         922         921
         913         914         923         922
         914         915         924         923
         915         916         925         924
         916         917         926         925
         918         919         928         927
         919         920         929         928
         920         921         930         929
         921         922         931         930
         922         923         932         931
         923         924         933         932
         924         925         934         933
         925         926         935         934
         927         928         937         936
         928         929         938         937
         929         930         939         938
         930         931         940         939
         931         932         941         940
         932         933         942         941
         933         934         943         942
         934         935         944         943
         936         937         946         945
         937         938         947         946
         938         939         948         947
         939         940         949         948
         940         941         950         949
         941         942         951         950
         942         943         952         951
         943         944         953         952
         945         946         955         954
         946         947         956         955
         947         948         957         956
         948         949         958         957
         949         950         959         958
         950         951         960         959
         951         952         961         960
         952         953         962         961
         954         955         964         963
         955         956         965         964
         956         957         966         965
         957         958         967         966
         958         959         968         967
         959         960         969         968
         960         961         970         969
         961         962         971         970
         972         973         982         981
         973         974         983         982
         974         975         984         983
         975         976         985         984
         976         977         986         985
         977         978         987         986
         978         979         988         987
         979         980         989         988
         981         982         991         990
         982         983         992         991
         983         984         993         992
         984         985         994         993
         985         986         995         994
         986         987         996         995
         987         988         997         996
         988         989         998         997
         990         991        1000         999
         991         992        1001        1000
         992         993        1002        1001
         993         994        1003        1002
         994         995        1004        1003
         995         996        1005        1004
         996         997        1006        1005
         997         998        1007        1006
         999        1000        1009        1008
        1000        1001        1010        1009
        1001        1002        1011        1010
        1002        1003        1012        1011
        1003        1004        1013        1012
        1004        1005        1014        1013
        1005        1006        1015        1014
        1006        1007        1016        1015
        1008        1009        1018        1017
        1009        1010        1019        1018
        1010        1011        1020        1019
        1011        1012        1021        1020
        1012        1013        1022        1021
        1013        1014        1023        1022
        1014        1015        1024        1023
        1015        1016        1025        1024
        1017        1018        1027        1026
        1018        1019        1028        1027
        1019        1020        1029        1028
        1020        1021        1030        1029
        1021        1022        1031        1030
        1022        1023        1032        1031
        1023        1024        1033        1032
        1024        1025        1034        1033
        1026        1027        1036        1035
        1027        1028        1037        1036
        1028        1029        1038        1037
        1029        1030        1039        1038
        1030        1031        1040        1039
        1031        1032        1041        1040
        1032        1033        1042        1041
        1033        1034        1043        1042
        1035        1036        1045        1044
        1036        1037        1046        1045
        1037        1038        1047        1046
        1038        1039        1048        1047
        1039        1040        1049        1048
        1040        1041        1050        1049
        1041        1042        1051        1050
        1042        1043        1052        1051
        1053        1054        1063        1062
        1054        1055        1064        1063
        1055        1056        1065        1064
        1056        1057        1066        1065
        1057        1058        1067        1066
        1058        1059        1068        1067
        1059        1060        1069        1068
        1060        1061        1070        1069
        1062        1063        1072        1071
        1063        1064        1073        1072
        1064        1065        1074        1073
        1065        1066        1075        1074
        1066        1067        1076        1075
        1067        1068        1077        1076
        1068        1069        1078        1077
        1069        1070        1079        1078
        1071        1072        1081        1080
        1072        1073        1082        1081
        1073        1074        1083        1082
        1074        1075        1084        1083
        1075        1076        1085        1084
        1076        1077        1086        1085
        1077        1078        1087        1086
        1078        1079        1088        1087
        1080        1081        1090        1089
        1081        1082        1091        1090
        1082        1083        1092        1091
        1083        1084        1093        1092
        1084        1085        1094        1093
        1085        1086        1095        1094
        1086        1087        1096        1095
        1087        1088        1097        1096
        1089        1090        1099        1098
        1090        1091        1100        1099
        1091        1092        1101        1100
        1092        1093        1102        1101
        1093        1094        1103        1102
        1094        1095        1104        1103
        1095        1096        1105        1104
        1096        1097        1106        1105
        1098        1099        1108        1107
        1099        1100        1109        1108
        1100        1101        1110        1109
        1101        1102        1111        1110
        1102        1103        1112        1111
        1103        1104        1113        1112
        1104        1105        1114        1113
        1105        1106        1115        1114
        1107        1108        1117        1116
        1108        1109        1118        1117
        1109        1110        1119        1118
        1110        1111        1120        1119
        1111        1112        1121        1120
        1112        1113        1122        1121
        1113        1114        1123        1122
        1114        1115        1124        1123
        1116        1117        1126        1125
        1117        1118        1127        1126
        1118        1119        1128        1127
        1119        1120        1129        1128
        1120        1121        1130        1129
        1121        1122        1131        1130
        1122        1123        1132        1131
        1123        1124        1133        1132
        1134        1135        1144        1143
        1135        1136        1145        1144
        1136        1137        1146        1145
        1137        1138        1147        1146
        1138        1139        1148        1147
        1139        1140        1149        1148
        1140        1141        1150        1149
        1141        1142        1151        1150
        1143        1144        1153        1152
        1144        1145        1154        1153
        1145        1146        1155        1154
        1146        1147        1156        1155
        1147        1148        1157        1156
        1148        1149        1158        1157
        1149        1150        1159        1158
        1150        1151        1160        1159
        1152        1153        1162        1161
        1153        1154        1163        1162
        1154        1155        1164        1163
        1155        1156        1165        1164
        1156        1157        1166        1165
        1157        1158        1167        1166
        1158        1159        1168        1167
        1159        1160        1169        1168
        1161        1162        1171        1170
        1162        1163        1172        1171
        1163        1164        1173        1172
        1164        1165        1174        1173
        1165        1166        1175        1174
        1166        1167        1176        1175
        1167        1168        1177        1176
        1168        1169        1178        1177
        1170        1171        1180        1179
        1171        1172        1181        1180
        1172        1173        1182        1181
        1173        1174        1183        1182
        1174        1175        1184        1183
        1175        1176        1185        1184
        1176        1177        1186        1185
        1177        1178        1187        1186
        1179        1180        1189        1188
        1180        1181        1190        1189
        1181        1182        1191        1190
        1182        1183        1192        1191
        1183        1184        1193        1192
        1184        1185        1194        1193
        1185        1186        1195        1194
        1186        1187        1196        1195
        1188        1189        1198        1197
        1189        1190        1199        1198
        1190        1191        1200        1199
        1191        1192        1201        1200
        1192        1193        1202        1201
        1193        1194        1203        1202
        1194        1195        1204        1203
        1195        1196        1205        1204
        1197        1198        1207        1206
        1198        1199        1208        1207
        1199        1200        1209        1208
        1200        1201        1210        1209
        1201        1202        1211        1210
        1202        1203        1212        1211
        1203        1204        1213        1212
        1204        1205        1214        1213
        1215        1216        1225        1224
        1216        1217        1226        1225
        1217        1218        1227        1226
        1218        1219        1228        1227
        1219        1220        1229        1228
        1220        1221        1230        1229
        1221        1222        1231        1230
        1222        1223        1232        1231
        1224        1225        1234        1233
        1225        1226        1235        1234
        1226        1227        1236        1235
        1227        1228        1237        1236
        1228        1229        1238        1237
        1229        1230        1239        1238
        1230        1231        1240        1239
        1231        1232        1241        1240
        1233        1234        1243        1242
        1234        1235        1244        1243
        1235        1236        1245        1244
        1236        1237        1246        1245
        1237        1238        1247        1246
        1238        1239        1248        1247
        1239        1240        1249        1248
        1240        1241        1250        1249
        1242        1243        1252        1251
        1243        1244        1253        1252
        1244        1245        1254        1253
        1245        1246        1255        1254
        1246        1247        1256        1255
        1247        1248        1257        1256
        1248        1249        1258        1257
        1249        1250        1259        1258
        1251        1252        1261        1260
        1252        1253        1262        1261
        1253        1254        1263        1262
        1254        1255        1264        1263
        1255        1256        1265        1264
        1256        1257        1266        1265
        1257        1258        1267        1266
        1258        1259        1268        1267
        1260        1261        1270        1269
        1261        1262        1271        1270
        1262        1263        1272        1271
        1263        1264        1273        1272
        1264        1265        1274        1273
        1265        1266        1275        1274
        1266        1267        1276        1275
        1267        1268        1277        1276
        1269        1270        1279        1278
        1270        1271        1280        1279
        1271        1272        1281        1280
        1272        1273        1282        1281
        1273        1274        1283        1282
        1274        1275        1284        1283
        1275        1276        1285        1284
        1276        1277        1286        1285
        1278        1279        1288        1287
        1279        1280        1289        1288
        1280        1281        1290        1289
        1281        1282        1291        1290
        1282        1283        1292        1291
        1283        1284        1293        1292
        1284        1285        1294        1293
        1285        1286        1295        1294
        1296        1297        1306        1305
        1297        1298        1307        1306
        1298        1299        1308        1307
        1299        1300        1309        1308
        1300        1301        1310        1309
        1301        1302        1311        1310
        1302        1303        1312        1311
        1303        1304        1313        1312
        1305        1306        1315        1314
        1306        1307        1316        1315
        1307        1308        1317        1316
        1308        1309        1318        1317
        1309        1310        1319        1318
        1310        1311        1320        1319
        1311        1312        1321        1320
        1312        1313        1322        1321
        1314        1315        1324        1323
        1315        1316        1325        1324
        1316        1317        1326        1325
        1317        1318        1327        1326
        1318        1319        1328        1327
        1319        1320        1329        1328
        1320        1321        1330        1329
        1321        1322        1331        1330
        1323        1324        1333        1332
        1324        1325        1334        1333
        1325        1326        1335        1334
        1326        1327        1336        1335
        1327        1328        1337        1336
        1328        1329        1338        1337
        1329        1330        1339        1338
        1330        1331        1340        1339
        1332        1333        1342        1341
        1333        1334        1343        1342
        1334        1335        1344        1343
        1335        1336        1345        1344
        1336        1337        1346        1345
        1337        1338        1347        1346
        1338        1339        1348        1347
        1339        1340        1349        1348
        1341        1342        1351        1350
        1342        1343        1352        1351
        1343        1344        1353        1352
        1344        1345        1354        1353
        1345        1346        1355        1354
        1346        1347        1356        1355
        1347        1348        1357        1356
        1348        1349        1358        1357
        1350        1351        1360        1359
        1351        1352        1361        1360
        1352        1353        1362        1361
        1353        1354        1363        1362
        1354        1355        1364        1363
        1355        1356        1365        1364
        1356        1357        1366        1365
        1357        1358        1367        1366
        1359        1360        1369        1368
        1360        1361        1370        1369
        1361        1362        1371        1370
        1362        1363        1372        1371
        1363        1364        1373        1372
        1364        1365        1374        1373
        1365        1366        1375        1374
        1366        1367        1376        1375
        1377        1378        1387        1386
        1378        1379        1388        1387
        1379        1380        1389        1388
        1380        1381        1390        1389
        1381        1382        1391        1390
        1382        1383        1392        1391
        1383        1384        1393        1392
        1384        1385        1394        1393
        1386        1387        1396        1395
        1387        1388        1397        1396
        1388        1389        1398        1397
        1389        1390        1399        1398
        1390        1391        1400        1399
        1391        1392        1401        1400
        1392        1393        1402        1401
        1393        1394        1403        1402
        1395        1396        1405        1404
        1396        1397        1406        1405
        1397        1398        1407        1406
        1398        1399        1408        1407
        1399        1400        1409        1408
        1400        1401        1410        1409
        1401        1402        1411        1410
        1402        1403        1412        1411
        1404        1405        1414        1413
        1405        1406        1415        1414
        1406        1407        1416        1415
        1407        1408        1417        1416
        1408        1409        1418        1417
        1409        1410        1419        1418
        1410        1411        1420        1419
        1411        1412        1421        1420
        1413        1414        1423        1422
        1414        1415        1424        1423
        1415        1416        1425        1424
        1416        1417        1426        1425
        1417        1418        1427        1426
        1418        1419        1428        1427
        1419        1420        1429        1428
        1420        1421        1430        1429
        1422        1423        1432        1431
        1423        1424        1433        1432
        1424        1425        1434        1433
        1425        1426        1435        1434
        1426        1427        1436        1435
        1427        1428        1437        1436
        1428        1429        1438        1437
        1429        1430        1439        1438
        1431        1432        1441        1440
        1432        1433        1442        1441
        1433        1434        1443        1442
        1434        1435        1444        1443
        1435        1436        1445        1444
        1436        1437        1446        1445
        1437        1438        1447        1446
        1438        1439        1448        1447
        1440        1441        1450        1449
        1441        1442        1451        1450
        1442        1443        1452        1451
        1443        1444        1453        1452
        1444        1445        1454        1453
        1445        1446        1455        1454
        1446        1447        1456        1455
        1447        1448        1457        1456
        1458        1459        1468        1467
        1459        1460        1469        1468
        1460        1461        1470        1469
        1461        1462        1471        1470
        1462        1463        1472        1471
        1463        1464        1473        1472
        1464        1465        1474        1473
        1465        1466        1475        1474
        1467        1468        1477        1476
        1468        1469        1478        1477
        1469        1470        1479        1478
        1470        1471        1480        1479
        1471        1472        1481        1480
        1472        1473        1482        1481
        1473        1474        1483        1482
        1474        1475        1484        1483
        1476        1477        1486        1485
        1477        1478        1487        1486
        1478        1479        1488        1487
        1479        1480        1489        1488
        1480        1481        1490        1489
        1481        1482        1491        1490
        1482        1483        1492        1491
        1483        1484        1493        1492
        1485        1486        1495        1494
        1486        1487        1496        1495
        1487        1488        1497        1496
        1488        1489        1498        1497
        1489        1490        1499        1498
        1490        1491        1500        1499
        1491        1492        1501        1500
        1492        1493        1502        1501
        1494        1495        1504        1503
        1495        1496        1505        1504
        1496        1497        1506        1505
        1497        1498        1507        1506
        1498        1499        1508        1507
        1499        1500        1509        1508
        1500        1501        1510        1509
        1501        1502        1511        1510
        1503        1504        1513        1512
        1504        1505        1514        1513
        1505        1506        1515        1514
        1506        1507        1516        1515
        1507        1508        1517        1516
        1508        1509        1518        1517
        1509        1510        1519        1518
        1510        1511        1520        1519
        1512        1513        1522        1521
        1513        1514        1523        1522
        1514        1515        1524        1523
        1515        1516        1525        1524
        1516        1517        1526        1525
        1517        1518        1527        1526
        1518        1519        1528        1527
        1519        1520        1529        1528
        1521        1522        1531        1530
        1522        1523        1532        1531
        1523        1524        1533        1532
        1524        1525        1534        1533
        1525        1526        1535        1534
        1526        1527        1536        1535
        1527        1528        1537        1536
        1528        1529        1538        1537
        1539        1540        1549        1548
        1540        1541        1550        1549
        1541        1542        1551        1550
        1542        1543        1552        1551
        1543        1544        1553        1552
        1544        1545        1554        1553
        1545        1546        1555        1554
        1546        1547        1556        1555
        1548        1549        1558        1557
        1549        1550        1559        1558
        1550        1551        1560        1559
        1551        1552        1561        1560
        1552        1553        1562        1561
        1553        1554        1563        1562
        1554        1555        1564        1563
        1555        1556        1565        1564
        1557        1558        1567        1566
        1558        1559        1568        1567
        1559        1560        1569        1568
        1560        1561        1570        1569
        1561        1562        1571        1570
        1562        1563        1572        1571
        1563        1564        1573        1572
        1564        1565        1574        1573
        1566        1567        1576        1575
        1567        1568        1577        1576
        1568        1569        1578        1577
        1569        1570        1579        1578
        1570        1571        1580        1579
        1571        1572        1581        1580
        1572        1573        1582        1581
        1573        1574        1583        1582
        1575        1576        1585        1584
        1576        1577        1586        1585
        1577        1578        1587        1586
        1578        1579        1588        1587
        1579        1580        1589        1588
        1580        1581        1590        1589
        1581        1582        1591        1590
        1582        1583        1592        1591
        1584        1585        1594        1593
        1585        1586        1595        1594
        1586        1587        1596        1595
        1587        1588        1597        1596
        1588        1589        1598        1597
        1589        1590        1599        1598
        1590        1591        1600        1599
        1591        1592        1601        1600
        1593        1594        1603        1602
        1594        1595        1604        1603
        1595        1596        1605        1604
        1596        1597        1606        1605
        1597        1598        1607        1606
        1598        1599        1608        1607
        1599        1600        1609        1608
        1600        1601        1610        1609
        1602        1603        1612        1611
        1603        1604        1613        1612
        1604        1605        1614        1613
        1605        1606        1615        1614
        1606        1607        1616        1615
        1607        1608        1617        1616
        1608        1609        1618        1617
        1609        1610        1619        1618
        1620        1621        1630        1629
        1621        1622        1631        1630
        1622        1623        1632        1631
        1623        1624        1633        1632
        1624        1625        1634        1633
        1625        1626        1635        1634
        1626        1627        1636        1635
        1627        1628        1637        1636
        1629        1630        1639        1638
        1630        1631        1640        1639
        1631        1632        1641        1640
        1632        1633        1642        1641
        1633        1634        1643        1642
        1634        1635        1644        1643
        1635        1636        1645        1644
        1636        1637        1646        1645
        1638        1639        1648        1647
        1639        1640        1649        1648
        1640        1641        1650        1649
        1641        1642        1651        1650
        1642        1643        1652        1651
        1643        1644        1653        1652
        1644        1645        1654        1653
        1645        1646        1655        1654
        1647        1648        1657        1656
        1648        1649        1658        1657
        1649        1650        1659        1658
        1650        1651        1660        1659
        1651        1652        1661        1660
        1652        1653        1662        1661
        1653        1654        1663        1662
        1654        1655        1664        1663
        1656        1657        1666        1665
        1657        1658        1667        1666
        1658        1659        1668        1667
        1659        1660        1669        1668
        1660        1661        1670        1669
        1661        1662        1671        1670
        1662        1663        1672        1671
        1663        1664        1673        1672
        1665        1666        1675        1674
        1666        1667        1676        1675
        1667        1668        1677        1676
        1668        1669        1678        1677
        1669        1670        1679        1678
        1670        1671        1680        1679
        1671        1672        1681        1680
        1672        1673        1682        1681
        1674        1675        1684        1683
        1675        1676        1685        1684
        1676        1677        1686        1685
        1677        1678        1687        1686
        1678        1679        1688        1687
        1679        1680        1689        1688
        1680        1681        1690        1689
        1681        1682        1691        1690
        1683        1684        1693        1692
        1684        1685        1694        1693
        1685        1686        1695        1694
        1686        1687        1696        1695
        1687        1688        1697        1696
        1688        1689        1698        1697
        1689        1690        1699        1698
        1690        1691        1700        1699
        1701        1702        1711        1710
        1702        1703        1712        1711
        1703        1704        1713        1712
        1704        1705        1714        1713
        1705        1706        1715        1714
        1706        1707        1716        1715
        1707        1708        1717        1716
        1708        1709        1718        1717
        1710        1711        1720        1719
        1711        1712        1721        1720
        1712        1713        1722        1721
        1713        1714        1723        1722
        1714        1715        1724        1723
        1715        1716        1725        1724
        1716        1717        1726        1725
        1717        1718        1727        1726
        1719        1720        1729        1728
        1720        1721        1730        1729
        1721        1722        1731        1730
        1722        1723        1732        1731
        1723        1724        1733        1732
        1724        1725        1734        1733
        1725        1726        1735        1734
        1726        1727        1736        1735
        1728        1729        1738        1737
        1729        1730        1739        1738
        1730        1731        1740        1739
        1731        1732        1741        1740
        1732        1733        1742        1741
        1733        1734        1743        1742
        1734        1735        1744        1743
        1735        1736        1745        1744
        1737        1738        1747        1746
        1738        1739        1748        1747
        1739        1740        1749        1748
        1740        1741        1750        1749
        1741        1742        1751        1750
        1742        1743        1752        1751
        1743        1744        1753        1752
        1744        1745        1754        1753
        1746        1747        1756        1755
        1747        1748        1757        1756
        1748        1749        1758        1757
        1749        1750        1759        1758
        1750        1751        1760        1759
        1751        1752        1761        1760
        1752        1753        1762        1761
        1753        1754        1763        1762
        1755        1756        1765        1764
        1756        1757        1766        1765
        1757        1758        1767        1766
        1758        1759        1768        1767
        1759        1760        1769        1768
        1760        1761        1770        1769
        1761        1762        1771        1770
        1762        1763        1772        1771
        1764        1765        1774        1773
        1765        1766        1775        1774
        1766        1767        1776        1775
        1767        1768        1777        1776
        1768        1769        1778        1777
        1769        1770        1779        1778
        1770        1771        1780        1779
        1771        1772        1781        1780
        1782        1783        1792        1791
        1783        1784        1793        1792
        1784        1785        1794        1793
        1785        1786        1795        1794
        1786        1787        1796        1795
        1787        1788        1797        1796
        1788        1789        1798        1797
        1789        1790        1799        1798
        1791        1792        1801        1800
        1792        1793        1802        1801
        1793        1794        1803        1802
        1794        1795        1804        1803
        1795        1796        1805        1804
        1796        1797        1806        1805
        1797        1798        1807        1806
        1798        1799        1808        1807
        1800        1801        1810        1809
        1801        1802        1811        1810
        1802        1803        1812        1811
        1803        1804        1813        1812
        1804        1805        1814        1813
        1805        1806        1815        1814
        1806        1807        1816        1815
        1807        1808        1817        1816
        1809        1810        1819        1818
        1810        1811        1820        1819
        1811        1812        1821        1820
        1812        1813        1822        1821
        1813        1814        1823        1822
        1814        1815        1824        1823
        1815        1816        1825        1824
        1816        1817        1826        1825
        1818        1819        1828        1827
        1819        1820        1829        1828
        1820        1821        1830        1829
        1821        1822        1831        1830
        1822        1823        1832        1831
        1823        1824        1833        1832
        1824        1825        1834        1833
        1825        1826        1835        1834
        1827        1828        1837        1836
        1828        1829        1838        1837
        1829        1830        1839        1838
        1830        1831        1840        1839
        1831        1832        1841        1840
        1832        1833        1842        1841
        1833        1834        1843        1842
        1834        1835        1844        1843
        1836        1837        1846        1845
        1837        1838        1847        1846
        1838        1839        1848        1847
        1839        1840        1849        1848
        1840        1841        1850        1849
        1841        1842        1851        1850
        1842        1843        1852        1851
        1843        1844        1853        1852
        1845        1846        1855        1854
        1846        1847        1856        1855
        1847        1848        1857        1856
        1848        1849        1858        1857
        1849        1850        1859        1858
        1850        1851        1860        1859
        1851        1852        1861        1860
        1852        1853        1862        1861
        1863        1864        1873        1872
        1864        1865        1874        1873
        1865        1866        1875        1874
        1866        1867        1876        1875
        1867        1868        1877        1876
        1868        1869        1878        1877
        1869        1870        1879        1878
        1870        1871        1880        1879
        1872        1873        1882        1881
        1873        1874        1883        1882
        1874        1875        1884        1883
        1875        1876        1885        1884
        1876        1877        1886        1885
        1877        1878        1887        1886
        1878        1879        1888        1887
        1879        1880        1889        1888
        1881        1882        1891        1890
        1882        1883        1892        1891
        1883        1884        1893        1892
        1884        1885        1894        1893
        1885        1886        1895        1894
        1886        1887        1896        1895
        1887        1888        1897        1896
        1888        1889        1898        1897
        1890        1891        1900        1899
        1891        1892        1901        1900
        1892        1893        1902        1901
        1893        1894        1903        1902
        1894        1895        1904        1903
        1895        1896        1905        1904
        1896        1897        1906        1905
        1897        1898        1907        1906
        1899        1900        1909        1908
        1900        1901        1910        1909
        1901        1902        1911        1910
        1902        1903        1912        1911
        1903        1904        1913        1912
        1904        1905        1914        1913
        1905        1906        1915        1914
        1906        1907        1916        1915
        1908        1909        1918        1917
        1909        1910        1919        1918
        1910        1911        1920        1919
        1911        1912        1921        1920
        1912        1913        1922        1921
        1913        1914        1923        1922
        1914        1915        1924        1923
        1915        1916        1925        1924
        1917        1918        1927        1926
        1918        1919        1928        1927
        1919        1920        1929        1928
        1920        1921        1930        1929
        1921        1922        1931        1930
        1922        1923        1932        1931
        1923        1924        1933        1932
        1924        1925        1934        1933
        1926        1927        1936        1935
        1927        1928        1937        1936
        1928        1929        1938        1937
        1929        1930        1939        1938
        1930        1931        1940        1939
        1931        1932        1941        1940
        1932        1933        1942        1941
        1933        1934        1943        1942
        1944        1945        1954        1953
        1945        1946        1955        1954
        1946        1947        1956        1955
        1947        1948        1957        1956
        1948        1949        1958        1957
        1949        1950        1959        1958
        1950        1951        1960        1959
        1951        1952        1961        1960
        1953        1954        1963        1962
        1954        1955        1964        1963
        1955        1956        1965        1964
        1956        1957        1966        1965
        1957        1958        1967        1966
        1958        1959        1968        1967
        1959        1960        1969        1968
        1960        1961        1970        1969
        1962        1963        1972        1971
        1963        1964        1973        1972
        1964        1965        1974        1973
        1965        1966        1975        1974
        1966        1967        1976        1975
        1967        1968        1977        1976
        1968        1969        1978        1977
        1969        1970        1979        1978
        1971        1972        1981        1980
        1972        1973        1982        1981
        1973        1974        1983        1982
        1974        1975        1984        1983
        1975        1976        1985        1984
        1976        1977        1986        1985
        1977        1978        1987        1986
        1978        1979        1988        1987
        1980        1981        1990        1989
        1981        1982        1991        1990
        1982        1983        1992        1991
        1983        1984        1993        1992
        1984        1985        1994        1993
        1985        1986        1995        1994
        1986        1987        1996        1995
        1987        1988        1997        1996
        1989        1990        1999        1998
        1990        1991        2000        1999
        1991        1992        2001        2000
        1992        1993        2002        2001
        1993        1994        2003        2002
        1994        1995        2004        2003
        1995        1996        2005        2004
        1996        1997        2006        2005
        1998        1999        2008        2007
        1999        2000        2009        2008
        2000        2001        2010        2009
        2001        2002        2011        2010
        2002        2003        2012        2011
        2003        2004        2013        2012
        2004        2005        2014        2013
        2005        2006        2015        2014
        2007        2008        2017        2016
        2008        2009        2018        2017
        2009        2010        2019        2018
        2010        2011        2020        2019
        2011        2012        2021        2020
        2012        2013        2022        2021
        2013        2014        2023        2022
        2014        2015        2024        2023
        2025        2026        2035        2034
        2026        2027        2036        2035
        2027        2028        2037        2036
        2028        2029        2038        2037
        2029        2030        2039        2038
        2030        2031        2040        2039
        2031        2032        2041        2040
        2032        2033        2042        2041
        2034        2035        2044        2043
        2035        2036        2045        2044
        2036        2037        2046        2045
        2037        2038        2047        2046
        2038        2039        2048        2047
        2039        2040        2049        2048
        2040        2041        2050        2049
        2041        2042        2051        2050
        2043        2044        2053        2052
        2044        2045        2054        2053
        2045        2046        2055        2054
        2046        2047        2056        2055
        2047        2048        2057        2056
        2048        2049        2058        2057
        2049        2050        2059        2058
        2050        2051        2060        2059
        2052        2053        2062        2061
        2053        2054        2063        2062
        2054        2055        2064        2063
        2055        2056        2065        2064
        2056        2057        2066        2065
        2057        2058        2067        2066
        2058        2059        2068        2067
        2059        2060        2069        2068
        2061        2062        2071        2070
        2062        2063        2072        2071
        2063        2064        2073        2072
        2064        2065        2074        2073
        2065        2066        2075        2074
        2066        2067        2076        2075
        2067        2068        2077        2076
        2068        2069        2078        2077
        2070        2071        2080        2079
        2071        2072        2081        2080
        2072        2073        2082        2081
        2073        2074        2083        2082
        2074        2075        2084        2083
        2075        2076        2085        2084
        2076        2077        2086        2085
        2077        2078        2087        2086
        2079        2080        2089        2088
        2080        2081        2090        2089
        2081        2082        2091        2090
        2082        2083        2092        2091
        2083        2084        2093        2092
        2084        2085        2094        2093
        2085        2086        2095        2094
        2086        2087        2096        2095
        2088        2089        2098        2097
        2089        2090        2099        2098
        2090        2091        2100        2099
        2091        2092        2101        2100
        2092        2093        2102        2101
        2093        2094        2103        2102
        2094        2095        2104        2103
        2095        2096        2105        2104
        2106        2107        2116        2115
        2107        2108        2117        2116
        2108        2109        2118        2117
        2109        2110        2119        2118
        2110        2111        2120        2119
        2111        2112        2121        2120
        2112        2113        2122        2121
        2113        2114        2123        2122
        2115        2116        2125        2124
        2116        2117        2126        2125
        2117        2118        2127        2126
        2118        2119        2128        2127
        2119        2120        2129        2128
        2120        2121        2130        2129
        2121        2122        2131        2130
        2122        2123        2132        2131
        2124        2125        2134        2133
        2125        2126        2135        2134
        2126        2127        2136        2135
        2127        2128        2137        2136
        2128        2129        2138        2137
        2129        2130        2139        2138
        2130        2131        2140        2139
        2131        2132        2141        2140
        2133        2134        2143        2142
        2134        2135        2144        2143
        2135        2136        2145        2144
        2136        2137        2146        2145
        2137        2138        2147        2146
        2138        2139        2148        2147
        2139        2140        2149        2148
        2140        2141        2150        2149
        2142        2143        2152        2151
        2143        2144        2153        2152
        2144        2145        2154        2153
        2145        2146        2155        2154
        2146        2147        2156        2155
        2147        2148        2157        2156
        2148        2149        2158        2157
        2149        2150        2159        2158
        2151        2152        2161        2160
        2152        2153        2162        2161
        2153        2154        2163        2162
        2154        2155        2164        2163
        2155        2156        2165        2164
        2156        2157        2166        2165
        2157        2158        2167        2166
        2158        2159        2168        2167
        2160        2161        2170        2169
        2161        2162        2171        2170
        2162        2163        2172        2171
        2163        2164        2173        2172
        2164        2165        2174        2173
        2165        2166        2175        2174
        2166        2167        2176        2175
        2167        2168        2177        2176
        2169        2170        2179        2178
        2170        2171        2180        2179
        2171        2172        2181        2180
        2172        2173        2182        2181
        2173        2174        2183        2182
        2174        2175        2184        2183
        2175        2176        2185        2184
        2176        2177        2186        2185
        2187        2188        2197        2196
        2188        2189        2198        2197
        2189        2190        2199        2198
        2190        2191        2200        2199
        2191        2192        2201        2200
        2192        2193        2202        2201
        2193        2194        2203        2202
        2194        2195        2204        2203
        2196        2197        2206        2205
        2197        2198        2207        2206
        2198        2199        2208        2207
        2199        2200        2209        2208
        2200        2201        2210        2209
        2201        2202        2211        2210
        2202        2203        2212        2211
        2203        2204        2213        2212
        2205        2206        2215        2214
        2206        2207        2216        2215
        2207        2208        2217        2216
        2208        2209        2218        2217
        2209        2210        2219        2218
        2210        2211        2220        2219
        2211        2212        2221        2220
        2212        2213        2222        2221
        2214        2215        2224        2223
        2215        2216        2225        2224
        2216        2217        2226        2225
        2217        2218        2227        2226
        2218        2219        2228        2227
        2219        2220        2229        2228
        2220        2221        2230        2229
        2221        2222        2231        2230
        2223        2224        2233        2232
        2224        2225        2234        2233
        2225        2226        2235        2234
        2226        2227        2236        2235
        2227        2228        2237        2236
        2228        2229        2238        2237
        2229        2230        2239        2238
        2230        2231        2240        2239
        2232        2233        2242        2241
        2233        2234        2243        2242
        2234        2235        2244        2243
        2235        2236        2245        2244
        2236        2237        2246        2245
        2237        2238        2247        2246
        2238        2239        2248        2247
        2239        2240        2249        2248
        2241        2242        2251        2250
        2242        2243        2252        2251
        2243        2244        2253        2252
        2244        2245        2254        2253
        2245        2246        2255        2254
        2246        2247        2256        2255
        2247        2248        2257        2256
        2248        2249        2258        2257
        2250        2251        2260        2259
        2251        2252        2261        2260
        2252        2253        2262        2261
        2253        2254        2263        2262
        2254        2255        2264        2263
        2255        2256        2265        2264
        2256        2257        2266        2265
        2257        2258        2267        2266
        2268        2269        2278        2277
        2269        2270        2279        2278
        2270        2271        2280        2279
        2271        2272        2281        2280
        2272        2273        2282        2281
        2273        2274        2283        2282
        2274        2275        2284        2283
        2275        2276        2285        2284
        2277        2278        2287        2286
        2278        2279        2288        2287
        2279        2280        2289        2288
        2280        2281        2290        2289
        2281        2282        2291        2290
        2282        2283        2292        2291
        2283        2284        2293        2292
        2284        2285        2294        2293
        2286        2287        2296        2295
        2287        2288        2297        2296
        2288        2289        2298        2297
        2289        2290        2299        2298
        2290        2291        2300        2299
        2291        2292        2301        2300
        2292        2293        2302        2301
        2293        2294        2303        2302
        2295        2296        2305        2304
        2296        2297        2306        2305
        2297        2298        2307        2306
        2298        2299        2308        2307
        2299        2300        2309        2308
        2300        2301        2310        2309
        2301        2302        2311        2310
        2302        2303        2312        2311
        2304        2305        2314        2313
        2305        2306        2315        2314
        2306        2307        2316        2315
        2307        2308        2317        2316
        2308        2309        2318        2317
        2309        2310        2319        2318
        2310        2311        2320        2319
        2311        2312        2321        2320
        2313        2314        2323        2322
        2314        2315        2324        2323
        2315        2316        2325        2324
        2316        2317        2326        2325
        2317        2318        2327        2326
        2318        2319        2328        2327
        2319        2320        2329        2328
        2320        2321        2330        2329
        2322        2323        2332        2331
        2323        2324        2333        2332
        2324        2325        2334        2333
        2325        2326        2335        2334
        2326        2327        2336        2335
        2327        2328        2337        2336
        2328        2329        2338        2337
        2329        2330        2339        2338
        2331        2332        2341        2340
        2332        2333        2342        2341
        2333        2334        2343        2342
        2334        2335        2344        2343
        2335        2336        2345        2344
        2336        2337        2346        2345
        2337        2338        2347        2346
        2338        2339        2348        2347
        2349        2350        2359        2358
        2350        2351        2360        2359
        2351        2352        2361        2360
        2352        2353        2362        2361
        2353        2354        2363        2362
        2354        2355        2364        2363
        2355        2356        2365        2364
        2356        2357        2366        2365
        2358        2359        2368        2367
        2359        2360        2369        2368
        2360        2361        2370        2369
        2361        2362        2371        2370
        2362        2363        2372        2371
        2363        2364        2373        2372
        2364        2365        2374        2373
        2365        2366        2375        2374
        2367        2368        2377        2376
        2368        2369        2378        2377
        2369        2370        2379        2378
        2370        2371        2380        2379
        2371        2372        2381        2380
        2372        2373        2382        2381
        2373        2374        2383        2382
        2374        2375        2384        2383
        2376        2377        2386        2385
        2377        2378        2387        2386
        2378        2379        2388        2387
        2379        2380        2389        2388
        2380        2381        2390        2389
        2381        2382        2391        2390
        2382        2383        2392        2391
        2383        2384        2393        2392
        2385        2386        2395        2394
        2386        2387        2396        2395
        2387        2388        2397        2396
        2388        2389        2398        2397
        2389        2390        2399        2398
        2390        2391        2400        2399
        2391        2392        2401        2400
        2392        2393        2402        2401
        2394        2395        2404        2403
        2395        2396        2405        2404
        2396        2397        2406        2405
        2397        2398        2407        2406
        2398        2399        2408        2407
        2399        2400        2409        2408
        2400        2401        2410        2409
        2401        2402        2411        2410
        2403        2404        2413        2412
        2404        2405        2414        2413
        2405        2406        2415        2414
        2406        2407        2416        2415
        2407        2408        2417        2416
        2408        2409        2418        2417
        2409        2410        2419        2418
        2410        2411        2420        2419
        2412        2413        2422        2421
        2413        2414        2423        2422
        2414        2415        2424        2423
        2415        2416        2425        2424
        2416        2417        2426        2425
        2417        2418        2427        2426
        2418        2419        2428        2427
        2419        2420        2429        2428
        2430        2431        2440        2439
        2431        2432        2441        2440
        2432        2433        2442        2441
        2433        2434        2443        2442
        2434        2435        2444        2443
        2435        2436        2445        2444
        2436        2437        2446        2445
        2437        2438        2447        2446
        2439        2440        2449        2448
        2440        2441        2450        2449
        2441        2442        2451        2450
        2442        2443        2452        2451
        2443        2444        2453        2452
        2444        2445        2454        2453
        2445        2446        2455        2454
        2446        2447        2456        2455
        2448        2449        2458        2457
        2449        2450        2459        2458
        2450        2451        2460        2459
        2451        2452        2461        2460
        2452        2453        2462        2461
        2453        2454        2463        2462
        2454        2455        2464        2463
        2455        2456        2465        2464
        2457        2458        2467        2466
        2458        2459        2468        2467
        2459        2460        2469        2468
        2460        2461        2470        2469
        2461        2462        2471        2470
        2462        2463        2472        2471
        2463        2464        2473        2472
        2464        2465        2474        2473
        2466        2467        2476        2475
        2467        2468        2477        2476
        2468        2469        2478        2477
        2469        2470        2479        2478
        2470        2471        2480        2479
        2471        2472        2481        2480
        2472        2473        2482        2481
        2473        2474        2483        2482
        2475        2476        2485        2484
        2476        2477        2486        2485
        2477        2478        2487        2486
        2478        2479        2488        2487
        2479        2480        2489        2488
        2480        2481        2490        2489
        2481        2482        2491        2490
        2482        2483        2492        2491
        2484        2485        2494        2493
        2485        2486        2495        2494
        2486        2487        2496        2495
        2487        2488        2497        2496
        2488        2489        2498        2497
        2489        2490        2499        2498
        2490        2491        2500        2499
        2491        2492        2501        2500
        2493        2494        2503        2502
        2494        2495        2504        2503
        2495        2496        2505        2504
        2496        2497        2506        2505
        2497        2498        2507        2506
        2498        2499        2508        2507
        2499        2500        2509        2508
        2500        2501        2510        2509
        2511        2512        2521        2520
        2512        2513        2522        2521
        2513        2514        2523        2522
        2514        2515        2524        2523
        2515        2516        2525        2524
        2516        2517        2526        2525
        2517        2518        2527        2526
        2518        2519        2528        2527
        2520        2521        2530        2529
        2521        2522        2531        2530
        2522        2523        2532        2531
        2523        2524        2533        2532
        2524        2525        2534        2533
        2525        2526        2535        2534
        2526        2527        2536        2535
        2527        2528        2537        2536
        2529        2530        2539        2538
        2530        2531        2540        2539
        2531        2532        2541        2540
        2532        2533        2542        2541
        2533        2534        2543        2542
        2534        2535        2544        2543
        2535        2536        2545        2544
        2536        2537        2546        2545
        2538        2539        2548        2547
        2539        2540        2549        2548
        2540        2541        2550        2549
        2541        2542        2551        2550
        2542        2543        2552        2551
        2543        2544        2553        2552
        2544        2545        2554        2553
        2545        2546        2555        2554
        2547        2548        2557        2556
        2548        2549        2558        2557
        2549        2550        2559        2558
        2550        2551        2560        2559
        2551        2552        2561        2560
        2552        2553        2562        2561
        2553        2554        2563        2562
        2554        2555        2564        2563
        2556        2557        2566        2565
        2557        2558        2567        2566
        2558        2559        2568        2567
        2559        2560        2569        2568
        2560        2561        2570        2569
        2561        2562        2571        2570
        2562        2563        2572        2571
        2563        2564        2573        2572
        2565        2566        2575        2574
        2566        2567        2576        2575
        2567        2568        2577        2576
        2568        2569        2578        2577
        2569        2570        2579        2578
        2570        2571        2580        2579
        2571        2572        2581        2580
        2572        2573        2582        2581
        2574        2575        2584        2583
        2575        2576        2585        2584
        2576        2577        2586        2585
        2577        2578        2587        2586
        2578        2579        2588        2587
        2579        2580        2589        2588
        2580        2581        2590        2589
        2581        2582        2591        2590
        2592        2593        2602        2601
        2593        2594        2603        2602
        2594        2595        2604        2603
        2595        2596        2605        2604
        2596        2597        2606        2605
        2597        2598        2607        2606
        2598        2599        2608        2607
        2599        2600        2609        2608
        2601        2602        2611        2610
        2602        2603        2612        2611
        2603        2604        2613        2612
        2604        2605        2614        2613
        2605        2606        2615        2614
        2606        2607        2616        2615
        2607        2608        2617        2616
        2608        2609        2618        2617
        2610        2611        2620        2619
        2611        2612        2621        2620
        2612        2613        2622        2621
        2613        2614        2623        2622
        2614        2615        2624        2623
        2615        2616        2625        2624
        2616        2617        2626        2625
        2617        2618        2627        2626
        2619        2620        2629        2628
        2620        2621        2630        2629
        2621        2622        2631        2630
        2622        2623        2632        2631
        2623        2624        2633        2632
        2624        2625        2634        2633
        2625        2626        2635        2634
        2626        2627        2636        2635
        2628        2629        2638        2637
        2629        2630        2639        2638
        2630        2631        2640        2639
        2631        2632        2641        2640
        2632        2633        2642        2641
        2633        2634        2643        2642
        2634        2635        2644        2643
        2635        2636        2645        2644
        2637        2638        2647        2646
        2638        2639        2648        2647
        2639        2640        2649        2648
        2640        2641        2650        2649
        2641        2642        2651        2650
        2642        2643        2652        2651
        2643        2644        2653        2652
        2644        2645        2654        2653
        2646        2647        2656        2655
        2647        2648        2657        2656
        2648        2649        2658        2657
        2649        2650        2659        2658
        2650        2651        2660        2659
        2651        2652        2661        2660
        2652        2653        2662        2661
        2653        2654        2663        2662
        2655        2656        2665        2664
        2656        2657        2666        2665
        2657        2658        2667        2666
        2658        2659        2668        2667
        2659        2660        2669        2668
        2660        2661        2670        2669
        2661        2662        2671        2670
        2662        2663        2672        2671
        2673        2674        2683        2682
        2674        2675        2684        2683
        2675        2676        2685        2684
        2676        2677        2686        2685
        2677        2678        2687        2686
        2678        2679        2688        2687
        2679        2680        2689        2688
        2680        2681        2690        2689
        2682        2683        2692        2691
        2683        2684        2693        2692
        2684        2685        2694        2693
        2685        2686        2695        2694
        2686        2687        2696        2695
        2687        2688        2697        2696
        2688        2689        2698        2697
        2689        2690        2699        2698
        2691        2692        2701        2700
        2692        2693        2702        2701
        2693        2694        2703        2702
        2694        2695        2704        2703
        2695        2696        2705        2704
        2696        2697        2706        2705
        2697        2698        2707        2706
        2698        2699        2708        2707
        2700        2701        2710        2709
        2701        2702        2711        2710
        2702        2703        2712        2711
        2703        2704        2713        2712
        2704        2705        2714        2713
        2705        2706        2715        2714
        2706        2707        2716        2715
        2707        2708        2717        2716
        2709        2710        2719        2718
        2710        2711        2720        2719
        2711        2712        2721        2720
        2712        2713        2722        2721
        2713        2714        2723        2722
        2714        2715        2724        2723
        2715        2716        2725        2724
        2716        2717        2726        2725
        2718        2719        2728        2727
        2719        2720        2729        2728
        2720        2721        2730        2729
        2721        2722        2731        2730
        2722        2723        2732        2731
        2723        2724        2733        2732
        2724        2725        2734        2733
        2725        2726        2735        2734
        2727        2728        2737        2736
        2728        2729        2738        2737
        2729        2730        2739        2738
        2730        2731        2740        2739
        2731        2732        2741        2740
        2732        2733        2742        2741
        2733        2734        2743        2742
        2734        2735        2744        2743
        2736        2737        2746        2745
        2737        2738        2747        2746
        2738        2739        2748        2747
        2739        2740        2749        2748
        2740        2741        2750        2749
        2741        2742        2751        2750
        2742        2743        2752        2751
        2743        2744        2753        2752
        2754        2755        2764        2763
        2755        2756        2765        2764
        2756        2757        2766        2765
        2757        2758        2767        2766
        2758        2759        2768        2767
        2759        2760        2769        2768
        2760        2761        2770        2769
        2761        2762        2771        2770
        2763        2764        2773        2772
        2764        2765        2774        2773
        2765        2766        2775        2774
        2766        2767        2776        2775
        2767        2768        2777        2776
        2768        2769        2778        2777
        2769        2770        2779        2778
        2770        2771        2780        2779
        2772        2773        2782        2781
        2773        2774        2783        2782
        2774        2775        2784        2783
        2775        2776        2785        2784
        2776        2777        2786        2785
        2777        2778        2787        2786
        2778        2779        2788        2787
        2779        2780        2789        2788
        2781        2782        2791        2790
        2782        2783        2792        2791
        2783        2784        2793        2792
        2784        2785        2794        2793
        2785        2786        2795        2794
        2786        2787        2796        2795
        2787        2788        2797        2796
        2788        2789        2798        2797
        2790        2791        2800        2799
        2791        2792        2801        2800
        2792        2793        2802        2801
        2793        2794        2803        2802
        2794        2795        2804        2803
        2795        2796        2805        2804
        2796        2797        2806        2805
        2797        2798        2807        2806
        2799        2800        2809        2808
        2800        2801        2810        2809
        2801        2802        2811        2810
        2802        2803        2812        2811
        2803        2804        2813        2812
        2804        2805        2814        2813
        2805        2806        2815        2814
        2806        2807        2816        2815
        2808        2809        2818        2817
        2809        2810        2819        2818
        2810        2811        2820        2819
        2811        2812        2821        2820
        2812        2813        2822        2821
        2813        2814        2823        2822
        2814        2815        2824        2823
        2815        2816        2825        2824
        2817        2818        2827        2826
        2818        2819        2828        2827
        2819        2820        2829        2828
        2820        2821        2830        2829
        2821        2822        2831        2830
        2822        2823        2832        2831
        2823        2824        2833        2832
        2824        2825        2834        2833
        2835        2836        2845        2844
        2836        2837        2846        2845
        2837        2838        2847        2846
        2838        2839        2848        2847
        2839        2840        2849        2848
        2840        2841        2850        2849
        2841        2842        2851        2850
        2842        2843        2852        2851
        2844        2845        2854        2853
        2845        2846        2855        2854
        2846        2847        2856        2855
        2847        2848        2857        2856
        2848        2849        2858        2857
        2849        2850        2859        2858
        2850        2851        2860        2859
        2851        2852        2861        2860
        2853        2854        2863        2862
        2854        2855        2864        2863
        2855        2856        2865        2864
        2856        2857        2866        2865
        2857        2858        2867        2866
        2858        2859        2868        2867
        2859        2860        2869        2868
        2860        2861        2870        2869
        2862        2863        2872        2871
        2863        2864        2873        2872
        2864        2865        2874        2873
        2865        2866        2875        2874
        2866        2867        2876        2875
        2867        2868        2877        2876
        2868        2869        2878        2877
        2869        2870        2879        2878
        2871        2872        2881        2880
        2872        2873        2882        2881
        2873        2874        2883        2882
        2874        2875        2884        2883
        2875        2876        2885        2884
        2876        2877        2886        2885
        2877        2878        2887        2886
        2878        2879        2888        2887
        2880        2881        2890        2889
        2881        2882        2891        2890
        2882        2883        2892        2891
        2883        2884        2893        2892
        2884        2885        2894        2893
        2885        2886        2895        2894
        2886        2887        2896        2895
        2887        2888        2897        2896
        2889        2890        2899        2898
        2890        2891        2900        2899
        2891        2892        2901        2900
        2892        2893        2902        2901
        2893        2894        2903        2902
        2894        2895        2904        2903
        2895        2896        2905        2904
        2896        2897        2906        2905
        2898        2899        2908        2907
        2899        2900        2909        2908
        2900        2901        2910        2909
        2901        2902        2911        2910
        2902        2903        2912        2911
        2903        2904        2913        2912
        2904        2905        2914        2913
        2905        2906        2915        2914
        2916        2917        2926        2925
        2917        2918        2927        2926
        2918        2919        2928        2927
        2919        2920        2929        2928
        2920        2921        2930        2929
        2921        2922        2931        2930
        2922        2923        2932        2931
        2923        2924        2933        2932
        2925        2926        2935        2934
        2926        2927        2936        2935
        2927        2928        2937        2936
        2928        2929        2938        2937
        2929        2930        2939        2938
        2930        2931        2940        2939
        2931        2932        2941        2940
        2932        2933        2942        2941
        2934        2935        2944        2943
        2935        2936        2945        2944
        2936        2937        2946        2945
        2937        2938        2947        2946
        2938        2939        2948        2947
        2939        2940        2949        2948
        2940        2941        2950        2949
        2941        2942        2951        2950
        2943        2944        2953        2952
        2944        2945        2954        2953
        2945        2946        2955        2954
        2946        2947        2956        2955
        2947        2948        2957        2956
        2948        2949        2958        2957
        2949        2950        2959        2958
        2950        2951        2960        2959
        2952        2953        2962        2961
        2953        2954        2963        2962
        2954        2955        2964        2963
        2955        2956        2965        2964
        2956        2957        2966        2965
        2957        2958        2967        2966
        2958        2959        2968        2967
        2959        2960        2969        2968
        2961        2962        2971        2970
        2962        2963        2972        2971
        2963        2964        2973        2972
        2964        2965        2974        2973
        2965        2966        2975        2974
        2966        2967        2976        2975
        2967        2968        2977        2976
        2968        2969        2978        2977
        2970        2971        2980        2979
        2971        2972        2981        2980
        2972        2973        2982        2981
        2973        2974        2983        2982
        2974        2975        2984        2983
        2975        2976        2985        2984
        2976        2977        2986        2985
        2977        2978        2987        2986
        2979        2980        2989        2988
        2980        2981        2990        2989
        2981        2982        2991        2990
        2982        2983        2992        2991
        2983        2984        2993        2992
        2984        2985        2994        2993
        2985        2986        2995        2994
        2986        2987        2996        2995
        2997        2998        3007        3006
        2998        2999        3008        3007
        2999        3000        3009        3008
        3000        3001        3010        3009
        3001        3002        3011        3010
        3002        3003        3012        3011
        3003        3004        3013        3012
        3004        3005        3014        3013
        3006        3007        3016        3015
        3007        3008        3017        3016
        3008        3009        3018        3017
        3009        3010        3019        3018
        3010        3011        3020        3019
        3011        3012        3021        3020
        3012        3013        3022        3021
        3013        3014        3023        3022
        3015        3016        3025        3024
        3016        3017        3026        3025
        3017        3018        3027        3026
        3018        3019        3028        3027
        3019        3020        3029        3028
        3020        3021        3030        3029
        3021        3022        3031        3030
        3022        3023        3032        3031
        3024        3025        3034        3033
        3025        3026        3035        3034
        3026        3027        3036        3035
        3027        3028        3037        3036
        3028        3029        3038        3037
        3029        3030        3039        3038
        3030        3031        3040        3039
        3031        3032        3041        3040
        3033        3034        3043        3042
        3034        3035        3044        3043
        3035        3036        3045        3044
        3036        3037        3046        3045
        3037        3038        3047        3046
        3038        3039        3048        3047
        3039        3040        3049        3048
        3040        3041        3050        3049
        3042        3043        3052        3051
        3043        3044        3053        3052
        3044        3045        3054        3053
        3045        3046        3055        3054
        3046        3047        3056        3055
        3047        3048        3057        3056
        3048        3049        3058        3057
        3049        3050        3059        3058
        3051        3052        3061        3060
        3052        3053        3062        3061
        3053        3054        3063        3062
        3054        3055        3064        3063
        3055        3056        3065        3064
        3056        3057        3066        3065
        3057        3058        3067        3066
        3058        3059        3068        3067
        3060        3061        3070        3069
        3061        3062        3071        3070
        3062        3063        3072        3071
        3063        3064        3073        3072
        3064        3065        3074        3073
        3065        3066        3075        3074
        3066        3067        3076        3075
        3067        3068        3077        3076
        3078        3079        3088        3087
        3079        3080        3089        3088
        3080        3081        3090        3089
        3081        3082        3091        3090
        3082        3083        3092        3091
        3083        3084        3093        3092
        3084        3085        3094        3093
        3085        3086        3095        3094
        3087        3088        3097        3096
        3088        3089        3098        3097
        3089        3090        3099        3098
        3090        3091        3100        3099
        3091        3092        3101        3100
        3092        3093        3102        3101
        3093        3094        3103        3102
        3094        3095        3104        3103
        3096        3097        3106        3105
        3097        3098        3107        3106
        3098        3099        3108        3107
        3099        3100        3109        3108
        3100        3101        3110        3109
        3101        3102        3111        3110
        3102        3103        3112        3111
        3103        3104        3113        3112
        3105        3106        3115        3114
        3106        3107        3116        3115
        3107        3108        3117        3116
        3108        3109        3118        3117
        3109        3110        3119        3118
        3110        3111        3120        3119
        3111        3112        3121        3120
        3112        3113        3122        3121
        3114        3115        3124        3123
        3115        3116        3125        3124
        3116        3117        3126        3125
        3117        3118        3127        3126
        3118        3119        3128        3127
        3119        3120        3129        3128
        3120        3121        3130        3129
        3121        3122        3131        3130
        3123        3124        3133        3132
        3124        3125        3134        3133
        3125        3126        3135        3134
        3126        3127        3136        3135
        3127        3128        3137        3136
        3128        3129        3138        3137
        3129        3130        3139        3138
        3130        3131        3140        3139
        3132        3133        3142        3141
        3133        3134        3143        3142
        3134        3135        3144        3143
        3135        3136        3145        3144
        3136        3137        3146        3145
        3137        3138        3147        3146
        3138        3139        3148        3147
        3139        3140        3149        3148
        3141        3142        3151        3150
        3142        3143        3152        3151
        3143        3144        3153        3152
        3144        3145        3154        3153
        3145        3146        3155        3154
        3146        3147        3156        3155
        3147        3148        3157        3156
        3148        3149        3158        3157
        3159        3160        3169        3168
        3160        3161        3170        3169
        3161        3162        3171        3170
        3162        3163        3172        3171
        3163        3164        3173        3172
        3164        3165        3174        3173
        3165        3166        3175        3174
        3166        3167        3176        3175
        3168        3169        3178        3177
        3169        3170        3179        3178
        3170        3171        3180        3179
        3171        3172        3181        3180
        3172        3173        3182        3181
        3173        3174        3183        3182
        3174        3175        3184        3183
        3175        3176        3185        3184
        3177        3178        3187        3186
        3178        3179        3188        3187
        3179        3180        3189        3188
        3180        3181        3190        3189
        3181        3182        3191        3190
        3182        3183        3192        3191
        3183        3184        3193        3192
        3184        3185        3194        3193
        3186        3187        3196        3195
        3187        3188        3197        3196
        3188        3189        3198        3197
        3189        3190        3199        3198
        3190        3191        3200        3199
        3191        3192        3201        3200
        3192        3193        3202        3201
        3193        3194        3203        3202
        3195        3196        3205        3204
        3196        3197        3206        3205
        3197        3198        3207        3206
        3198        3199        3208        3207
        3199        3200        3209        3208
        3200        3201        3210        3209
        3201        3202        3211        3210
        3202        3203        3212        3211
        3204        3205        3214        3213
        3205        3206        3215        3214
        3206        3207        3216        3215
        3207        3208        3217        3216
        3208        3209        3218        3217
        3209        3210        3219        3218
        3210        3211        3220        3219
        3211        3212        3221        3220
        3213        3214        3223        3222
        3214        3215        3224        3223
        3215        3216        3225        3224
        3216        3217        3226        3225
        3217        3218        3227        3226
        3218        3219        3228        3227
        3219        3220        3229        3228
        3220        3221        3230        3229
        3222        3223        3232        3231
        3223        3224        3233        3232
        3224        3225        3234        3233
        3225        3226        3235        3234
        3226        3227        3236        3235
        3227        3228        3237        3236
        3228        3229        3238        3237
        3229        3230        3239        3238
        3240        3241        3250        3249
        3241        3242        3251        3250
        3242        3243        3252        3251
        3243        3244        3253        3252
        3244        3245        3254        3253
        3245        3246        3255        3254
        3246        3247        3256        3255
        3247        3248        3257        3256
        3249        3250        3259        3258
        3250        3251        3260        3259
        3251        3252        3261        3260
        3252        3253        3262        3261
        3253        3254        3263        3262
        3254        3255        3264        3263
        3255        3256        3265        3264
        3256        3257        3266        3265
        3258        3259        3268        3267
        3259        3260        3269        3268
        3260        3261        3270        3269
        3261        3262        3271        3270
        3262        3263        3272        3271
        3263        3264        3273        3272
        3264        3265        3274        3273
        3265        3266        3275        3274
        3267        3268        3277        3276
        3268        3269        3278        3277
        3269        3270        3279        3278
        3270        3271        3280        3279
        3271        3272        3281        3280
        3272        3273        3282        3281
        3273        3274        3283        3282
        3274        3275        3284        3283
        3276        3277        3286        3285
        3277        3278        3287        3286
        3278        3279        3288        3287
        3279        3280        3289        3288
        3280        3281        3290        3289
        3281        3282        3291        3290
        3282        3283        3292        3291
        3283        3284        3293        3292
        3285        3286        3295        3294
        3286        3287        3296        3295
        3287        3288        3297        3296
        3288        3289        3298        3297
        3289        3290        3299        3298
        3290        3291        3300        3299
        3291        3292        3301        3300
        3292        3293        3302        3301
        3294        3295        3304        3303
        3295        3296        3305        3304
        3296        3297        3306        3305
        3297        3298        3307        3306
        3298        3299        3308        3307
        3299        3300        3309        3308
        3300        3301        3310        3309
        3301        3302        3311        3310
        3303        3304        3313        3312
        3304        3305        3314        3313
        3305        3306        3315        3314
        3306        3307        3316        3315
        3307        3308        3317        3316
        3308        3309        3318        3317
        3309        3310        3319        3318
        3310        3311        3320        3319
        3321        3322        3331        3330
        3322        3323        3332        3331
        3323        3324        3333        3332
        3324        3325        3334        3333
        3325        3326        3335        3334
        3326        3327        3336        3335
        3327        3328        3337        3336
        3328        3329        3338        3337
        3330        3331        3340        3339
        3331        3332        3341        3340
        3332        3333        3342        3341
        3333        3334        3343        3342
        3334        3335        3344        3343
        3335        3336        3345        3344
        3336        3337        3346        3345
        3337        3338        3347        3346
        3339        3340        3349        3348
        3340        3341        3350        3349
        3341        3342        3351        3350
        3342        3343        3352        3351
        3343        3344        3353        3352
        3344        3345        3354        3353
        3345        3346        3355        3354
        3346        3347        3356        3355
        3348        3349        3358        3357
        3349        3350        3359        3358
        3350        3351        3360        3359
        3351        3352        3361        3360
        3352        3353        3362        3361
        3353        3354        3363        3362
        3354        3355        3364        3363
        3355        3356        3365        3364
        3357        3358        3367        3366
        3358        3359        3368        3367
        3359        3360        3369        3368
        3360        3361        3370        3369
        3361        3362        3371        3370
        3362        3363        3372        3371
        3363        3364        3373        3372
        3364        3365        3374        3373
        3366        3367        3376        3375
        3367        3368        3377        3376
        3368        3369        3378        3377
        3369        3370        3379        3378
        3370        3371        3380        3379
        3371        3372        3381        3380
        3372        3373        3382        3381
        3373        3374        3383        3382
        3375        3376        3385        3384
        3376        3377        3386        3385
        3377        3378        3387        3386
        3378        3379        3388        3387
        3379        3380        3389        3388
        3380        3381        3390        3389
        3381        3382        3391        3390
        3382        3383        3392        3391
        3384        3385        3394        3393
        3385        3386        3395        3394
        3386        3387        3396        3395
        3387        3388        3397        3396
        3388        3389        3398        3397
        3389        3390        3399        3398
        3390        3391        3400        3399
        3391        3392        3401        3400
        3402        3403        3412        3411
        3403        3404        3413        3412
        3404        3405        3414        3413
        3405        3406        3415        3414
        3406        3407        3416        3415
        3407        3408        3417        3416
        3408        3409        3418        3417
        3409        3410        3419        3418
        3411        3412        3421        3420
        3412        3413        3422        3421
        3413        3414        3423        3422
        3414        3415        3424        3423
        3415        3416        3425        3424
        3416        3417        3426        3425
        3417        3418        3427        3426
        3418        3419        3428        3427
        3420        3421        3430        3429
        3421        3422        3431        3430
        3422        3423        3432        3431
        3423        3424        3433        3432
        3424        3425        3434        3433
        3425        3426        3435        3434
        3426        3427        3436        3435
        3427        3428        3437        3436
        3429        3430        3439        3438
        3430        3431        3440        3439
        3431        3432        3441        3440
        3432        3433        3442        3441
        3433        3434        3443        3442
        3434        3435        3444        3443
        3435        3436        3445        3444
        3436        3437        3446        3445
        3438        3439        3448        3447
        3439        3440        3449        3448
        3440        3441        3450        3449
        3441        3442        3451        3450
        3442        3443        3452        3451
        3443        3444        3453        3452
        3444        3445        3454        3453
        3445        3446        3455        3454
        3447        3448        3457        3456
        3448        3449        3458        3457
        3449        3450        3459        3458
        3450        3451        3460        3459
        3451        3452        3461        3460
        3452        3453        3462        3461
        3453        3454        3463        3462
        3454        3455        3464        3463
        3456        3457        3466        3465
        3457        3458        3467        3466
        3458        3459        3468        3467
        3459        3460        3469        3468
        3460        3461        3470        3469
        3461        3462        3471        3470
        3462        3463        3472        3471
        3463        3464        3473        3472
        3465        3466        3475        3474
        3466        3467        3476        3475
        3467        3468        3477        3476
        3468        3469        3478        3477
        3469        3470        3479        3478
        3470        3471        3480        3479
        3471        3472        3481        3480
        3472        3473        3482        3481
        3483        3484        3493        3492
        3484        3485        3494        3493
        3485        3486        3495        3494
        3486        3487        3496        3495
        3487        3488        3497        3496
        3488        3489        3498        3497
        3489        3490        3499        3498
        3490        3491        3500        3499
        3492        3493        3502        3501
        3493        3494        3503        3502
        3494        3495        3504        3503
        3495        3496        3505        3504
        3496        3497        3506        3505
        3497        3498        3507        3506
        3498        3499        3508        3507
        3499        3500        3509        3508
        3501        3502        3511        3510
        3502        3503        3512        3511
        3503        3504        3513        3512
        3504        3505        3514        3513
        3505        3506        3515        3514
        3506        3507        3516        3515
        3507        3508        3517        3516
        3508        3509        3518        3517
        3510        3511        3520        3519
        3511        3512        3521        3520
        3512        3513        3522        3521
        3513        3514        3523        3522
        3514        3515        3524        3523
        3515        3516        3525        3524
        3516        3517        3526        3525
        3517        3518        3527        3526
        3519        3520        3529        3528
        3520        3521        3530        3529
        3521        3522        3531        3530
        3522        3523        3532        3531
        3523        3524        3533        3532
        3524        3525        3534        3533
        3525        3526        3535        3534
        3526        3527        3536        3535
        3528        3529        3538        3537
        3529        3530        3539        3538
        3530        3531        3540        3539
        3531        3532        3541        3540
        3532        3533        3542        3541
        3533        3534        3543        3542
        3534        3535        3544        3543
        3535        3536        3545        3544
        3537        3538        3547        3546
        3538        3539        3548        3547
        3539        3540        3549        3548
        3540        3541        3550        3549
        3541        3542        3551        3550
        3542        3543        3552        3551
        3543        3544        3553        3552
        3544        3545        3554        3553
        3546        3547        3556        3555
        3547        3548        3557        3556
        3548        3549        3558        3557
        3549        3550        3559        3558
        3550        3551        3560        3559
        3551        3552        3561        3560
        3552        3553        3562        3561
        3553        3554        3563        3562
        3564        3565        3574        3573
        3565        3566        3575        3574
        3566        3567        3576        3575
        3567        3568        3577        3576
        3568        3569        3578        3577
        3569        3570        3579        3578
        3570        3571        3580        3579
        3571        3572        3581        3580
        3573        3574        3583        3582
        3574        3575        3584        3583
        3575        3576        3585        3584
        3576        3577        3586        3585
        3577        3578        3587        3586
        3578        3579        3588        3587
        3579        3580        3589        3588
        3580        3581        3590        3589
        3582        3583        3592        3591
        3583        3584        3593        3592
        3584        3585        3594        3593
        3585        3586        3595        3594
        3586        3587        3596        3595
        3587        3588        3597        3596
        3588        3589        3598        3597
        3589        3590        3599        3598
        3591        3592        3601        3600
        3592        3593        3602        3601
        3593        3594        3603        3602
        3594        3595        3604        3603
        3595        3596        3605        3604
        3596        3597        3606        3605
        3597        3598        3607        3606
        3598        3599        3608        3607
        3600        3601        3610        3609
        3601        3602        3611        3610
        3602        3603        3612        3611
        3603        3604        3613        3612
        3604        3605        3614        3613
        3605        3606        3615        3614
        3606        3607        3616        3615
        3607        3608        3617        3616
        3609        3610        3619        3618
        3610        3611        3620        3619
        3611        3612        3621        3620
        3612        3613        3622        3621
        3613        3614        3623        3622
        3614        3615        3624        3623
        3615        3616        3625        3624
        3616        3617        3626        3625
        3618        3619        3628        3627
        3619        3620        3629        3628
        3620        3621        3630        3629
        3621        3622        3631        3630
        3622        3623        3632        3631
        3623        3624        3633        3632
        3624        3625        3634        3633
        3625        3626        3635        3634
        3627        3628        3637        3636
        3628        3629        3638        3637
        3629        3630        3639        3638
        3630        3631        3640        3639
        3631        3632        3641        3640
        3632        3633        3642        3641
        3633        3634        3643        3642
        3634        3635        3644        3643
        3645        3646        3655        3654
        3646        3647        3656        3655
        3647        3648        3657        3656
        3648        3649        3658        3657
        3649        3650        3659        3658
        3650        3651        3660        3659
        3651        3652        3661        3660
        3652        3653        3662        3661
        3654        3655        3664        3663
        3655        3656        3665        3664
        3656        3657        3666        3665
        3657        3658        3667        3666
        3658        3659        3668        3667
        3659        3660        3669        3668
        3660        3661        3670        3669
        3661        3662        3671        3670
        3663        3664        3673        3672
        3664        3665        3674        3673
        3665        3666        3675        3674
        3666        3667        3676        3675
        3667        3668        3677        3676
        3668        3669        3678        3677
        3669        3670        3679        3678
        3670        3671        3680        3679
        3672        3673        3682        3681
        3673        3674        3683        3682
        3674        3675        3684        3683
        3675        3676        3685        3684
        3676        3677        3686        3685
        3677        3678        3687        3686
        3678        3679        3688        3687
        3679        3680        3689        3688
        3681        3682        3691        3690
        3682        3683        3692        3691
        3683        3684        3693        3692
        3684        3685        3694        3693
        3685        3686        3695        3694
        3686        3687        3696        3695
        3687        3688        3697        3696
        3688        3689        3698        3697
        3690        3691        3700        3699
        3691        3692        3701        3700
        3692        3693        3702        3701
        3693        3694        3703        3702
        3694        3695        3704        3703
        3695        3696        3705        3704
        3696        3697        3706        3705
        3697        3698        3707        3706
        3699        3700        3709        3708
        3700        3701        3710        3709
        3701        3702        3711        3710
        3702        3703        3712        3711
        3703        3704        3713        3712
        3704        3705        3714        3713
        3705        3706        3715        3714
        3706        3707        3716        3715
        3708        3709        3718        3717
        3709        3710        3719        3718
        3710        3711        3720        3719
        3711        3712        3721        3720
        3712        3713        3722        3721
        3713        3714        3723        3722
        3714        3715        3724        3723
        3715        3716        3725        3724
        3726        3727        3736        3735
        3727        3728        3737        3736
        3728        3729        3738        3737
        3729        3730        3739        3738
        3730        3731        3740        3739
        3731        3732        3741        3740
        3732        3733        3742        3741
        3733        3734        3743        3742
        3735        3736        3745        3744
        3736        3737        3746        3745
        3737        3738        3747        3746
        3738        3739        3748        3747
        3739        3740        3749        3748
        3740        3741        3750        3749
        3741        3742        3751        3750
        3742        3743        3752        3751
        3744        3745        3754        3753
        3745        3746        3755        3754
        3746        3747        3756        3755
        3747        3748        3757        3756
        3748        3749        3758        3757
        3749        3750        3759        3758
        3750        3751        3760        3759
        3751        3752        3761        3760
        3753        3754        3763        3762
        3754        3755        3764        3763
        3755        3756        3765        3764
        3756        3757        3766        3765
        3757        3758        3767        3766
        3758        3759        3768        3767
        3759        3760        3769        3768
        3760        3761        3770        3769
        3762        3763        3772        3771
        3763        3764        3773        3772
        3764        3765        3774        3773
        3765        3766        3775        3774
        3766        3767        3776        3775
        3767        3768        3777        3776
        3768        3769        3778        3777
        3769        3770        3779        3778
        3771        3772        3781        3780
        3772        3773        3782        3781
        3773        3774        3783        3782
        3774        3775        3784        3783
        3775        3776        3785        3784
        3776        3777        3786        3785
        3777        3778        3787        3786
        3778        3779        3788        3787
        3780        3781        3790        3789
        3781        3782        3791        3790
        3782        3783        3792        3791
        3783        3784        3793        3792
        3784        3785        3794        3793
        3785        3786        3795        3794
        3786        3787        3796        3795
        3787        3788        3797        3796
        3789        3790        3799        3798
        3790        3791        3800        3799
        3791        3792        3801        3800
        3792        3793        3802        3801
        3793        3794        3803        3802
        3794        3795        3804        3803
        3795        3796        3805        3804
        3796        3797        3806        3805
        3807        3808        3817        3816
        3808        3809        3818        3817
        3809        3810        3819        3818
        3810        3811        3820        3819
        3811        3812        3821        3820
        3812        3813        3822        3821
        3813        3814        3823        3822
        3814        3815        3824        3823
        3816        3817        3826        3825
        3817        3818        3827        3826
        3818        3819        3828        3827
        3819        3820        3829        3828
        3820        3821        3830        3829
        3821        3822        3831        3830
        3822        3823        3832        3831
        3823        3824        3833        3832
        3825        3826        3835        3834
        3826        3827        3836        3835
        3827        3828        3837        3836
        3828        3829        3838        3837
        3829        3830        3839        3838
        3830        3831        3840        3839
        3831        3832        3841        3840
        3832        3833        3842        3841
        3834        3835        3844        3843
        3835        3836        3845        3844
        3836        3837        3846        3845
        3837        3838        3847        3846
        3838        3839        3848        3847
        3839        3840        3849        3848
        3840        3841        3850        3849
        3841        3842        3851        3850
        3843        3844        3853        3852
        3844        3845        3854        3853
        3845        3846        3855        3854
        3846        3847        3856        3855
        3847        3848        3857        3856
        3848        3849        3858        3857
        3849        3850        3859        3858
        3850        3851        3860        3859
        3852        3853        3862        3861
        3853        3854        3863        3862
        3854        3855        3864        3863
        3855        3856        3865        3864
        3856        3857        3866        3865
        3857        3858        3867        3866
        3858        3859        3868        3867
        3859        3860        3869        3868
        3861        3862        3871        3870
        3862        3863        3872        3871
        3863        3864        3873        3872
        3864        3865        3874        3873
        3865        3866        3875        3874
        3866        3867        3876        3875
        3867        3868        3877        3876
        3868        3869        3878        3877
        3870        3871        3880        3879
        3871        3872        3881        3880
        3872        3873        3882        3881
        3873        3874        3883        3882
        3874        3875        3884        3883
        3875        3876        3885        3884
        3876        3877        3886        3885
        3877        3878        3887        3886
        3888        3889        3898        3897
        3889        3890        3899        3898
        3890        3891        3900        3899
        3891        3892        3901        3900
        3892        3893        3902        3901
        3893        3894        3903        3902
        3894        3895        3904        3903
        3895        3896        3905        3904
        3897        3898        3907        3906
        3898        3899        3908        3907
        3899        3900        3909        3908
        3900        3901        3910        3909
        3901        3902        3911        3910
        3902        3903        3912        3911
        3903        3904        3913        3912
        3904        3905        3914        3913
        3906        3907        3916        3915
        3907        3908        3917        3916
        3908        3909        3918        3917
        3909        3910        3919        3918
        3910        3911        3920        3919
        3911        3912        3921        3920
        3912        3913        3922        3921
        3913        3914        3923        3922
        3915        3916        3925        3924
        3916        3917        3926        3925
        3917        3918        3927        3926
        3918        3919        3928        3927
        3919        3920        3929        3928
        3920        3921        3930        3929
        3921        3922        3931        3930
        3922        3923        3932        3931
        3924        3925        3934        3933
        3925        3926        3935        3934
        3926        3927        3936        3935
        3927        3928        3937        3936
        3928        3929        3938        3937
        3929        3930        3939        3938
        3930        3931        3940        3939
        3931        3932        3941        3940
        3933        3934        3943        3942
        3934        3935        3944        3943
        3935        3936        3945        3944
        3936        3937        3946        3945
        3937        3938        3947        3946
        3938        3939        3948        3947
        3939        3940        3949        3948
        3940        3941        3950        3949
        3942        3943        3952        3951
        3943        3944        3953        3952
        3944        3945        3954        3953
        3945        3946        3955        3954
        3946        3947        3956        3955
        3947        3948        3957        3956
        3948        3949        3958        3957
        3949        3950        3959        3958
        3951        3952        3961        3960
        3952        3953        3962        3961
        3953        3954        3963        3962
        3954        3955        3964        3963
        3955        3956        3965        3964
        3956        3957        3966        3965
        3957        3958        3967        3966
        3958        3959        3968        3967
        3969        3970        3979        3978
        3970        3971        3980        3979
        3971        3972        3981        3980
        3972        3973        3982        3981
        3973        3974        3983        3982
        3974        3975        3984        3983
        3975        3976        3985        3984
        3976        3977        3986        3985
        3978        3979        3988        3987
        3979        3980        3989        3988
        3980        3981        3990        3989
        3981        3982        3991        3990
        3982        3983        3992        3991
        3983        3984        3993        3992
        3984        3985        3994        3993
        3985        3986        3995        3994
        3987        3988        3997        3996
        3988        3989        3998        3997
        3989        3990        3999        3998
        3990        3991        4000        3999
        3991        3992        4001        4000
        3992        3993        4002        4001
        3993        3994        4003        4002
        3994        3995        4004        4003
        3996        3997        4006        4005
        3997        3998        4007        4006
        3998        3999        4008        4007
        3999        4000        4009        4008
        4000        4001        4010        4009
        4001        4002        4011        4010
        4002        4003        4012        4011
        4003        4004        4013        4012
        4005        4006        4015        4014
        4006        4007        4016        4015
        4007        4008        4017        4016
        4008        4009        4018        4017
        4009        4010        4019        4018
        4010        4011        4020        4019
        4011        4012        4021        4020
        4012        4013        4022        4021
        4014        4015        4024        4023
        4015        4016        4025        4024
        4016        4017        4026        4025
        4017        4018        4027        4026
        4018        4019        4028        4027
        4019        4020        4029        4028
        4020        4021        4030        4029
        4021        4022        4031        4030
        4023        4024        4033        4032
        4024        4025        4034        4033
        4025        4026        4035        4034
        4026        4027        4036        4035
        4027        4028        4037        4036
        4028        4029        4038        4037
        4029        4030        4039        4038
        4030        4031        4040        4039
        4032        4033        4042        4041
        4033        4034        4043        4042
        4034        4035        4044        4043
        4035        4036        4045        4044
        4036        4037        4046        4045
        4037        4038        4047        4046
        4038        4039        4048        4047
        4039        4040        4049        4048
        4050        4051        4060        4059
        4051        4052        4061        4060
        4052        4053        4062        4061
        4053        4054        4063        4062
        4054        4055        4064        4063
        4055        4056        4065        4064
        4056        4057        4066        4065
        4057        4058        4067        4066
        4059        4060        4069        4068
        4060        4061        4070        4069
        4061        4062        4071        4070
        4062        4063        4072        4071
        4063        4064        4073        4072
        4064        4065        4074        4073
        4065        4066        4075        4074
        4066        4067        4076        4075
        4068        4069        4078        4077
        4069        4070        4079        4078
        4070        4071        4080        4079
        4071        4072        4081        4080
        4072        4073        4082        4081
        4073        4074        4083        4082
        4074        4075        4084        4083
        4075        4076        4085        4084
        4077        4078        4087        4086
        4078        4079        4088        4087
        4079        4080        4089        4088
        4080        4081        4090        4089
        4081        4082        4091        4090
        4082        4083        4092        4091
        4083        4084        4093        4092
        4084        4085        4094        4093
        4086        4087        4096        4095
        4087        4088        4097        4096
        4088        4089        4098        4097
        4089        4090        4099        4098
        4090        4091        4100        4099
        4091        4092        4101        4100
        4092        4093        4102        4101
        4093        4094        4103        4102
        4095        4096        4105        4104
        4096        4097        4106        4105
        4097        4098        4107        4106
        4098        4099        4108        4107
        4099        4100        4109        4108
        4100        4101        4110        4109
        4101        4102        4111        4110
        4102        4103        4112        4111
        4104        4105        4114        4113
        4105        4106        4115        4114
        4106        4107        4116        4115
        4107        4108        4117        4116
        4108        4109        4118        4117
        4109        4110        4119        4118
        4110        4111        4120        4119
        4111        4112        4121        4120
        4113        4114        4123        4122
        4114        4115        4124        4123
        4115        4116        4125        4124
        4116        4117        4126        4125
        4117        4118        4127        4126
        4118        4119        4128        4127
        4119        4120        4129        4128
        4120        4121        4130        4129
        4131        4132        4141        4140
        4132        4133        4142        4141
        4133        4134        4143        4142
        4134        4135        4144        4143
        4135        4136        4145        4144
        4136        4137        4146        4145
        4137        4138        4147        4146
        4138        4139        4148        4147
        4140        4141        4150        4149
        4141        4142        4151        4150
        4142        4143        4152        4151
        4143        4144        4153        4152
        4144        4145        4154        4153
        4145        4146        4155        4154
        4146        4147        4156        4155
        4147        4148        4157        4156
        4149        4150        4159        4158
        4150        4151        4160        4159
        4151        4152        4161        4160
        4152        4153        4162        4161
        4153        4154        4163        4162
        4154        4155        4164        4163
        4155        4156        4165        4164
        4156        4157        4166        4165
        4158        4159        4168        4167
        4159        4160        4169        4168
        4160        4161        4170        4169
        4161        4162        4171        4170
        4162        4163        4172        4171
        4163        4164        4173        4172
        4164        4165        4174        4173
        4165        4166        4175        4174
        4167        4168        4177        4176
        4168        4169        4178        4177
        4169        4170        4179        4178
        4170        4171        4180        4179
        4171        4172        4181        4180
        4172        4173        4182        4181
        4173        4174        4183        4182
        4174        4175        4184        4183
        4176        4177        4186        4185
        4177        4178        4187        4186
        4178        4179        4188        4187
        4179        4180        4189        4188
        4180        4181        4190        4189
        4181        4182        4191        4190
        4182        4183        4192        4191
        4183        4184        4193        4192
        4185        4186        4195        4194
        4186        4187        4196        4195
        4187        4188        4197        4196
        4188        4189        4198        4197
        4189        4190        4199        4198
        4190        4191        4200        4199
        4191        4192        4201        4200
        4192        4193        4202        4201
        4194        4195        4204        4203
        4195        4196        4205        4204
        4196        4197        4206        4205
        4197        4198        4207        4206
        4198        4199        4208        4207
        4199        4200        4209        4208
        4200        4201        4210        4209
        4201        4202        4211        4210
        4212        4213        4222        4221
        4213        4214        4223        4222
        4214        4215        4224        4223
        4215        4216        4225        4224
        4216        4217        4226        4225
        4217        4218        4227        4226
        4218        4219        4228        4227
        4219        4220        4229        4228
        4221        4222        4231        4230
        4222        4223        4232        4231
        4223        4224        4233        4232
        4224        4225        4234        4233
        4225        4226        4235        4234
        4226        4227        4236        4235
        4227        4228        4237        4236
        4228        4229        4238        4237
        4230        4231        4240        4239
        4231        4232        4241        4240
        4232        4233        4242        4241
        4233        4234        4243        4242
        4234        4235        4244        4243
        4235        4236        4245        4244
        4236        4237        4246        4245
        4237        4238        4247        4246
        4239        4240        4249        4248
        4240        4241        4250        4249
        4241        4242        4251        4250
        4242        4243        4252        4251
        4243        4244        4253        4252
        4244        4245        4254        4253
        4245        4246        4255        4254
        4246        4247        4256        4255
        4248        4249        4258        4257
        4249        4250        4259        4258
        4250        4251        4260        4259
        4251        4252        4261        4260
        4252        4253        4262        4261
        4253        4254        4263        4262
        4254        4255        4264        4263
        4255        4256        4265        4264
        4257        4258        4267        4266
        4258        4259        4268        4267
        4259        4260        4269        4268
        4260        4261        4270        4269
        4261        4262        4271        4270
        4262        4263        4272        4271
        4263        4264        4273        4272
        4264        4265        4274        4273
        4266        4267        4276        4275
        4267        4268        4277        4276
        4268        4269        4278        4277
        4269        4270        4279        4278
        4270        4271        4280        4279
        4271        4272        4281        4280
        4272        4273        4282        4281
        4273        4274        4283        4282
        4275        4276        4285        4284
        4276        4277        4286        4285
        4277        4278        4287        4286
        4278        4279        4288        4287
        4279        4280        4289        4288
        4280        4281        4290        4289
        4281        4282        4291        4290
        4282        4283        4292        4291
        4293        4294        4303        4302
        4294        4295        4304        4303
        4295        4296        4305        4304
        4296        4297        4306        4305
        4297        4298        4307        4306
        4298        4299        4308        4307
        4299        4300        4309        4308
        4300        4301        4310        4309
        4302        4303        4312        4311
        4303        4304        4313        4312
        4304        4305        4314        4313
        4305        4306        4315        4314
        4306        4307        4316        4315
        4307        4308        4317        4316
        4308        4309        4318        4317
        4309        4310        4319        4318
        4311        4312        4321        4320
        4312        4313        4322        4321
        4313        4314        4323        4322
        4314        4315        4324        4323
        4315        4316        4325        4324
        4316        4317        4326        4325
        4317        4318        4327        4326
        4318        4319        4328        4327
        4320        4321        4330        4329
        4321        4322        4331        4330
        4322        4323        4332        4331
        4323        4324        4333        4332
        4324        4325        4334        4333
        4325        4326        4335        4334
        4326        4327        4336        4335
        4327        4328        4337        4336
        4329        4330        4339        4338
        4330        4331        4340        4339
        4331        4332        4341        4340
        4332        4333        4342        4341
        4333        4334        4343        4342
        4334        4335        4344        4343
        4335        4336        4345        4344
        4336        4337        4346        4345
        4338        4339        4348        4347
        4339        4340        4349        4348
        4340        4341        4350        4349
        4341        4342        4351        4350
        4342        4343        4352        4351
        4343        4344        4353        4352
        4344        4345        4354        4353
        4345        4346        4355        4354
        4347        4348        4357        4356
        4348        4349        4358        4357
        4349        4350        4359        4358
        4350        4351        4360        4359
        4351        4352        4361        4360
        4352        4353        4362        4361
        4353        4354        4363        4362
        4354        4355        4364        4363
        4356        4357        4366        4365
        4357        4358        4367        4366
        4358        4359        4368        4367
        4359        4360        4369        4368
        4360        4361        4370        4369
        4361        4362        4371        4370
        4362        4363        4372        4371
        4363        4364        4373        4372
        4374        4375        4384        4383
        4375        4376        4385        4384
        4376        4377        4386        4385
        4377        4378        4387        4386
        4378        4379        4388        4387
        4379        4380        4389        4388
        4380        4381        4390        4389
        4381        4382        4391        4390
        4383        4384        4393        4392
        4384        4385        4394        4393
        4385        4386        4395        4394
        4386        4387        4396        4395
        4387        4388        4397        4396
        4388        4389        4398        4397
        4389        4390        4399        4398
        4390        4391        4400        4399
        4392        4393        4402        4401
        4393        4394        4403        4402
        4394        4395        4404        4403
        4395        4396        4405        4404
        4396        4397        4406        4405
        4397        4398        4407        4406
        4398        4399        4408        4407
        4399        4400        4409        4408
        4401        4402        4411        4410
        4402        4403        4412        4411
        4403        4404        4413        4412
        4404        4405        4414        4413
        4405        4406        4415        4414
        4406        4407        4416        4415
        4407        4408        4417        4416
        4408        4409        4418        4417
        4410        4411        4420        4419
        4411        4412        4421        4420
        4412        4413        4422        4421
        4413        4414        4423        4422
        4414        4415        4424        4423
        4415        4416        4425        4424
        4416        4417        4426        4425
        4417        4418        4427        4426
        4419        4420        4429        4428
        4420        4421        4430        4429
        4421        4422        4431        4430
        4422        4423        4432        4431
        4423        4424        4433        4432
        4424        4425        4434        4433
        4425        4426        4435        4434
        4426        4427        4436        4435
        4428        4429        4438        4437
        4429        4430        4439        4438
        4430        4431        4440        4439
        4431        4432        4441        4440
        4432        4433        4442        4441
        4433        4434        4443        4442
        4434        4435        4444        4443
        4435        4436        4445        4444
        4437        4438        4447        4446
        4438        4439        4448        4447
        4439        4440        4449        4448
        4440        4441        4450        4449
        4441        4442        4451        4450
        4442        4443        4452        4451
        4443        4444        4453        4452
        4444        4445        4454        4453
        4455        4456        4465        4464
        4456        4457        4466        4465
        4457        4458        4467        4466
        4458        4459        4468        4467
        4459        4460        4469        4468
        4460        4461        4470        4469
        4461        4462        4471        4470
        4462        4463        4472        4471
        4464        4465        4474        4473
        4465        4466        4475        4474
        4466        4467        4476        4475
        4467        4468        4477        4476
        4468        4469        4478        4477
        4469        4470        4479        4478
        4470        4471        4480        4479
        4471        4472        4481        4480
        4473        4474        4483        4482
        4474        4475        4484        4483
        4475        4476        4485        4484
        4476        4477        4486        4485
        4477        4478        4487        4486
        4478        4479        4488        4487
        4479        4480        4489        4488
        4480        4481        4490        4489
        4482        4483        4492        4491
        4483        4484        4493        4492
        4484        4485        4494        4493
        4485        4486        4495        4494
        4486        4487        4496        4495
        4487        4488        4497        4496
        4488        4489        4498        4497
        4489        4490        4499        4498
        4491        4492        4501        4500
        4492        4493        4502        4501
        4493        4494        4503        4502
        4494        4495        4504        4503
        4495        4496        4505        4504
        4496        4497        4506        4505
        4497        4498        4507        4506
        4498        4499        4508        4507
        4500        4501        4510        4509
        4501        4502        4511        4510
        4502        4503        4512        4511
        4503        4504        4513        4512
        4504        4505        4514        4513
        4505        4506        4515        4514
        4506        4507        4516        4515
        4507        4508        4517        4516
        4509        4510        4519        4518
        4510        4511        4520        4519
        4511        4512        4521        4520
        4512        4513        4522        4521
        4513        4514        4523        4522
        4514        4515        4524        4523
        4515        4516        4525        4524
        4516        4517        4526        4525
        4518        4519        4528        4527
        4519        4520        4529        4528
        4520        4521        4530        4529
        4521        4522        4531        4530
        4522        4523        4532        4531
        4523        4524        4533        4532
        4524        4525        4534        4533
        4525        4526        4535        4534
        4536        4537        4546        4545
        4537        4538        4547        4546
        4538        4539        4548        4547
        4539        4540        4549        4548
        4540        4541        4550        4549
        4541        4542        4551        4550
        4542        4543        4552        4551
        4543        4544        4553        4552
        4545        4546        4555        4554
        4546        4547        4556        4555
        4547        4548        4557        4556
        4548        4549        4558        4557
        4549        4550        4559        4558
        4550        4551        4560        4559
        4551        4552        4561        4560
        4552        4553        4562        4561
        4554        4555        4564        4563
        4555        4556        4565        4564
        4556        4557        4566        4565
        4557        4558        4567        4566
        4558        4559        4568        4567
        4559        4560        4569        4568
        4560        4561        4570        4569
        4561        4562        4571        4570
        4563        4564        4573        4572
        4564        4565        4574        4573
        4565        4566        4575        4574
        4566        4567        4576        4575
        4567        4568        4577        4576
        4568        4569        4578        4577
        4569        4570        4579        4578
        4570        4571        4580        4579
        4572        4573        4582        4581
        4573        4574        4583        4582
        4574        4575        4584        4583
        4575        4576        4585        4584
        4576        4577        4586        4585
        4577        4578        4587        4586
        4578        4579        4588        4587
        4579        4580        4589        4588
        4581        4582        4591        4590
        4582        4583        4592        4591
        4583        4584        4593        4592
        4584        4585        4594        4593
        4585        4586        4595        4594
        4586        4587        4596        4595
        4587        4588        4597        4596
        4588        4589        4598        4597
        4590        4591        4600        4599
        4591        4592        4601        4600
        4592        4593        4602        4601
        4593        4594        4603        4602
        4594        4595        4604        4603
        4595        4596        4605        4604
        4596        4597        4606        4605
        4597        4598        4607        4606
        4599        4600        4609        4608
        4600        4601        4610        4609
        4601        4602        4611        4610
        4602        4603        4612        4611
        4603        4604        4613        4612
        4604        4605        4614        4613
        4605        4606        4615        4614
        4606        4607        4616        4615
        4617        4618        4627        4626
        4618        4619        4628        4627
        4619        4620        4629        4628
        4620        4621        4630        4629
        4621        4622        4631        4630
        4622        4623        4632        4631
        4623        4624        4633        4632
        4624        4625        4634        4633
        4626        4627        4636        4635
        4627        4628        4637        4636
        4628        4629        4638        4637
        4629        4630        4639        4638
        4630        4631        4640        4639
        4631        4632        4641        4640
        4632        4633        4642        4641
        4633        4634        4643        4642
        4635        4636        4645        4644
        4636        4637        4646        4645
        4637        4638        4647        4646
        4638        4639        4648        4647
        4639        4640        4649        4648
        4640        4641        4650        4649
        4641        4642        4651        4650
        4642        4643        4652        4651
        4644        4645        4654        4653
        4645        4646        4655        4654
        4646        4647        4656        4655
        4647        4648        4657        4656
        4648        4649        4658        4657
        4649        4650        4659        4658
        4650        4651        4660        4659
        4651        4652        4661        4660
        4653        4654        4663        4662
        4654        4655        4664        4663
        4655        4656        4665        4664
        4656        4657        4666        4665
        4657        4658        4667        4666
        4658        4659        4668        4667
        4659        4660        4669        4668
        4660        4661        4670        4669
        4662        4663        4672        4671
        4663        4664        4673        4672
        4664        4665        4674        4673
        4665        4666        4675        4674
        4666        4667        4676        4675
        4667        4668        4677        4676
        4668        4669        4678        4677
        4669        4670        4679        4678
        4671        4672        4681        4680
        4672        4673        4682        4681
        4673        4674        4683        4682
        4674        4675        4684        4683
        4675        4676        4685        4684
        4676        4677        4686        4685
        4677        4678        4687        4686
        4678        4679        4688        4687
        4680        4681        4690        4689
        4681        4682        4691        4690
        4682        4683        4692        4691
        4683        4684        4693        4692
        4684        4685        4694        4693
        4685        4686        4695        4694
        4686        4687        4696        4695
        4687        4688        4697        4696
        4698        4699        4708        4707
        4699        4700        4709        4708
        4700        4701        4710        4709
        4701        4702        4711        4710
        4702        4703        4712        4711
        4703        4704        4713        4712
        4704        4705        4714        4713
        4705        4706        4715        4714
        4707        4708        4717        4716
        4708        4709        4718        4717
        4709        4710        4719        4718
        4710        4711        4720        4719
        4711        4712        4721        4720
        4712        4713        4722        4721
        4713        4714        4723        4722
        4714        4715        4724        4723
        4716        4717        4726        4725
        4717        4718        4727        4726
        4718        4719        4728        4727
        4719        4720        4729        4728
        4720        4721        4730        4729
        4721        4722        4731        4730
        4722        4723        4732        4731
        4723        4724        4733        4732
        4725        4726        4735        4734
        4726        4727        4736        4735
        4727        4728        4737        4736
        4728        4729        4738        4737
        4729        4730        4739        4738
        4730        4731        4740        4739
        4731        4732        4741        4740
        4732        4733        4742        4741
        4734        4735        4744        4743
        4735        4736        4745        4744
        4736        4737        4746        4745
        4737        4738        4747        4746
        4738        4739        4748        4747
        4739        4740        4749        4748
        4740        4741        4750        4749
        4741        4742        4751        4750
        4743        4744        4753        4752
        4744        4745        4754        4753
        4745        4746        4755        4754
        4746        4747        4756        4755
        4747        4748        4757        4756
        4748        4749        4758        4757
        4749        4750        4759        4758
        4750        4751        4760        4759
        4752        4753        4762        4761
        4753        4754        4763        4762
        4754        4755        4764        4763
        4755        4756        4765        4764
        4756        4757        4766        4765
        4757        4758        4767        4766
        4758        4759        4768        4767
        4759        4760        4769        4768
        4761        4762        4771        4770
        4762        4763        4772        4771
        4763        4764        4773        4772
        4764        4765        4774        4773
        4765        4766        4775        4774
        4766        4767        4776        4775
        4767        4768        4777        4776
        4768        4769        4778        4777
        4779        4780        4789        4788
        4780        4781        4790        4789
        4781        4782        4791        4790
        4782        4783        4792        4791
        4783        4784        4793        4792
        4784        4785        4794        4793
        4785        4786        4795        4794
        4786        4787        4796        4795
        4788        4789        4798        4797
        4789        4790        4799        4798
        4790        4791        4800        4799
        4791        4792        4801        4800
        4792        4793        4802        4801
        4793        4794        4803        4802
        4794        4795        4804        4803
        4795        4796        4805        4804
        4797        4798        4807        4806
        4798        4799        4808        4807
        4799        4800        4809        4808
        4800        4801        4810        4809
        4801        4802        4811        4810
        4802        4803        4812        4811
        4803        4804        4813        4812
        4804        4805        4814        4813
        4806        4807        4816        4815
        4807        4808        4817        4816
        4808        4809        4818        4817
        4809        4810        4819        4818
        4810        4811        4820        4819
        4811        4812        4821        4820
        4812        4813        4822        4821
        4813        4814        4823        4822
        4815        4816        4825        4824
        4816        4817        4826        4825
        4817        4818        4827        4826
        4818        4819        4828        4827
        4819        4820        4829        4828
        4820        4821        4830        4829
        4821        4822        4831        4830
        4822        4823        4832        4831
        4824        4825        4834        4833
        4825        4826        4835        4834
        4826        4827        4836        4835
        4827        4828        4837        4836
        4828        4829        4838        4837
        4829        4830        4839        4838
        4830        4831        4840        4839
        4831        4832        4841        4840
        4833        4834        4843        4842
        4834        4835        4844        4843
        4835        4836        4845        4844
        4836        4837        4846        4845
        4837        4838        4847        4846
        4838        4839        4848        4847
        4839        4840        4849        4848
        4840        4841        4850        4849
        4842        4843        4852        4851
        4843        4844        4853        4852
        4844        4845        4854        4853
        4845        4846        4855        4854
        4846        4847        4856        4855
        4847        4848        4857        4856
        4848        4849        4858        4857
        4849        4850        4859        4858
        4860        4861        4870        4869
        4861        4862        4871        4870
        4862        4863        4872        4871
        4863        4864        4873        4872
        4864        4865        4874        4873
        4865        4866        4875        4874
        4866        4867        4876        4875
        4867        4868        4877        4876
        4869        4870        4879        4878
        4870        4871        4880        4879
        4871        4872        4881        4880
        4872        4873        4882        4881
        4873        4874        4883        4882
        4874        4875        4884        4883
        4875        4876        4885        4884
        4876        4877        4886        4885
        4878        4879        4888        4887
        4879        4880        4889        4888
        4880        4881        4890        4889
        4881        4882        4891        4890
        4882        4883        4892        4891
        4883        4884        4893        4892
        4884        4885        4894        4893
        4885        4886        4895        4894
        4887        4888        4897        4896
        4888        4889        4898        4897
        4889        4890        4899        4898
        4890        4891        4900        4899
        4891        4892        4901        4900
        4892        4893        4902        4901
        4893        4894        4903        4902
        4894        4895        4904        4903
        4896        4897        4906        4905
        4897        4898        4907        4906
        4898        4899        4908        4907
        4899        4900        4909        4908
        4900        4901        4910        4909
        4901        4902        4911        4910
        4902        4903        4912        4911
        4903        4904        4913        4912
        4905        4906        4915        4914
        4906        4907        4916        4915
        4907        4908        4917        4916
        4908        4909        4918        4917
        4909        4910        4919        4918
        4910        4911        4920        4919
        4911        4912        4921        4920
        4912        4913        4922        4921
        4914        4915        4924        4923
        4915        4916        4925        4924
        4916        4917        4926        4925
        4917        4918        4927        4926
        4918        4919        4928        4927
        4919        4920        4929        4928
        4920        4921        4930        4929
        4921        4922        4931        4930
        4923        4924        4933        4932
        4924        4925        4934        4933
        4925        4926        4935        4934
        4926        4927        4936        4935
        4927        4928        4937        4936
        4928        4929        4938        4937
        4929        4930        4939        4938
        4930        4931        4940        4939
        4941        4942        4951        4950
        4942        4943        4952        4951
        4943        4944        4953        4952
        4944        4945        4954        4953
        4945        4946        4955        4954
        4946        4947        4956        4955
        4947        4948        4957        4956
        4948        4949        4958        4957
        4950        4951        4960        4959
        4951        4952        4961        4960
        4952        4953        4962        4961
        4953        4954        4963        4962
        4954        4955        4964        4963
        4955        4956        4965        4964
        4956        4957        4966        4965
        4957        4958        4967        4966
        4959        4960        4969        4968
        4960        4961        4970        4969
        4961        4962        4971        4970
        4962        4963        4972        4971
        4963        4964        4973        4972
        4964        4965        4974        4973
        4965        4966        4975        4974
        4966        4967        4976        4975
        4968        4969        4978        4977
        4969        4970        4979        4978
        4970        4971        4980        4979
        4971        4972        4981        4980
        4972        4973        4982        4981
        4973        4974        4983        4982
        4974        4975        4984        4983
        4975        4976        4985        4984
        4977        4978        4987        4986
        4978        4979        4988        4987
        4979        4980        4989        4988
        4980        4981        4990        4989
        4981        4982        4991        4990
        4982        4983        4992        4991
        4983        4984        4993        4992
        4984        4985        4994        4993
        4986        4987        4996        4995
        4987        4988        4997        4996
        4988        4989        4998        4997
        4989        4990        4999        4998
        4990        4991        5000        4999
        4991        4992        5001        5000
        4992        4993        5002        5001
        4993        4994        5003        5002
        4995        4996        5005        5004
        4996        4997        5006        5005
        4997        4998        5007        5006
        4998        4999        5008        5007
        4999        5000        5009        5008
        5000        5001        5010        5009
        5001        5002        5011        5010
        5002        5003        5012        5011
        5004        5005        5014        5013
        5005        5006        5015        5014
        5006        5007        5016        5015
        5007        5008        5017        5016
        5008        5009        5018        5017
        5009        5010        5019        5018
        5010        5011        5020        5019
        5011        5012        5021        5020
        5022        5023        5032        5031
        5023        5024        5033        5032
        5024        5025        5034        5033
        5025        5026        5035        5034
        5026        5027        5036        5035
        5027        5028        5037        5036
        5028        5029        5038        5037
        5029        5030        5039        5038
        5031        5032        5041        5040
        5032        5033        5042        5041
        5033        5034        5043        5042
        5034        5035        5044        5043
        5035        5036        5045        5044
        5036        5037        5046        5045
        5037        5038        5047        5046
        5038        5039        5048        5047
        5040        5041        5050        5049
        5041        5042        5051        5050
        5042        5043        5052        5051
        5043        5044        5053        5052
        5044        5045        5054        5053
        5045        5046        5055        5054
        5046        5047        5056        5055
        5047        5048        5057        5056
        5049        5050        5059        5058
        5050        5051        5060        5059
        5051        5052        5061        5060
        5052        5053        5062        5061
        5053        5054        5063        5062
        5054        5055        5064        5063
        5055        5056        5065        5064
        5056        5057        5066        5065
        5058        5059        5068        5067
        5059        5060        5069        5068
        5060        5061        5070        5069
        5061        5062        5071        5070
        5062        5063        5072        5071
        5063        5064        5073        5072
        5064        5065        5074        5073
        5065        5066        5075        5074
        5067        5068        5077        5076
        5068        5069        5078        5077
        5069        5070        5079        5078
        5070        5071        5080        5079
        5071        5072        5081        5080
        5072        5073        5082        5081
        5073        5074        5083        5082
        5074        5075        5084        5083
        5076        5077        5086        5085
        5077        5078        5087        5086
        5078        5079        5088        5087
        5079        5080        5089        5088
        5080        5081        5090        5089
        5081        5082        5091        5090
        5082        5083        5092        5091
        5083        5084        5093        5092
        5085        5086        5095        5094
        5086        5087        5096        5095
        5087        5088        5097        5096
        5088        5089        5098        5097
        5089        5090        5099        5098
        5090        5091        5100        5099
        5091        5092        5101        5100
        5092        5093        5102        5101
        5103        5104        5113        5112
        5104        5105        5114        5113
        5105        5106        5115        5114
        5106        5107        5116        5115
        5107        5108        5117        5116
        5108        5109        5118        5117
        5109        5110        5119        5118
        5110        5111        5120        5119
        5112        5113        5122        5121
        5113        5114        5123        5122
        5114        5115        5124        5123
        5115        5116        5125        5124
        5116        5117        5126        5125
        5117        5118        5127        5126
        5118        5119        5128        5127
        5119        5120        5129        5128
        5121        5122        5131        5130
        5122        5123        5132        5131
        5123        5124        5133        5132
        5124        5125        5134        5133
        5125        5126        5135        5134
        5126        5127        5136        5135
        5127        5128        5137        5136
        5128        5129        5138        5137
        5130        5131        5140        5139
        5131        5132        5141        5140
        5132        5133        5142        5141
        5133        5134        5143        5142
        5134        5135        5144        5143
        5135        5136        5145        5144
        5136        5137        5146        5145
        5137        5138        5147        5146
        5139        5140        5149        5148
        5140        5141        5150        5149
        5141        5142        5151        5150
        5142        5143        5152        5151
        5143        5144        5153        5152
        5144        5145        5154        5153
        5145        5146        5155        5154
        5146        5147        5156        5155
        5148        5149        5158        5157
        5149        5150        5159        5158
        5150        5151        5160        5159
        5151        5152        5161        5160
        5152        5153        5162        5161
        5153        5154        5163        5162
        5154        5155        5164        5163
        5155        5156        5165        5164
        5157        5158        5167        5166
        5158        5159        5168        5167
        5159        5160        5169        5168
        5160        5161        5170        5169
        5161        5162        5171        5170
        5162        5163        5172        5171
        5163        5164        5173        5172
        5164        5165        5174        5173
        5166        5167        5176        5175
        5167        5168        5177        5176
        5168        5169        5178        5177
        5169        5170        5179        5178
        5170        5171        5180        5179
        5171        5172        5181        5180
        5172        5173        5182        5181
        5173        5174        5183        5182
 </DataArray>
 <DataArray  type="Int32"  Name="offsets"  format="ascii"> 
           4
           8
          12
          16
          20
          24
          28
          32
          36
          40
          44
          48
          52
          56
          60
          64
          68
          72
          76
          80
          84
          88
          92
          96
         100
         104
         108
         112
         116
         120
         124
         128
         132
         136
         140
         144
         148
         152
         156
         160
         164
         168
         172
         176
         180
         184
         188
         192
         196
         200
         204
         208
         212
         216
         220
         224
         228
         232
         236
         240
         244
         248
         252
         256
         260
         264
         268
         272
         276
         280
         284
         288
         292
         296
         300
         304
         308
         312
         316
         320
         324
         328
         332
         336
         340
         344
         348
         352
         356
         360
         364
         368
         372
         376
         380
         384
         388
         392
         396
         400
         404
         408
         412
         416
         420
         424
         428
         432
         436
         440
         444
         448
         452
         456
         460
         464
         468
         472
         476
         480
         484
         488
         492
         496
         500
         504
         508
         512
         516
         520
         524
         528
         532
         536
         540
         544
         548
         552
         556
         560
         564
         568
         572
         576
         580
         584
         588
         592
         596
         600
         604
         608
         612
         616
         620
         624
         628
         632
         636
         640
         644
         648
         652
         656
         660
         664
         668
         672
         676
         680
         684
         688
         692
         696
         700
         704
         708
         712
         716
         720
         724
         728
         732
         736
         740
         744
         748
         752
         756
         760
         764
         768
         772
         776
         780
         784
         788
         792
         796
         800
         804
         808
         812
         816
         820
         824
         828
         832
         836
         840
         844
         848
         852
         856
         860
         864
         868
         872
         876
         880
         884
         888
         892
         896
         900
         904
         908
         912
         916
         920
         924
         928
         932
         936
         940
         944
         948
         952
         956
         960
         964
         968
         972
         976
         980
         984
         988
         992
         996
        1000
        1004
        1008
        1012
        1016
        1020
        1024
        1028
        1032
        1036
        1040
        1044
        1048
        1052
        1056
        1060
        1064
        1068
        1072
        1076
        1080
        1084
        1088
        1092
        1096
        1100
        1104
        1108
        1112
        1116
        1120
        1124
        1128
        1132
        1136
        1140
        1144
        1148
        1152
        1156
        1160
        1164
        1168
        1172
        1176
        1180
        1184
        1188
        1192
        1196
        1200
        1204
        1208
        1212
        1216
        1220
        1224
        1228
        1232
        1236
        1240
        1244
        1248
        1252
        1256
        1260
        1264
        1268
        1272
        1276
        1280
        1284
        1288
        1292
        1296
        1300
        1304
        1308
        1312
        1316
        1320
        1324
        1328
        1332
        1336
        1340
        1344
        1348
        1352
        1356
        1360
        1364
        1368
        1372
        1376
        1380
        1384
        1388
        1392
        1396
        1400
        1404
        1408
        1412
        1416
        1420
        1424
        1428
        1432
        1436
        1440
        1444
        1448
        1452
        1456
        1460
        1464
        1468
        1472
        1476
        1480
        1484
        1488
        1492
        1496
        1500
        1504
        1508
        1512
        1516
        1520
        1524
        1528
        1532
        1536
        1540
        1544
        1548
        1552
        1556
        1560
        1564
        1568
        1572
        1576
        1580
        1584
        1588
        1592
        1596
        1600
        1604
        1608
        1612
        1616
        1620
        1624
        1628
        1632
        1636
        1640
        1644
        1648
        1652
        1656
        1660
        1664
        1668
        1672
        1676
        1680
        1684
        1688
        1692
        1696
        1700
        1704
        1708
        1712
        1716
        1720
        1724
        1728
        1732
        1736
        1740
        1744
        1748
        1752
        1756
        1760
        1764
        1768
        1772
        1776
        1780
        1784
        1788
        1792
        1796
        1800
        1804
        1808
        1812
        1816
        1820
        1824
        1828
        1832
        1836
        1840
        1844
        1848
        1852
        1856
        1860
        1864
        1868
        1872
        1876
        1880
        1884
        1888
        1892
        1896
        1900
        1904
        1908
        1912
        1916
        1920
        1924
        1928
        1932
        1936
        1940
        1944
        1948
        1952
        1956
        1960
        1964
        1968
        1972
        1976
        1980
        1984
        1988
        1992
        1996
        2000
        2004
        2008
        2012
        2016
        2020
        2024
        2028
        2032
        2036
        2040
        2044
        2048
        2052
        2056
        2060
        2064
        2068
        2072
        2076
        2080
        2084
        2088
        2092
        2096
        2100
        2104
        2108
        2112
        2116
        2120
        2124
        2128
        2132
        2136
        2140
        2144
        2148
        2152
        2156
        2160
        2164
        2168
        2172
        2176
        2180
        2184
        2188
        2192
        2196
        2200
        2204
        2208
        2212
        2216
        2220
        2224
        2228
        2232
        2236
        2240
        2244
        2248
        2252
        2256
        2260
        2264
        2268
        2272
        2276
        2280
        2284
        2288
        2292
        2296
        2300
        2304
        2308
        2312
        2316
        2320
        2324
        2328
        2332
        2336
        2340
        2344
        2348
        2352
        2356
        2360
        2364
        2368
        2372
        2376
        2380
        2384
        2388
        2392
        2396
        2400
        2404
        2408
        2412
        2416
        2420
        2424
        2428
        2432
        2436
        2440
        2444
        2448
        2452
        2456
        2460
        2464
        2468
        2472
        2476
        2480
        2484
        2488
        2492
        2496
        2500
        2504
        2508
        2512
        2516
        2520
        2524
        2528
        2532
        2536
        2540
        2544
        2548
        2552
        2556
        2560
        2564
        2568
        2572
        2576
        2580
        2584
        2588
        2592
        2596
        2600
        2604
        2608
        2612
        2616
        2620
        2624
        2628
        2632
        2636
        2640
        2644
        2648
        2652
        2656
        2660
        2664
        2668
        2672
        2676
        2680
        2684
        2688
        2692
        2696
        2700
        2704
        2708
        2712
        2716
        2720
        2724
        2728
        2732
        2736
        2740
        2744
        2748
        2752
        2756
        2760
        2764
        2768
        2772
        2776
        2780
        2784
        2788
        2792
        2796
        2800
        2804
        2808
        2812
        2816
        2820
        2824
        2828
        2832
        2836
        2840
        2844
        2848
        2852
        2856
        2860
        2864
        2868
        2872
        2876
        2880
        2884
        2888
        2892
        2896
        2900
        2904
        2908
        2912
        2916
        2920
        2924
        2928
        2932
        2936
        2940
        2944
        2948
        2952
        2956
        2960
        2964
        2968
        2972
        2976
        2980
        2984
        2988
        2992
        2996
        3000
        3004
        3008
        3012
        3016
        3020
        3024
        3028
        3032
        3036
        3040
        3044
        3048
        3052
        3056
        3060
        3064
        3068
        3072
        3076
        3080
        3084
        3088
        3092
        3096
        3100
        3104
        3108
        3112
        3116
        3120
        3124
        3128
        3132
        3136
        3140
        3144
        3148
        3152
        3156
        3160
        3164
        3168
        3172
        3176
        3180
        3184
        3188
        3192
        3196
        3200
        3204
        3208
        3212
        3216
        3220
        3224
        3228
        3232
        3236
        3240
        3244
        3248
        3252
        3256
        3260
        3264
        3268
        3272
        3276
        3280
        3284
        3288
        3292
        3296
        3300
        3304
        3308
        3312
        3316
        3320
        3324
        3328
        3332
        3336
        3340
        3344
        3348
        3352
        3356
        3360
        3364
        3368
        3372
        3376
        3380
        3384
        3388
        3392
        3396
        3400
        3404
        3408
        3412
        3416
        3420
        3424
        3428
        3432
        3436
        3440
        3444
        3448
        3452
        3456
        3460
        3464
        3468
        3472
        3476
        3480
        3484
        3488
        3492
        3496
        3500
        3504
        3508
        3512
        3516
        3520
        3524
        3528
        3532
        3536
        3540
        3544
        3548
        3552
        3556
        3560
        3564
        3568
        3572
        3576
        3580
        3584
        3588
        3592
        3596
        3600
        3604
        3608
        3612
        3616
        3620
        3624
        3628
        3632
        3636
        3640
        3644
        3648
        3652
        3656
        3660
        3664
        3668
        3672
        3676
        3680
        3684
        3688
        3692
        3696
        3700
        3704
        3708
        3712
        3716
        3720
        3724
        3728
        3732
        3736
        3740
        3744
        3748
        3752
        3756
        3760
        3764
        3768
        3772
        3776
        3780
        3784
        3788
        3792
        3796
        3800
        3804
        3808
        3812
        3816
        3820
        3824
        3828
        3832
        3836
        3840
        3844
        3848
        3852
        3856
        3860
        3864
        3868
        3872
        3876
        3880
        3884
        3888
        3892
        3896
        3900
        3904
        3908
        3912
        3916
        3920
        3924
        3928
        3932
        3936
        3940
        3944
        3948
        3952
        3956
        3960
        3964
        3968
        3972
        3976
        3980
        3984
        3988
        3992
        3996
        4000
        4004
        4008
        4012
        4016
        4020
        4024
        4028
        4032
        4036
        4040
        4044
        4048
        4052
        4056
        4060
        4064
        4068
        4072
        4076
        4080
        4084
        4088
        4092
        4096
        4100
        4104
        4108
        4112
        4116
        4120
        4124
        4128
        4132
        4136
        4140
        4144
        4148
        4152
        4156
        4160
        4164
        4168
        4172
        4176
        4180
        4184
        4188
        4192
        4196
        4200
        4204
        4208
        4212
        4216
        4220
        4224
        4228
        4232
        4236
        4240
        4244
        4248
        4252
        4256
        4260
        4264
        4268
        4272
        4276
        4280
        4284
        4288
        4292
        4296
        4300
        4304
        4308
        4312
        4316
        4320
        4324
        4328
        4332
        4336
        4340
        4344
        4348
        4352
        4356
        4360
        4364
        4368
        4372
        4376
        4380
        4384
        4388
        4392
        4396
        4400
        4404
        4408
        4412
        4416
        4420
        4424
        4428
        4432
        4436
        4440
        4444
        4448
        4452
        4456
        4460
        4464
        4468
        4472
        4476
        4480
        4484
        4488
        4492
        4496
        4500
        4504
        4508
        4512
        4516
        4520
        4524
        4528
        4532
        4536
        4540
        4544
        4548
        4552
        4556
        4560
        4564
        4568
        4572
        4576
        4580
        4584
        4588
        4592
        4596
        4600
        4604
        4608
        4612
        4616
        4620
        4624
        4628
        4632
        4636
        4640
        4644
        4648
        4652
        4656
        4660
        4664
        4668
        4672
        4676
        4680
        4684
        4688
        4692
        4696
        4700
        4704
        4708
        4712
        4716
        4720
        4724
        4728
        4732
        4736
        4740
        4744
        4748
        4752
        4756
        4760
        4764
        4768
        4772
        4776
        4780
        4784
        4788
        4792
        4796
        4800
        4804
        4808
        4812
        4816
        4820
        4824
        4828
        4832
        4836
        4840
        4844
        4848
        4852
        4856
        4860
        4864
        4868
        4872
        4876
        4880
        4884
        4888
        4892
        4896
        4900
        4904
        4908
        4912
        4916
        4920
        4924
        4928
        4932
        4936
        4940
        4944
        4948
        4952
        4956
        4960
        4964
        4968
        4972
        4976
        4980
        4984
        4988
        4992
        4996
        5000
        5004
        5008
        5012
        5016
        5020
        5024
        5028
        5032
        5036
        5040
        5044
        5048
        5052
        5056
        5060
        5064
        5068
        5072
        5076
        5080
        5084
        5088
        5092
        5096
        5100
        5104
        5108
        5112
        5116
        5120
        5124
        5128
        5132
        5136
        5140
        5144
        5148
        5152
        5156
        5160
        5164
        5168
        5172
        5176
        5180
        5184
        5188
        5192
        5196
        5200
        5204
        5208
        5212
        5216
        5220
        5224
        5228
        5232
        5236
        5240
        5244
        5248
        5252
        5256
        5260
        5264
        5268
        5272
        5276
        5280
        5284
        5288
        5292
        5296
        5300
        5304
        5308
        5312
        5316
        5320
        5324
        5328
        5332
        5336
        5340
        5344
        5348
        5352
        5356
        5360
        5364
        5368
        5372
        5376
        5380
        5384
        5388
        5392
        5396
        5400
        5404
        5408
        5412
        5416
        5420
        5424
        5428
        5432
        5436
        5440
        5444
        5448
        5452
        5456
        5460
        5464
        5468
        5472
        5476
        5480
        5484
        5488
        5492
        5496
        5500
        5504
        5508
        5512
        5516
        5520
        5524
        5528
        5532
        5536
        5540
        5544
        5548
        5552
        5556
        5560
        5564
        5568
        5572
        5576
        5580
        5584
        5588
        5592
        5596
        5600
        5604
        5608
        5612
        5616
        5620
        5624
        5628
        5632
        5636
        5640
        5644
        5648
        5652
        5656
        5660
        5664
        5668
        5672
        5676
        5680
        5684
        5688
        5692
        5696
        5700
        5704
        5708
        5712
        5716
        5720
        5724
        5728
        5732
        5736
        5740
        5744
        5748
        5752
        5756
        5760
        5764
        5768
        5772
        5776
        5780
        5784
        5788
        5792
        5796
        5800
        5804
        5808
        5812
        5816
        5820
        5824
        5828
        5832
        5836
        5840
        5844
        5848
        5852
        5856
        5860
        5864
        5868
        5872
        5876
        5880
        5884
        5888
        5892
        5896
        5900
        5904
        5908
        5912
        5916
        5920
        5924
        5928
        5932
        5936
        5940
        5944
        5948
        5952
        5956
        5960
        5964
        5968
        5972
        5976
        5980
        5984
        5988
        5992
        5996
        6000
        6004
        6008
        6012
        6016
        6020
        6024
        6028
        6032
        6036
        6040
        6044
        6048
        6052
        6056
        6060
        6064
        6068
        6072
        6076
        6080
        6084
        6088
        6092
        6096
        6100
        6104
        6108
        6112
        6116
        6120
        6124
        6128
        6132
        6136
        6140
        6144
        6148
        6152
        6156
        6160
        6164
        6168
        6172
        6176
        6180
        6184
        6188
        6192
        6196
        6200
        6204
        6208
        6212
        6216
        6220
        6224
        6228
        6232
        6236
        6240
        6244
        6248
        6252
        6256
        6260
        6264
        6268
        6272
        6276
        6280
        6284
        6288
        6292
        6296
        6300
        6304
        6308
        6312
        6316
        6320
        6324
        6328
        6332
        6336
        6340
        6344
        6348
        6352
        6356
        6360
        6364
        6368
        6372
        6376
        6380
        6384
        6388
        6392
        6396
        6400
        6404
        6408
        6412
        6416
        6420
        6424
        6428
        6432
        6436
        6440
        6444
        6448
        6452
        6456
        6460
        6464
        6468
        6472
        6476
        6480
        6484
        6488
        6492
        6496
        6500
        6504
        6508
        6512
        6516
        6520
        6524
        6528
        6532
        6536
        6540
        6544
        6548
        6552
        6556
        6560
        6564
        6568
        6572
        6576
        6580
        6584
        6588
        6592
        6596
        6600
        6604
        6608
        6612
        6616
        6620
        6624
        6628
        6632
        6636
        6640
        6644
        6648
        6652
        6656
        6660
        6664
        6668
        6672
        6676
        6680
        6684
        6688
        6692
        6696
        6700
        6704
        6708
        6712
        6716
        6720
        6724
        6728
        6732
        6736
        6740
        6744
        6748
        6752
        6756
        6760
        6764
        6768
        6772
        6776
        6780
        6784
        6788
        6792
        6796
        6800
        6804
        6808
        6812
        6816
        6820
        6824
        6828
        6832
        6836
        6840
        6844
        6848
        6852
        6856
        6860
        6864
        6868
        6872
        6876
        6880
        6884
        6888
        6892
        6896
        6900
        6904
        6908
        6912
        6916
        6920
        6924
        6928
        6932
        6936
        6940
        6944
        6948
        6952
        6956
        6960
        6964
        6968
        6972
        6976
        6980
        6984
        6988
        6992
        6996
        7000
        7004
        7008
        7012
        7016
        7020
        7024
        7028
        7032
        7036
        7040
        7044
        7048
        7052
        7056
        7060
        7064
        7068
        7072
        7076
        7080
        7084
        7088
        7092
        7096
        7100
        7104
        7108
        7112
        7116
        7120
        7124
        7128
        7132
        7136
        7140
        7144
        7148
        7152
        7156
        7160
        7164
        7168
        7172
        7176
        7180
        7184
        7188
        7192
        7196
        7200
        7204
        7208
        7212
        7216
        7220
        7224
        7228
        7232
        7236
        7240
        7244
        7248
        7252
        7256
        7260
        7264
        7268
        7272
        7276
        7280
        7284
        7288
        7292
        7296
        7300
        7304
        7308
        7312
        7316
        7320
        7324
        7328
        7332
        7336
        7340
        7344
        7348
        7352
        7356
        7360
        7364
        7368
        7372
        7376
        7380
        7384
        7388
        7392
        7396
        7400
        7404
        7408
        7412
        7416
        7420
        7424
        7428
        7432
        7436
        7440
        7444
        7448
        7452
        7456
        7460
        7464
        7468
        7472
        7476
        7480
        7484
        7488
        7492
        7496
        7500
        7504
        7508
        7512
        7516
        7520
        7524
        7528
        7532
        7536
        7540
        7544
        7548
        7552
        7556
        7560
        7564
        7568
        7572
        7576
        7580
        7584
        7588
        7592
        7596
        7600
        7604
        7608
        7612
        7616
        7620
        7624
        7628
        7632
        7636
        7640
        7644
        7648
        7652
        7656
        7660
        7664
        7668
        7672
        7676
        7680
        7684
        7688
        7692
        7696
        7700
        7704
        7708
        7712
        7716
        7720
        7724
        7728
        7732
        7736
        7740
        7744
        7748
        7752
        7756
        7760
        7764
        7768
        7772
        7776
        7780
        7784
        7788
        7792
        7796
        7800
        7804
        7808
        7812
        7816
        7820
        7824
        7828
        7832
        7836
        7840
        7844
        7848
        7852
        7856
        7860
        7864
        7868
        7872
        7876
        7880
        7884
        7888
        7892
        7896
        7900
        7904
        7908
        7912
        7916
        7920
        7924
        7928
        7932
        7936
        7940
        7944
        7948
        7952
        7956
        7960
        7964
        7968
        7972
        7976
        7980
        7984
        7988
        7992
        7996
        8000
        8004
        8008
        8012
        8016
        8020
        8024
        8028
        8032
        8036
        8040
        8044
        8048
        8052
        8056
        8060
        8064
        8068
        8072
        8076
        8080
        8084
        8088
        8092
        8096
        8100
        8104
        8108
        8112
        8116
        8120
        8124
        8128
        8132
        8136
        8140
        8144
        8148
        8152
        8156
        8160
        8164
        8168
        8172
        8176
        8180
        8184
        8188
        8192
        8196
        8200
        8204
        8208
        8212
        8216
        8220
        8224
        8228
        8232
        8236
        8240
        8244
        8248
        8252
        8256
        8260
        8264
        8268
        8272
        8276
        8280
        8284
        8288
        8292
        8296
        8300
        8304
        8308
        8312
        8316
        8320
        8324
        8328
        8332
        8336
        8340
        8344
        8348
        8352
        8356
        8360
        8364
        8368
        8372
        8376
        8380
        8384
        8388
        8392
        8396
        8400
        8404
        8408
        8412
        8416
        8420
        8424
        8428
        8432
        8436
        8440
        8444
        8448
        8452
        8456
        8460
        8464
        8468
        8472
        8476
        8480
        8484
        8488
        8492
        8496
        8500
        8504
        8508
        8512
        8516
        8520
        8524
        8528
        8532
        8536
        8540
        8544
        8548
        8552
        8556
        8560
        8564
        8568
        8572
        8576
        8580
        8584
        8588
        8592
        8596
        8600
        8604
        8608
        8612
        8616
        8620
        8624
        8628
        8632
        8636
        8640
        8644
        8648
        8652
        8656
        8660
        8664
        8668
        8672
        8676
        8680
        8684
        8688
        8692
        8696
        8700
        8704
        8708
        8712
        8716
        8720
        8724
        8728
        8732
        8736
        8740
        8744
        8748
        8752
        8756
        8760
        8764
        8768
        8772
        8776
        8780
        8784
        8788
        8792
        8796
        8800
        8804
        8808
        8812
        8816
        8820
        8824
        8828
        8832
        8836
        8840
        8844
        8848
        8852
        8856
        8860
        8864
        8868
        8872
        8876
        8880
        8884
        8888
        8892
        8896
        8900
        8904
        8908
        8912
        8916
        8920
        8924
        8928
        8932
        8936
        8940
        8944
        8948
        8952
        8956
        8960
        8964
        8968
        8972
        8976
        8980
        8984
        8988
        8992
        8996
        9000
        9004
        9008
        9012
        9016
        9020
        9024
        9028
        9032
        9036
        9040
        9044
        9048
        9052
        9056
        9060
        9064
        9068
        9072
        9076
        9080
        9084
        9088
        9092
        9096
        9100
        9104
        9108
        9112
        9116
        9120
        9124
        9128
        9132
        9136
        9140
        9144
        9148
        9152
        9156
        9160
        9164
        9168
        9172
        9176
        9180
        9184
        9188
        9192
        9196
        9200
        9204
        9208
        9212
        9216
        9220
        9224
        9228
        9232
        9236
        9240
        9244
        9248
        9252
        9256
        9260
        9264
        9268
        9272
        9276
        9280
        9284
        9288
        9292
        9296
        9300
        9304
        9308
        9312
        9316
        9320
        9324
        9328
        9332
        9336
        9340
        9344
        9348
        9352
        9356
        9360
        9364
        9368
        9372
        9376
        9380
        9384
        9388
        9392
        9396
        9400
        9404
        9408
        9412
        9416
        9420
        9424
        9428
        9432
        9436
        9440
        9444
        9448
        9452
        9456
        9460
        9464
        9468
        9472
        9476
        9480
        9484
        9488
        9492
        9496
        9500
        9504
        9508
        9512
        9516
        9520
        9524
        9528
        9532
        9536
        9540
        9544
        9548
        9552
        9556
        9560
        9564
        9568
        9572
        9576
        9580
        9584
        9588
        9592
        9596
        9600
        9604
        9608
        9612
        9616
        9620
        9624
        9628
        9632
        9636
        9640
        9644
        9648
        9652
        9656
        9660
        9664
        9668
        9672
        9676
        9680
        9684
        9688
        9692
        9696
        9700
        9704
        9708
        9712
        9716
        9720
        9724
        9728
        9732
        9736
        9740
        9744
        9748
        9752
        9756
        9760
        9764
        9768
        9772
        9776
        9780
        9784
        9788
        9792
        9796
        9800
        9804
        9808
        9812
        9816
        9820
        9824
        9828
        9832
        9836
        9840
        9844
        9848
        9852
        9856
        9860
        9864
        9868
        9872
        9876
        9880
        9884
        9888
        9892
        9896
        9900
        9904
        9908
        9912
        9916
        9920
        9924
        9928
        9932
        9936
        9940
        9944
        9948
        9952
        9956
        9960
        9964
        9968
        9972
        9976
        9980
        9984
        9988
        9992
        9996
       10000
       10004
       10008
       10012
       10016
       10020
       10024
       10028
       10032
       10036
       10040
       10044
       10048
       10052
       10056
       10060
       10064
       10068
       10072
       10076
       10080
       10084
       10088
       10092
       10096
       10100
       10104
       10108
       10112
       10116
       10120
       10124
       10128
       10132
       10136
       10140
       10144
       10148
       10152
       10156
       10160
       10164
       10168
       10172
       10176
       10180
       10184
       10188
       10192
       10196
       10200
       10204
       10208
       10212
       10216
       10220
       10224
       10228
       10232
       10236
       10240
       10244
       10248
       10252
       10256
       10260
       10264
       10268
       10272
       10276
       10280
       10284
       10288
       10292
       10296
       10300
       10304
       10308
       10312
       10316
       10320
       10324
       10328
       10332
       10336
       10340
       10344
       10348
       10352
       10356
       10360
       10364
       10368
       10372
       10376
       10380
       10384
       10388
       10392
       10396
       10400
       10404
       10408
       10412
       10416
       10420
       10424
       10428
       10432
       10436
       10440
       10444
       10448
       10452
       10456
       10460
       10464
       10468
       10472
       10476
       10480
       10484
       10488
       10492
       10496
       10500
       10504
       10508
       10512
       10516
       10520
       10524
       10528
       10532
       10536
       10540
       10544
       10548
       10552
       10556
       10560
       10564
       10568
       10572
       10576
       10580
       10584
       10588
       10592
       10596
       10600
       10604
       10608
       10612
       10616
       10620
       10624
       10628
       10632
       10636
       10640
       10644
       10648
       10652
       10656
       10660
       10664
       10668
       10672
       10676
       10680
       10684
       10688
       10692
       10696
       10700
       10704
       10708
       10712
       10716
       10720
       10724
       10728
       10732
       10736
       10740
       10744
       10748
       10752
       10756
       10760
       10764
       10768
       10772
       10776
       10780
       10784
       10788
       10792
       10796
       10800
       10804
       10808
       10812
       10816
       10820
       10824
       10828
       10832
       10836
       10840
       10844
       10848
       10852
       10856
       10860
       10864
       10868
       10872
       10876
       10880
       10884
       10888
       10892
       10896
       10900
       10904
       10908
       10912
       10916
       10920
       10924
       10928
       10932
       10936
       10940
       10944
       10948
       10952
       10956
       10960
       10964
       10968
       10972
       10976
       10980
       10984
       10988
       10992
       10996
       11000
       11004
       11008
       11012
       11016
       11020
       11024
       11028
       11032
       11036
       11040
       11044
       11048
       11052
       11056
       11060
       11064
       11068
       11072
       11076
       11080
       11084
       11088
       11092
       11096
       11100
       11104
       11108
       11112
       11116
       11120
       11124
       11128
       11132
       11136
       11140
       11144
       11148
       11152
       11156
       11160
       11164
       11168
       11172
       11176
       11180
       11184
       11188
       11192
       11196
       11200
       11204
       11208
       11212
       11216
       11220
       11224
       11228
       11232
       11236
       11240
       11244
       11248
       11252
       11256
       11260
       11264
       11268
       11272
       11276
       11280
       11284
       11288
       11292
       11296
       11300
       11304
       11308
       11312
       11316
       11320
       11324
       11328
       11332
       11336
       11340
       11344
       11348
       11352
       11356
       11360
       11364
       11368
       11372
       11376
       11380
       11384
       11388
       11392
       11396
       11400
       11404
       11408
       11412
       11416
       11420
       11424
       11428
       11432
       11436
       11440
       11444
       11448
       11452
       11456
       11460
       11464
       11468
       11472
       11476
       11480
       11484
       11488
       11492
       11496
       11500
       11504
       11508
       11512
       11516
       11520
       11524
       11528
       11532
       11536
       11540
       11544
       11548
       11552
       11556
       11560
       11564
       11568
       11572
       11576
       11580
       11584
       11588
       11592
       11596
       11600
       11604
       11608
       11612
       11616
       11620
       11624
       11628
       11632
       11636
       11640
       11644
       11648
       11652
       11656
       11660
       11664
       11668
       11672
       11676
       11680
       11684
       11688
       11692
       11696
       11700
       11704
       11708
       11712
       11716
       11720
       11724
       11728
       11732
       11736
       11740
       11744
       11748
       11752
       11756
       11760
       11764
       11768
       11772
       11776
       11780
       11784
       11788
       11792
       11796
       11800
       11804
       11808
       11812
       11816
       11820
       11824
       11828
       11832
       11836
       11840
       11844
       11848
       11852
       11856
       11860
       11864
       11868
       11872
       11876
       11880
       11884
       11888
       11892
       11896
       11900
       11904
       11908
       11912
       11916
       11920
       11924
       11928
       11932
       11936
       11940
       11944
       11948
       11952
       11956
       11960
       11964
       11968
       11972
       11976
       11980
       11984
       11988
       11992
       11996
       12000
       12004
       12008
       12012
       12016
       12020
       12024
       12028
       12032
       12036
       12040
       12044
       12048
       12052
       12056
       12060
       12064
       12068
       12072
       12076
       12080
       12084
       12088
       12092
       12096
       12100
       12104
       12108
       12112
       12116
       12120
       12124
       12128
       12132
       12136
       12140
       12144
       12148
       12152
       12156
       12160
       12164
       12168
       12172
       12176
       12180
       12184
       12188
       12192
       12196
       12200
       12204
       12208
       12212
       12216
       12220
       12224
       12228
       12232
       12236
       12240
       12244
       12248
       12252
       12256
       12260
       12264
       12268
       12272
       12276
       12280
       12284
       12288
       12292
       12296
       12300
       12304
       12308
       12312
       12316
       12320
       12324
       12328
       12332
       12336
       12340
       12344
       12348
       12352
       12356
       12360
       12364
       12368
       12372
       12376
       12380
       12384
       12388
       12392
       12396
       12400
       12404
       12408
       12412
       12416
       12420
       12424
       12428
       12432
       12436
       12440
       12444
       12448
       12452
       12456
       12460
       12464
       12468
       12472
       12476
       12480
       12484
       12488
       12492
       12496
       12500
       12504
       12508
       12512
       12516
       12520
       12524
       12528
       12532
       12536
       12540
       12544
       12548
       12552
       12556
       12560
       12564
       12568
       12572
       12576
       12580
       12584
       12588
       12592
       12596
       12600
       12604
       12608
       12612
       12616
       12620
       12624
       12628
       12632
       12636
       12640
       12644
       12648
       12652
       12656
       12660
       12664
       12668
       12672
       12676
       12680
       12684
       12688
       12692
       12696
       12700
       12704
       12708
       12712
       12716
       12720
       12724
       12728
       12732
       12736
       12740
       12744
       12748
       12752
       12756
       12760
       12764
       12768
       12772
       12776
       12780
       12784
       12788
       12792
       12796
       12800
       12804
       12808
       12812
       12816
       12820
       12824
       12828
       12832
       12836
       12840
       12844
       12848
       12852
       12856
       12860
       12864
       12868
       12872
       12876
       12880
       12884
       12888
       12892
       12896
       12900
       12904
       12908
       12912
       12916
       12920
       12924
       12928
       12932
       12936
       12940
       12944
       12948
       12952
       12956
       12960
       12964
       12968
       12972
       12976
       12980
       12984
       12988
       12992
       12996
       13000
       13004
       13008
       13012
       13016
       13020
       13024
       13028
       13032
       13036
       13040
       13044
       13048
       13052
       13056
       13060
       13064
       13068
       13072
       13076
       13080
       13084
       13088
       13092
       13096
       13100
       13104
       13108
       13112
       13116
       13120
       13124
       13128
       13132
       13136
       13140
       13144
       13148
       13152
       13156
       13160
       13164
       13168
       13172
       13176
       13180
       13184
       13188
       13192
       13196
       13200
       13204
       13208
       13212
       13216
       13220
       13224
       13228
       13232
       13236
       13240
       13244
       13248
       13252
       13256
       13260
       13264
       13268
       13272
       13276
       13280
       13284
       13288
       13292
       13296
       13300
       13304
       13308
       13312
       13316
       13320
       13324
       13328
       13332
       13336
       13340
       13344
       13348
       13352
       13356
       13360
       13364
       13368
       13372
       13376
       13380
       13384
       13388
       13392
       13396
       13400
       13404
       13408
       13412
       13416
       13420
       13424
       13428
       13432
       13436
       13440
       13444
       13448
       13452
       13456
       13460
       13464
       13468
       13472
       13476
       13480
       13484
       13488
       13492
       13496
       13500
       13504
       13508
       13512
       13516
       13520
       13524
       13528
       13532
       13536
       13540
       13544
       13548
       13552
       13556
       13560
       13564
       13568
       13572
       13576
       13580
       13584
       13588
       13592
       13596
       13600
       13604
       13608
       13612
       13616
       13620
       13624
       13628
       13632
       13636
       13640
       13644
       13648
       13652
       13656
       13660
       13664
       13668
       13672
       13676
       13680
       13684
       13688
       13692
       13696
       13700
       13704
       13708
       13712
       13716
       13720
       13724
       13728
       13732
       13736
       13740
       13744
       13748
       13752
       13756
       13760
       13764
       13768
       13772
       13776
       13780
       13784
       13788
       13792
       13796
       13800
       13804
       13808
       13812
       13816
       13820
       13824
       13828
       13832
       13836
       13840
       13844
       13848
       13852
       13856
       13860
       13864
       13868
       13872
       13876
       13880
       13884
       13888
       13892
       13896
       13900
       13904
       13908
       13912
       13916
       13920
       13924
       13928
       13932
       13936
       13940
       13944
       13948
       13952
       13956
       13960
       13964
       13968
       13972
       13976
       13980
       13984
       13988
       13992
       13996
       14000
       14004
       14008
       14012
       14016
       14020
       14024
       14028
       14032
       14036
       14040
       14044
       14048
       14052
       14056
       14060
       14064
       14068
       14072
       14076
       14080
       14084
       14088
       14092
       14096
       14100
       14104
       14108
       14112
       14116
       14120
       14124
       14128
       14132
       14136
       14140
       14144
       14148
       14152
       14156
       14160
       14164
       14168
       14172
       14176
       14180
       14184
       14188
       14192
       14196
       14200
       14204
       14208
       14212
       14216
       14220
       14224
       14228
       14232
       14236
       14240
       14244
       14248
       14252
       14256
       14260
       14264
       14268
       14272
       14276
       14280
       14284
       14288
       14292
       14296
       14300
       14304
       14308
       14312
       14316
       14320
       14324
       14328
       14332
       14336
       14340
       14344
       14348
       14352
       14356
       14360
       14364
       14368
       14372
       14376
       14380
       14384
       14388
       14392
       14396
       14400
       14404
       14408
       14412
       14416
       14420
       14424
       14428
       14432
       14436
       14440
       14444
       14448
       14452
       14456
       14460
       14464
       14468
       14472
       14476
       14480
       14484
       14488
       14492
       14496
       14500
       14504
       14508
       14512
       14516
       14520
       14524
       14528
       14532
       14536
       14540
       14544
       14548
       14552
       14556
       14560
       14564
       14568
       14572
       14576
       14580
       14584
       14588
       14592
       14596
       14600
       14604
       14608
       14612
       14616
       14620
       14624
       14628
       14632
       14636
       14640
       14644
       14648
       14652
       14656
       14660
       14664
       14668
       14672
       14676
       14680
       14684
       14688
       14692
       14696
       14700
       14704
       14708
       14712
       14716
       14720
       14724
       14728
       14732
       14736
       14740
       14744
       14748
       14752
       14756
       14760
       14764
       14768
       14772
       14776
       14780
       14784
       14788
       14792
       14796
       14800
       14804
       14808
       14812
       14816
       14820
       14824
       14828
       14832
       14836
       14840
       14844
       14848
       14852
       14856
       14860
       14864
       14868
       14872
       14876
       14880
       14884
       14888
       14892
       14896
       14900
       14904
       14908
       14912
       14916
       14920
       14924
       14928
       14932
       14936
       14940
       14944
       14948
       14952
       14956
       14960
       14964
       14968
       14972
       14976
       14980
       14984
       14988
       14992
       14996
       15000
       15004
       15008
       15012
       15016
       15020
       15024
       15028
       15032
       15036
       15040
       15044
       15048
       15052
       15056
       15060
       15064
       15068
       15072
       15076
       15080
       15084
       15088
       15092
       15096
       15100
       15104
       15108
       15112
       15116
       15120
       15124
       15128
       15132
       15136
       15140
       15144
       15148
       15152
       15156
       15160
       15164
       15168
       15172
       15176
       15180
       15184
       15188
       15192
       15196
       15200
       15204
       15208
       15212
       15216
       15220
       15224
       15228
       15232
       15236
       15240
       15244
       15248
       15252
       15256
       15260
       15264
       15268
       15272
       15276
       15280
       15284
       15288
       15292
       15296
       15300
       15304
       15308
       15312
       15316
       15320
       15324
       15328
       15332
       15336
       15340
       15344
       15348
       15352
       15356
       15360
       15364
       15368
       15372
       15376
       15380
       15384
       15388
       15392
       15396
       15400
       15404
       15408
       15412
       15416
       15420
       15424
       15428
       15432
       15436
       15440
       15444
       15448
       15452
       15456
       15460
       15464
       15468
       15472
       15476
       15480
       15484
       15488
       15492
       15496
       15500
       15504
       15508
       15512
       15516
       15520
       15524
       15528
       15532
       15536
       15540
       15544
       15548
       15552
       15556
       15560
       15564
       15568
       15572
       15576
       15580
       15584
       15588
       15592
       15596
       15600
       15604
       15608
       15612
       15616
       15620
       15624
       15628
       15632
       15636
       15640
       15644
       15648
       15652
       15656
       15660
       15664
       15668
       15672
       15676
       15680
       15684
       15688
       15692
       15696
       15700
       15704
       15708
       15712
       15716
       15720
       15724
       15728
       15732
       15736
       15740
       15744
       15748
       15752
       15756
       15760
       15764
       15768
       15772
       15776
       15780
       15784
       15788
       15792
       15796
       15800
       15804
       15808
       15812
       15816
       15820
       15824
       15828
       15832
       15836
       15840
       15844
       15848
       15852
       15856
       15860
       15864
       15868
       15872
       15876
       15880
       15884
       15888
       15892
       15896
       15900
       15904
       15908
       15912
       15916
       15920
       15924
       15928
       15932
       15936
       15940
       15944
       15948
       15952
       15956
       15960
       15964
       15968
       15972
       15976
       15980
       15984
       15988
       15992
       15996
       16000
       16004
       16008
       16012
       16016
       16020
       16024
       16028
       16032
       16036
       16040
       16044
       16048
       16052
       16056
       16060
       16064
       16068
       16072
       16076
       16080
       16084
       16088
       16092
       16096
       16100
       16104
       16108
       16112
       16116
       16120
       16124
       16128
       16132
       16136
       16140
       16144
       16148
       16152
       16156
       16160
       16164
       16168
       16172
       16176
       16180
       16184
       16188
       16192
       16196
       16200
       16204
       16208
       16212
       16216
       16220
       16224
       16228
       16232
       16236
       16240
       16244
       16248
       16252
       16256
       16260
       16264
       16268
       16272
       16276
       16280
       16284
       16288
       16292
       16296
       16300
       16304
       16308
       16312
       16316
       16320
       16324
       16328
       16332
       16336
       16340
       16344
       16348
       16352
       16356
       16360
       16364
       16368
       16372
       16376
       16380
       16384
 </DataArray>
 <DataArray  type="UInt8"  Name="types"  format="ascii">
 9
 9
 9
 9
 9
 9
 9
 9
 9
 9
 9
 9
 9
 9
 9
 9
 9
 9
 9
 9
 9
 9
 9
 9
 9
 9
 9
 9
 9
 9
 9
 9
 9
 9
 9
 9
 9
 9
 9
 9
 9
 9
 9
 9
 9
 9
 9
 9
 9
 9
 9
 9
 9
 9
 9
 9
 9
 9
 9
 9
 9
 9
 9
 9
 9
 9
 9
 9
 9
 9
 9
 9
 9
 9
 9
 9
 9
 9
 9
 9
 9
 9
 9
 9
 9
 9
 9
 9
 9
 9
 9
 9
 9
 9
 9
 9
 9
 9
 9
 9
 9
 9
 9
 9
 9
 9
 9
 9
 9
 9
 9
 9
 9
 9
 9
 9
 9
 9
 9
 9
 9
 9
 9
 9
 9
 9
 9
 9
 9
 9
 9
 9
 9
 9
 9
 9
 9
 9
 9
 9
 9
 9
 9
 9
 9
 9
 9
 9
 9
 9
 9
 9
 9
 9
 9
 9
 9
 9
 9
 9
 9
 9
 9
 9
 9
 9
 9
 9
 9
 9
 9
 9
 9
 9
 9
 9
 9
 9
 9
 9
 9
 9
 9
 9
 9
 9
 9
 9
 9
 9
 9
 9
 9
 9
 9
 9
 9
 9
 9
 9
 9
 9
 9
 9
 9
 9
 9
 9
 9
 9
 9
 9
 9
 9
 9
 9
 9
 9
 9
 9
 9
 9
 9
 9
 9
 9
 9
 9
 9
 9
 9
 9
 9
 9
 9
 9
 9
 9
 9
 9
 9
 9
 9
 9
 9
 9
 9
 9
 9
 9
 9
 9
 9
 9
 9
 9
 9
 9
 9
 9
 9
 9
 9
 9
 9
 9
 9
 9
 9
 9
 9
 9
 9
 9
 9
 9
 9
 9
 9
 9
 9
 9
 9
 9
 9
 9
 9
 9
 9
 9
 9
 9
 9
 9
 9
 9
 9
 9
 9
 9
 9
 9
 9
 9
 9
 9
 9
 9
 9
 9
 9
 9
 9
 9
 9
 9
 9
 9
 9
 9
 9
 9
 9
 9
 9
 9
 9
 9
 9
 9
 9
 9
 9
 9
 9
 9
 9
 9
 9
 9
 9
 9
 9
 9
 9
 9
 9
 9
 9
 9
 9
 9
 9
 9
 9
 9
 9
 9
 9
 9
 9
 9
 9
 9
 9
 9
 9
 9
 9
 9
 9
 9
 9
 9
 9
 9
 9
 9
 9
 9
 9
 9
 9
 9
 9
 9
 9
 9
 9
 9
 9
 9
 9
 9
 9
 9
 9
 9
 9
 9
 9
 9
 9
 9
 9
 9
 9
 9
 9
 9
 9
 9
 9
 9
 9
 9
 9
 9
 9
 9
 9
 9
 9
 9
 9
 9
 9
 9
 9
 9
 9
 9
 9
 9
 9
 9
 9
 9
 9
 9
 9
 9
 9
 9
 9
 9
 9
 9
 9
 9
 9
 9
 9
 9
 9
 9
 9
 9
 9
 9
 9
 9
 9
 9
 9
 9
 9
 9
 9
 9
 9
 9
 9
 9
 9
 9
 9
 9
 9
 9
 9
 9
 9
 9
 9
 9
 9
 9
 9
 9
 9
 9
 9
 9
 9
 9
 9
 9
 9
 9
 9
 9
 9
 9
 9
 9
 9
 9
 9
 9
 9
 9
 9
 9
 9
 9
 9
 9
 9
 9
 9
 9
 9
 9
 9
 9
 9
 9
 9
 9
 9
 9
 9
 9
 9
 9
 9
 9
 9
 9
 9
 9
 9
 9
 9
 9
 9
 9
 9
 9
 9
 9
 9
 9
 9
 9
 9
 9
 9
 9
 9
 9
 9
 9
 9
 9
 9
 9
 9
 9
 9
 9
 9
 9
 9
 9
 9
 9
 9
 9
 9
 9
 9
 9
 9
 9
 9
 9
 9
 9
 9
 9
 9
 9
 9
 9
 9
 9
 9
 9
 9
 9
 9
 9
 9
 9
 9
 9
 9
 9
 9
 9
 9
 9
 9
 9
 9
 9
 9
 9
 9
 9
 9
 9
 9
 9
 9
 9
 9
 9
 9
 9
 9
 9
 9
 9
 9
 9
 9
 9
 9
 9
 9
 9
 9
 9
 9
 9
 9
 9
 9
 9
 9
 9
 9
 9
 9
 9
 9
 9
 9
 9
 9
 9
 9
 9
 9
 9
 9
 9
 9
 9
 9
 9
 9
 9
 9
 9
 9
 9
 9
 9
 9
 9
 9
 9
 9
 9
 9
 9
 9
 9
 9
 9
 9
 9
 9
 9
 9
 9
 9
 9
 9
 9
 9
 9
 9
 9
 9
 9
 9
 9
 9
 9
 9
 9
 9
 9
 9
 9
 9
 9
 9
 9
 9
 9
 9
 9
 9
 9
 9
 9
 9
 9
 9
 9
 9
 9
 9
 9
 9
 9
 9
 9
 9
 9
 9
 9
 9
 9
 9
 9
 9
 9
 9
 9
 9
 9
 9
 9
 9
 9
 9
 9
 9
 9
 9
 9
 9
 9
 9
 9
 9
 9
 9
 9
 9
 9
 9
 9
 9
 9
 9
 9
 9
 9
 9
 9
 9
 9
 9
 9
 9
 9
 9
 9
 9
 9
 9
 9
 9
 9
 9
 9
 9
 9
 9
 9
 9
 9
 9
 9
 9
 9
 9
 9
 9
 9
 9
 9
 9
 9
 9
 9
 9
 9
 9
 9
 9
 9
 9
 9
 9
 9
 9
 9
 9
 9
 9
 9
 9
 9
 9
 9
 9
 9
 9
 9
 9
 9
 9
 9
 9
 9
 9
 9
 9
 9
 9
 9
 9
 9
 9
 9
 9
 9
 9
 9
 9
 9
 9
 9
 9
 9
 9
 9
 9
 9
 9
 9
 9
 9
 9
 9
 9
 9
 9
 9
 9
 9
 9
 9
 9
 9
 9
 9
 9
 9
 9
 9
 9
 9
 9
 9
 9
 9
 9
 9
 9
 9
 9
 9
 9
 9
 9
 9
 9
 9
 9
 9
 9
 9
 9
 9
 9
 9
 9
 9
 9
 9
 9
 9
 9
 9
 9
 9
 9
 9
 9
 9
 9
 9
 9
 9
 9
 9
 9
 9
 9
 9
 9
 9
 9
 9
 9
 9
 9
 9
 9
 9
 9
 9
 9
 9
 9
 9
 9
 9
 9
 9
 9
 9
 9
 9
 9
 9
 9
 9
 9
 9
 9
 9
 9
 9
 9
 9
 9
 9
 9
 9
 9
 9
 9
 9
 9
 9
 9
 9
 9
 9
 9
 9
 9
 9
 9
 9
 9
 9
 9
 9
 9
 9
 9
 9
 9
 9
 9
 9
 9
 9
 9
 9
 9
 9
 9
 9
 9
 9
 9
 9
 9
 9
 9
 9
 9
 9
 9
 9
 9
 9
 9
 9
 9
 9
 9
 9
 9
 9
 9
 9
 9
 9
 9
 9
 9
 9
 9
 9
 9
 9
 9
 9
 9
 9
 9
 9
 9
 9
 9
 9
 9
 9
 9
 9
 9
 9
 9
 9
 9
 9
 9
 9
 9
 9
 9
 9
 9
 9
 9
 9
 9
 9
 9
 9
 9
 9
 9
 9
 9
 9
 9
 9
 9
 9
 9
 9
 9
 9
 9
 9
 9
 9
 9
 9
 9
 9
 9
 9
 9
 9
 9
 9
 9
 9
 9
 9
 9
 9
 9
 9
 9
 9
 9
 9
 9
 9
 9
 9
 9
 9
 9
 9
 9
 9
 9
 9
 9
 9
 9
 9
 9
 9
 9
 9
 9
 9
 9
 9
 9
 9
 9
 9
 9
 9
 9
 9
 9
 9
 9
 9
 9
 9
 9
 9
 9
 9
 9
 9
 9
 9
 9
 9
 9
 9
 9
 9
 9
 9
 9
 9
 9
 9
 9
 9
 9
 9
 9
 9
 9
 9
 9
 9
 9
 9
 9
 9
 9
 9
 9
 9
 9
 9
 9
 9
 9
 9
 9
 9
 9
 9
 9
 9
 9
 9
 9
 9
 9
 9
 9
 9
 9
 9
 9
 9
 9
 9
 9
 9
 9
 9
 9
 9
 9
 9
 9
 9
 9
 9
 9
 9
 9
 9
 9
 9
 9
 9
 9
 9
 9
 9
 9
 9
 9
 9
 9
 9
 9
 9
 9
 9
 9
 9
 9
 9
 9
 9
 9
 9
 9
 9
 9
 9
 9
 9
 9
 9
 9
 9
 9
 9
 9
 9
 9
 9
 9
 9
 9
 9
 9
 9
 9
 9
 9
 9
 9
 9
 9
 9
 9
 9
 9
 9
 9
 9
 9
 9
 9
 9
 9
 9
 9
 9
 9
 9
 9
 9
 9
 9
 9
 9
 9
 9
 9
 9
 9
 9
 9
 9
 9
 9
 9
 9
 9
 9
 9
 9
 9
 9
 9
 9
 9
 9
 9
 9
 9
 9
 9
 9
 9
 9
 9
 9
 9
 9
 9
 9
 9
 9
 9
 9
 9
 9
 9
 9
 9
 9
 9
 9
 9
 9
 9
 9
 9
 9
 9
 9
 9
 9
 9
 9
 9
 9
 9
 9
 9
 9
 9
 9
 9
 9
 9
 9
 9
 9
 9
 9
 9
 9
 9
 9
 9
 9
 9
 9
 9
 9
 9
 9
 9
 9
 9
 9
 9
 9
 9
 9
 9
 9
 9
 9
 9
 9
 9
 9
 9
 9
 9
 9
 9
 9
 9
 9
 9
 9
 9
 9
 9
 9
 9
 9
 9
 9
 9
 9
 9
 9
 9
 9
 9
 9
 9
 9
 9
 9
 9
 9
 9
 9
 9
 9
 9
 9
 9
 9
 9
 9
 9
 9
 9
 9
 9
 9
 9
 9
 9
 9
 9
 9
 9
 9
 9
 9
 9
 9
 9
 9
 9
 9
 9
 9
 9
 9
 9
 9
 9
 9
 9
 9
 9
 9
 9
 9
 9
 9
 9
 9
 9
 9
 9
 9
 9
 9
 9
 9
 9
 9
 9
 9
 9
 9
 9
 9
 9
 9
 9
 9
 9
 9
 9
 9
 9
 9
 9
 9
 9
 9
 9
 9
 9
 9
 9
 9
 9
 9
 9
 9
 9
 9
 9
 9
 9
 9
 9
 9
 9
 9
 9
 9
 9
 9
 9
 9
 9
 9
 9
 9
 9
 9
 9
 9
 9
 9
 9
 9
 9
 9
 9
 9
 9
 9
 9
 9
 9
 9
 9
 9
 9
 9
 9
 9
 9
 9
 9
 9
 9
 9
 9
 9
 9
 9
 9
 9
 9
 9
 9
 9
 9
 9
 9
 9
 9
 9
 9
 9
 9
 9
 9
 9
 9
 9
 9
 9
 9
 9
 9
 9
 9
 9
 9
 9
 9
 9
 9
 9
 9
 9
 9
 9
 9
 9
 9
 9
 9
 9
 9
 9
 9
 9
 9
 9
 9
 9
 9
 9
 9
 9
 9
 9
 9
 9
 9
 9
 9
 9
 9
 9
 9
 9
 9
 9
 9
 9
 9
 9
 9
 9
 9
 9
 9
 9
 9
 9
 9
 9
 9
 9
 9
 9
 9
 9
 9
 9
 9
 9
 9
 9
 9
 9
 9
 9
 9
 9
 9
 9
 9
 9
 9
 9
 9
 9
 9
 9
 9
 9
 9
 9
 9
 9
 9
 9
 9
 9
 9
 9
 9
 9
 9
 9
 9
 9
 9
 9
 9
 9
 9
 9
 9
 9
 9
 9
 9
 9
 9
 9
 9
 9
 9
 9
 9
 9
 9
 9
 9
 9
 9
 9
 9
 9
 9
 9
 9
 9
 9
 9
 9
 9
 9
 9
 9
 9
 9
 9
 9
 9
 9
 9
 9
 9
 9
 9
 9
 9
 9
 9
 9
 9
 9
 9
 9
 9
 9
 9
 9
 9
 9
 9
 9
 9
 9
 9
 9
 9
 9
 9
 9
 9
 9
 9
 9
 9
 9
 9
 9
 9
 9
 9
 9
 9
 9
 9
 9
 9
 9
 9
 9
 9
 9
 9
 9
 9
 9
 9
 9
 9
 9
 9
 9
 9
 9
 9
 9
 9
 9
 9
 9
 9
 9
 9
 9
 9
 9
 9
 9
 9
 9
 9
 9
 9
 9
 9
 9
 9
 9
 9
 9
 9
 9
 9
 9
 9
 9
 9
 9
 9
 9
 9
 9
 9
 9
 9
 9
 9
 9
 9
 9
 9
 9
 9
 9
 9
 9
 9
 9
 9
 9
 9
 9
 9
 9
 9
 9
 9
 9
 9
 9
 9
 9
 9
 9
 9
 9
 9
 9
 9
 9
 9
 9
 9
 9
 9
 9
 9
 9
 9
 9
 9
 9
 9
 9
 9
 9
 9
 9
 9
 9
 9
 9
 9
 9
 9
 9
 9
 9
 9
 9
 9
 9
 9
 9
 9
 9
 9
 9
 9
 9
 9
 9
 9
 9
 9
 9
 9
 9
 9
 9
 9
 9
 9
 9
 9
 9
 9
 9
 9
 9
 9
 9
 9
 9
 9
 9
 9
 9
 9
 9
 9
 9
 9
 9
 9
 9
 9
 9
 9
 9
 9
 9
 9
 9
 9
 9
 9
 9
 9
 9
 9
 9
 9
 9
 9
 9
 9
 9
 9
 9
 9
 9
 9
 9
 9
 9
 9
 9
 9
 9
 9
 9
 9
 9
 9
 9
 9
 9
 9
 9
 9
 9
 9
 9
 9
 9
 9
 9
 9
 9
 9
 9
 9
 9
 9
 9
 9
 9
 9
 9
 9
 9
 9
 9
 9
 9
 9
 9
 9
 9
 9
 9
 9
 9
 9
 9
 9
 9
 9
 9
 9
 9
 9
 9
 9
 9
 9
 9
 9
 9
 9
 9
 9
 9
 9
 9
 9
 9
 9
 9
 9
 9
 9
 9
 9
 9
 9
 9
 9
 9
 9
 9
 9
 9
 9
 9
 9
 9
 9
 9
 9
 9
 9
 9
 9
 9
 9
 9
 9
 9
 9
 9
 9
 9
 9
 9
 9
 9
 9
 9
 9
 9
 9
 9
 9
 9
 9
 9
 9
 9
 9
 9
 9
 9
 9
 9
 9
 9
 9
 9
 9
 9
 9
 9
 9
 9
 9
 9
 9
 9
 9
 9
 9
 9
 9
 9
 9
 9
 9
 9
 9
 9
 9
 9
 9
 9
 9
 9
 9
 9
 9
 9
 9
 9
 9
 9
 9
 9
 9
 9
 9
 9
 9
 9
 9
 9
 9
 9
 9
 9
 9
 9
 9
 9
 9
 9
 9
 9
 9
 9
 9
 9
 9
 9
 9
 9
 9
 9
 9
 9
 9
 9
 9
 9
 9
 9
 9
 9
 9
 9
 9
 9
 9
 9
 9
 9
 9
 9
 9
 9
 9
 9
 9
 9
 9
 9
 9
 9
 9
 9
 9
 9
 9
 9
 9
 9
 9
 9
 9
 9
 9
 9
 9
 9
 9
 9
 9
 9
 9
 9
 9
 9
 9
 9
 9
 9
 9
 9
 9
 9
 9
 9
 9
 9
 9
 9
 9
 9
 9
 9
 9
 9
 9
 9
 9
 9
 9
 9
 9
 9
 9
 9
 9
 9
 9
 9
 9
 9
 9
 9
 9
 9
 9
 9
 9
 9
 9
 9
 9
 9
 9
 9
 9
 9
 9
 9
 9
 9
 9
 9
 9
 9
 9
 9
 9
 9
 9
 9
 9
 9
 9
 9
 9
 9
 9
 9
 9
 9
 9
 9
 9
 9
 9
 9
 9
 9
 9
 9
 9
 9
 9
 9
 9
 9
 9
 9
 9
 9
 9
 9
 9
 9
 9
 9
 9
 9
 9
 9
 9
 9
 9
 9
 9
 9
 9
 9
 9
 9
 9
 9
 9
 9
 9
 9
 9
 9
 9
 9
 9
 9
 9
 9
 9
 9
 9
 9
 9
 9
 9
 9
 9
 9
 9
 9
 9
 9
 9
 9
 9
 9
 9
 9
 9
 9
 9
 9
 9
 9
 9
 9
 9
 9
 9
 9
 9
 9
 9
 9
 9
 9
 9
 9
 9
 9
 9
 9
 9
 9
 9
 9
 9
 9
 9
 9
 9
 9
 9
 9
 9
 9
 9
 9
 9
 9
 9
 9
 9
 9
 9
 9
 9
 9
 9
 9
 9
 9
 9
 9
 9
 9
 9
 9
 9
 9
 9
 9
 9
 9
 9
 9
 9
 9
 9
 9
 9
 9
 9
 9
 9
 9
 9
 9
 9
 9
 9
 9
 9
 9
 9
 9
 9
 9
 9
 9
 9
 9
 9
 9
 9
 9
 9
 9
 9
 9
 9
 9
 9
 9
 9
 9
 9
 9
 9
 9
 9
 9
 9
 9
 9
 9
 9
 9
 9
 9
 9
 9
 9
 9
 9
 9
 9
 9
 9
 9
 9
 9
 9
 9
 9
 9
 9
 9
 9
 9
 9
 9
 9
 9
 9
 9
 9
 9
 9
 9
 9
 9
 9
 9
 9
 9
 9
 9
 9
 9
 9
 9
 9
 9
 9
 9
 9
 9
 9
 9
 9
 9
 9
 9
 9
 9
 9
 9
 9
 9
 9
 9
 9
 9
 9
 9
 9
 9
 9
 9
 9
 9
 9
 9
 9
 9
 9
 9
 9
 9
 9
 9
 9
 9
 9
 9
 9
 9
 9
 9
 9
 9
 9
 9
 9
 9
 9
 9
 9
 9
 9
 9
 9
 9
 9
 9
 9
 9
 9
 9
 9
 9
 9
 9
 9
 9
 9
 9
 9
 9
 9
 9
 9
 9
 9
 9
 9
 9
 9
 9
 9
 9
 9
 9
 9
 9
 9
 9
 9
 9
 9
 9
 9
 9
 9
 9
 9
 9
 9
 9
 9
 9
 9
 9
 9
 9
 9
 9
 9
 9
 9
 9
 9
 9
 9
 9
 9
 9
 9
 9
 9
 9
 9
 9
 9
 9
 9
 9
 9
 9
 9
 9
 9
 9
 9
 9
 9
 9
 9
 9
 9
 9
 9
 9
 9
 9
 9
 9
 9
 9
 9
 9
 9
 9
 9
 9
 9
 9
 9
 9
 9
 9
 9
 9
 9
 9
 9
 9
 9
 9
 9
 9
 9
 9
 9
 9
 9
 9
 9
 9
 9
 9
 9
 9
 9
 9
 9
 9
 9
 9
 9
 9
 9
 9
 9
 9
 9
 9
 9
 9
 9
 9
 9
 9
 9
 9
 9
 9
 9
 9
 9
 9
 9
 9
 9
 9
 9
 9
 9
 9
 9
 9
 9
 9
 9
 9
 9
 9
 9
 9
 9
 9
 9
 9
 9
 9
 9
 9
 9
 9
 9
 9
 9
 9
 9
 9
 9
 9
 9
 9
 9
 9
 9
 9
 9
 9
 9
 9
 9
 9
 9
 9
 9
 9
 9
 9
 9
 9
 9
 9
 9
 9
 9
 9
 9
 9
 9
 9
 9
 9
 9
 9
 9
 9
 9
 9
 9
 9
 9
 9
 9
 9
 9
 9
 9
 9
 9
 9
 9
 9
 9
 9
 9
 9
 9
 9
 9
 9
 9
 9
 9
 9
 9
 9
 9
 9
 9
 9
 9
 9
 9
 9
 9
 9
 9
 9
 9
 9
 9
 9
 9
 9
 9
 9
 9
 9
 9
 9
 9
 9
 9
 9
 9
 9
 9
 9
 9
 9
 9
 9
 9
 9
 9
 9
 9
 9
 9
 9
 9
 9
 9
 9
 9
 9
 9
 9
 9
 9
 9
 9
 9
 9
 9
 9
 9
 9
 9
 9
 9
 9
 9
 9
 9
 9
 9
 9
 9
 9
 9
 9
 9
 9
 9
 9
 9
 9
 9
 9
 9
 9
 9
 9
 9
 9
 9
 9
 9
 9
 9
 9
 9
 9
 9
 9
 9
 9
 9
 9
 9
 9
 9
 9
 9
 9
 9
 9
 9
 9
 9
 9
 9
 9
 9
 9
 9
 9
 9
 9
 9
 9
 9
 9
 9
 9
 9
 9
 9
 9
 9
 9
 9
 9
 9
 9
 9
 9
 9
 9
 9
 9
 9
 9
 9
 9
 9
 9
 9
 9
 9
 9
 9
 9
 9
 9
 9
 9
 9
 9
 9
 9
 9
 9
 9
 9
 9
 9
 9
 9
 9
 9
 9
 9
 9
 9
 9
 9
 9
 9
 9
 9
 9
 9
 9
 9
 9
 9
 9
 9
 9
 9
 9
 9
 9
 9
 9
 9
 9
 9
 9
 9
 9
 9
 9
 9
 9
 9
 9
 9
 9
 9
 9
 9
 9
 9
 9
 9
 9
 9
 9
 9
 9
 9
 9
 9
 9
 9
 9
 9
 9
 9
 9
 9
 9
 9
 9
 9
 9
 9
 9
 9
 9
 9
 9
 9
 9
 9
 9
 9
 9
 9
 9
 9
 9
 9
 9
 9
 9
 9
 9
 9
 9
 9
 9
 9
 9
 9
 9
 9
 9
 9
 9
 9
 9
 9
 9
 9
 9
 9
 9
 9
 9
 9
 9
 9
 9
 9
 9
 9
 9
 9
 9
 9
 9
 9
 9
 9
 9
 9
 9
 9
 9
 9
 9
 9
 9
 9
 9
 9
 9
 9
 9
 9
 9
 9
 9
 9
 9
 9
 9
 9
 9
 9
 9
 9
 9
 9
 9
 9
 9
 9
 9
 9
 9
 9
 9
 9
 9
 9
 9
 9
 9
 9
 9
 9
 9
 9
 9
 9
 9
 9
 9
 9
 9
 9
 9
 9
 9
 9
 9
 9
 9
 9
 9
 9
 9
 9
 9
 9
 9
 9
 9
 9
 9
 9
 9
 9
 9
 9
 9
 9
 9
 9
 9
 9
 9
 9
 9
 9
 9
 9
 9
 9
 9
 9
 9
 9
 9
 9
 9
 9
 9
 9
 9
 9
 9
 9
 9
 9
 9
 9
 9
 9
 9
 9
 9
 9
 9
 9
 9
 9
 9
 9
 9
 9
 9
 9
 9
 9
 9
 9
 9
 9
 9
 9
 9
 9
 9
 9
 9
 9
 9
 9
 9
 9
 9
 9
 9
 9
 9
 9
 9
 9
 9
 9
 9
 9
 9
 9
 9
 9
 9
 9
 9
 9
 9
 9
 9
 9
 9
 9
 9
 9
 9
 9
 9
 9
 9
 9
 9
 9
 9
 9
 9
 9
 9
 9
 9
 9
 9
 9
 9
 9
 9
 9
 9
 9
 9
 9
 9
 9
 9
 9
 9
 9
 9
 9
 9
 9
 9
 9
 9
 9
 9
 9
 9
 9
 9
 9
 9
 9
 9
 9
 9
 9
 9
 9
 9
 9
 9
 9
 9
 9
 9
 9
 9
 9
 9
 9
 9
 9
 9
 9
 9
 9
 9
 9
 9
 9
 9
 9
 9
 9
 9
 9
 9
 9
 9
 9
 9
 9
 9
 9
 9
 9
 9
 9
 9
 9
 9
 9
 9
 9
 9
 9
 9
 9
 9
 9
 9
 9
 9
 9
 9
 9
 9
 9
 9
 9
 9
 9
 9
 9
 9
 9
 9
 9
 9
 9
 9
 9
 9
 9
 9
 9
 9
 9
 9
 9
 9
 9
 9
 9
 9
 9
 9
 9
 9
 9
 9
 9
 9
 9
 9
 9
 9
 9
 9
 9
 9
 9
 9
 9
 9
 9
 9
 9
 9
 9
 9
 9
 9
 9
 9
 9
 9
 9
 9
 9
 9
 9
 9
 9
 9
 9
 9
 9
 9
 9
 9
 9
 9
 9
 9
 9
 9
 9
 9
 9
 9
 9
 9
 9
 9
 9
 9
 9
 9
 9
 9
 9
 9
 9
 9
 9
 9
 9
 9
 9
 9
 9
 9
 9
 9
 9
 9
 9
 9
 9
 9
 9
 9
 9
 9
 9
 9
 9
 9
 9
 9
 9
 9
 9
 9
 9
 9
 9
 9
 9
 9
 9
 9
 9
 9
 9
 9
 9
 9
 9
 9
 9
 9
 9
 9
 9
 9
 9
 9
 9
 9
 9
 9
 9
 9
 9
 9
 9
 9
 9
 9
 9
 9
 9
 9
 9
 9
 9
 9
 9
 9
 9
 9
 9
 9
 9
 9
 9
 9
 9
 9
 9
 9
 9
 9
 9
 9
 9
 9
 9
 9
 9
 9
 9
 9
 9
 9
 9
 9
 9
 9
 9
 9
 9
 9
 9
 9
 9
 9
 9
 9
 9
 9
 9
 9
 9
 9
 9
 9
 9
 9
 9
 9
 9
 9
 9
 9
 9
 9
 9
 9
 9
 9
 9
 9
 9
 9
 9
 9
 9
 9
 9
 9
 9
 9
 9
 9
 9
 9
 9
 9
 9
 9
 9
 9
 9
 9
 9
 9
 9
 9
 9
 9
 9
 9
 9
 9
 9
 9
 9
 9
 9
 9
 9
 9
 9
 9
 9
 9
 9
 9
 9
 9
 9
 9
 9
 9
 9
 9
 9
 9
 9
 9
 9
 9
 9
 9
 9
 9
 9
 9
 9
 9
 9
 9
 9
 9
 9
 9
 9
 9
 9
 9
 9
 9
 9
 9
 9
 9
 9
 9
 9
 9
 9
 9
 9
 9
 9
 9
 9
 9
 9
 9
 9
 9
 9
 9
 9
 9
 9
 9
 9
 9
 9
 9
 9
 9
 9
 9
 9
 9
 9
 9
 9
 9
 9
 9
 9
 9
 9
 9
 9
 9
 9
 9
 9
 9
 9
 9
 9
 9
 9
 9
 9
 9
 9
 9
 9
 9
 9
 9
 9
 9
 9
 9
 9
 9
 9
 9
 9
 9
 9
 9
 9
 9
 9
 9
 9
 9
 9
 9
 9
 9
 9
 9
 9
 9
 9
 9
 9
 9
 9
 9
 9
 9
 9
 9
 9
 9
 9
 9
 9
 9
 9
 9
 9
 9
 9
 9
 9
 9
 9
 9
 9
 9
 9
 9
 9
 9
 9
 9
 9
 9
 9
 9
 9
 9
 9
 9
 9
 9
 9
 9
 9
 9
 9
 9
 9
 9
 9
 9
 9
 9
 9
 9
 9
 9
 9
 9
 9
 9
 9
 9
 9
 9
 9
 9
 9
 9
 9
 9
 9
 9
 9
 9
 9
 9
 9
 9
 9
 9
 9
 9
 9
 9
 9
 9
 9
 9
 9
 9
 9
 9
 9
 9
 9
 9
 9
 9
 9
 9
 9
 9
 9
 9
 9
 9
 9
 9
 9
 9
 9
 9
 9
 9
 9
 9
 9
 9
 9
 9
 9
 9
 9
 9
 9
 9
 9
 9
 9
 9
 9
 9
 9
 9
 9
 9
 9
 9
 9
 9
 9
 9
 9
 9
 9
 9
 9
 9
 9
 9
 9
 9
 9
 9
 9
 9
 9
 9
 9
 9
 9
 9
 9
 9
 9
 9
 9
 9
 </DataArray>
 </Cells> 
 <PointData>
 <DataArray  type="Float64" Name="disp" NumberOfComponents="3" format="ascii">
   0.0000000000000000        0.0000000000000000        0.0000000000000000     
   4.1252628375567672E-008   2.5199591770918232E-008   0.0000000000000000     
   7.9366768231504101E-008   4.7199587618079647E-008   0.0000000000000000     
   1.1479847946819002E-007   6.6536765137772983E-008   0.0000000000000000     
   1.4800382198600616E-007   8.3747901926286936E-008   0.0000000000000000     
   1.7943885568533319E-007   9.9369775579910228E-008   0.0000000000000000     
   2.0955964046655191E-007   1.1393916369493165E-007   0.0000000000000000     
   2.3882223623004295E-007   1.2799284386763984E-007   0.0000000000000000     
   2.6768270287618722E-007   1.4206759369432361E-007   0.0000000000000000     
   0.0000000000000000        0.0000000000000000        0.0000000000000000     
   3.5236961887910523E-008   2.0576604807798519E-008   0.0000000000000000     
   6.9110419767978091E-008   3.9460998594458665E-008   0.0000000000000000     
   1.0178237410969201E-007   5.6939030350397308E-008   0.0000000000000000     
   1.3341482538254150E-007   7.3296549066031290E-008   0.0000000000000000     
   1.6416977405601595E-007   8.8819403731777507E-008   0.0000000000000000     
   1.9420922059960453E-007   1.0379344333805281E-007   0.0000000000000000     
   2.2369516548279661E-007   1.1850451687527408E-007   0.0000000000000000     
   2.5278960917508143E-007   1.3323847333385816E-007   0.0000000000000000     
   0.0000000000000000        0.0000000000000000        0.0000000000000000     
   3.0601878583421933E-008   1.6814765206443128E-008   0.0000000000000000     
   6.1062674177395597E-008   3.3071213192837636E-008   0.0000000000000000     
   9.1347544661078794E-008   4.8873662995605613E-008   0.0000000000000000     
   1.2142164791362935E-007   6.4326433651169137E-008   0.0000000000000000     
   1.5125014181420509E-007   7.9533844195950305E-008   0.0000000000000000     
   1.8079818424196386E-007   9.4600213666371201E-008   0.0000000000000000     
   2.1003093307606346E-007   1.0962986109885388E-007   0.0000000000000000     
   2.3891354619566166E-007   1.2472710552982047E-007   0.0000000000000000     
   0.0000000000000000        0.0000000000000000        0.0000000000000000     
   2.7137851791265042E-008   1.3803629025715639E-008   0.0000000000000000     
   5.4893627346860917E-008   2.7863070697122338E-008   0.0000000000000000     
   8.3116735105966780E-008   4.2160040834363049E-008   0.0000000000000000     
   1.1165658350776187E-007   5.6676255257580723E-008   0.0000000000000000     
   1.4036258099142534E-007   7.1393429786918308E-008   0.0000000000000000     
   1.6908413599613636E-007   8.6293280242518742E-008   0.0000000000000000     
   1.9767065696107412E-007   1.0135752244452493E-007   0.0000000000000000     
   2.2597155232541785E-007   1.1656787221307994E-007   0.0000000000000000     
   0.0000000000000000        0.0000000000000000        0.0000000000000000     
   2.4635354840602970E-008   1.1432752324479629E-008   0.0000000000000000     
   5.0273375163478371E-008   2.3669410391218555E-008   0.0000000000000000     
   7.6712689427972440E-008   3.6617541627634784E-008   0.0000000000000000     
   1.0375192609343136E-007   5.0184713461146303E-008   0.0000000000000000     
   1.3118971361920138E-007   6.4278493319171163E-008   0.0000000000000000     
   1.5882468046462867E-007   7.8806448629127337E-008   0.0000000000000000     
   1.8645545508905945E-007   9.3676146818432851E-008   0.0000000000000000     
   2.1388066595184000E-007   1.0879515531450571E-007   0.0000000000000000     
   0.0000000000000000        0.0000000000000000        0.0000000000000000     
   2.2884861060598820E-008   9.5916911615986777E-009   0.0000000000000000     
   4.6872013514352266E-008   2.0323071559032033E-008   0.0000000000000000     
   7.1758151610712123E-008   3.2065543136385911E-008   0.0000000000000000     
   9.7339969599130045E-008   4.4690507837746129E-008   0.0000000000000000     
   1.2341416172905788E-007   5.8069367607198536E-008   0.0000000000000000     
   1.4977742224994725E-007   7.2073524388828947E-008   0.0000000000000000     
   1.7622644541125001E-007   8.6574380126723190E-008   0.0000000000000000     
   2.0255792546241786E-007   1.0144333676496713E-007   0.0000000000000000     
   0.0000000000000000        0.0000000000000000        0.0000000000000000     
   2.1676843780415724E-008   8.1700015959363613E-009   0.0000000000000000     
   4.4359638286586926E-008   1.7656893484468567E-008   0.0000000000000000     
   6.7875865637802235E-008   2.8323423121581611E-008   0.0000000000000000     
   9.2053007953350242E-008   4.0032337963260455E-008   0.0000000000000000     
   1.1671854735251955E-007   5.2646385465490087E-008   0.0000000000000000     
   1.4169996595459881E-007   6.6028313084255477E-008   0.0000000000000000     
   1.6682474587887658E-007   8.0040868275541597E-008   0.0000000000000000     
   1.9192036924464159E-007   9.4546798495333460E-008   0.0000000000000000     
   0.0000000000000000        0.0000000000000000        0.0000000000000000     
   2.0801776329216800E-008   7.0572396863562533E-009   0.0000000000000000     
   4.2406345367286651E-008   1.5503715451433925E-008   0.0000000000000000     
   6.4688575492859194E-008   2.5210559344187016E-008   0.0000000000000000     
   8.7523335084584121E-008   3.6048903413569534E-008   0.0000000000000000     
   1.1078549252111110E-007   4.7889879708535475E-008   0.0000000000000000     
   1.3434991618108976E-007   6.0604620278038860E-008   0.0000000000000000     
   1.5809147444316984E-007   7.4064257171033700E-008   0.0000000000000000     
   1.8188503568600093E-007   8.8139922436473936E-008   0.0000000000000000     
   0.0000000000000000        0.0000000000000000        0.0000000000000000     
   2.0050132036165177E-008   6.1429614917219372E-009   0.0000000000000000     
   4.0682230643555735E-008   1.3696376743833869E-008   0.0000000000000000     
   6.1819025159499418E-008   2.2546329565167264E-008   0.0000000000000000     
   8.3383244921323968E-008   3.2578903764553606E-008   0.0000000000000000     
   1.0529761926635719E-007   4.3680183150824368E-008   0.0000000000000000     
   1.2748487753192672E-007   5.5736251532811015E-008   0.0000000000000000     
   1.4986774905536042E-007   6.8633192719345032E-008   0.0000000000000000     
   1.7236896317398602E-007   8.2257090519257920E-008   0.0000000000000000     
   2.6768270287618722E-007   1.4206759369432361E-007   0.0000000000000000     
   2.9651813893412803E-007   1.5661440747248670E-007   0.0000000000000000     
   3.2538979744806003E-007   1.7174114630449355E-007   0.0000000000000000     
   3.5427997009094081E-007   1.8746988799392372E-007   0.0000000000000000     
   3.8317094853572728E-007   2.0382271034435645E-007   0.0000000000000000     
   4.1204502445537740E-007   2.2082169115937151E-007   0.0000000000000000     
   4.4088448952284802E-007   2.3848890824254812E-007   0.0000000000000000     
   4.6967163541109690E-007   2.5684643939746590E-007   0.0000000000000000     
   4.9838875379308132E-007   2.7591636242770440E-007   0.0000000000000000     
   2.5278960917508143E-007   1.3323847333385816E-007   0.0000000000000000     
   2.8163126082901537E-007   1.4824405981912251E-007   0.0000000000000000     
   3.1026566432942337E-007   1.6362161589598726E-007   0.0000000000000000     
   3.3871507224419734E-007   1.7943437924427296E-007   0.0000000000000000     
   3.6700173714122924E-007   1.9574558754380039E-007   0.0000000000000000     
   3.9514791158841111E-007   2.1261847847439009E-007   0.0000000000000000     
   4.2317584815363492E-007   2.3011628971586279E-007   0.0000000000000000     
   4.5110779940479242E-007   2.4830225894803904E-007   0.0000000000000000     
   4.7896601790977613E-007   2.6723962385073968E-007   0.0000000000000000     
   2.3891354619566166E-007   1.2472710552982047E-007   0.0000000000000000     
   2.6742423111680626E-007   1.3999319802613584E-007   0.0000000000000000     
   2.9559339390310403E-007   1.5551711777643577E-007   0.0000000000000000     
   3.2346449025505183E-007   1.7138477599979897E-007   0.0000000000000000     
   3.5108097587314664E-007   1.8768208391530402E-007   0.0000000000000000     
   3.7848630645788483E-007   2.0449495274202957E-007   0.0000000000000000     
   4.0572393770976358E-007   2.2190929369905421E-007   0.0000000000000000     
   4.3283732532927939E-007   2.4001101800545662E-007   0.0000000000000000     
   4.5986992501692927E-007   2.5888603688031544E-007   0.0000000000000000     
   2.2597155232541785E-007   1.1656787221307994E-007   0.0000000000000000     
   2.5386957634265069E-007   1.3192466488320375E-007   0.0000000000000000     
   2.8138086652347204E-007   1.4750271384942538E-007   0.0000000000000000     
   3.0855490619288513E-007   1.6339545202115085E-007   0.0000000000000000     
   3.3544117867589330E-007   1.7969631230778630E-007   0.0000000000000000     
   3.6208916729749987E-007   1.9649872761873767E-007   0.0000000000000000     
   3.8854835538270810E-007   2.1389613086341112E-007   0.0000000000000000     
   4.1486822625652147E-007   2.3198195495121272E-007   0.0000000000000000     
   4.4109826324394337E-007   2.5084963279154868E-007   0.0000000000000000     
   2.1388066595184000E-007   1.0879515531450571E-007   0.0000000000000000     
   2.4093982305169922E-007   1.2410130318000355E-007   0.0000000000000000     
   2.6763596254489751E-007   1.3965346601854243E-007   0.0000000000000000     
   2.9401300212707787E-007   1.5554078106897805E-007   0.0000000000000000     
   3.2011485949388360E-007   1.7185238557016608E-007   0.0000000000000000     
   3.4598545234095750E-007   1.8867741676096224E-007   0.0000000000000000     
   3.7166869836394299E-007   2.0610501188022220E-007   0.0000000000000000     
   3.9720851525848296E-007   2.2422430816680171E-007   0.0000000000000000     
   4.2264882072022068E-007   2.4312444285955637E-007   0.0000000000000000     
   2.0255792546241786E-007   1.0144333676496713E-007   0.0000000000000000     
   2.2860749778910186E-007   1.1658595570621230E-007   0.0000000000000000     
   2.5436656232175038E-007   1.3204443618737317E-007   0.0000000000000000     
   2.7986546012701092E-007   1.4789513690392977E-007   0.0000000000000000     
   3.0513453227153114E-007   1.6421441655136240E-007   0.0000000000000000     
   3.3020411982195912E-007   1.8107863382515112E-007   0.0000000000000000     
   3.5510456384494181E-007   1.9856414742077620E-007   0.0000000000000000     
   3.7986620540712742E-007   2.1674731603371756E-007   0.0000000000000000     
   4.0451938557516345E-007   2.3570449835945562E-007   0.0000000000000000     
   1.9192036924464159E-007   9.4546798495333460E-008   0.0000000000000000     
   2.1684512710000896E-007   1.0944146525150720E-007   0.0000000000000000     
   2.4158054620840054E-007   1.2475068625950379E-007   0.0000000000000000     
   2.6613896226206487E-007   1.4053289328665534E-007   0.0000000000000000     
   2.9053271095325043E-007   1.5684651810029410E-007   0.0000000000000000     
   3.1477412797420583E-007   1.7374999246775221E-007   0.0000000000000000     
   3.3887554901717913E-007   1.9130174815636161E-007   0.0000000000000000     
   3.6284930977441917E-007   2.0956021693345465E-007   0.0000000000000000     
   3.8670774593817435E-007   2.2858383056636349E-007   0.0000000000000000     
   1.8188503568600093E-007   8.8139922436473936E-008   0.0000000000000000     
   2.0562523752957072E-007   1.0273067460556540E-007   0.0000000000000000     
   2.2928579455921827E-007   1.1784727813852070E-007   0.0000000000000000     
   2.5286019060162077E-007   1.3352842397780412E-007   0.0000000000000000     
   2.7634190948345527E-007   1.4981280306588015E-007   0.0000000000000000     
   2.9972443503139891E-007   1.6673910634521305E-007   0.0000000000000000     
   3.2300125107212873E-007   1.8434602475826727E-007   0.0000000000000000     
   3.4616584143232179E-007   2.0267224924750711E-007   0.0000000000000000     
   3.6921168993865533E-007   2.2175647075539687E-007   0.0000000000000000     
   1.7236896317398602E-007   8.2257090519257920E-008   0.0000000000000000     
   1.9492035562293732E-007   9.6516426558064070E-008   0.0000000000000000     
   2.1749018772857339E-007   1.1140927372801009E-007   0.0000000000000000     
   2.4005582721505907E-007   1.2695610273802538E-007   0.0000000000000000     
   2.6259464180655957E-007   1.4317738429703940E-007   0.0000000000000000     
   2.8508399922723973E-007   1.6009358911398170E-007   0.0000000000000000     
   3.0750126720126473E-007   1.7772518789778176E-007   0.0000000000000000     
   3.2982381345279955E-007   1.9609265135736912E-007   0.0000000000000000     
   3.5202900570600921E-007   2.1521645020167312E-007   0.0000000000000000     
   4.9838875379308132E-007   2.7591636242770440E-007   0.0000000000000000     
   5.2702095983096495E-007   2.9571960757761639E-007   0.0000000000000000     
   5.5556466264373768E-007   3.1627251485464918E-007   0.0000000000000000     
   5.8401909483959585E-007   3.3759027670702321E-007   0.0000000000000000     
   6.1238348902673531E-007   3.5968808558295894E-007   0.0000000000000000     
   6.4065707781335228E-007   3.8258113393067688E-007   0.0000000000000000     
   6.6883909380764294E-007   4.0628461419839769E-007   0.0000000000000000     
   6.9692876961780361E-007   4.3081371883434182E-007   0.0000000000000000     
   7.2492533785203081E-007   4.5618364028672994E-007   0.0000000000000000     
   4.7896601790977613E-007   2.6723962385073968E-007   0.0000000000000000     
   5.0676768150377818E-007   2.8698119966910113E-007   0.0000000000000000     
   5.3450966909119395E-007   3.0753811190952327E-007   0.0000000000000000     
   5.6218378484371992E-007   3.2891106364372179E-007   0.0000000000000000     
   5.8978183293305158E-007   3.5110075794341233E-007   0.0000000000000000     
   6.1729561753088530E-007   3.7410789788031091E-007   0.0000000000000000     
   6.4471694280891709E-007   3.9793318652613301E-007   0.0000000000000000     
   6.7203761293884279E-007   4.2257732695259438E-007   0.0000000000000000     
   6.9924943209235854E-007   4.4804102223141087E-007   0.0000000000000000     
   4.5986992501692927E-007   2.5888603688031544E-007   0.0000000000000000     
   4.8685604978127012E-007   2.7860473019136510E-007   0.0000000000000000     
   5.1379344186309903E-007   2.9917535240096309E-007   0.0000000000000000     
   5.4067070081127374E-007   3.2059062662012313E-007   0.0000000000000000     
   5.6747642617465184E-007   3.4284327595985857E-007   0.0000000000000000     
   5.9419921750209072E-007   3.6592602353118285E-007   0.0000000000000000     
   6.2082767434244776E-007   3.8983159244510946E-007   0.0000000000000000     
   6.4735039624458075E-007   4.1455270581265181E-007   0.0000000000000000     
   6.7375598275734698E-007   4.4008208674482334E-007   0.0000000000000000     
   4.4109826324394337E-007   2.5084963279154868E-007   0.0000000000000000     
   4.6727782195872242E-007   2.7057535370073025E-007   0.0000000000000000     
   4.9340574716959124E-007   2.9116633262269094E-007   0.0000000000000000     
   5.1947075593402711E-007   3.1261254090826945E-007   0.0000000000000000     
   5.4546156530950830E-007   3.3490394990830455E-007   0.0000000000000000     
   5.7136689235351207E-007   3.5803053097363483E-007   0.0000000000000000     
   5.9717545412351676E-007   3.8198225545509911E-007   0.0000000000000000     
   6.2287596767699951E-007   4.0674909470353626E-007   0.0000000000000000     
   6.4845715007143898E-007   4.3232102006978492E-007   0.0000000000000000     
   4.2264882072022068E-007   2.4312444285955637E-007   0.0000000000000000     
   4.4802475533141747E-007   2.6287822475351876E-007   0.0000000000000000     
   4.7333635122080923E-007   2.8349314886842857E-007   0.0000000000000000     
   4.9857486340374964E-007   3.0496038178020242E-007   0.0000000000000000     
   5.2373154689559328E-007   3.2727109006475702E-007   0.0000000000000000     
   5.4879765671169361E-007   3.5041644029800868E-007   0.0000000000000000     
   5.7376444786740473E-007   3.7438759905587414E-007   0.0000000000000000     
   5.9862317537808139E-007   3.9917573291427030E-007   0.0000000000000000     
   6.2336509425907672E-007   4.2477200844911322E-007   0.0000000000000000     
   4.0451938557516345E-007   2.3570449835945562E-007   0.0000000000000000     
   4.2908860719463675E-007   2.5549849790605238E-007   0.0000000000000000     
   4.5357502022689149E-007   2.7613789743189784E-007   0.0000000000000000     
   4.7797393641221115E-007   2.9761772450796395E-007   0.0000000000000000     
   5.0228066749087900E-007   3.1993300670522299E-007   0.0000000000000000     
   5.2649052520317885E-007   3.4307877159464658E-007   0.0000000000000000     
   5.5059882128939392E-007   3.6705004674720689E-007   0.0000000000000000     
   5.7460086748980765E-007   3.9184185973387587E-007   0.0000000000000000     
   5.9849197554470346E-007   4.1744923812562574E-007   0.0000000000000000     
   3.8670774593817435E-007   2.2858383056636349E-007   0.0000000000000000     
   4.1046113484366204E-007   2.4842132771465307E-007   0.0000000000000000     
   4.3411152039797660E-007   2.6908267460682069E-007   0.0000000000000000     
   4.5765888815118101E-007   2.9056814436359607E-007   0.0000000000000000     
   4.8110322365333830E-007   3.1287801010570925E-007   0.0000000000000000     
   5.0444451245451215E-007   3.3601254495389041E-007   0.0000000000000000     
   5.2768274010476507E-007   3.5997202202886910E-007   0.0000000000000000     
   5.5081789215416030E-007   3.8475671445137555E-007   0.0000000000000000     
   5.7384995415276150E-007   4.1036689534214006E-007   0.0000000000000000     
   3.6921168993865533E-007   2.2175647075539687E-007   0.0000000000000000     
   3.9213409557377539E-007   2.4163186873564317E-007   0.0000000000000000     
   4.1493561794420310E-007   2.6230957668691902E-007   0.0000000000000000     
   4.3762063181242904E-007   2.8379521661914053E-007   0.0000000000000000     
   4.6019351194094351E-007   3.0609441054222308E-007   0.0000000000000000     
   4.8265863309223683E-007   3.2921278046608188E-007   0.0000000000000000     
   5.0502037002879946E-007   3.5315594840063307E-007   0.0000000000000000     
   5.2728309751312166E-007   3.7792953635579196E-007   0.0000000000000000     
   5.4945119030769357E-007   4.0353916634147367E-007   0.0000000000000000     
   3.5202900570600921E-007   2.1521645020167312E-007   0.0000000000000000     
   3.7409924668025821E-007   2.3511527552534401E-007   0.0000000000000000     
   3.9603707907570943E-007   2.5580069996591481E-007   0.0000000000000000     
   4.1785008058772479E-007   2.7728251654663925E-007   0.0000000000000000     
   4.3954582891166669E-007   2.9957051829077090E-007   0.0000000000000000     
   4.6113190174289725E-007   3.2267449822156357E-007   0.0000000000000000     
   4.8261587677677859E-007   3.4660424936227096E-007   0.0000000000000000     
   5.0400533170867311E-007   3.7136956473614668E-007   0.0000000000000000     
   5.2530784423394282E-007   3.9698023736644436E-007   0.0000000000000000     
   7.2492533785203081E-007   4.5618364028672994E-007   0.0000000000000000     
   7.5282810395334289E-007   4.8240662521876926E-007   0.0000000000000000     
   7.8063666470405241E-007   5.0948313715361533E-007   0.0000000000000000     
   8.0835068972129410E-007   5.3741069382941018E-007   0.0000000000000000     
   8.3596984862220258E-007   5.6618681298429579E-007   0.0000000000000000     
   8.6349381102391287E-007   5.9580901235641437E-007   0.0000000000000000     
   8.9092224654355982E-007   6.2627480968390810E-007   0.0000000000000000     
   9.1825482479827824E-007   6.5758172270491897E-007   0.0000000000000000     
   9.4549121540520308E-007   6.8972726915758949E-007   0.0000000000000000     
   6.9924943209235854E-007   4.4804102223141087E-007   0.0000000000000000     
   7.2634616962493849E-007   4.7432556251535473E-007   0.0000000000000000     
   7.5332945562716910E-007   5.0143458628142466E-007   0.0000000000000000     
   7.8020288537341473E-007   5.2937231908767577E-007   0.0000000000000000     
   8.0697005413804008E-007   5.5814298649216338E-007   0.0000000000000000     
   8.3363455719540960E-007   5.8775081405294305E-007   0.0000000000000000     
   8.6019998981988787E-007   6.1820002732806969E-007   0.0000000000000000     
   8.8666994728583948E-007   6.4949485187559855E-007   0.0000000000000000     
   9.1304802486762878E-007   6.8163951325358487E-007   0.0000000000000000     
   6.7375598275734698E-007   4.4008208674482334E-007   0.0000000000000000     
   7.0003584269144080E-007   4.6641497317283130E-007   0.0000000000000000     
   7.2619262190490271E-007   4.9355666230865705E-007   0.0000000000000000     
   7.5223177551761044E-007   5.2151496618447613E-007   0.0000000000000000     
   7.7815875864944094E-007   5.5029769683246351E-007   0.0000000000000000     
   8.0397902642027180E-007   5.7991266628479454E-007   0.0000000000000000     
   8.2969803394998063E-007   6.1036768657364460E-007   0.0000000000000000     
   8.5532123635844459E-007   6.4167056973118859E-007   0.0000000000000000     
   8.8085408876554098E-007   6.7382912778960200E-007   0.0000000000000000     
   6.4845715007143898E-007   4.3232102006978492E-007   0.0000000000000000     
   6.7391054407444683E-007   4.5869115475979839E-007   0.0000000000000000     
   6.9923899529417562E-007   4.8586522939998860E-007   0.0000000000000000     
   7.2444817504891113E-007   5.1385212647188147E-007   0.0000000000000000     
   7.4954375465694063E-007   5.4266072845700335E-007   0.0000000000000000     
   7.7453140543655025E-007   5.7229991783688075E-007   0.0000000000000000     
   7.9941679870602650E-007   6.0277857709303956E-007   0.0000000000000000     
   8.2420560578365613E-007   6.3410558870700648E-007   0.0000000000000000     
   8.4890349798772567E-007   6.6628983516030761E-007   0.0000000000000000     
   6.2336509425907672E-007   4.2477200844911322E-007   0.0000000000000000     
   6.4798369469555372E-007   4.5117040484485567E-007   0.0000000000000000     
   6.7248140755190901E-007   4.7837615172009441E-007   0.0000000000000000     
   6.9686289886234745E-007   5.0639729130196169E-007   0.0000000000000000     
   7.2113283466107476E-007   5.3524186581759051E-007   0.0000000000000000     
   7.4529588098229518E-007   5.6491791749411272E-007   0.0000000000000000     
   7.6935670386021390E-007   5.9543348855866141E-007   0.0000000000000000     
   7.9331996932903684E-007   6.2679662123836926E-007   0.0000000000000000     
   8.1719034342296802E-007   6.5901535776036843E-007   0.0000000000000000     
   5.9849197554470346E-007   4.1744923812562574E-007   0.0000000000000000     
   6.2226871547635859E-007   4.4386902099660256E-007   0.0000000000000000     
   6.4593269043502525E-007   4.7110529343365049E-007   0.0000000000000000     
   6.6948676185294984E-007   4.9916395202678754E-007   0.0000000000000000     
   6.9293379116237827E-007   5.2805089336603208E-007   0.0000000000000000     
   7.1627663979555673E-007   5.5777201404140254E-007   0.0000000000000000     
   7.3951816918473134E-007   5.8833321064291698E-007   0.0000000000000000     
   7.6266124076214810E-007   6.1974037976059357E-007   0.0000000000000000     
   7.8570871596005341E-007   6.5199941798445098E-007   0.0000000000000000     
   5.7384995415276150E-007   4.1036689534214006E-007   0.0000000000000000     
   5.9677902733845773E-007   4.3680330078363830E-007   0.0000000000000000     
   6.1960567570044586E-007   4.6406851870533203E-007   0.0000000000000000     
   6.4233057891574790E-007   4.9216559999842861E-007   0.0000000000000000     
   6.6495441666138695E-007   5.2109759555413566E-007   0.0000000000000000     
   6.8747786861438577E-007   5.5086755626366128E-007   0.0000000000000000     
   7.0990161445176704E-007   5.8147853301821228E-007   0.0000000000000000     
   7.3222633385055319E-007   6.1293357670899678E-007   0.0000000000000000     
   7.5445270648776753E-007   6.4523573822722265E-007   0.0000000000000000     
   5.4945119030769357E-007   4.0353916634147367E-007   0.0000000000000000     
   5.7152805120344912E-007   4.2998954177456274E-007   0.0000000000000000     
   5.9351319510509246E-007   4.5728169169981488E-007   0.0000000000000000     
   6.1540516494577217E-007   4.8541572656895523E-007   0.0000000000000000     
   6.3720250365863650E-007   5.1439175683370907E-007   0.0000000000000000     
   6.5890375417683254E-007   5.4420989294580049E-007   0.0000000000000000     
   6.8050745943350939E-007   5.7487024535695445E-007   0.0000000000000000     
   7.0201216236181444E-007   6.0637292451889605E-007   0.0000000000000000     
   7.2341640589489543E-007   6.3871804088334920E-007   0.0000000000000000     
   5.2530784423394282E-007   3.9698023736644436E-007   0.0000000000000000     
   5.4652920799292870E-007   4.2344404153797464E-007   0.0000000000000000     
   5.6766808040588699E-007   4.5076067658177464E-007   0.0000000000000000     
   5.8872133483805288E-007   4.7892782309043803E-007   0.0000000000000000     
   6.0968584465466156E-007   5.0794316165655918E-007   0.0000000000000000     
   6.3055848322094760E-007   5.3780437287273176E-007   0.0000000000000000     
   6.5133612390214681E-007   5.6850913733155002E-007   0.0000000000000000     
   6.7201564006349366E-007   6.0005513562560749E-007   0.0000000000000000     
   6.9259390507022333E-007   6.3244004834749863E-007   0.0000000000000000     
   9.4549121540520308E-007   6.8972726915758949E-007   0.0000000000000000     
   9.7263060068007688E-007   7.2270917583005472E-007   0.0000000000000000     
   9.9967021373307460E-007   7.5652600571042461E-007   0.0000000000000000     
   1.0266068003729788E-006   7.9117653083680252E-007   0.0000000000000000     
   1.0534371064085713E-006   8.2665952324729104E-007   0.0000000000000000     
   1.0801578776486348E-006   8.6297375497999331E-007   0.0000000000000000     
   1.1067658599019521E-006   9.0011799807301237E-007   0.0000000000000000     
   1.1332577989773050E-006   9.3809102456445133E-007   0.0000000000000000     
   1.1596304406834768E-006   9.7689160649241367E-007   0.0000000000000000     
   9.1304802486762878E-007   6.8163951325358487E-007   0.0000000000000000     
   9.3933653858624467E-007   7.1463678050689238E-007   0.0000000000000000     
   9.6553268744917310E-007   7.4848359662761776E-007   0.0000000000000000     
   9.9163239121052478E-007   7.8317544809466542E-007   0.0000000000000000     
   1.0176315696244097E-006   8.1870782138694052E-007   0.0000000000000000     
   1.0435261424449382E-006   8.5507620298334791E-007   0.0000000000000000     
   1.0693120294262206E-006   8.9227607936279243E-007   0.0000000000000000     
   1.0949851503223672E-006   9.3030293700417860E-007   0.0000000000000000     
   1.1205414248874890E-006   9.6915226238641179E-007   0.0000000000000000     
   8.8085408876554098E-007   6.7382912778960200E-007   0.0000000000000000     
   9.0630045496296334E-007   7.0684883495203598E-007   0.0000000000000000     
   9.3165783342966577E-007   7.4072581410554528E-007   0.0000000000000000     
   9.5692213131641956E-007   7.7545385030816066E-007   0.0000000000000000     
   9.8208925577399539E-007   8.1102672861791288E-007   0.0000000000000000     
   1.0071551139531643E-006   8.4743823409283240E-007   0.0000000000000000     
   1.0321156130046960E-006   8.8468215179095050E-007   0.0000000000000000     
   1.0569666600793621E-006   9.2275226677029731E-007   0.0000000000000000     
   1.0817041623279328E-006   9.6164236408890413E-007   0.0000000000000000     
   8.4890349798772567E-007   6.6628983516030761E-007   0.0000000000000000     
   8.7351462125754034E-007   6.9933760995553043E-007   0.0000000000000000     
   8.9803702001648109E-007   7.3324485067950898E-007   0.0000000000000000     
   9.2246721330894736E-007   7.6800490594013796E-007   0.0000000000000000     
   9.4680172017933887E-007   8.0361112434531229E-007   0.0000000000000000     
   9.7103705967205496E-007   8.4005685450292728E-007   0.0000000000000000     
   9.9516975083149559E-007   8.7733544502087744E-007   0.0000000000000000     
   1.0191963127020602E-006   9.1544024450705820E-007   0.0000000000000000     
   1.0431132643281487E-006   9.5436460156936469E-007   0.0000000000000000     
   8.1719034342296802E-007   6.5901535776036843E-007   0.0000000000000000     
   8.4097130891728446E-007   6.9209537630742136E-007   0.0000000000000000     
   8.6466161555154809E-007   7.2603289888481022E-007   0.0000000000000000     
   8.8825882980639154E-007   7.6082178345344693E-007   0.0000000000000000     
   9.1176051816244899E-007   7.9645588797424394E-007   0.0000000000000000     
   9.3516424710035251E-007   8.3292907040811212E-007   0.0000000000000000     
   9.5846758310073578E-007   8.7023518871596381E-007   0.0000000000000000     
   9.8166809264423287E-007   9.0836810085871201E-007   0.0000000000000000     
   1.0047633422114752E-006   9.4732166479726716E-007   0.0000000000000000     
   7.8570871596005341E-007   6.5199941798445098E-007   0.0000000000000000     
   8.0866278938950354E-007   6.8511440479775359E-007   0.0000000000000000     
   8.3152298837679526E-007   7.1908215125675048E-007   0.0000000000000000     
   8.5428817342703685E-007   7.5389765131093822E-007   0.0000000000000000     
   8.7695720504533554E-007   7.8955589890981167E-007   0.0000000000000000     
   8.9952894373679890E-007   8.2605188800286761E-007   0.0000000000000000     
   9.2200225000653426E-007   8.6338061253960122E-007   0.0000000000000000     
   9.4437598435964948E-007   9.0153706646950831E-007   0.0000000000000000     
   9.6664900730125234E-007   9.4051624374208481E-007   0.0000000000000000     
   7.5445270648776753E-007   6.4523573822722265E-007   0.0000000000000000     
   7.7658133412150471E-007   6.7838696621657222E-007   0.0000000000000000     
   7.9861250683415192E-007   7.1238480033063134E-007   0.0000000000000000     
   8.2054643678916664E-007   7.4722567797546071E-007   0.0000000000000000     
   8.4238333615000814E-007   7.8290603655712124E-007   0.0000000000000000     
   8.6412341708013561E-007   8.1942231348167385E-007   0.0000000000000000     
   8.8576689174300748E-007   8.5677094615517925E-007   0.0000000000000000     
   9.0731397230208239E-007   8.9494837198369814E-007   0.0000000000000000     
   9.2876487092081941E-007   9.3395102837329165E-007   0.0000000000000000     
   7.2341640589489543E-007   6.3871804088334920E-007   0.0000000000000000     
   7.4471921456059750E-007   6.7190533135392270E-007   0.0000000000000000     
   7.6592153926554593E-007   7.0593303864175407E-007   0.0000000000000000     
   7.8702481251106490E-007   7.4079903190986495E-007   0.0000000000000000     
   8.0803046679847722E-007   7.7650118032127710E-007   0.0000000000000000     
   8.2893993462910517E-007   8.1303735303901123E-007   0.0000000000000000     
   8.4975464850427251E-007   8.5040541922608920E-007   0.0000000000000000     
   8.7047604092530184E-007   8.8860324804553224E-007   0.0000000000000000     
   8.9110554439351555E-007   9.2762870866036094E-007   0.0000000000000000     
   6.9259390507022333E-007   6.3244004834749863E-007   0.0000000000000000     
   7.1306870215408797E-007   6.6566177099984982E-007   0.0000000000000000     
   7.3344145401290663E-007   6.9971905872542024E-007   0.0000000000000000     
   7.5371449321101564E-007   7.3461088157700054E-007   0.0000000000000000     
   7.7389015231275111E-007   7.7033620960738341E-007   0.0000000000000000     
   7.9397076388244917E-007   8.0689401286935983E-007   0.0000000000000000     
   8.1395866048444612E-007   8.4428326141572150E-007   0.0000000000000000     
   8.3385617468307788E-007   8.8250292529926038E-007   0.0000000000000000     
   8.5366563904268088E-007   9.2155197457276744E-007   0.0000000000000000     
   1.1596304406834768E-006   9.7689160649241367E-007   0.0000000000000000     
   1.1858812507823492E-006   1.0165179719133122E-006   0.0000000000000000     
   1.2120105748482063E-006   1.0569661729568018E-006   0.0000000000000000     
   1.2380194784084323E-006   1.0982317177708481E-006   0.0000000000000000     
   1.2639090269904100E-006   1.1403101145034156E-006   0.0000000000000000     
   1.2896802861215234E-006   1.1831968713024690E-006   0.0000000000000000     
   1.3153343213291562E-006   1.2268874963159740E-006   0.0000000000000000     
   1.3408721981406923E-006   1.2713774976918951E-006   0.0000000000000000     
   1.3662949820835155E-006   1.3166623835781979E-006   0.0000000000000000     
   1.1205414248874890E-006   9.6915226238641179E-007   0.0000000000000000     
   1.1459776712305911E-006   1.0088198175223474E-006   0.0000000000000000     
   1.1712943008802648E-006   1.0493024665606436E-006   0.0000000000000000     
   1.1964926237199961E-006   1.0905973491839103E-006   0.0000000000000000     
   1.2215739496332714E-006   1.1327016050747568E-006   0.0000000000000000     
   1.2465395885035773E-006   1.1756123739157920E-006   0.0000000000000000     
   1.2713908502144002E-006   1.2193267953896261E-006   0.0000000000000000     
   1.2961290446492263E-006   1.2638420091788676E-006   0.0000000000000000     
   1.3207554816915424E-006   1.3091551549661260E-006   0.0000000000000000     
   1.0817041623279328E-006   9.6164236408890413E-007   0.0000000000000000     
   1.1063249186316560E-006   1.0013469246812868E-006   0.0000000000000000     
   1.1308292947936879E-006   1.0418632129879033E-006   0.0000000000000000     
   1.1552185483476620E-006   1.0831891893256966E-006   0.0000000000000000     
   1.1794939368272114E-006   1.1253228140116101E-006   0.0000000000000000     
   1.2036567177659702E-006   1.1682620473625866E-006   0.0000000000000000     
   1.2277081486975713E-006   1.2120048496955704E-006   0.0000000000000000     
   1.2516494871556481E-006   1.2565491813275042E-006   0.0000000000000000     
   1.2754819906738338E-006   1.3018930025753306E-006   0.0000000000000000     
   1.0431132643281487E-006   9.5436460156936469E-007   0.0000000000000000     
   1.0669178687364771E-006   9.9410266286125660E-007   0.0000000000000000     
   1.0906103648830315E-006   1.0346517672184550E-006   0.0000000000000000     
   1.1141917357061147E-006   1.0760100515222457E-006   0.0000000000000000     
   1.1376629641440291E-006   1.1181756526539140E-006   0.0000000000000000     
   1.1610250331350777E-006   1.1611467074947457E-006   0.0000000000000000     
   1.1842789256175630E-006   1.2049213529260271E-006   0.0000000000000000     
   1.2074256245297874E-006   1.2494977258290432E-006   0.0000000000000000     
   1.2304661128100547E-006   1.2948739630850808E-006   0.0000000000000000     
   1.0047633422114752E-006   9.4732166479726716E-007   0.0000000000000000     
   1.0277513972959869E-006   9.8709040153338263E-007   0.0000000000000000     
   1.0506323194428506E-006   1.0276714842321735E-006   0.0000000000000000     
   1.0734066692100378E-006   1.0690627490995960E-006   0.0000000000000000     
   1.0960750071555223E-006   1.1112620323416065E-006   0.0000000000000000     
   1.1186378938372746E-006   1.1542671701641601E-006   0.0000000000000000     
   1.1410958898132683E-006   1.1980759987732138E-006   0.0000000000000000     
   1.1634495556414759E-006   1.2426863543747240E-006   0.0000000000000000     
   1.1856994518798686E-006   1.2880960731746455E-006   0.0000000000000000     
   9.6664900730125234E-007   9.4051624374208481E-007   0.0000000000000000     
   9.8882038006111849E-007   9.8031351016878957E-007   0.0000000000000000     
   1.0108899667677000E-006   1.0209257190089324E-006   0.0000000000000000     
   1.0328578322741170E-006   1.0623500953837865E-006   0.0000000000000000     
   1.0547240414334896E-006   1.1045838644146257E-006   0.0000000000000000     
   1.0764886590989377E-006   1.1476242512227231E-006   0.0000000000000000     
   1.0981517501235823E-006   1.1914684809293514E-006   0.0000000000000000     
   1.1197133793605427E-006   1.2361137786557834E-006   0.0000000000000000     
   1.1411736116629404E-006   1.2815573695232935E-006   0.0000000000000000     
   9.2876487092081941E-007   9.3395102837329165E-007   0.0000000000000000     
   9.5011969278280454E-007   9.7377535823860248E-007   0.0000000000000000     
   9.7137811515213500E-007   1.0144178265286058E-006   0.0000000000000000     
   9.9253970831303507E-007   1.0558749037008563E-006   0.0000000000000000     
   1.0136040425497288E-006   1.0981430602129107E-006   0.0000000000000000     
   1.0345706881464418E-006   1.1412187665223257E-006   0.0000000000000000     
   1.0554392153873970E-006   1.1850984930866574E-006   0.0000000000000000     
   1.0762091945568200E-006   1.2297787103634611E-006   0.0000000000000000     
   1.0968801959389348E-006   1.2752558888102943E-006   0.0000000000000000     
   8.9110554439351555E-007   9.2762870866036094E-007   0.0000000000000000     
   9.1164421121197799E-007   9.6747931521394896E-007   0.0000000000000000     
   9.3209157289071038E-007   1.0081511617710680E-006   0.0000000000000000     
   9.5244678074147660E-007   1.0496399873768437E-006   0.0000000000000000     
   9.7270898607604006E-007   1.0919415310764001E-006   0.0000000000000000     
   9.9287734020616233E-007   1.1350515319148606E-006   0.0000000000000000     
   1.0129509944436070E-006   1.1789657289373511E-006   0.0000000000000000     
   1.0329291001001379E-006   1.2236798611889958E-006   0.0000000000000000     
   1.0528108084875159E-006   1.2691896677149169E-006   0.0000000000000000     
   8.5366563904268088E-007   9.2155197457276744E-007   0.0000000000000000     
   8.7338881109957046E-007   9.6142875056595196E-007   0.0000000000000000     
   8.9302514827798110E-007   1.0021290797161931E-006   0.0000000000000000     
   9.1257353297412619E-007   1.0436481597377868E-006   0.0000000000000000     
   9.3203284758421955E-007   1.0859811883450306E-006   0.0000000000000000     
   9.5140197450447490E-007   1.1291233632522202E-006   0.0000000000000000     
   9.7067979613110573E-007   1.1730698821736524E-006   0.0000000000000000     
   9.8986519486032585E-007   1.2178159428236240E-006   0.0000000000000000     
   1.0089570530883489E-006   1.2633567429164308E-006   0.0000000000000000     
   1.3662949820835155E-006   1.3166623835781979E-006   0.0000000000000000     
   1.3916033287797912E-006   1.3627379110324520E-006   0.0000000000000000     
   1.4167962542308168E-006   1.4096008327506477E-006   0.0000000000000000     
   1.4418723645326711E-006   1.4572481503383799E-006   0.0000000000000000     
   1.4668302657814322E-006   1.5056768654012432E-006   0.0000000000000000     
   1.4916685640731802E-006   1.5548839795448333E-006   0.0000000000000000     
   1.5163858655039932E-006   1.6048664943747442E-006   0.0000000000000000     
   1.5409807761699498E-006   1.6556214114965715E-006   0.0000000000000000     
   1.5654519021671301E-006   1.7071457325159104E-006   0.0000000000000000     
   1.3207554816915424E-006   1.3091551549661260E-006   0.0000000000000000     
   1.3452710382643978E-006   1.3552631866462510E-006   0.0000000000000000     
   1.3696748594490962E-006   1.4021623149630483E-006   0.0000000000000000     
   1.3939656573665060E-006   1.4498485648725662E-006   0.0000000000000000     
   1.4181421441374932E-006   1.4983179613308502E-006   0.0000000000000000     
   1.4422030318829251E-006   1.5475665292939469E-006   0.0000000000000000     
   1.4661470327236695E-006   1.5975902937179043E-006   0.0000000000000000     
   1.4899728587805935E-006   1.6483852795587673E-006   0.0000000000000000     
   1.5136792221745644E-006   1.6999475117725839E-006   0.0000000000000000     
   1.2754819906738338E-006   1.3018930025753306E-006   0.0000000000000000     
   1.2992065280462549E-006   1.3480338689721485E-006   0.0000000000000000     
   1.3228224131090080E-006   1.3949677169156735E-006   0.0000000000000000     
   1.3463285709586825E-006   1.4426900780197776E-006   0.0000000000000000     
   1.3697239266918677E-006   1.4911964838983314E-006   0.0000000000000000     
   1.3930074054051531E-006   1.5404824661652064E-006   0.0000000000000000     
   1.4161779321951283E-006   1.5905435564342735E-006   0.0000000000000000     
   1.4392344321583825E-006   1.6413752863194047E-006   0.0000000000000000     
   1.4621758303915049E-006   1.6929731874344698E-006   0.0000000000000000     
   1.2304661128100547E-006   1.2948739630850808E-006   0.0000000000000000     
   1.2534010783725537E-006   1.3410477489131641E-006   0.0000000000000000     
   1.2762300290350254E-006   1.3880149568832785E-006   0.0000000000000000     
   1.2989521775910986E-006   1.4357710079031474E-006   0.0000000000000000     
   1.3215667368344003E-006   1.4843113228804945E-006   0.0000000000000000     
   1.3440729195585584E-006   1.5336313227230433E-006   0.0000000000000000     
   1.3664699385572001E-006   1.5837264283385181E-006   0.0000000000000000     
   1.3887570066239544E-006   1.6345920606346430E-006   0.0000000000000000     
   1.4109333365524494E-006   1.6862236405191417E-006   0.0000000000000000     
   1.1856994518798686E-006   1.2880960731746455E-006   0.0000000000000000     
   1.2078459694904847E-006   1.3343026173723188E-006   0.0000000000000000     
   1.2298888210516242E-006   1.3813019531406200E-006   0.0000000000000000     
   1.2518275495456515E-006   1.4290896726458091E-006   0.0000000000000000     
   1.2736616979549336E-006   1.4776613680541463E-006   0.0000000000000000     
   1.2953908092618326E-006   1.5270126315318911E-006   0.0000000000000000     
   1.3170144264487158E-006   1.5771390552453027E-006   0.0000000000000000     
   1.3385320924979481E-006   1.6280362313606435E-006   0.0000000000000000     
   1.3599433503918936E-006   1.6796997520441704E-006   0.0000000000000000     
   1.1411736116629404E-006   1.2815573695232935E-006   0.0000000000000000     
   1.1625324816472389E-006   1.3277962652526311E-006   0.0000000000000000     
   1.1837899029832774E-006   1.3748266239624537E-006   0.0000000000000000     
   1.2049457591042401E-006   1.4226443903708969E-006   0.0000000000000000     
   1.2259999334433100E-006   1.4712455091960945E-006   0.0000000000000000     
   1.2469523094336711E-006   1.5206259251561821E-006   0.0000000000000000     
   1.2678027705085065E-006   1.5707815829692945E-006   0.0000000000000000     
   1.2885512001009994E-006   1.6217084273535647E-006   0.0000000000000000     
   1.3091974816443350E-006   1.6734024030271305E-006   0.0000000000000000     
   1.0968801959389348E-006   1.2752558888102943E-006   0.0000000000000000     
   1.1174518950900063E-006   1.3215264834571204E-006   0.0000000000000000     
   1.1379243886544593E-006   1.3685868876235356E-006   0.0000000000000000     
   1.1582978785487602E-006   1.4164334792015427E-006   0.0000000000000000     
   1.1785725666893735E-006   1.4650626360831462E-006   0.0000000000000000     
   1.1987486549927658E-006   1.5144707361603493E-006   0.0000000000000000     
   1.2188263453754021E-006   1.5646541573251559E-006   0.0000000000000000     
   1.2388058397537479E-006   1.6156092774695687E-006   0.0000000000000000     
   1.2586873400442691E-006   1.6673324744855925E-006   0.0000000000000000     
   1.0528108084875159E-006   1.2691896677149169E-006   0.0000000000000000     
   1.0725954900659780E-006   1.3154910628888073E-006   0.0000000000000000     
   1.0922833918896450E-006   1.3625806623986220E-006   0.0000000000000000     
   1.1118749801611095E-006   1.4104552572608814E-006   0.0000000000000000     
   1.1313707210829676E-006   1.4591116384921096E-006   0.0000000000000000     
   1.1507710808578108E-006   1.5085465971088264E-006   0.0000000000000000     
   1.1700765256882336E-006   1.5587569241275539E-006   0.0000000000000000     
   1.1892875217768304E-006   1.6097394105648150E-006   0.0000000000000000     
   1.2084045353261934E-006   1.6614908474371300E-006   0.0000000000000000     
   1.0089570530883489E-006   1.2633567429164308E-006   0.0000000000000000     
   1.0279545468223445E-006   1.3096877944507110E-006   0.0000000000000000     
   1.0468580265133071E-006   1.3568058665624682E-006   0.0000000000000000     
   1.0656681362231867E-006   1.4047080426720463E-006   0.0000000000000000     
   1.0843855200139338E-006   1.4533914061997902E-006   0.0000000000000000     
   1.1030108219474989E-006   1.5028530405660445E-006   0.0000000000000000     
   1.1215446860858318E-006   1.5530900291911537E-006   0.0000000000000000     
   1.1399877564908839E-006   1.6040994554954625E-006   0.0000000000000000     
   1.1583406772246044E-006   1.6558784028993157E-006   0.0000000000000000     
   1.5654519021671301E-006   1.7071457325159104E-006   0.0000000000000000     
   1.5897982831505011E-006   1.7594361361455510E-006   0.0000000000000000     
   1.6140206930105859E-006   1.8124880095270650E-006   0.0000000000000000     
   1.6381203391967973E-006   1.8662964169092204E-006   0.0000000000000000     
   1.6620984291585464E-006   1.9208564225407837E-006   0.0000000000000000     
   1.6859561703452458E-006   1.9761630906705235E-006   0.0000000000000000     
   1.7096947702063072E-006   2.0322114855472064E-006   0.0000000000000000     
   1.7333154361911434E-006   2.0889966714195999E-006   0.0000000000000000     
   1.7568193757491658E-006   2.1465137125364716E-006   0.0000000000000000     
   1.5136792221745644E-006   1.6999475117725839E-006   0.0000000000000000     
   1.5372652060489380E-006   1.7522730270859533E-006   0.0000000000000000     
   1.5607313776370286E-006   1.8053579093076894E-006   0.0000000000000000     
   1.5840786751946385E-006   1.8591982540171581E-006   0.0000000000000000     
   1.6073080369775700E-006   1.9137901567937259E-006   0.0000000000000000     
   1.6304204012416256E-006   1.9691297132167600E-006   0.0000000000000000     
   1.6534167062426080E-006   2.0252130188656263E-006   0.0000000000000000     
   1.6762978902363198E-006   2.0820361693196922E-006   0.0000000000000000     
   1.6990648914785641E-006   2.1395952601583236E-006   0.0000000000000000     
   1.4621758303915049E-006   1.6929731874344698E-006   0.0000000000000000     
   1.4850013402600012E-006   1.7453329734532703E-006   0.0000000000000000     
   1.5077113282050396E-006   1.7984510862893219E-006   0.0000000000000000     
   1.5303064489367031E-006   1.8523241499160704E-006   0.0000000000000000     
   1.5527873571650765E-006   1.9069487883069616E-006   0.0000000000000000     
   1.5751547076002441E-006   1.9623216254354400E-006   0.0000000000000000     
   1.5974091549522886E-006   2.0184392852749517E-006   0.0000000000000000     
   1.6195513539312949E-006   2.0752983917989419E-006   0.0000000000000000     
   1.6415819592473463E-006   2.1328955689808561E-006   0.0000000000000000     
   1.4109333365524494E-006   1.6862236405191417E-006   0.0000000000000000     
   1.4329983341978516E-006   1.7386168112798701E-006   0.0000000000000000     
   1.4549521776614888E-006   1.7917681057252192E-006   0.0000000000000000     
   1.4767952381062269E-006   1.8456742790437096E-006   0.0000000000000000     
   1.4985278866949334E-006   1.9003320864238652E-006   0.0000000000000000     
   1.5201504945904741E-006   1.9557382830542078E-006   0.0000000000000000     
   1.5416634329557165E-006   2.0118896241232600E-006   0.0000000000000000     
   1.5630670729535267E-006   2.0687828648195434E-006   0.0000000000000000     
   1.5843617857467716E-006   2.1264147603315815E-006   0.0000000000000000     
   1.3599433503918936E-006   1.6796997520441704E-006   0.0000000000000000     
   1.3812478362766514E-006   1.7321253765981220E-006   0.0000000000000000     
   1.4024455589532483E-006   1.7853095328686354E-006   0.0000000000000000     
   1.4235366203864472E-006   1.8392488158378281E-006   0.0000000000000000     
   1.4445211225410081E-006   1.8939398204878148E-006   0.0000000000000000     
   1.4653991673816919E-006   1.9493791418007104E-006   0.0000000000000000     
   1.4861708568732611E-006   2.0055633747586313E-006   0.0000000000000000     
   1.5068362929804754E-006   2.0624891143436928E-006   0.0000000000000000     
   1.5273955776680972E-006   2.1201529555380118E-006   0.0000000000000000     
   1.3091974816443350E-006   1.6734024030271305E-006   0.0000000000000000     
   1.3297414949105603E-006   1.7258595054403922E-006   0.0000000000000000     
   1.3501831050271887E-006   1.7790759329728256E-006   0.0000000000000000     
   1.3705221734605982E-006   1.8330479347361749E-006   0.0000000000000000     
   1.3907585616771662E-006   1.8877717598421819E-006   0.0000000000000000     
   1.4108921311432704E-006   1.9432436574025911E-006   0.0000000000000000     
   1.4309227433252896E-006   1.9994598765291451E-006   0.0000000000000000     
   1.4508502596896009E-006   2.0564166663335870E-006   0.0000000000000000     
   1.4706745417025825E-006   2.1141102759276611E-006   0.0000000000000000     
   1.2586873400442691E-006   1.6673324744855925E-006   0.0000000000000000     
   1.2784709585137412E-006   1.7198200338390498E-006   0.0000000000000000     
   1.2981564488301815E-006   1.7730678712910454E-006   0.0000000000000000     
   1.3177434750119171E-006   1.8270718101765023E-006   0.0000000000000000     
   1.3372317010772759E-006   1.8818276738303450E-006   0.0000000000000000     
   1.3566207910445846E-006   1.9373312855874956E-006   0.0000000000000000     
   1.3759104089321711E-006   1.9935784687828800E-006   0.0000000000000000     
   1.3951002187583625E-006   2.0505650467514198E-006   0.0000000000000000     
   1.4141898845414862E-006   2.1082868428280409E-006   0.0000000000000000     
   1.2084045353261934E-006   1.6614908474371300E-006   0.0000000000000000     
   1.2274278755003552E-006   1.7140077978264647E-006   0.0000000000000000     
   1.2463572233090971E-006   1.7672859130765504E-006   0.0000000000000000     
   1.2651921027236401E-006   1.8213206165965630E-006   0.0000000000000000     
   1.2839320377152045E-006   1.8761073317956777E-006   0.0000000000000000     
   1.3025765522550085E-006   1.9316414820830700E-006   0.0000000000000000     
   1.3211251703142733E-006   1.9879184908679144E-006   0.0000000000000000     
   1.3395774158642194E-006   2.0449337815593883E-006   0.0000000000000000     
   1.3579328128760665E-006   2.1026827775666645E-006   0.0000000000000000     
   1.1583406772246044E-006   1.6558784028993157E-006   0.0000000000000000     
   1.1766038942845629E-006   1.7084236334350019E-006   0.0000000000000000     
   1.1947770614108073E-006   1.7617306235825937E-006   0.0000000000000000     
   1.2128596342790033E-006   1.8157945284341062E-006   0.0000000000000000     
   1.2308510685648176E-006   1.8706105030815553E-006   0.0000000000000000     
   1.2487508199439164E-006   1.9261737026169580E-006   0.0000000000000000     
   1.2665583440919653E-006   1.9824792821323295E-006   0.0000000000000000     
   1.2842730966846323E-006   2.0395223967196867E-006   0.0000000000000000     
   1.3018945333975822E-006   2.0972982014710451E-006   0.0000000000000000     
   0.0000000000000000        0.0000000000000000        0.0000000000000000     
   2.0050132036165177E-008   6.1429614917219372E-009   0.0000000000000000     
   4.0682230643555735E-008   1.3696376743833869E-008   0.0000000000000000     
   6.1819025159499418E-008   2.2546329565167264E-008   0.0000000000000000     
   8.3383244921323968E-008   3.2578903764553606E-008   0.0000000000000000     
   1.0529761926635719E-007   4.3680183150824368E-008   0.0000000000000000     
   1.2748487753192672E-007   5.5736251532811015E-008   0.0000000000000000     
   1.4986774905536042E-007   6.8633192719345032E-008   0.0000000000000000     
   1.7236896317398602E-007   8.2257090519257920E-008   0.0000000000000000     
   0.0000000000000000        0.0000000000000000        0.0000000000000000     
   1.9250132943275540E-008   5.3340914497921198E-009   0.0000000000000000     
   3.8916144091063442E-008   1.2093319442274057E-008   0.0000000000000000     
   5.8956068754412499E-008   2.0176663417907118E-008   0.0000000000000000     
   7.9327942244371489E-008   2.9483102817152599E-008   0.0000000000000000     
   9.9989799871989168E-008   3.9911617080471810E-008   0.0000000000000000     
   1.2089967694831434E-007   5.1361185648326034E-008   0.0000000000000000     
   1.4201560878439576E-007   6.3730787961176617E-008   0.0000000000000000     
   1.6329563069128224E-007   7.6919403459484783E-008   0.0000000000000000     
   0.0000000000000000        0.0000000000000000        0.0000000000000000     
   1.8380995943968965E-008   4.6070275139060641E-009   0.0000000000000000     
   3.7071952039738895E-008   1.0655396814159720E-008   0.0000000000000000     
   5.6053000926580854E-008   1.8053698025469791E-008   0.0000000000000000     
   7.5304275243765894E-008   2.6710521272545093E-008   0.0000000000000000     
   9.4805907630565117E-008   3.6534456680094461E-008   0.0000000000000000     
   1.1453803072624955E-007   4.7434094372826710E-008   0.0000000000000000     
   1.3448077717009026E-007   5.9318024475450628E-008   0.0000000000000000     
   1.5461427960135836E-007   7.2094837112675091E-008   0.0000000000000000     
   0.0000000000000000        0.0000000000000000        0.0000000000000000     
   1.7459686644518121E-008   3.9555360162981647E-009   0.0000000000000000     
   3.5172274908076144E-008   9.3690649235959575E-009   0.0000000000000000     
   5.3129226458060070E-008   1.6156122383338106E-008   0.0000000000000000     
   7.1322002961855929E-008   2.4232244056969328E-008   0.0000000000000000     
   8.9742066086849688E-008   3.3512965605934345E-008   0.0000000000000000     
   1.0838087750042736E-007   4.3913822691677888E-008   0.0000000000000000     
   1.2722989886997500E-007   5.5350350975644671E-008   0.0000000000000000     
   1.4628059186287856E-007   6.7738086119279420E-008   0.0000000000000000     
   0.0000000000000000        0.0000000000000000        0.0000000000000000     
   1.6503170651195648E-008   3.3733832892028202E-009   0.0000000000000000     
   3.3239733114569262E-008   8.2207798346878874E-009   0.0000000000000000     
   5.0204150130905798E-008   1.4462625486994893E-008   0.0000000000000000     
   6.7390884440990261E-008   2.2019356096663540E-008   0.0000000000000000     
   8.4794398785607639E-008   3.0811407514233528E-008   0.0000000000000000     
   1.0240915590554289E-007   4.0759215590244547E-008   0.0000000000000000     
   1.2022961854158106E-007   5.1783216175236311E-008   0.0000000000000000     
   1.3825024943450706E-007   6.3803845119748502E-008   0.0000000000000000     
   0.0000000000000000        0.0000000000000000        0.0000000000000000     
   1.5528413570274217E-008   2.8543356648544289E-009   0.0000000000000000     
   3.1296947077712287E-008   7.1969976115406079E-009   0.0000000000000000     
   4.7297176727173616E-008   1.2951896331922979E-008   0.0000000000000000     
   6.3520678723517584E-008   2.0042942317865976E-008   0.0000000000000000     
   7.9959029271603650E-008   2.8394046061234034E-008   0.0000000000000000     
   9.6603804576291161E-008   3.7929118053891591E-008   0.0000000000000000     
   1.1344658084243950E-007   4.8572068787703082E-008   0.0000000000000000     
   1.3047893427490815E-007   6.0246808754532954E-008   0.0000000000000000     
   0.0000000000000000        0.0000000000000000        0.0000000000000000     
   1.4552381008026465E-008   2.3921594754873831E-009   0.0000000000000000     
   2.9366537215999300E-008   6.2841743182592381E-009   0.0000000000000000     
   4.4427711028919137E-008   1.1602623913605191E-008   0.0000000000000000     
   5.9721144851786617E-008   1.8274087646814873E-008   0.0000000000000000     
   7.5232081089602438E-008   2.6225144903177919E-008   0.0000000000000000     
   9.0945762147367146E-008   3.5382375067983939E-008   0.0000000000000000     
   1.0684743043008150E-007   4.5672357526522574E-008   0.0000000000000000     
   1.2292232834274602E-007   5.7021671664083456E-008   0.0000000000000000     
   0.0000000000000000        0.0000000000000000        0.0000000000000000     
   1.3592038570725058E-008   1.9806210533360823E-009   0.0000000000000000     
   2.7471123947924353E-008   5.4687660189488813E-009   0.0000000000000000     
   4.1615157818197993E-008   1.0393497227524364E-008   0.0000000000000000     
   5.6002041868146055E-008   1.6683877009748485E-008   0.0000000000000000     
   7.0609677784368710E-008   2.4268967696307219E-008   0.0000000000000000     
   8.5415967253466008E-008   3.3077831617886523E-008   0.0000000000000000     
   1.0039881196203805E-007   4.3039531105172362E-008   0.0000000000000000     
   1.1553611359668505E-007   5.4083128488850709E-008   0.0000000000000000     
   0.0000000000000000        0.0000000000000000        0.0000000000000000     
   1.2664351864642656E-008   1.6134867306349224E-009   0.0000000000000000     
   2.5633327691981512E-008   4.7372287777146498E-009   0.0000000000000000     
   3.8878921877065763E-008   9.3032052691633138E-009   0.0000000000000000     
   5.2373128814944563E-008   1.5243395332905044E-008   0.0000000000000000     
   6.6087942900667157E-008   2.2489778096863985E-008   0.0000000000000000     
   7.9995358529282670E-008   3.0974332688964254E-008   0.0000000000000000     
   9.4067370095840319E-008   4.0629038237129995E-008   0.0000000000000000     
   1.0827597199538932E-007   5.1385873869285347E-008   0.0000000000000000     
   1.7236896317398602E-007   8.2257090519257920E-008   0.0000000000000000     
   1.9492035562293732E-007   9.6516426558064070E-008   0.0000000000000000     
   2.1749018772857339E-007   1.1140927372801009E-007   0.0000000000000000     
   2.4005582721505907E-007   1.2695610273802538E-007   0.0000000000000000     
   2.6259464180655957E-007   1.4317738429703940E-007   0.0000000000000000     
   2.8508399922723973E-007   1.6009358911398170E-007   0.0000000000000000     
   3.0750126720126473E-007   1.7772518789778176E-007   0.0000000000000000     
   3.2982381345279955E-007   1.9609265135736912E-007   0.0000000000000000     
   3.5202900570600921E-007   2.1521645020167312E-007   0.0000000000000000     
   1.6329563069128224E-007   7.6919403459484783E-008   0.0000000000000000     
   1.8469923944699776E-007   9.0843920241234259E-008   0.0000000000000000     
   2.0619177769746700E-007   1.0549286103449812E-007   0.0000000000000000     
   2.2774004955558995E-007   1.2087265722487179E-007   0.0000000000000000     
   2.4931085913426647E-007   1.3698974019795069E-007   0.0000000000000000     
   2.7087101054639650E-007   1.5385054133933029E-007   0.0000000000000000     
   2.9238730790488002E-007   1.7146149203460597E-007   0.0000000000000000     
   3.1382655532261685E-007   1.8982902366937324E-007   0.0000000000000000     
   3.3515555691250686E-007   2.0895956762922751E-007   0.0000000000000000     
   1.5461427960135836E-007   7.2094837112675091E-008   0.0000000000000000     
   1.7491557315559542E-007   8.5687780157522613E-008   0.0000000000000000     
   1.9534930295342470E-007   1.0007873247627056E-007   0.0000000000000000     
   2.1587701661174027E-007   1.1526423068351011E-007   0.0000000000000000     
   2.3646026174743578E-007   1.3124081139383229E-007   0.0000000000000000     
   2.5706058597740525E-007   1.4800501122182824E-007   0.0000000000000000     
   2.7763953691854259E-007   1.6555336678208916E-007   0.0000000000000000     
   2.9815866218774155E-007   1.8388241468920604E-007   0.0000000000000000     
   3.1857950940189596E-007   2.0298869155777004E-007   0.0000000000000000     
   1.4628059186287856E-007   6.7738086119279420E-008   0.0000000000000000     
   1.6551927242431223E-007   8.1004987151929516E-008   0.0000000000000000     
   1.8491167361060306E-007   9.5128706574552967E-008   0.0000000000000000     
   2.0441838275586590E-007   1.1009932025601036E-007   0.0000000000000000     
   2.2399998719421618E-007   1.2590690406516234E-007   0.0000000000000000     
   2.4361707425976884E-007   1.4254153387086955E-007   0.0000000000000000     
   2.6323023128663897E-007   1.5999328554199269E-007   0.0000000000000000     
   2.8280004560894180E-007   1.7825223494739230E-007   0.0000000000000000     
   3.0228710456079242E-007   1.9730845795592912E-007   0.0000000000000000     
   1.3825024943450706E-007   6.3803845119748502E-008   0.0000000000000000     
   1.5646025292873036E-007   7.6752522069455549E-008   0.0000000000000000     
   1.7482779978315848E-007   9.0604601850570890E-008   0.0000000000000000     
   1.9331580236032322E-007   1.0534642308444264E-007   0.0000000000000000     
   2.1188717302275640E-007   1.2096432439241902E-007   0.0000000000000000     
   2.3050482413299014E-007   1.3744464439584809E-007   0.0000000000000000     
   2.4913166805355612E-007   1.5477372171607800E-007   0.0000000000000000     
   2.6773061714698625E-007   1.7293789497445698E-007   0.0000000000000000     
   2.8626458377581254E-007   1.9192350279233313E-007   0.0000000000000000     
   1.3047893427490815E-007   6.0246808754532954E-008   0.0000000000000000     
   1.4768843034443191E-007   7.2887365755101189E-008   0.0000000000000000     
   1.6504659158524781E-007   8.6468236825549994E-008   0.0000000000000000     
   1.8252092979746816E-007   1.0097403631087716E-007   0.0000000000000000     
   2.0007895678120541E-007   1.1638937855608046E-007   0.0000000000000000     
   2.1768818433657213E-007   1.3269887790615769E-007   0.0000000000000000     
   2.3531612426368052E-007   1.4988714870610660E-007   0.0000000000000000     
   2.5293028836264309E-007   1.6793880530092496E-007   0.0000000000000000     
   2.7049818843357238E-007   1.8683846203561057E-007   0.0000000000000000     
   1.2292232834274602E-007   5.7021671664083456E-008   0.0000000000000000     
   1.3915372034699885E-007   6.9366499053866899E-008   0.0000000000000000     
   1.5551695913102749E-007   8.2681430020715828E-008   0.0000000000000000     
   1.7198541943965682E-007   9.6950657077383956E-008   0.0000000000000000     
   1.8853247601771195E-007   1.1215837273662487E-007   0.0000000000000000     
   2.0513150361001779E-007   1.2828876951119230E-007   0.0000000000000000     
   2.2175587696139898E-007   1.4532603991383981E-007   0.0000000000000000     
   2.3837897081668091E-007   1.6325437645732116E-007   0.0000000000000000     
   2.5497415992068824E-007   1.8205797165438986E-007   0.0000000000000000     
   1.1553611359668505E-007   5.4083128488850709E-008   0.0000000000000000     
   1.3080603861201319E-007   6.6146902810753155E-008   0.0000000000000000     
   1.4618781253465410E-007   7.9205999957293963E-008   0.0000000000000000     
   1.6166092565924532E-007   9.3244782526033072E-008   0.0000000000000000     
   1.7720486828042466E-007   1.0824761311453035E-007   0.0000000000000000     
   1.9279913069282965E-007   1.2419885432034570E-007   0.0000000000000000     
   2.0842320319109824E-007   1.4108286874103905E-007   0.0000000000000000     
   2.2405657606986778E-007   1.5888401897417028E-007   0.0000000000000000     
   2.3967873962377626E-007   1.7758666761729934E-007   0.0000000000000000     
   1.0827597199538932E-007   5.1385873869285347E-008   0.0000000000000000     
   1.2259530081505713E-007   6.3185557870760499E-008   0.0000000000000000     
   1.3700806191028433E-007   7.6003765156510068E-008   0.0000000000000000     
   1.5149910282858981E-007   8.9824909798894701E-008   0.0000000000000000     
   1.6605327111749243E-007   1.0463340587027508E-007   0.0000000000000000     
   1.8065541432451120E-007   1.2041366744301193E-007   0.0000000000000000     
   1.9529037999716487E-007   1.3715010858946579E-007   0.0000000000000000     
   2.0994301568297234E-007   1.5482714338199741E-007   0.0000000000000000     
   2.2459816892945260E-007   1.7342918589296754E-007   0.0000000000000000     
   3.5202900570600921E-007   2.1521645020167312E-007   0.0000000000000000     
   3.7409924668025821E-007   2.3511527552534401E-007   0.0000000000000000     
   3.9603707907570943E-007   2.5580069996591481E-007   0.0000000000000000     
   4.1785008058772479E-007   2.7728251654663925E-007   0.0000000000000000     
   4.3954582891166669E-007   2.9957051829077090E-007   0.0000000000000000     
   4.6113190174289725E-007   3.2267449822156357E-007   0.0000000000000000     
   4.8261587677677859E-007   3.4660424936227096E-007   0.0000000000000000     
   5.0400533170867311E-007   3.7136956473614668E-007   0.0000000000000000     
   5.2530784423394282E-007   3.9698023736644436E-007   0.0000000000000000     
   3.3515555691250686E-007   2.0895956762922751E-007   0.0000000000000000     
   3.5634813413692869E-007   2.2886044863632901E-007   0.0000000000000000     
   3.7740617785617311E-007   2.4954256475909709E-007   0.0000000000000000     
   3.9833859628001024E-007   2.7101770740251635E-007   0.0000000000000000     
   4.1915429761820960E-007   2.9329766797157074E-007   0.0000000000000000     
   4.3986219008054089E-007   3.1639423787124444E-007   0.0000000000000000     
   4.6047118187677401E-007   3.4031920850652205E-007   0.0000000000000000     
   4.8099018121667853E-007   3.6508437128238756E-007   0.0000000000000000     
   5.0142809631002405E-007   3.9070151760382535E-007   0.0000000000000000     
   3.1857950940189596E-007   2.0298869155777004E-007   0.0000000000000000     
   3.3887145863174752E-007   2.2287127260617481E-007   0.0000000000000000     
   3.5903521976342760E-007   2.4353938746802416E-007   0.0000000000000000     
   3.7907933513691546E-007   2.6500480438072454E-007   0.0000000000000000     
   3.9901234709219034E-007   2.8727929158168218E-007   0.0000000000000000     
   4.1884279796923152E-007   3.1037461730830354E-007   0.0000000000000000     
   4.3857923010801815E-007   3.3430254979799498E-007   0.0000000000000000     
   4.5823018584852931E-007   3.5907485728816287E-007   0.0000000000000000     
   4.7780420753074440E-007   3.8470330801621341E-007   0.0000000000000000     
   3.0228710456079242E-007   1.9730845795592912E-007   0.0000000000000000     
   3.2165970953121188E-007   2.1715537796870921E-007   0.0000000000000000     
   3.4091701812884525E-007   2.3779980851582114E-007   0.0000000000000000     
   3.6006590201724303E-007   2.5925191065959868E-007   0.0000000000000000     
   3.7911323285995638E-007   2.8152184546237593E-007   0.0000000000000000     
   3.9806588232053623E-007   3.0461977398648682E-007   0.0000000000000000     
   4.1693072206253331E-007   3.2855585729426537E-007   0.0000000000000000     
   4.3571462374949860E-007   3.5334025644804542E-007   0.0000000000000000     
   4.5442445904498295E-007   3.7898313251016091E-007   0.0000000000000000     
   2.8626458377581254E-007   1.9192350279233313E-007   0.0000000000000000     
   3.0470337620181893E-007   2.1172039525776006E-007   0.0000000000000000     
   3.2304438628379811E-007   2.3233246832561325E-007   0.0000000000000000     
   3.4129190177979518E-007   2.5376712941747384E-007   0.0000000000000000     
   3.5945021044785493E-007   2.7603178595492259E-007   0.0000000000000000     
   3.7752360004602226E-007   2.9913384535954063E-007   0.0000000000000000     
   3.9551635833234223E-007   3.2308071505290896E-007   0.0000000000000000     
   4.1343277306485955E-007   3.4787980245660861E-007   0.0000000000000000     
   4.3127713200161911E-007   3.7353851499222043E-007   0.0000000000000000     
   2.7049818843357238E-007   1.8683846203561057E-007   0.0000000000000000     
   2.8799294801006548E-007   2.0657395500715518E-007   0.0000000000000000     
   3.0541013755965902E-007   2.2714600732052607E-007   0.0000000000000000     
   3.2275093928337457E-007   2.4855856383268482E-007   0.0000000000000000     
   3.4001653538223354E-007   2.7081556940059280E-007   0.0000000000000000     
   3.5720810805725728E-007   2.9392096888121135E-007   0.0000000000000000     
   3.7432683950946741E-007   3.1787870713150192E-007   0.0000000000000000     
   3.9137391193988532E-007   3.4269272900842587E-007   0.0000000000000000     
   4.0835050754953238E-007   3.6836697936894448E-007   0.0000000000000000     
   2.5497415992068824E-007   1.8205797165438986E-007   0.0000000000000000     
   2.7151891432244862E-007   2.0172368775072227E-007   0.0000000000000000     
   2.8800708528780015E-007   2.2224906592368487E-007   0.0000000000000000     
   3.0443661938678342E-007   2.4363431708356669E-007   0.0000000000000000     
   3.2080546318943921E-007   2.6587965214065702E-007   0.0000000000000000     
   3.3711156326580851E-007   2.8898528200524507E-007   0.0000000000000000     
   3.5335286618593140E-007   3.1295141758761959E-007   0.0000000000000000     
   3.6952731851984917E-007   3.3777826979807001E-007   0.0000000000000000     
   3.8563286683760215E-007   3.6346604954688542E-007   0.0000000000000000     
   2.3967873962377626E-007   1.7758666761729934E-007   0.0000000000000000     
   2.5527176450546530E-007   1.9717722402228915E-007   0.0000000000000000     
   2.7082804279959364E-007   2.1765028455821469E-007   0.0000000000000000     
   2.8634254694882416E-007   2.3900249234845426E-007   0.0000000000000000     
   3.0181024939581974E-007   2.6123049051638590E-007   0.0000000000000000     
   3.1722612258324291E-007   2.8433092218538779E-007   0.0000000000000000     
   3.3258513895375675E-007   3.0830043047883789E-007   0.0000000000000000     
   3.4788227095002415E-007   3.3313565852011455E-007   0.0000000000000000     
   3.6311249101470747E-007   3.5883324943259584E-007   0.0000000000000000     
   2.2459816892945260E-007   1.7342918589296754E-007   0.0000000000000000     
   2.3924198792561259E-007   1.9294219435568361E-007   0.0000000000000000     
   2.5386582342641219E-007   2.1335830364724115E-007   0.0000000000000000     
   2.6846232682829936E-007   2.3467119280568250E-007   0.0000000000000000     
   2.8302414952772203E-007   2.5687454086904998E-007   0.0000000000000000     
   2.9754394292112827E-007   2.7996202687538596E-007   0.0000000000000000     
   3.1201435840496617E-007   3.0392732986273270E-007   0.0000000000000000     
   3.2642804737568341E-007   3.2876412886913265E-007   0.0000000000000000     
   3.4077766122972825E-007   3.5446610293262819E-007   0.0000000000000000     
   5.2530784423394282E-007   3.9698023736644436E-007   0.0000000000000000     
   5.4652920799292870E-007   4.2344404153797464E-007   0.0000000000000000     
   5.6766808040588699E-007   4.5076067658177464E-007   0.0000000000000000     
   5.8872133483805288E-007   4.7892782309043803E-007   0.0000000000000000     
   6.0968584465466156E-007   5.0794316165655918E-007   0.0000000000000000     
   6.3055848322094760E-007   5.3780437287273176E-007   0.0000000000000000     
   6.5133612390214681E-007   5.6850913733155002E-007   0.0000000000000000     
   6.7201564006349366E-007   6.0005513562560749E-007   0.0000000000000000     
   6.9259390507022333E-007   6.3244004834749863E-007   0.0000000000000000     
   5.0142809631002405E-007   3.9070151760382535E-007   0.0000000000000000     
   5.2179168320566471E-007   4.1717984535691554E-007   0.0000000000000000     
   5.4207908930879160E-007   4.4451817835212115E-007   0.0000000000000000     
   5.6228630986368063E-007   4.7271274688100168E-007   0.0000000000000000     
   5.8240934011460697E-007   5.0175978123511582E-007   0.0000000000000000     
   6.0244417530584591E-007   5.3165551170602240E-007   0.0000000000000000     
   6.2238681068167367E-007   5.6239616858528132E-007   0.0000000000000000     
   6.4223324148636553E-007   5.9397798216445093E-007   0.0000000000000000     
   6.6197946296419720E-007   6.2639718273509065E-007   0.0000000000000000     
   4.7780420753074440E-007   3.8470330801621341E-007   0.0000000000000000     
   4.9730772064910849E-007   4.1119698937219275E-007   0.0000000000000000     
   5.1673868331593090E-007   4.3855426535670414E-007   0.0000000000000000     
   5.3609293679798703E-007   4.6677081912299109E-007   0.0000000000000000     
   5.5536632236205209E-007   4.9584233382429617E-007   0.0000000000000000     
   5.7455468127490158E-007   5.2576449261386273E-007   0.0000000000000000     
   5.9365385480331051E-007   5.5653297864493382E-007   0.0000000000000000     
   6.1265968421405449E-007   5.8814347507075253E-007   0.0000000000000000     
   6.3156801077390872E-007   6.2059166504456185E-007   0.0000000000000000     
   4.5442445904498295E-007   3.7898313251016091E-007   0.0000000000000000     
   4.7306532870788183E-007   4.0549225743905518E-007   0.0000000000000000     
   4.9163524987846967E-007   4.3286584677760748E-007   0.0000000000000000     
   5.1013046879236468E-007   4.6109972696480629E-007   0.0000000000000000     
   5.2854723168518615E-007   4.9018972443964057E-007   0.0000000000000000     
   5.4688178479255274E-007   5.2013166564109848E-007   0.0000000000000000     
   5.6513037435008291E-007   5.5092137700816903E-007   0.0000000000000000     
   5.8328924659339607E-007   5.8255468497984071E-007   0.0000000000000000     
   6.0135464775811047E-007   6.1502741599510200E-007   0.0000000000000000     
   4.3127713200161911E-007   3.7353851499222043E-007   0.0000000000000000     
   4.4905251576660688E-007   4.0006243341275173E-007   0.0000000000000000     
   4.6675717644757227E-007   4.2744983179691459E-007   0.0000000000000000     
   4.8438815899820556E-007   4.5569715755484729E-007   0.0000000000000000     
   5.0194250837219745E-007   4.8480085809668822E-007   0.0000000000000000     
   5.1941726952323768E-007   5.1475738083257580E-007   0.0000000000000000     
   5.3680948740501727E-007   5.4556317317264812E-007   0.0000000000000000     
   5.5411620697122623E-007   5.7721468252704376E-007   0.0000000000000000     
   5.7133447317555493E-007   6.0970835630590075E-007   0.0000000000000000     
   4.0835050754953238E-007   3.6836697936894448E-007   0.0000000000000000     
   4.2525729020990583E-007   3.9490430114853163E-007   0.0000000000000000     
   4.4209285047440428E-007   4.2230312959670976E-007   0.0000000000000000     
   4.5885526056690245E-007   4.5056079804151411E-007   0.0000000000000000     
   4.7554259271127481E-007   4.7967463981097936E-007   0.0000000000000000     
   4.9215291913139569E-007   5.0964198823314043E-007   0.0000000000000000     
   5.0868431205113966E-007   5.4046017663603250E-007   0.0000000000000000     
   5.2513484369438113E-007   5.7212653834769063E-007   0.0000000000000000     
   5.4150258628499491E-007   6.0463840669614904E-007   0.0000000000000000     
   3.8563286683760215E-007   3.6346604954688542E-007   0.0000000000000000     
   4.0166766042240035E-007   3.9001464450164356E-007   0.0000000000000000     
   4.1763065941013025E-007   4.1742264935907698E-007   0.0000000000000000     
   4.3352102664984717E-007   4.4568833557320637E-007   0.0000000000000000     
   4.4933792499060658E-007   4.7480997459805324E-007   0.0000000000000000     
   4.6508051728146471E-007   5.0478583788763864E-007   0.0000000000000000     
   4.8074796637147619E-007   5.3561419689598345E-007   0.0000000000000000     
   4.9633943510969704E-007   5.6729332307710877E-007   0.0000000000000000     
   5.1185408634518289E-007   5.9982148788503580E-007   0.0000000000000000     
   3.6311249101470747E-007   3.5883324943259584E-007   0.0000000000000000     
   3.7827163478871273E-007   3.8539024732733666E-007   0.0000000000000000     
   3.9335899070591468E-007   4.1280530026609953E-007   0.0000000000000000     
   4.0837471039843189E-007   4.4107745729832417E-007   0.0000000000000000     
   4.2331894549838206E-007   4.7020576747344999E-007   0.0000000000000000     
   4.3819184763788290E-007   5.0018927984091585E-007   0.0000000000000000     
   4.5299356844905278E-007   5.3102704345016194E-007   0.0000000000000000     
   4.6772425956400970E-007   5.6271810735062756E-007   0.0000000000000000     
   4.8238407261487113E-007   5.9526152059175152E-007   0.0000000000000000     
   3.4077766122972825E-007   3.5446610293262819E-007   0.0000000000000000     
   3.5505722169346480E-007   3.8102789348085991E-007   0.0000000000000000     
   3.6926623181292310E-007   4.0844799149986220E-007   0.0000000000000000     
   3.8340556496404919E-007   4.3672585036526761E-007   0.0000000000000000     
   3.9747609452278927E-007   4.6586092345270886E-007   0.0000000000000000     
   4.1147869386508952E-007   4.9585266413781873E-007   0.0000000000000000     
   4.2541423636689614E-007   5.2670052579622989E-007   0.0000000000000000     
   4.3928359540415512E-007   5.5840396180357486E-007   0.0000000000000000     
   4.5308764435281296E-007   5.9096242553548629E-007   0.0000000000000000     
   6.9259390507022333E-007   6.3244004834749863E-007   0.0000000000000000     
   7.1306870215408797E-007   6.6566177099984982E-007   0.0000000000000000     
   7.3344145401290663E-007   6.9971905872542024E-007   0.0000000000000000     
   7.5371449321101564E-007   7.3461088157700054E-007   0.0000000000000000     
   7.7389015231275111E-007   7.7033620960738341E-007   0.0000000000000000     
   7.9397076388244917E-007   8.0689401286935983E-007   0.0000000000000000     
   8.1395866048444612E-007   8.4428326141572150E-007   0.0000000000000000     
   8.3385617468307788E-007   8.8250292529926038E-007   0.0000000000000000     
   8.5366563904268088E-007   9.2155197457276744E-007   0.0000000000000000     
   6.6197946296419720E-007   6.2639718273509065E-007   0.0000000000000000     
   6.8162259957584200E-007   6.5965054466350353E-007   0.0000000000000000     
   7.0116429264756454E-007   6.9373701861496937E-007   0.0000000000000000     
   7.2060731272202887E-007   7.2865609932951201E-007   0.0000000000000000     
   7.3995443034189763E-007   7.6440728154715553E-007   0.0000000000000000     
   7.5920841604983328E-007   8.0099006000792323E-007   0.0000000000000000     
   7.7837204038849986E-007   8.3840392945183930E-007   0.0000000000000000     
   7.9744807390056001E-007   8.7664838461892768E-007   0.0000000000000000     
   8.1643928712867683E-007   9.1572292024921223E-007   0.0000000000000000     
   6.3156801077390872E-007   6.2059166504456185E-007   0.0000000000000000     
   6.5037583440594992E-007   6.5387386673045142E-007   0.0000000000000000     
   6.6908478965845860E-007   6.8798893833589708E-007   0.0000000000000000     
   6.8769766973601807E-007   7.2293637307922173E-007   0.0000000000000000     
   7.0621726784321025E-007   7.5871566417874746E-007   0.0000000000000000     
   7.2464637718461804E-007   7.9532630485279738E-007   0.0000000000000000     
   7.4298779096482356E-007   8.3276778831969314E-007   0.0000000000000000     
   7.6124430238840907E-007   8.7103960779775829E-007   0.0000000000000000     
   7.7941870465995723E-007   9.1014125650531479E-007   0.0000000000000000     
   6.0135464775811047E-007   6.1502741599510200E-007   0.0000000000000000     
   6.1932386545105882E-007   6.4833594030536484E-007   0.0000000000000000     
   6.3719835276392924E-007   6.8247880341173648E-007   0.0000000000000000     
   6.5498060415962286E-007   7.1745509462774613E-007   0.0000000000000000     
   6.7267311410104142E-007   7.5326390326692431E-007   0.0000000000000000     
   6.9027837705108678E-007   7.8990431864280096E-007   0.0000000000000000     
   7.0779888747266028E-007   8.2737543006890595E-007   0.0000000000000000     
   7.2523713982866355E-007   8.6567632685876988E-007   0.0000000000000000     
   7.4259562858199826E-007   9.0480609832592207E-007   0.0000000000000000     
   5.7133447317555493E-007   6.0970835630590075E-007   0.0000000000000000     
   5.8846215151781664E-007   6.4304096849291641E-007   0.0000000000000000     
   6.0550038968231648E-007   6.7721059936602048E-007   0.0000000000000000     
   6.2245115589948242E-007   7.1221565577670208E-007   0.0000000000000000     
   6.3931641839974186E-007   7.4805454457645023E-007   0.0000000000000000     
   6.5609814541352328E-007   7.8472567261675331E-007   0.0000000000000000     
   6.7279830517125411E-007   8.2222744674910024E-007   0.0000000000000000     
   6.8941886590336270E-007   8.6055827382498035E-007   0.0000000000000000     
   7.0596179584027649E-007   8.9971656069588190E-007   0.0000000000000000     
   5.4150258628499491E-007   6.0463840669614904E-007   0.0000000000000000     
   5.5778615141287079E-007   6.3799315439777759E-007   0.0000000000000000     
   5.7398630813196182E-007   6.7218831172228336E-007   0.0000000000000000     
   5.9010436486223647E-007   7.0722144832770695E-007   0.0000000000000000     
   6.0614163002366360E-007   7.4309013387209001E-007   0.0000000000000000     
   6.2209941203621175E-007   7.7979193801347387E-007   0.0000000000000000     
   6.3797901931984958E-007   8.1732443040989935E-007   0.0000000000000000     
   6.5378176029454533E-007   8.5568518071940810E-007   0.0000000000000000     
   6.6950894338026776E-007   8.9487175860004094E-007   0.0000000000000000     
   5.1185408634518289E-007   5.9982148788503580E-007   0.0000000000000000     
   5.2729132394286836E-007   6.3319670112462039E-007   0.0000000000000000     
   5.4265151583120497E-007   6.6741592600405773E-007   0.0000000000000000     
   5.5793527095452442E-007   7.0247586408237698E-007   0.0000000000000000     
   5.7314319825715747E-007   7.3837321691860801E-007   0.0000000000000000     
   5.8827590668343573E-007   7.7510468607178155E-007   0.0000000000000000     
   6.0333400517768910E-007   8.1266697310092547E-007   0.0000000000000000     
   6.1831810268425015E-007   8.5105677956507083E-007   0.0000000000000000     
   6.3322880814744888E-007   8.9027080702324730E-007   0.0000000000000000     
   4.8238407261487113E-007   5.9526152059175152E-007   0.0000000000000000     
   4.9697312791445645E-007   6.2865581177811699E-007   0.0000000000000000     
   5.1149142049838709E-007   6.6289742773487702E-007   0.0000000000000000     
   5.2593891408298576E-007   6.9798229484232913E-007   0.0000000000000000     
   5.4031557238457550E-007   7.3390633948076933E-007   0.0000000000000000     
   5.5462135911947848E-007   7.7066548803049419E-007   0.0000000000000000     
   5.6885623800401783E-007   8.0825566687180142E-007   0.0000000000000000     
   5.8302017275451617E-007   8.4667280238498706E-007   0.0000000000000000     
   5.9711312708729558E-007   8.8591282095034744E-007   0.0000000000000000     
   4.5308764435281296E-007   5.9096242553548629E-007   0.0000000000000000     
   4.6682702213428294E-007   6.2437468946293886E-007   0.0000000000000000     
   4.8050142985184853E-007   6.5863680243827530E-007   0.0000000000000000     
   4.9411033415426023E-007   6.9374413240917994E-007   0.0000000000000000     
   5.0765320169026884E-007   7.2969204732333781E-007   0.0000000000000000     
   5.2112949910862482E-007   7.6647591512843314E-007   0.0000000000000000     
   5.3453869305807913E-007   8.0409110377215044E-007   0.0000000000000000     
   5.4788025018738202E-007   8.4253298120217446E-007   0.0000000000000000     
   5.6115363714528455E-007   8.8179691536618981E-007   0.0000000000000000     
   8.5366563904268088E-007   9.2155197457276744E-007   0.0000000000000000     
   8.7338881109957046E-007   9.6142875056595196E-007   0.0000000000000000     
   8.9302514827798110E-007   1.0021290797161931E-006   0.0000000000000000     
   9.1257353297412619E-007   1.0436481597377868E-006   0.0000000000000000     
   9.3203284758421955E-007   1.0859811883450306E-006   0.0000000000000000     
   9.5140197450447490E-007   1.1291233632522202E-006   0.0000000000000000     
   9.7067979613110573E-007   1.1730698821736524E-006   0.0000000000000000     
   9.8986519486032585E-007   1.2178159428236240E-006   0.0000000000000000     
   1.0089570530883489E-006   1.2633567429164308E-006   0.0000000000000000     
   8.1643928712867683E-007   9.1572292024921223E-007   0.0000000000000000     
   8.3534779186496051E-007   9.5562627753167870E-007   0.0000000000000000     
   8.5417306489930963E-007   9.9635418345116048E-007   0.0000000000000000     
   8.7291392427107071E-007   1.0379016114414535E-006   0.0000000000000000     
   8.9156918801958986E-007   1.0802635349363533E-006   0.0000000000000000     
   9.1013767418421236E-007   1.1234349273696550E-006   0.0000000000000000     
   9.2861820080428504E-007   1.1674107621751553E-006   0.0000000000000000     
   9.4700958591915382E-007   1.2121860127866487E-006   0.0000000000000000     
   9.6531064756816437E-007   1.2577556526379311E-006   0.0000000000000000     
   7.7941870465995723E-007   9.1014125650531479E-007   0.0000000000000000     
   7.9751314760130248E-007   9.5007148441195809E-007   0.0000000000000000     
   8.1552720750328800E-007   9.9082606849237455E-007   0.0000000000000000     
   8.3345981727400857E-007   1.0324000424725235E-006   0.0000000000000000     
   8.5130990982155923E-007   1.0747884400783635E-006   0.0000000000000000     
   8.6907641805403528E-007   1.1179862950358546E-006   0.0000000000000000     
   8.8675827487953134E-007   1.1619886410709549E-006   0.0000000000000000     
   9.0435441320614293E-007   1.2067905119096249E-006   0.0000000000000000     
   9.2186376594196435E-007   1.2523869412778226E-006   0.0000000000000000     
   7.4259562858199826E-007   9.0480609832592207E-007   0.0000000000000000     
   7.5987629607019723E-007   9.4476320327355985E-007   0.0000000000000000     
   7.7707887612931585E-007   9.8554357846354453E-007   0.0000000000000000     
   7.9420255047004134E-007   1.0271425301474047E-006   0.0000000000000000     
   8.1124650080306090E-007   1.0695553645766687E-006   0.0000000000000000     
   8.2820990883906100E-007   1.1127773880028656E-006   0.0000000000000000     
   8.4509195628872897E-007   1.1568039066775233E-006   0.0000000000000000     
   8.6189182486275160E-007   1.2016302268521706E-006   0.0000000000000000     
   8.7860869627181577E-007   1.2472516547783348E-006   0.0000000000000000     
   7.0596179584027649E-007   8.9971656069588190E-007   0.0000000000000000     
   7.2242865503324364E-007   9.3970026618325303E-007   0.0000000000000000     
   7.3881937081679206E-007   9.8050555698837925E-007   0.0000000000000000     
   7.5513346234627016E-007   1.0221281517825054E-006   0.0000000000000000     
   7.7137044877702556E-007   1.0645637692368761E-006   0.0000000000000000     
   7.8752984926440710E-007   1.1078081280227365E-006   0.0000000000000000     
   8.0361118296376249E-007   1.1518569468113303E-006   0.0000000000000000     
   8.1961396903043973E-007   1.1967059442739039E-006   0.0000000000000000     
   8.3553772661978739E-007   1.2423508390817002E-006   0.0000000000000000     
   6.6950894338026776E-007   8.9487175860004094E-007   0.0000000000000000     
   6.8516164225204196E-007   9.3488150520780754E-007   0.0000000000000000     
   7.0073999160511656E-007   9.7571084769058903E-007   0.0000000000000000     
   7.1624389138979651E-007   1.0173559846942345E-006   0.0000000000000000     
   7.3167324155638655E-007   1.0598131148645933E-006   0.0000000000000000     
   7.4702794205519165E-007   1.1030784368475151E-006   0.0000000000000000     
   7.6230789283651675E-007   1.1471481492888485E-006   0.0000000000000000     
   7.7751299385066681E-007   1.1920184508344433E-006   0.0000000000000000     
   7.9264314504794689E-007   1.2376855401301484E-006   0.0000000000000000     
   6.3322880814744888E-007   8.9027080702324730E-007   0.0000000000000000     
   6.4806667548819222E-007   9.3030575241399298E-007   0.0000000000000000     
   6.6283203853368867E-007   9.7115829419388269E-007   0.0000000000000000     
   6.7752517608772141E-007   1.0128251061989999E-006   0.0000000000000000     
   6.9214636695407437E-007   1.0553028622654274E-006   0.0000000000000000     
   7.0669588993653147E-007   1.0985882362292491E-006   0.0000000000000000     
   7.2117402383887589E-007   1.1426779019265478E-006   0.0000000000000000     
   7.3558104746489188E-007   1.1875685331934072E-006   0.0000000000000000     
   7.4991723961836282E-007   1.2332568038659106E-006   0.0000000000000000     
   5.9711312708729558E-007   8.8591282095034744E-007   0.0000000000000000     
   6.1113517250329423E-007   9.2597183986857874E-007   0.0000000000000000     
   6.2508681164190747E-007   9.6684674012196971E-007   0.0000000000000000     
   6.3896865492714643E-007   1.0085345936132091E-006   0.0000000000000000     
   6.5278131278302203E-007   1.0510324722449850E-006   0.0000000000000000     
   6.6652539563354443E-007   1.0943374479199856E-006   0.0000000000000000     
   6.8020151390272489E-007   1.1384465925408987E-006   0.0000000000000000     
   6.9381027801457420E-007   1.1833569780104136E-006   0.0000000000000000     
   7.0735229839310234E-007   1.2290656762312169E-006   0.0000000000000000     
   5.6115363714528455E-007   8.8179691536618981E-007   0.0000000000000000     
   5.7435855105894741E-007   9.2187859963833429E-007   0.0000000000000000     
   5.8749561096917292E-007   9.6277502909856019E-007   0.0000000000000000     
   6.0056566639517304E-007   1.0044835242532714E-006   0.0000000000000000     
   6.1356956685616097E-007   1.0470014056088744E-006   0.0000000000000000     
   6.2650816187134853E-007   1.0903259936717735E-006   0.0000000000000000     
   6.3938230095994850E-007   1.1344546089483739E-006   0.0000000000000000     
   6.5219283364117294E-007   1.1793845719450810E-006   0.0000000000000000     
   6.6494060943423463E-007   1.2251132031682996E-006   0.0000000000000000     
   1.0089570530883489E-006   1.2633567429164308E-006   0.0000000000000000     
   1.0279545468223445E-006   1.3096877944507110E-006   0.0000000000000000     
   1.0468580265133071E-006   1.3568058665624682E-006   0.0000000000000000     
   1.0656681362231867E-006   1.4047080426720463E-006   0.0000000000000000     
   1.0843855200139338E-006   1.4533914061997902E-006   0.0000000000000000     
   1.1030108219474989E-006   1.5028530405660445E-006   0.0000000000000000     
   1.1215446860858318E-006   1.5530900291911537E-006   0.0000000000000000     
   1.1399877564908839E-006   1.6040994554954625E-006   0.0000000000000000     
   1.1583406772246044E-006   1.6558784028993157E-006   0.0000000000000000     
   9.6531064756816437E-007   1.2577556526379311E-006   0.0000000000000000     
   9.8352051954168115E-007   1.3041150227500873E-006   0.0000000000000000     
   1.0016395986341360E-006   1.3512609344933527E-006   0.0000000000000000     
   1.0196685973909816E-006   1.3991905668252544E-006   0.0000000000000000     
   1.0376082283576677E-006   1.4479010987033180E-006   0.0000000000000000     
   1.0554592040796460E-006   1.4973897090850685E-006   0.0000000000000000     
   1.0732222371023665E-006   1.5476535769280319E-006   0.0000000000000000     
   1.0908980399712812E-006   1.5986898811897338E-006   0.0000000000000000     
   1.1084873252318407E-006   1.6504958008276998E-006   0.0000000000000000     
   9.2186376594196435E-007   1.2523869412778226E-006   0.0000000000000000     
   9.3928555814809923E-007   1.2987733072111329E-006   0.0000000000000000     
   9.5662018349768239E-007   1.3459463649836426E-006   0.0000000000000000     
   9.7386832781685707E-007   1.3939032141790631E-006   0.0000000000000000     
   9.9103067693176675E-007   1.4426409543811071E-006   0.0000000000000000     
   1.0081079166685532E-006   1.4921566851734852E-006   0.0000000000000000     
   1.0251007328533618E-006   1.5424475061399112E-006   0.0000000000000000     
   1.0420098113123333E-006   1.5935105168640961E-006   0.0000000000000000     
   1.0588358378716126E-006   1.6453428169297513E-006   0.0000000000000000     
   8.7860869627181577E-007   1.2472516547783348E-006   0.0000000000000000     
   8.9524198650109523E-007   1.2936637609622830E-006   0.0000000000000000     
   9.1179204863371062E-007   1.3408631729292260E-006   0.0000000000000000     
   9.2825947002726939E-007   1.3888467824591128E-006   0.0000000000000000     
   9.4464483803937903E-007   1.4376114813318923E-006   0.0000000000000000     
   9.6094874002764649E-007   1.4871541613275137E-006   0.0000000000000000     
   9.7717176334967944E-007   1.5374717142259259E-006   0.0000000000000000     
   9.9331449536308559E-007   1.5885610318070773E-006   0.0000000000000000     
   1.0093775234254718E-006   1.6404190058509168E-006   0.0000000000000000     
   8.3553772661978739E-007   1.2423508390817002E-006   0.0000000000000000     
   8.5138212846016598E-007   1.2887874971319715E-006   0.0000000000000000     
   8.6714746157198677E-007   1.3360123732259919E-006   0.0000000000000000     
   8.8283416654867469E-007   1.3840220693910445E-006   0.0000000000000000     
   8.9844268398365416E-007   1.4328131876544108E-006   0.0000000000000000     
   9.1397345447034883E-007   1.4823823300433722E-006   0.0000000000000000     
   9.2942691860218343E-007   1.5327260985852097E-006   0.0000000000000000     
   9.4480351697258291E-007   1.5838410953072069E-006   0.0000000000000000     
   9.6010369017497072E-007   1.6357239222366435E-006   0.0000000000000000     
   7.9264314504794689E-007   1.2376855401301484E-006   0.0000000000000000     
   8.0769830788480682E-007   1.2841456288486313E-006   0.0000000000000000     
   8.2267868984227608E-007   1.3313949807698296E-006   0.0000000000000000     
   8.3758455990752913E-007   1.3794298727004994E-006   0.0000000000000000     
   8.5241618706774066E-007   1.4282465814473969E-006   0.0000000000000000     
   8.6717384031008479E-007   1.4778413838172775E-006   0.0000000000000000     
   8.8185778862173675E-007   1.5282105566168971E-006   0.0000000000000000     
   8.9646830098987056E-007   1.5793503766530118E-006   0.0000000000000000     
   9.1100564640166078E-007   1.6312571207323776E-006   0.0000000000000000     
   7.4991723961836282E-007   1.2332568038659106E-006   0.0000000000000000     
   7.6418284863451456E-007   1.2797392692406967E-006   0.0000000000000000     
   7.7837800097434354E-007   1.3270120104566271E-006   0.0000000000000000     
   7.9250279263028844E-007   1.3750709901131181E-006   0.0000000000000000     
   8.0655731959478728E-007   1.4239121708095866E-006   0.0000000000000000     
   8.2054167786027886E-007   1.4735315151454487E-006   0.0000000000000000     
   8.3445596341920162E-007   1.5239249857201218E-006   0.0000000000000000     
   8.4830027226399426E-007   1.5750885451330225E-006   0.0000000000000000     
   8.6207470038709490E-007   1.6270181559835663E-006   0.0000000000000000     
   7.0735229839310234E-007   1.2290656762312169E-006   0.0000000000000000     
   7.2082807456878541E-007   1.2755695314366021E-006   0.0000000000000000     
   7.3423766249795514E-007   1.3228644771822733E-006   0.0000000000000000     
   7.4758100724340876E-007   1.3709462193545408E-006   0.0000000000000000     
   7.6085805386794320E-007   1.4198104638397155E-006   0.0000000000000000     
   7.7406874743435527E-007   1.4694529165241043E-006   0.0000000000000000     
   7.8721303300544114E-007   1.5198692832940182E-006   0.0000000000000000     
   8.0029085564399910E-007   1.5710552700357660E-006   0.0000000000000000     
   8.1330216041282481E-007   1.6230065826356568E-006   0.0000000000000000     
   6.6494060943423463E-007   1.2251132031682996E-006   0.0000000000000000     
   6.7762630954711554E-007   1.2716375285647806E-006   0.0000000000000000     
   6.9024994194287608E-007   1.3189533958426578E-006   0.0000000000000000     
   7.0281134627334636E-007   1.3670563581504105E-006   0.0000000000000000     
   7.1531036219035695E-007   1.4159419686365191E-006   0.0000000000000000     
   7.2774682934573754E-007   1.4656057804494621E-006   0.0000000000000000     
   7.4012058739131890E-007   1.5160433467377198E-006   0.0000000000000000     
   7.5243147597893072E-007   1.5672502206497713E-006   0.0000000000000000     
   7.6467933476040293E-007   1.6192219553340959E-006   0.0000000000000000     
   1.1583406772246044E-006   1.6558784028993157E-006   0.0000000000000000     
   1.1766038942845629E-006   1.7084236334350019E-006   0.0000000000000000     
   1.1947770614108073E-006   1.7617306235825937E-006   0.0000000000000000     
   1.2128596342790033E-006   1.8157945284341062E-006   0.0000000000000000     
   1.2308510685648176E-006   1.8706105030815553E-006   0.0000000000000000     
   1.2487508199439164E-006   1.9261737026169580E-006   0.0000000000000000     
   1.2665583440919653E-006   1.9824792821323295E-006   0.0000000000000000     
   1.2842730966846323E-006   2.0395223967196867E-006   0.0000000000000000     
   1.3018945333975822E-006   2.0972982014710451E-006   0.0000000000000000     
   1.1084873252318407E-006   1.6504958008276998E-006   0.0000000000000000     
   1.1259905980038488E-006   1.7030681679650360E-006   0.0000000000000000     
   1.1434075337045199E-006   1.7564024273871676E-006   0.0000000000000000     
   1.1607376003254222E-006   1.8104936770451042E-006   0.0000000000000000     
   1.1779802658581237E-006   1.8653370148898500E-006   0.0000000000000000     
   1.1951349982941914E-006   1.9209275388724133E-006   0.0000000000000000     
   1.2122012656251936E-006   1.9772603469438010E-006   0.0000000000000000     
   1.2291785358426978E-006   2.0343305370550189E-006   0.0000000000000000     
   1.2460662769382716E-006   2.0921332071570756E-006   0.0000000000000000     
   1.0588358378716126E-006   1.6453428169297513E-006   0.0000000000000000     
   1.0755793086889830E-006   1.6979411937889503E-006   0.0000000000000000     
   1.0922399612487930E-006   1.7513011863672101E-006   0.0000000000000000     
   1.1088173433670321E-006   1.8054180214584072E-006   0.0000000000000000     
   1.1253110028596899E-006   1.8602869258564201E-006   0.0000000000000000     
   1.1417204875427557E-006   1.9159031263551252E-006   0.0000000000000000     
   1.1580453452322190E-006   1.9722618497484008E-006   0.0000000000000000     
   1.1742851237440687E-006   2.0293583228301251E-006   0.0000000000000000     
   1.1904393708942950E-006   2.0871877723941742E-006   0.0000000000000000     
   1.0093775234254718E-006   1.6404190058509168E-006   0.0000000000000000     
   1.0253612830940592E-006   1.6930422945471357E-006   0.0000000000000000     
   1.0412656027245217E-006   1.7464266217243917E-006   0.0000000000000000     
   1.0570901588721476E-006   1.8005674776210859E-006   0.0000000000000000     
   1.0728346280922243E-006   1.8554603524756186E-006   0.0000000000000000     
   1.0884986869400392E-006   1.9111007365263898E-006   0.0000000000000000     
   1.1040820119708804E-006   1.9674841200118007E-006   0.0000000000000000     
   1.1195842797400358E-006   2.0246059931702508E-006   0.0000000000000000     
   1.1350051668027929E-006   2.0824618462401413E-006   0.0000000000000000     
   9.6010369017497072E-007   1.6357239222366435E-006   0.0000000000000000     
   9.7532777797317042E-007   1.6883710538799799E-006   0.0000000000000000     
   9.9047571681260178E-007   1.7417784546603869E-006   0.0000000000000000     
   1.0055473423090837E-006   1.7959419614802110E-006   0.0000000000000000     
   1.0205424900784342E-006   1.8508574112418009E-006   0.0000000000000000     
   1.0354609957364733E-006   1.9065206408475039E-006   0.0000000000000000     
   1.0503026948990185E-006   1.9629274871996695E-006   0.0000000000000000     
   1.0650674231818896E-006   2.0200737872006433E-006   0.0000000000000000     
   1.0797550162009045E-006   2.0779553777527743E-006   0.0000000000000000     
   9.1100564640166078E-007   1.6312571207323776E-006   0.0000000000000000     
   9.2547005008040975E-007   1.6839270554278735E-006   0.0000000000000000     
   9.3986156219392798E-007   1.7373564063768671E-006   0.0000000000000000     
   9.5418018914615462E-007   1.7915413889828525E-006   0.0000000000000000     
   9.6842593734102868E-007   1.8464782186493213E-006   0.0000000000000000     
   9.8259881318248833E-007   1.9021631107797658E-006   0.0000000000000000     
   9.9669882307447282E-007   1.9585922807776780E-006   0.0000000000000000     
   1.0107259734209207E-006   2.0157619440465494E-006   0.0000000000000000     
   1.0246802706257703E-006   2.0736683159898737E-006   0.0000000000000000     
   8.6207470038709490E-007   1.6270181559835663E-006   0.0000000000000000     
   8.7577935616987004E-007   1.6797098828312032E-006   0.0000000000000000     
   8.8941439754939545E-007   1.7331601980755058E-006   0.0000000000000000     
   9.0297999485167589E-007   1.7873656760760814E-006   0.0000000000000000     
   9.1647631840271461E-007   1.8423228911925345E-006   0.0000000000000000     
   9.2990353852851500E-007   1.8980284177844700E-006   0.0000000000000000     
   9.4326182555508223E-007   1.9544788302114958E-006   0.0000000000000000     
   9.5655134980841957E-007   2.0116707028332170E-006   0.0000000000000000     
   9.6977228161453061E-007   2.0696006100092377E-006   0.0000000000000000     
   8.1330216041282481E-007   1.6230065826356568E-006   0.0000000000000000     
   8.2624695299564476E-007   1.6757191197303598E-006   0.0000000000000000     
   8.3912548155990004E-007   1.7291895509579762E-006   0.0000000000000000     
   8.5193805489396135E-007   1.7834147387069670E-006   0.0000000000000000     
   8.6468498178619957E-007   1.8383915453657935E-006   0.0000000000000000     
   8.7736657102498432E-007   1.8941168333229154E-006   0.0000000000000000     
   8.8998313139868672E-007   1.9505874649667952E-006   0.0000000000000000     
   9.0253497169567690E-007   2.0078003026858922E-006   0.0000000000000000     
   9.1502240070432533E-007   2.0657522088686662E-006   0.0000000000000000     
   7.6467933476040293E-007   1.6192219553340959E-006   0.0000000000000000     
   7.7686409731182705E-007   1.6719543497657319E-006   0.0000000000000000     
   7.8898607290633697E-007   1.7254441862259509E-006   0.0000000000000000     
   8.0104566474132714E-007   1.7796884928225815E-006   0.0000000000000000     
   8.1304327601419220E-007   1.8346842976634541E-006   0.0000000000000000     
   8.2497930992232682E-007   1.8904286288563986E-006   0.0000000000000000     
   8.3685416966312543E-007   1.9469185145092442E-006   0.0000000000000000     
   8.4866825843398312E-007   2.0041509827298206E-006   0.0000000000000000     
   8.6042197943229476E-007   2.0621230616259584E-006   0.0000000000000000     
   0.0000000000000000        0.0000000000000000        0.0000000000000000     
   1.2664351864642656E-008   1.6134867306349224E-009   0.0000000000000000     
   2.5633327691981512E-008   4.7372287777146498E-009   0.0000000000000000     
   3.8878921877065763E-008   9.3032052691633138E-009   0.0000000000000000     
   5.2373128814944563E-008   1.5243395332905044E-008   0.0000000000000000     
   6.6087942900667157E-008   2.2489778096863985E-008   0.0000000000000000     
   7.9995358529282670E-008   3.0974332688964254E-008   0.0000000000000000     
   9.4067370095840319E-008   4.0629038237129995E-008   0.0000000000000000     
   1.0827597199538932E-007   5.1385873869285347E-008   0.0000000000000000     
   0.0000000000000000        0.0000000000000000        0.0000000000000000     
   1.1782158331230204E-008   1.2850919511571580E-009   0.0000000000000000     
   2.3869972529720441E-008   4.0775487867707800E-009   0.0000000000000000     
   3.6232880704273894E-008   8.3131688327061546E-009   0.0000000000000000     
   4.8840320963693765E-008   1.3927750414828568E-008   0.0000000000000000     
   6.1661731416783227E-008   2.0857091859003311E-008   0.0000000000000000     
   7.4666550172345448E-008   2.9036991491095668E-008   0.0000000000000000     
   8.7824215339183642E-008   3.8403247636970933E-008   0.0000000000000000     
   1.0110416502610102E-007   4.8891658622494395E-008   0.0000000000000000     
   0.0000000000000000        0.0000000000000000        0.0000000000000000     
   1.0941782752651823E-008   9.9204860483147125E-010   0.0000000000000000     
   2.2174697194913211E-008   3.4838327507680293E-009   0.0000000000000000     
   3.3668802665357230E-008   7.4157359071421059E-009   0.0000000000000000     
   4.5394158502556897E-008   1.2728141543286129E-008   0.0000000000000000     
   5.7320824045085305E-008   1.9361433128532538E-008   0.0000000000000000     
   6.9418858631515455E-008   2.7255994132213747E-008   0.0000000000000000     
   8.1658321600420392E-008   3.6352208023662203E-008   0.0000000000000000     
   9.4009272290373216E-008   4.6590458272210326E-008   0.0000000000000000     
   0.0000000000000000        0.0000000000000000        0.0000000000000000     
   1.0135421746249916E-008   7.3153769312540226E-010   0.0000000000000000     
   2.0535344084387499E-008   2.9517175024662814E-009   0.0000000000000000     
   3.1172928842546380E-008   6.6059862801616640E-009   0.0000000000000000     
   4.2021337848860151E-008   1.1639790878350571E-008   0.0000000000000000     
   5.3053732931462485E-008   1.7998578149172033E-008   0.0000000000000000     
   6.4243275918486959E-008   2.5627794944765078E-008   0.0000000000000000     
   7.5563128638067220E-008   3.4472888117268712E-008   0.0000000000000000     
   8.6986452918336916E-008   4.4479304518821982E-008   0.0000000000000000     
   0.0000000000000000        0.0000000000000000        0.0000000000000000     
   9.3552719293669060E-009   5.0074021750649177E-010   0.0000000000000000     
   1.8939755594970981E-008   2.4768398746254235E-009   0.0000000000000000     
   2.8731500318071984E-008   5.8789997394553307E-009   0.0000000000000000     
   3.8708555419929693E-008   1.0657920580094749E-008   0.0000000000000000     
   4.8848970221803889E-008   1.6764303164642209E-008   0.0000000000000000     
   5.9130794044954304E-008   2.4148848261196239E-008   0.0000000000000000     
   6.9532076210640763E-008   3.2762256637855396E-008   0.0000000000000000     
   8.0030866040122985E-008   4.2555229062718187E-008   0.0000000000000000     
   0.0000000000000000        0.0000000000000000        0.0000000000000000     
   8.5935299193452033E-009   2.9683717944227997E-010   0.0000000000000000     
   1.7375774123491323E-008   2.0548367000053408E-009   0.0000000000000000     
   2.6330758174164699E-008   5.2298560727136053E-009   0.0000000000000000     
   3.5442507633091682E-008   9.7777528085914938E-009   0.0000000000000000     
   4.4695048061998603E-008   1.5654384418663437E-008   0.0000000000000000     
   5.4072405022611819E-008   2.2815608413953844E-008   0.0000000000000000     
   6.3558604076657646E-008   3.1217282305487136E-008   0.0000000000000000     
   7.3137670785862461E-008   4.0815263604287743E-008   0.0000000000000000     
   0.0000000000000000        0.0000000000000000        0.0000000000000000     
   7.8423923335272144E-009   1.1700958040030675E-010   0.0000000000000000     
   1.5831242066776202E-008   1.6813448113659182E-009   0.0000000000000000     
   2.3956943493055158E-008   4.6536350676269857E-009   0.0000000000000000     
   3.2209890905672277E-008   8.9945097239136638E-009   0.0000000000000000     
   4.0580478597935755E-008   1.4664598154956105E-008   0.0000000000000000     
   4.9059100863153772E-008   2.1624529735484454E-008   0.0000000000000000     
   5.7636151994634539E-008   2.9834933840228868E-008   0.0000000000000000     
   6.6302026285686222E-008   3.9256439843919494E-008   0.0000000000000000     
   0.0000000000000000        0.0000000000000000        0.0000000000000000     
   7.0940557892553591E-009  -4.1561578151887340E-011   0.0000000000000000     
   1.4294001821653303E-008   1.3520010414670410E-009   0.0000000000000000     
   2.1596297356974014E-008   4.1454165118859729E-009   0.0000000000000000     
   2.8997401654997671E-008   8.3034134861340982E-009   0.0000000000000000     
   3.6493773975504432E-008   1.3790720617240601E-008   0.0000000000000000     
   4.4081873578274515E-008   2.0572066558234677E-008   0.0000000000000000     
   5.1758159723088066E-008   2.8612179962145505E-008   0.0000000000000000     
   5.9519091669725265E-008   3.7875789482002276E-008   0.0000000000000000     
   0.0000000000000000        0.0000000000000000        0.0000000000000000     
   6.3407169038720418E-009  -1.8169529474676223E-010   0.0000000000000000     
   1.2751895784950293E-008   1.0624422230685951E-009   0.0000000000000000     
   1.9235060848151897E-008   3.7002801931810663E-009   0.0000000000000000     
   2.5791736298394006E-008   7.6996862553256431E-009   0.0000000000000000     
   3.2423446340593770E-008   1.3028528049237323E-008   0.0000000000000000     
   3.9131715179668335E-008   1.9654673214651094E-008   0.0000000000000000     
   4.5918067020534851E-008   2.7545989391301945E-008   0.0000000000000000     
   5.2784026068110475E-008   3.6670344218924897E-008   0.0000000000000000     
   1.0827597199538932E-007   5.1385873869285347E-008   0.0000000000000000     
   1.2259530081505713E-007   6.3185557870760499E-008   0.0000000000000000     
   1.3700806191028433E-007   7.6003765156510068E-008   0.0000000000000000     
   1.5149910282858981E-007   8.9824909798894701E-008   0.0000000000000000     
   1.6605327111749243E-007   1.0463340587027508E-007   0.0000000000000000     
   1.8065541432451120E-007   1.2041366744301193E-007   0.0000000000000000     
   1.9529037999716487E-007   1.3715010858946579E-007   0.0000000000000000     
   2.0994301568297234E-007   1.5482714338199741E-007   0.0000000000000000     
   2.2459816892945260E-007   1.7342918589296754E-007   0.0000000000000000     
   1.0110416502610102E-007   4.8891658622494395E-008   0.0000000000000000     
   1.1447903972686893E-007   6.0446021060306755E-008   0.0000000000000000     
   1.2793428947513170E-007   7.3042124710150411E-008   0.0000000000000000     
   1.4145856668950177E-007   8.6663757618543209E-008   0.0000000000000000     
   1.5504052378859171E-007   1.0129470783200297E-007   0.0000000000000000     
   1.6866881319101400E-007   1.1691876339704750E-007   0.0000000000000000     
   1.8233208731538112E-007   1.3351971236019465E-007   0.0000000000000000     
   1.9601899858030555E-007   1.5108134276796223E-007   0.0000000000000000     
   2.0971819940439990E-007   1.6958744266686799E-007   0.0000000000000000     
   9.4009272290373216E-008   4.6590458272210326E-008   0.0000000000000000     
   1.0644525649881234E-007   5.7918153131479209E-008   0.0000000000000000     
   1.1895376585863775E-007   7.0310799992244397E-008   0.0000000000000000     
   1.3152577846161493E-007   8.3750931029570193E-008   0.0000000000000000     
   1.4415227239950919E-007   9.8221078418520748E-008   0.0000000000000000     
   1.5682422576408608E-007   1.1370377433416037E-007   0.0000000000000000     
   1.6953261664711088E-007   1.3018155095155324E-007   0.0000000000000000     
   1.8226842314034912E-007   1.4763694044576364E-007   0.0000000000000000     
   1.9502262333556615E-007   1.6605247499185574E-007   0.0000000000000000     
   8.6986452918336916E-008   4.4479304518821982E-008   0.0000000000000000     
   9.8489569377407377E-008   5.5598390817782475E-008   0.0000000000000000     
   1.1006143379330110E-007   6.7805092947382152E-008   0.0000000000000000     
   1.2169416073401840E-007   8.1080256657071500E-008   0.0000000000000000     
   1.3337986476755940E-007   9.5404727696300961E-008   0.0000000000000000     
   1.4511066046192441E-007   1.1075935181452113E-007   0.0000000000000000     
   1.5687866238511364E-007   1.2712497476118249E-007   0.0000000000000000     
   1.6867598510512740E-007   1.4448244228573550E-007   0.0000000000000000     
   1.8049474318996580E-007   1.6281260013763067E-007   0.0000000000000000     
   8.0030866040122985E-008   4.2555229062718187E-008   0.0000000000000000     
   9.0607596609174108E-008   5.3483170852721287E-008   0.0000000000000000     
   1.0125223601162035E-007   6.5520305520153802E-008   0.0000000000000000     
   1.1195713609580136E-007   7.8645561126143016E-008   0.0000000000000000     
   1.2271464871005673E-007   9.2837865731816151E-008   0.0000000000000000     
   1.3351712570272600E-007   1.0807614739830047E-007   0.0000000000000000     
   1.4435691892214883E-007   1.2433933418672321E-007   0.0000000000000000     
   1.5522638021666477E-007   1.4160635415821166E-007   0.0000000000000000     
   1.6611786143461343E-007   1.5985613537389301E-007   0.0000000000000000     
   7.3137670785862461E-008   4.0815263604287743E-008   0.0000000000000000     
   8.2794956440632555E-008   5.1568929969800199E-008   0.0000000000000000     
   9.2521115246094033E-008   6.3451739655149476E-008   0.0000000000000000     
   1.0230812713605300E-007   7.6440671061880654E-008   0.0000000000000000     
   1.1214797204431557E-007   9.0512702591538788E-008   0.0000000000000000     
   1.2203262990468780E-007   1.0564481264566902E-007   0.0000000000000000     
   1.3195408065097578E-007   1.2181397962581635E-007   0.0000000000000000     
   1.4190430421698561E-007   1.3899718193352592E-007   0.0000000000000000     
   1.5187528053652333E-007   1.5717139797034282E-007   0.0000000000000000     
   6.6302026285686222E-008   3.9256439843919494E-008   0.0000000000000000     
   7.5047267118302762E-008   4.9852104902523924E-008   0.0000000000000000     
   8.3863014229220720E-008   6.1594697296959285E-008   0.0000000000000000     
   9.2740556443862550E-008   7.4459413089380301E-008   0.0000000000000000     
   1.0167118258765041E-007   8.8421448341941422E-008   0.0000000000000000     
   1.1064618148600677E-007   1.0345599911679738E-007   0.0000000000000000     
   1.1965684196435395E-007   1.1953826147610278E-007   0.0000000000000000     
   1.2869445284811421E-007   1.3664343148201208E-007   0.0000000000000000     
   1.3775030296270994E-007   1.5474670519668009E-007   0.0000000000000000     
   5.9519091669725265E-008   3.7875789482002276E-008   0.0000000000000000     
   6.7360146888704761E-008   4.8329132384397056E-008   0.0000000000000000     
   7.5272875693499026E-008   5.9944480390173410E-008   0.0000000000000000     
   8.3247846608319041E-008   7.2695613833737763E-008   0.0000000000000000     
   9.1275628157375694E-008   8.6556313049496590E-008   0.0000000000000000     
   9.9346788864879953E-008   1.0150035837185628E-007   0.0000000000000000     
   1.0745189725504278E-007   1.1750153013522332E-007   0.0000000000000000     
   1.1558152185207507E-007   1.3453360867400411E-007   0.0000000000000000     
   1.2372623118018778E-007   1.5257037432260507E-007   0.0000000000000000     
   5.2784026068110475E-008   3.6670344218924897E-008   0.0000000000000000     
   5.9729213998358596E-008   4.6996449148924268E-008   0.0000000000000000     
   6.6745642371427487E-008   5.8496390879381918E-008   0.0000000000000000     
   7.3823420218511697E-008   7.1143099920049006E-008   0.0000000000000000     
   8.0952656570805769E-008   8.4909506780676709E-008   0.0000000000000000     
   8.8123460459504245E-008   9.9768541971016297E-008   0.0000000000000000     
   9.5325940915801630E-008   1.1569313600081889E-007   0.0000000000000000     
   1.0255020697089247E-007   1.3265621937983559E-007   0.0000000000000000     
   1.0978636765597133E-007   1.5063072261781780E-007   0.0000000000000000     
   2.2459816892945260E-007   1.7342918589296754E-007   0.0000000000000000     
   2.3924198792561259E-007   1.9294219435568361E-007   0.0000000000000000     
   2.5386582342641219E-007   2.1335830364724115E-007   0.0000000000000000     
   2.6846232682829936E-007   2.3467119280568250E-007   0.0000000000000000     
   2.8302414952772203E-007   2.5687454086904998E-007   0.0000000000000000     
   2.9754394292112827E-007   2.7996202687538596E-007   0.0000000000000000     
   3.1201435840496617E-007   3.0392732986273270E-007   0.0000000000000000     
   3.2642804737568341E-007   3.2876412886913265E-007   0.0000000000000000     
   3.4077766122972825E-007   3.5446610293262819E-007   0.0000000000000000     
   2.0971819940439990E-007   1.6958744266686799E-007   0.0000000000000000     
   2.2341878046085667E-007   1.8902311072432814E-007   0.0000000000000000     
   2.3711158544118920E-007   2.0937868809135125E-007   0.0000000000000000     
   2.5078789629149091E-007   2.3064582653984434E-007   0.0000000000000000     
   2.6443899495785509E-007   2.5281617784171439E-007   0.0000000000000000     
   2.7805616338637518E-007   2.7588139376886846E-007   0.0000000000000000     
   2.9163068352314471E-007   2.9983312609321329E-007   0.0000000000000000     
   3.0515383731425700E-007   3.2466302658665593E-007   0.0000000000000000     
   3.1861690670580527E-007   3.5036274702110338E-007   0.0000000000000000     
   1.9502262333556615E-007   1.6605247499185574E-007   0.0000000000000000     
   2.0778616403504055E-007   1.8541201086002344E-007   0.0000000000000000     
   2.2054986688310354E-007   2.0570470070097919E-007   0.0000000000000000     
   2.3330452223459954E-007   2.2692102126056496E-007   0.0000000000000000     
   2.4604092044437291E-007   2.4905144928462286E-007   0.0000000000000000     
   2.5874985186726819E-007   2.7208646151899495E-007   0.0000000000000000     
   2.7142210685812955E-007   2.9601653470952334E-007   0.0000000000000000     
   2.8404847577180142E-007   3.2083214560204984E-007   0.0000000000000000     
   2.9661974896312840E-007   3.4652377094241672E-007   0.0000000000000000     
   1.8049474318996580E-007   1.6281260013763067E-007   0.0000000000000000     
   1.9232686708347644E-007   1.8209781393416498E-007   0.0000000000000000     
   2.0416355073289532E-007   2.0232652876402090E-007   0.0000000000000000     
   2.1599580396130579E-007   2.2348870958372738E-007   0.0000000000000000     
   2.2781463659179122E-007   2.4557432134981349E-007   0.0000000000000000     
   2.3961105844743492E-007   2.6857332901880803E-007   0.0000000000000000     
   2.5137607935132024E-007   2.9247569754723987E-007   0.0000000000000000     
   2.6310070912653047E-007   3.1727139189163823E-007   0.0000000000000000     
   2.7477595759614902E-007   3.4295037700853177E-007   0.0000000000000000     
   1.6611786143461343E-007   1.5985613537389301E-007   0.0000000000000000     
   1.7702361804147658E-007   1.7906943911814821E-007   0.0000000000000000     
   1.8793551997130454E-007   1.9923435956837250E-007   0.0000000000000000     
   1.9884534077529002E-007   2.2034082412521495E-007   0.0000000000000000     
   2.0974485400462546E-007   2.4237876018932444E-007   0.0000000000000000     
   2.2062583321050353E-007   2.6533809516135003E-007   0.0000000000000000     
   2.3148005194411667E-007   2.8920875644194047E-007   0.0000000000000000     
   2.4229928375665753E-007   3.1398067143174514E-007   0.0000000000000000     
   2.5307530219931870E-007   3.3964376753141248E-007   0.0000000000000000     
   1.5187528053652333E-007   1.5717139797034282E-007   0.0000000000000000     
   1.6185914534435311E-007   1.7631580558336846E-007   0.0000000000000000     
   1.7184865757907137E-007   1.9641838040192990E-007   0.0000000000000000     
   1.8183673198023258E-007   2.1746929750091055E-007   0.0000000000000000     
   1.9181628328739123E-007   2.3945873195519392E-007   0.0000000000000000     
   2.0178022624010168E-007   2.6237685883966337E-007   0.0000000000000000     
   2.1172147557791845E-007   2.8621385322920221E-007   0.0000000000000000     
   2.2163294604039603E-007   3.1095989019869407E-007   0.0000000000000000     
   2.3150755236708886E-007   3.3660514482302206E-007   0.0000000000000000     
   1.3775030296270994E-007   1.5474670519668009E-007   0.0000000000000000     
   1.4681617742741835E-007   1.7382583250122122E-007   0.0000000000000000     
   1.5588584653693587E-007   1.9386877855258912E-007   0.0000000000000000     
   1.6495357687981387E-007   2.1486606232669754E-007   0.0000000000000000     
   1.7401363504460392E-007   2.3680820279946014E-007   0.0000000000000000     
   1.8306028761985729E-007   2.5968571894679050E-007   0.0000000000000000     
   1.9208780119412527E-007   2.8348912974460223E-007   0.0000000000000000     
   2.0109044235595945E-007   3.0820895416880911E-007   0.0000000000000000     
   2.1006247769391097E-007   3.3383571119532467E-007   0.0000000000000000     
   1.2372623118018778E-007   1.5257037432260507E-007   0.0000000000000000     
   1.3187744272598442E-007   1.7158843904310187E-007   0.0000000000000000     
   1.4002996982563804E-007   1.9157574130824618E-007   0.0000000000000000     
   1.4817947477771441E-007   2.1252305121845893E-007   0.0000000000000000     
   1.5632161988077933E-007   2.3442113887416135E-007   0.0000000000000000     
   1.6445206743339823E-007   2.5726077437577396E-007   0.0000000000000000     
   1.7256647973413701E-007   2.8103272782371801E-007   0.0000000000000000     
   1.8066051908156129E-007   3.0572776931841438E-007   0.0000000000000000     
   1.8872984777423663E-007   3.3133666896028372E-007   0.0000000000000000     
   1.0978636765597133E-007   1.5063072261781780E-007   0.0000000000000000     
   1.1702566967536356E-007   1.6959254438040579E-007   0.0000000000000000     
   1.2426391042591807E-007   1.8952945595679699E-007   0.0000000000000000     
   1.3149802497761452E-007   2.1043219679207796E-007   0.0000000000000000     
   1.3872494840043275E-007   2.3229150633133553E-007   0.0000000000000000     
   1.4594161576435240E-007   2.5509812401965611E-007   0.0000000000000000     
   1.5314496213935323E-007   2.7884278930212652E-007   0.0000000000000000     
   1.6033192259541497E-007   3.0351624162383334E-007   0.0000000000000000     
   1.6749943220251741E-007   3.2910922042986302E-007   0.0000000000000000     
   3.4077766122972825E-007   3.5446610293262819E-007   0.0000000000000000     
   3.5505722169346480E-007   3.8102789348085991E-007   0.0000000000000000     
   3.6926623181292310E-007   4.0844799149986220E-007   0.0000000000000000     
   3.8340556496404919E-007   4.3672585036526761E-007   0.0000000000000000     
   3.9747609452278927E-007   4.6586092345270886E-007   0.0000000000000000     
   4.1147869386508952E-007   4.9585266413781873E-007   0.0000000000000000     
   4.2541423636689614E-007   5.2670052579622989E-007   0.0000000000000000     
   4.3928359540415512E-007   5.5840396180357486E-007   0.0000000000000000     
   4.5308764435281296E-007   5.9096242553548629E-007   0.0000000000000000     
   3.1861690670580527E-007   3.5036274702110338E-007   0.0000000000000000     
   3.3201282729692788E-007   3.7692521853629705E-007   0.0000000000000000     
   3.4534114929894152E-007   4.0434848974331611E-007   0.0000000000000000     
   3.5860307657620796E-007   4.3263188862107409E-007   0.0000000000000000     
   3.7179981299308857E-007   4.6177474314848475E-007   0.0000000000000000     
   3.8493256241394513E-007   4.9177638130446173E-007   0.0000000000000000     
   3.9800252870313905E-007   5.2263613106791878E-007   0.0000000000000000     
   4.1101091572503210E-007   5.5435332041776915E-007   0.0000000000000000     
   4.2395892734398566E-007   5.8692727733292704E-007   0.0000000000000000     
   2.9661974896312840E-007   3.4652377094241672E-007   0.0000000000000000     
   3.0912844886196952E-007   3.7308326494307175E-007   0.0000000000000000     
   3.2157402619824365E-007   4.0050799168288495E-007   0.0000000000000000     
   3.3395766377688464E-007   4.2879669270733291E-007   0.0000000000000000     
   3.4628054440282586E-007   4.5794810956189123E-007   0.0000000000000000     
   3.5854385088100132E-007   4.8796098379203632E-007   0.0000000000000000     
   3.7074876601634438E-007   5.1883405694324392E-007   0.0000000000000000     
   3.8289647261378896E-007   5.5056607056099026E-007   0.0000000000000000     
   3.9498815347826846E-007   5.8315576619075111E-007   0.0000000000000000     
   2.7477595759614902E-007   3.4295037700853177E-007   0.0000000000000000     
   2.8639448142710674E-007   3.6950392686944212E-007   0.0000000000000000     
   2.9795552466172487E-007   3.9692855150586071E-007   0.0000000000000000     
   3.0945997818617249E-007   4.2522206996427086E-007   0.0000000000000000     
   3.2090873288661870E-007   4.5438230129115699E-007   0.0000000000000000     
   3.3230267964923213E-007   4.8440706453300234E-007   0.0000000000000000     
   3.4364270936018176E-007   5.1529417873629093E-007   0.0000000000000000     
   3.5492971290563670E-007   5.4704146294750679E-007   0.0000000000000000     
   3.6616458117176572E-007   5.7964673621313345E-007   0.0000000000000000     
   2.5307530219931870E-007   3.3964376753141248E-007   0.0000000000000000     
   2.6380132003085624E-007   3.6618909848366723E-007   0.0000000000000000     
   2.7447630684028035E-007   3.9361222339953438E-007   0.0000000000000000     
   2.8510067142416512E-007   4.2190982773211520E-007   0.0000000000000000     
   2.9567482257908431E-007   4.5107859693451020E-007   0.0000000000000000     
   3.0619916910161169E-007   4.8111521645982038E-007   0.0000000000000000     
   3.1667411978832113E-007   5.1201637176114637E-007   0.0000000000000000     
   3.2710008343578659E-007   5.4377874829158874E-007   0.0000000000000000     
   3.3747746884058189E-007   5.7639903150424875E-007   0.0000000000000000     
   2.3150755236708886E-007   3.3660514482302206E-007   0.0000000000000000     
   2.4133935971173475E-007   3.6314067395400465E-007   0.0000000000000000     
   2.5112703488480531E-007   3.9056106155119781E-007   0.0000000000000000     
   2.6087039511095542E-007   4.1886177335109246E-007   0.0000000000000000     
   2.7056925761483996E-007   4.4803827509017965E-007   0.0000000000000000     
   2.8022343962111389E-007   4.7808603250495029E-007   0.0000000000000000     
   2.8983275835443214E-007   5.0900051133189500E-007   0.0000000000000000     
   2.9939703103944952E-007   5.4077717730750502E-007   0.0000000000000000     
   3.0891607490082101E-007   5.7341149616827111E-007   0.0000000000000000     
   2.1006247769391097E-007   3.3383571119532467E-007   0.0000000000000000     
   2.1899899550825931E-007   3.6036054744871338E-007   0.0000000000000000     
   2.2789837094619503E-007   3.8777712014814244E-007   0.0000000000000000     
   2.3675980086663681E-007   4.1607971416142974E-007   0.0000000000000000     
   2.4558248212850327E-007   4.4526261435639389E-007   0.0000000000000000     
   2.5436561159071303E-007   4.7532010560085230E-007   0.0000000000000000     
   2.6310838611218448E-007   5.0624647276262329E-007   0.0000000000000000     
   2.7181000255183662E-007   5.3803600070952510E-007   0.0000000000000000     
   2.8046965776858769E-007   5.7068297430937536E-007   0.0000000000000000     
   1.8872984777423663E-007   3.3133666896028372E-007   0.0000000000000000     
   1.9677062245894666E-007   3.5785061313605169E-007   0.0000000000000000     
   2.0478097717534478E-007   3.8526245337765970E-007   0.0000000000000000     
   2.1275954031130256E-007   4.1356545750335409E-007   0.0000000000000000     
   2.2070494025469162E-007   4.4275289333138129E-007   0.0000000000000000     
   2.2861580539338298E-007   4.7281802867998679E-007   0.0000000000000000     
   2.3649076411524819E-007   5.0375413136741706E-007   0.0000000000000000     
   2.4432844480815883E-007   5.3555446921191855E-007   0.0000000000000000     
   2.5212747585998601E-007   5.6821231003173641E-007   0.0000000000000000     
   1.6749943220251741E-007   3.2910922042986302E-007   0.0000000000000000     
   1.7464463560231347E-007   3.5561276518427781E-007   0.0000000000000000     
   1.8176551572314978E-007   3.8301911542704121E-007   0.0000000000000000     
   1.8886026506504604E-007   4.1132081071709236E-007   0.0000000000000000     
   1.9592707612802214E-007   4.4051039061337018E-007   0.0000000000000000     
   2.0296414141209775E-007   4.7058039467481370E-007   0.0000000000000000     
   2.0996965341729290E-007   5.0152336246036201E-007   0.0000000000000000     
   2.1694180464362718E-007   5.3333183352895397E-007   0.0000000000000000     
   2.2387878759112056E-007   5.6599834743952889E-007   0.0000000000000000     
   4.5308764435281296E-007   5.9096242553548629E-007   0.0000000000000000     
   4.6682702213428294E-007   6.2437468946293886E-007   0.0000000000000000     
   4.8050142985184853E-007   6.5863680243827530E-007   0.0000000000000000     
   4.9411033415426023E-007   6.9374413240917994E-007   0.0000000000000000     
   5.0765320169026884E-007   7.2969204732333781E-007   0.0000000000000000     
   5.2112949910862482E-007   7.6647591512843314E-007   0.0000000000000000     
   5.3453869305807913E-007   8.0409110377215044E-007   0.0000000000000000     
   5.4788025018738202E-007   8.4253298120217446E-007   0.0000000000000000     
   5.6115363714528455E-007   8.8179691536618981E-007   0.0000000000000000     
   4.2395892734398566E-007   5.8692727733292704E-007   0.0000000000000000     
   4.3684743160858089E-007   6.2035662803780523E-007   0.0000000000000000     
   4.4967595330427596E-007   6.5463719173881440E-007   0.0000000000000000     
   4.6244368140074861E-007   6.8976408588786555E-007   0.0000000000000000     
   4.7514980486767677E-007   7.2573242793686862E-007   0.0000000000000000     
   4.8779351267473796E-007   7.6253733533773397E-007   0.0000000000000000     
   5.0037399379161000E-007   8.0017392554237250E-007   0.0000000000000000     
   5.1289043718797051E-007   8.3863731600269394E-007   0.0000000000000000     
   5.2534203183349744E-007   8.7792262417060928E-007   0.0000000000000000     
   3.9498815347826846E-007   5.8315576619075111E-007   0.0000000000000000     
   4.0702464614192600E-007   6.1660128437762206E-007   0.0000000000000000     
   4.1900540704574005E-007   6.5089836166517335E-007   0.0000000000000000     
   4.3092954735789874E-007   6.8604213359659477E-007   0.0000000000000000     
   4.4279617824658990E-007   7.2202773571507628E-007   0.0000000000000000     
   4.5460441088000182E-007   7.5885030356380724E-007   0.0000000000000000     
   4.6635335642632178E-007   7.9650497268597763E-007   0.0000000000000000     
   4.7804212605373815E-007   8.3498687862477679E-007   0.0000000000000000     
   4.8966983093043868E-007   8.7429115692339470E-007   0.0000000000000000     
   3.6616458117176572E-007   5.7964673621313345E-007   0.0000000000000000     
   3.7734792173847991E-007   6.1310740611134309E-007   0.0000000000000000     
   3.8847920896065774E-007   6.4741923434705993E-007   0.0000000000000000     
   3.9955763388691994E-007   6.8257757115689675E-007   0.0000000000000000     
   4.1058238756588719E-007   7.1857776677746625E-007   0.0000000000000000     
   4.2155266104617995E-007   7.5541517144538091E-007   0.0000000000000000     
   4.3246764537641899E-007   7.9308513539725331E-007   0.0000000000000000     
   4.4332653160522495E-007   8.3158300886969668E-007   0.0000000000000000     
   4.5412851078121827E-007   8.7090414209932275E-007   0.0000000000000000     
   3.3747746884058189E-007   5.7639903150424875E-007   0.0000000000000000     
   3.4780651440240439E-007   6.0987374086792153E-007   0.0000000000000000     
   3.5808677693344577E-007   6.4419873191418197E-007   0.0000000000000000     
   3.6831764284902154E-007   6.7936969419029937E-007   0.0000000000000000     
   3.7849849856444662E-007   7.1538231724354344E-007   0.0000000000000000     
   3.8862873049503650E-007   7.5223229062118305E-007   0.0000000000000000     
   3.9870772505610609E-007   7.8991530387048790E-007   0.0000000000000000     
   4.0873486866297132E-007   8.2842704653872740E-007   0.0000000000000000     
   4.1870954773094673E-007   8.6776320817317083E-007   0.0000000000000000     
   3.0891607490082101E-007   5.7341149616827111E-007   0.0000000000000000     
   3.1838968013786095E-007   6.0689903627631068E-007   0.0000000000000000     
   3.2781752884852114E-007   6.4123577649624745E-007   0.0000000000000000     
   3.3719927610541266E-007   6.7641779831833136E-007   0.0000000000000000     
   3.4653457698114690E-007   7.1244118323281277E-007   0.0000000000000000     
   3.5582308654833492E-007   7.4930201272994172E-007   0.0000000000000000     
   3.6506445987958785E-007   7.8699636829996835E-007   0.0000000000000000     
   3.7425835204751703E-007   8.2552033143314293E-007   0.0000000000000000     
   3.8340441812473380E-007   8.6486998361971549E-007   0.0000000000000000     
   2.8046965776858769E-007   5.7068297430937536E-007   0.0000000000000000     
   2.8908667494901128E-007   6.0418203996546386E-007   0.0000000000000000     
   2.9766088259030044E-007   6.3852929022296380E-007   0.0000000000000000     
   3.0619223551730274E-007   6.7372117916252070E-007   0.0000000000000000     
   3.1468068855486642E-007   7.0975416086477926E-007   0.0000000000000000     
   3.2312619652783898E-007   7.4662468941038499E-007   0.0000000000000000     
   3.3152871426106852E-007   7.8432921887998248E-007   0.0000000000000000     
   3.3988819657940275E-007   8.2286420335421716E-007   0.0000000000000000     
   3.4820459830768939E-007   8.6222609691373339E-007   0.0000000000000000     
   2.5212747585998601E-007   5.6821231003173641E-007   0.0000000000000000     
   2.5988675484001698E-007   6.0172149956433427E-007   0.0000000000000000     
   2.6760625604320050E-007   6.3607819522403951E-007   0.0000000000000000     
   2.7528622294590121E-007   6.7127913234439580E-007   0.0000000000000000     
   2.8292689902448394E-007   7.0732104625894855E-007   0.0000000000000000     
   2.9052852775531288E-007   7.4420067230124114E-007   0.0000000000000000     
   2.9809135261475282E-007   7.8191474580481799E-007   0.0000000000000000     
   3.0561561707916845E-007   8.2046000210322387E-007   0.0000000000000000     
   3.1310156462492394E-007   8.5983317653000204E-007   0.0000000000000000     
   2.2387878759112056E-007   5.6599834743952889E-007   0.0000000000000000     
   2.3077917581503951E-007   5.9951616270187512E-007   0.0000000000000000     
   2.3764306709163823E-007   6.3388141362918158E-007   0.0000000000000000     
   2.4447094025241729E-007   6.6909095348548528E-007   0.0000000000000000     
   2.5126327412887766E-007   7.0514163553482505E-007   0.0000000000000000     
   2.5802054755252002E-007   7.4203031304123802E-007   0.0000000000000000     
   2.6474323935484526E-007   7.7975383926876258E-007   0.0000000000000000     
   2.7143182836735406E-007   8.1830906748143683E-007   0.0000000000000000     
   2.7808679342154737E-007   8.5769285094329852E-007   0.0000000000000000     
   5.6115363714528455E-007   8.8179691536618981E-007   0.0000000000000000     
   5.7435855105894741E-007   9.2187859963833429E-007   0.0000000000000000     
   5.8749561096917292E-007   9.6277502909856019E-007   0.0000000000000000     
   6.0056566639517304E-007   1.0044835242532714E-006   0.0000000000000000     
   6.1356956685616097E-007   1.0470014056088744E-006   0.0000000000000000     
   6.2650816187134853E-007   1.0903259936717735E-006   0.0000000000000000     
   6.3938230095994850E-007   1.1344546089483739E-006   0.0000000000000000     
   6.5219283364117294E-007   1.1793845719450810E-006   0.0000000000000000     
   6.6494060943423463E-007   1.2251132031682996E-006   0.0000000000000000     
   5.2534203183349744E-007   8.7792262417060928E-007   0.0000000000000000     
   5.3772826227100648E-007   9.1802534248443197E-007   0.0000000000000000     
   5.5004979533586744E-007   9.5894246332809061E-007   0.0000000000000000     
   5.6230759343658779E-007   1.0006713540719161E-006   0.0000000000000000     
   5.7450261898167554E-007   1.0432093820862408E-006   0.0000000000000000     
   5.8663583437963836E-007   1.0865539147413961E-006   0.0000000000000000     
   5.9870820203898425E-007   1.1307023194077139E-006   0.0000000000000000     
   6.1072068436822078E-007   1.1756519634555249E-006   0.0000000000000000     
   6.2267424377585586E-007   1.2214002142551617E-006   0.0000000000000000     
   4.8966983093043868E-007   8.7429115692339470E-007   0.0000000000000000     
   5.0123589067234439E-007   9.1441329394565440E-007   0.0000000000000000     
   5.1274095868630866E-007   9.5535017933791279E-007   0.0000000000000000     
   5.2418599682691847E-007   9.9709905356716078E-007   0.0000000000000000     
   5.3557196694876008E-007   1.0396571571003881E-006   0.0000000000000000     
   5.4689983090642046E-007   1.0830217304045858E-006   0.0000000000000000     
   5.5817055055448567E-007   1.1271900139467447E-006   0.0000000000000000     
   5.6938508774754269E-007   1.1721592481938545E-006   0.0000000000000000     
   5.8054440434017830E-007   1.2179266736129059E-006   0.0000000000000000     
   4.5412851078121827E-007   8.7090414209932275E-007   0.0000000000000000     
   4.6487305415008838E-007   9.1104415825518628E-007   0.0000000000000000     
   4.7556075374579799E-007   9.5199977223610596E-007   0.0000000000000000     
   4.8619248179937828E-007   9.9376797187334273E-007   0.0000000000000000     
   4.9676911054186119E-007   1.0363457449981577E-006   0.0000000000000000     
   5.0729151220427768E-007   1.0797300794418111E-006   0.0000000000000000     
   5.1776055901765896E-007   1.1239179630355631E-006   0.0000000000000000     
   5.2817712321303705E-007   1.1689063836106751E-006   0.0000000000000000     
   5.3854207702144271E-007   1.2146923289984070E-006   0.0000000000000000     
   4.1870954773094673E-007   8.6776320817317083E-007   0.0000000000000000     
   4.2863137059136626E-007   9.0791963964621298E-007   0.0000000000000000     
   4.3850083323963607E-007   9.4889283713074969E-007   0.0000000000000000     
   4.4831865358718094E-007   9.9067945812480238E-007   0.0000000000000000     
   4.5808554954542537E-007   1.0332761601263915E-006   0.0000000000000000     
   4.6780223902579381E-007   1.0766796006335390E-006   0.0000000000000000     
   4.7746943993971114E-007   1.1208864371442656E-006   0.0000000000000000     
   4.8708787019860191E-007   1.1658933271565926E-006   0.0000000000000000     
   4.9665824771389048E-007   1.2116969281685414E-006   0.0000000000000000     
   3.8340441812473380E-007   8.6486998361971549E-007   0.0000000000000000     
   3.9250245788330525E-007   9.0504144235191974E-007   0.0000000000000000     
   4.0155284989312414E-007   9.4603096912992313E-007   0.0000000000000000     
   4.1055611742353912E-007   9.8783486145587655E-007   0.0000000000000000     
   4.1951278374389902E-007   1.0304494168319310E-006   0.0000000000000000     
   4.2842337212355243E-007   1.0738709327602383E-006   0.0000000000000000     
   4.3728840583184835E-007   1.1180957067429491E-006   0.0000000000000000     
   4.4610840813813531E-007   1.1631200362822140E-006   0.0000000000000000     
   4.5488390231176210E-007   1.2089402188801837E-006   0.0000000000000000     
   3.4820459830768939E-007   8.6222609691373339E-007   0.0000000000000000     
   3.5647793391303301E-007   9.0241127060549138E-007   0.0000000000000000     
   3.6470845643156313E-007   9.4341576334170532E-007   0.0000000000000000     
   3.7289647854166629E-007   9.8523553100090457E-007   0.0000000000000000     
   3.8104231292172881E-007   1.0278665294616192E-006   0.0000000000000000     
   3.8914627225013713E-007   1.0713047146023780E-006   0.0000000000000000     
   3.9720866920527725E-007   1.1155460423017092E-006   0.0000000000000000     
   4.0522981646553577E-007   1.1605864684381443E-006   0.0000000000000000     
   4.1321002670929885E-007   1.2064219488902102E-006   0.0000000000000000     
   3.1310156462492394E-007   8.5983317653000204E-007   0.0000000000000000     
   3.2054941656767692E-007   9.0003082864011326E-007   0.0000000000000000     
   3.2795930558025420E-007   9.4104881487417592E-007   0.0000000000000000     
   3.3533134217477585E-007   9.8288281589422535E-007   0.0000000000000000     
   3.4266563686336171E-007   1.0255285123622972E-006   0.0000000000000000     
   3.4996230015813123E-007   1.0689815849404249E-006   0.0000000000000000     
   3.5722144257120446E-007   1.1132377142906439E-006   0.0000000000000000     
   3.6444317461470147E-007   1.1582925810749898E-006   0.0000000000000000     
   3.7162760680074148E-007   1.2041418659554961E-006   0.0000000000000000     
   2.7808679342154737E-007   8.5769285094329852E-007   0.0000000000000000     
   2.8470852373436433E-007   8.9790182068897030E-007   0.0000000000000000     
   2.9129705006449834E-007   9.3893171883541419E-007   0.0000000000000000     
   2.9785231355608085E-007   9.8077806527017698E-007   0.0000000000000000     
   3.0437425535324360E-007   1.0234363798808064E-006   0.0000000000000000     
   3.1086281660011836E-007   1.0669021825548479E-006   0.0000000000000000     
   3.1731793844083673E-007   1.1111709931798492E-006   0.0000000000000000     
   3.2373956201953042E-007   1.1562383316433567E-006   0.0000000000000000     
   3.3012762848033119E-007   1.2020997178329174E-006   0.0000000000000000     
   6.6494060943423463E-007   1.2251132031682996E-006   0.0000000000000000     
   6.7762630954711554E-007   1.2716375285647806E-006   0.0000000000000000     
   6.9024994194287608E-007   1.3189533958426578E-006   0.0000000000000000     
   7.0281134627334636E-007   1.3670563581504105E-006   0.0000000000000000     
   7.1531036219035695E-007   1.4159419686365191E-006   0.0000000000000000     
   7.2774682934573754E-007   1.4656057804494621E-006   0.0000000000000000     
   7.4012058739131890E-007   1.5160433467377198E-006   0.0000000000000000     
   7.5243147597893072E-007   1.5672502206497713E-006   0.0000000000000000     
   7.6467933476040293E-007   1.6192219553340959E-006   0.0000000000000000     
   6.2267424377585586E-007   1.2214002142551617E-006   0.0000000000000000     
   6.3456964845399827E-007   1.2679441342006320E-006   0.0000000000000000     
   6.4640688972916256E-007   1.3152795657806512E-006   0.0000000000000000     
   6.5818576471146345E-007   1.3634020465076096E-006   0.0000000000000000     
   6.6990607051101702E-007   1.4123071138939004E-006   0.0000000000000000     
   6.8156760423793799E-007   1.4619903054519126E-006   0.0000000000000000     
   6.9317016300234211E-007   1.5124471586940396E-006   0.0000000000000000     
   7.0471354391434486E-007   1.5636732111326721E-006   0.0000000000000000     
   7.1619754408406083E-007   1.6156640002802014E-006   0.0000000000000000     
   5.8054440434017830E-007   1.2179266736129059E-006   0.0000000000000000     
   5.9164927027391667E-007   1.2644892637074221E-006   0.0000000000000000     
   6.0269968783803480E-007   1.3118429241270566E-006   0.0000000000000000     
   6.1369546740874752E-007   1.3599832935579954E-006   0.0000000000000000     
   6.2463641936226974E-007   1.4089060106864253E-006   0.0000000000000000     
   6.3552235407481618E-007   1.4586067141985315E-006   0.0000000000000000     
   6.4635308192260165E-007   1.5090810427805006E-006   0.0000000000000000     
   6.5712841328184108E-007   1.5603246351185190E-006   0.0000000000000000     
   6.6784815852874918E-007   1.6123331298987727E-006   0.0000000000000000     
   5.3854207702144271E-007   1.2146923289984070E-006   0.0000000000000000     
   5.4885612501635041E-007   1.2612725928953812E-006   0.0000000000000000     
   5.5911930114100441E-007   1.3086431924596600E-006   0.0000000000000000     
   5.6933147168109244E-007   1.3567999507146674E-006   0.0000000000000000     
   5.7949250292230181E-007   1.4057386906838286E-006   0.0000000000000000     
   5.8960226115031974E-007   1.4554552353905667E-006   0.0000000000000000     
   5.9966061265083344E-007   1.5059454078583052E-006   0.0000000000000000     
   6.0966742370953076E-007   1.5572050311104694E-006   0.0000000000000000     
   6.1962256061209815E-007   1.6092299281704820E-006   0.0000000000000000     
   4.9665824771389048E-007   1.2116969281685414E-006   0.0000000000000000     
   5.0618116269077959E-007   1.2582937975747406E-006   0.0000000000000000     
   5.1565669450958277E-007   1.3056800923562466E-006   0.0000000000000000     
   5.2508479484439228E-007   1.3538518693907266E-006   0.0000000000000000     
   5.3446541536929910E-007   1.4028051855558448E-006   0.0000000000000000     
   5.4379850775839558E-007   1.4525360977292658E-006   0.0000000000000000     
   5.5308402368577313E-007   1.5030406627886550E-006   0.0000000000000000     
   5.6232191482552358E-007   1.5543149376116785E-006   0.0000000000000000     
   5.7151213285173855E-007   1.6063549790759999E-006   0.0000000000000000     
   4.5488390231176210E-007   1.2089402188801837E-006   0.0000000000000000     
   4.6361533330668393E-007   1.2555525535557303E-006   0.0000000000000000     
   4.7230283281528109E-007   1.3029533453946035E-006   0.0000000000000000     
   4.8094645421454019E-007   1.3511389009992724E-006   0.0000000000000000     
   4.8954625088144799E-007   1.4001055269722065E-006   0.0000000000000000     
   4.9810227619299121E-007   1.4498495299158765E-006   0.0000000000000000     
   5.0661458352615644E-007   1.5003672164327518E-006   0.0000000000000000     
   5.1508322625793072E-007   1.5516548931253023E-006   0.0000000000000000     
   5.2350825776530023E-007   1.6037088665959975E-006   0.0000000000000000     
   4.1321002670929885E-007   1.2064219488902102E-006   0.0000000000000000     
   4.2114958687354361E-007   1.2530485366485829E-006   0.0000000000000000     
   4.2904868092961058E-007   1.3004626731525143E-006   0.0000000000000000     
   4.3690746710743039E-007   1.3486608969534035E-006   0.0000000000000000     
   4.4472610363693446E-007   1.3976397466026478E-006   0.0000000000000000     
   4.5250474874805394E-007   1.4473957606516470E-006   0.0000000000000000     
   4.6024356067071933E-007   1.4979254776517972E-006   0.0000000000000000     
   4.6794269763486240E-007   1.5492254361544972E-006   0.0000000000000000     
   4.7560231787041385E-007   1.6012921747111466E-006   0.0000000000000000     
   3.7162760680074148E-007   1.2041418659554961E-006   0.0000000000000000     
   3.7877487340083880E-007   1.2507814226635282E-006   0.0000000000000000     
   3.8588520372408266E-007   1.2982077972077667E-006   0.0000000000000000     
   3.9295885083895676E-007   1.3464177086662219E-006   0.0000000000000000     
   3.9999606781394515E-007   1.3954078761169041E-006   0.0000000000000000     
   4.0699710771753084E-007   1.4451750186378247E-006   0.0000000000000000     
   4.1396222361819778E-007   1.4957158553069931E-006   0.0000000000000000     
   4.2089166858442951E-007   1.5470271052024203E-006   0.0000000000000000     
   4.2778569568470967E-007   1.5991054874021170E-006   0.0000000000000000     
   3.3012762848033119E-007   1.2020997178329174E-006   0.0000000000000000     
   3.3648214289804899E-007   1.2487508874107977E-006   0.0000000000000000     
   3.4280336607020871E-007   1.2961884391381454E-006   0.0000000000000000     
   3.4909162272501321E-007   1.3444091875508266E-006   0.0000000000000000     
   3.5534723759066577E-007   1.3934099471847085E-006   0.0000000000000000     
   3.6157053539536931E-007   1.4431875325756577E-006   0.0000000000000000     
   3.6776184086732718E-007   1.4937387582595417E-006   0.0000000000000000     
   3.7392147873474244E-007   1.5450604387722271E-006   0.0000000000000000     
   3.8004977372581786E-007   1.5971493886495804E-006   0.0000000000000000     
   7.6467933476040293E-007   1.6192219553340959E-006   0.0000000000000000     
   7.7686409731182705E-007   1.6719543497657319E-006   0.0000000000000000     
   7.8898607290633697E-007   1.7254441862259509E-006   0.0000000000000000     
   8.0104566474132714E-007   1.7796884928225815E-006   0.0000000000000000     
   8.1304327601419220E-007   1.8346842976634541E-006   0.0000000000000000     
   8.2497930992232682E-007   1.8904286288563986E-006   0.0000000000000000     
   8.3685416966312543E-007   1.9469185145092442E-006   0.0000000000000000     
   8.4866825843398312E-007   2.0041509827298206E-006   0.0000000000000000     
   8.6042197943229476E-007   2.0621230616259584E-006   0.0000000000000000     
   7.1619754408406083E-007   1.6156640002802014E-006   0.0000000000000000     
   7.2762206776645495E-007   1.6684153132828952E-006   0.0000000000000000     
   7.3898744779588701E-007   1.7219239358225282E-006   0.0000000000000000     
   7.5029412415156533E-007   1.7761869032147498E-006   0.0000000000000000     
   7.6154253681269864E-007   1.8312012507752120E-006   0.0000000000000000     
   7.7273312575849505E-007   1.8869640138195631E-006   0.0000000000000000     
   7.8386633096816392E-007   1.9434722276634553E-006   0.0000000000000000     
   7.9494259242091346E-007   2.0007229276225387E-006   0.0000000000000000     
   8.0596235009595232E-007   2.0587131490124620E-006   0.0000000000000000     
   6.6784815852874918E-007   1.6123331298987727E-006   0.0000000000000000     
   6.7851223058334624E-007   1.6651023774481708E-006   0.0000000000000000     
   6.8912095254087520E-007   1.7186290746565134E-006   0.0000000000000000     
   6.9967475004038361E-007   1.7729101300543246E-006   0.0000000000000000     
   7.1017404872092020E-007   1.8279424521721280E-006   0.0000000000000000     
   7.2061927422153222E-007   1.8837229495404453E-006   0.0000000000000000     
   7.3101085218126860E-007   1.9402485306898013E-006   0.0000000000000000     
   7.4134920823917742E-007   1.9975161041507201E-006   0.0000000000000000     
   7.5163476803430616E-007   2.0555225784537229E-006   0.0000000000000000     
   6.1962256061209815E-007   1.6092299281704820E-006   0.0000000000000000     
   6.2952597388026369E-007   1.6620160661330665E-006   0.0000000000000000     
   6.3937795097991169E-007   1.7155599883781384E-006   0.0000000000000000     
   6.4917886361296794E-007   1.7698583823569130E-006   0.0000000000000000     
   6.5892908348135675E-007   1.8249079355206053E-006   0.0000000000000000     
   6.6862898228700318E-007   1.8807053353204284E-006   0.0000000000000000     
   6.7827893173183228E-007   1.9372472692075986E-006   0.0000000000000000     
   6.8787930351776858E-007   1.9945304246333299E-006   0.0000000000000000     
   6.9743046934673778E-007   2.0525514890488380E-006   0.0000000000000000     
   5.7151213285173855E-007   1.6063549790759999E-006   0.0000000000000000     
   5.8065468577496987E-007   1.6591569032090907E-006   0.0000000000000000     
   5.8974980695160783E-007   1.7127170626376341E-006   0.0000000000000000     
   5.9879778607450386E-007   1.7670318691381228E-006   0.0000000000000000     
   6.0779891283650835E-007   1.8220977344870473E-006   0.0000000000000000     
   6.1675347693047244E-007   1.8779110704608960E-006   0.0000000000000000     
   6.2566176804924640E-007   1.9344682888361609E-006   0.0000000000000000     
   6.3452407588568158E-007   1.9917658013893320E-006   0.0000000000000000     
   6.4334069013262837E-007   2.0498000198968999E-006   0.0000000000000000     
   5.2350825776530023E-007   1.6037088665959975E-006   0.0000000000000000     
   5.3188975438522734E-007   1.6565254125477493E-006   0.0000000000000000     
   5.4022788429457356E-007   1.7101006830852316E-006   0.0000000000000000     
   5.4852283863017723E-007   1.7644307994135615E-006   0.0000000000000000     
   5.5677480852887530E-007   1.8195118827378566E-006   0.0000000000000000     
   5.6498398512750527E-007   1.8753400542632308E-006   0.0000000000000000     
   5.7315055956290409E-007   1.9319114351948033E-006   0.0000000000000000     
   5.8127472297191011E-007   1.9892221467376895E-006   0.0000000000000000     
   5.8935666649135974E-007   2.0472683100970055E-006   0.0000000000000000     
   4.7560231787041385E-007   1.6012921747111466E-006   0.0000000000000000     
   4.8322256782879898E-007   1.6541221180205515E-006   0.0000000000000000     
   4.9080354684742033E-007   1.7077112353711622E-006   0.0000000000000000     
   4.9834534248517412E-007   1.7620553821988374E-006   0.0000000000000000     
   5.0584804230095736E-007   1.8171504139394366E-006   0.0000000000000000     
   5.1331173385366608E-007   1.8729921860288175E-006   0.0000000000000000     
   5.2073650470219742E-007   1.9295765539028402E-006   0.0000000000000000     
   5.2812244240544742E-007   1.9868993729973650E-006   0.0000000000000000     
   5.3546963452231330E-007   2.0449564987482484E-006   0.0000000000000000     
   4.2778569568470967E-007   1.5991054874021170E-006   0.0000000000000000     
   4.3464451422344787E-007   1.6519475434990055E-006   0.0000000000000000     
   4.4146815844875799E-007   1.7055491051456572E-006   0.0000000000000000     
   4.4825661884468008E-007   1.7599058265095562E-006   0.0000000000000000     
   4.5500988589525454E-007   1.8150133617581903E-006   0.0000000000000000     
   4.6172795008452046E-007   1.8708673650590382E-006   0.0000000000000000     
   4.6841080189651861E-007   1.9274634905795875E-006   0.0000000000000000     
   4.7505843181528853E-007   1.9847973924873221E-006   0.0000000000000000     
   4.8167083032487032E-007   2.0428647249497254E-006   0.0000000000000000     
   3.8004977372581786E-007   1.5971493886495804E-006   0.0000000000000000     
   3.8614698168693616E-007   1.6500022128546176E-006   0.0000000000000000     
   3.9221308293719764E-007   1.7036146780589486E-006   0.0000000000000000     
   3.9824798891388117E-007   1.7579823413613294E-006   0.0000000000000000     
   4.0425161105426649E-007   1.8131007598605198E-006   0.0000000000000000     
   4.1022386079563287E-007   1.8689654906552772E-006   0.0000000000000000     
   4.1616464957525985E-007   1.9255720908443593E-006   0.0000000000000000     
   4.2207388883042664E-007   1.9829161175265242E-006   0.0000000000000000     
   4.2795148999841274E-007   2.0409931278005306E-006   0.0000000000000000     
   0.0000000000000000        0.0000000000000000        0.0000000000000000     
   6.3407169038720418E-009  -1.8169529474676223E-010   0.0000000000000000     
   1.2751895784950293E-008   1.0624422230685951E-009   0.0000000000000000     
   1.9235060848151897E-008   3.7002801931810663E-009   0.0000000000000000     
   2.5791736298394006E-008   7.6996862553256431E-009   0.0000000000000000     
   3.2423446340593770E-008   1.3028528049237323E-008   0.0000000000000000     
   3.9131715179668335E-008   1.9654673214651094E-008   0.0000000000000000     
   4.5918067020534851E-008   2.7545989391301945E-008   0.0000000000000000     
   5.2784026068110475E-008   3.6670344218924897E-008   0.0000000000000000     
   0.0000000000000000        0.0000000000000000        0.0000000000000000     
   5.5761396460750442E-009  -3.0570475995064032E-010   0.0000000000000000     
   1.1195147276802877E-008   8.0896856334448979E-010   0.0000000000000000     
   1.6862067146836950E-008   3.3138652009061912E-009   0.0000000000000000     
   2.2581943510830713E-008   7.1788303837552678E-009   0.0000000000000000     
   2.8359820623437616E-008   1.2373709342912513E-008   0.0000000000000000     
   3.4200742739311089E-008   1.8868347309398728E-008   0.0000000000000000     
   4.0109754113104615E-008   2.6632589514234717E-008   0.0000000000000000     
   4.6091898999471628E-008   3.5636281188441282E-008   0.0000000000000000     
   0.0000000000000000        0.0000000000000000        0.0000000000000000     
   4.8003573899835837E-009  -4.1387993246529500E-010   0.0000000000000000     
   9.6235033105788951E-009   5.9053376712473174E-010   0.0000000000000000     
   1.4476517825347307E-008   2.9840478312689946E-009   0.0000000000000000     
   1.9366480997850178E-008   6.7374689924664062E-009   0.0000000000000000     
   2.4300472891648887E-008   1.1821603983215886E-008   0.0000000000000000     
   2.9285573570304790E-008   1.8207259536016341E-008   0.0000000000000000     
   3.4328863097379257E-008   2.5865242383366686E-008   0.0000000000000000     
   3.9437421536433651E-008   3.4766359257765844E-008   0.0000000000000000     
   0.0000000000000000        0.0000000000000000        0.0000000000000000     
   4.0149708610722398E-009  -5.0600496302636112E-010   0.0000000000000000     
   8.0390918229542103E-009   4.0675491365335042E-010   0.0000000000000000     
   1.2080206554018592E-008   2.7092636821805454E-009   0.0000000000000000     
   1.6146158722638051E-008   6.3725053946966288E-009   0.0000000000000000     
   2.0244791997185280E-008   1.1367464103343018E-008   0.0000000000000000     
   2.4383950046032938E-008   1.7665123860261116E-008   0.0000000000000000     
   2.8571476537553708E-008   2.5236468717592322E-008   0.0000000000000000     
   3.2815215140120265E-008   3.4052482727478066E-008   0.0000000000000000     
   0.0000000000000000        0.0000000000000000        0.0000000000000000     
   3.2215807848156016E-009  -5.8186400236947513E-010   0.0000000000000000     
   6.4440407506046933E-009   2.5724908217437732E-010   0.0000000000000000     
   9.6749270031864326E-009   2.4879483515519171E-009   0.0000000000000000     
   1.2921786648379971E-008   6.0808429036835026E-009   0.0000000000000000     
   1.6192166792004466E-008   1.1006541836489488E-008   0.0000000000000000     
   1.9493614539879062E-008   1.7235654247890239E-008   0.0000000000000000     
   2.2833676997822924E-008   2.4738789235806107E-008   0.0000000000000000     
   2.6219901271655203E-008   3.3486555898157448E-008   0.0000000000000000     
   0.0000000000000000        0.0000000000000000        0.0000000000000000     
   2.4217878866882473E-009  -6.4124120123027267E-010   0.0000000000000000     
   4.8404780302062090E-009   1.4163335193184296E-010   0.0000000000000000     
   7.2624728431864588E-009   2.3185374372941825E-009   0.0000000000000000     
   9.6941747382615718E-009   5.8593848326645790E-009   0.0000000000000000     
   1.2141986128064130E-008   1.0734089315850874E-008   0.0000000000000000     
   1.4612309425226702E-008   1.6912564664660898E-008   0.0000000000000000     
   1.7111547042381858E-008   2.4364724656902481E-008   0.0000000000000000     
   1.9646101392162184E-008   3.3060483070383466E-008   0.0000000000000000     
   0.0000000000000000        0.0000000000000000        0.0000000000000000     
   1.6171928921647624E-009  -6.8392071034438963E-010   0.0000000000000000     
   3.2305315984346241E-009   5.9524802169776751E-011   0.0000000000000000     
   4.8446377443542988E-009   2.1994665373184123E-009   0.0000000000000000     
   6.4641329554685045E-009   5.7050344948774316E-009   0.0000000000000000     
   8.0936388573219607E-009   1.0545358674622752E-008   0.0000000000000000     
   9.7377770754593720E-009   1.6689569076330282E-008   0.0000000000000000     
   1.1401169235425464E-008   2.4106795699775941E-008   0.0000000000000000     
   1.3088436962764949E-008   3.2766168544735628E-008   0.0000000000000000     
   0.0000000000000000        0.0000000000000000        0.0000000000000000     
   8.0939652671972819E-010  -7.0968668044746103E-010   0.0000000000000000     
   1.6163293919658048E-009   1.0540512132209366E-011   0.0000000000000000     
   2.4232153770255805E-009   2.1291712495356808E-009   0.0000000000000000     
   3.2324712631864059E-009   5.6146952035596202E-009   0.0000000000000000     
   4.0465138317356299E-009   1.0435602046000694E-008   0.0000000000000000     
   4.8677598639606081E-009   1.6560381448655584E-008   0.0000000000000000     
   5.6986261411486854E-009   2.3957523083320942E-008   0.0000000000000000     
   6.5415294445872143E-009   3.2595516621793441E-008   0.0000000000000000     
   0.0000000000000000        0.0000000000000000        0.0000000000000000     
  -4.8417227157625426E-016  -7.1832326227512336E-010   0.0000000000000000     
  -6.5252438007442331E-016  -5.7024389368285102E-012   0.0000000000000000     
  -5.8846406988542679E-016   2.1060871718570570E-009   0.0000000000000000     
  -3.7539908560697947E-016   5.5852702719487034E-009   0.0000000000000000     
  -9.6737171009615531E-017   1.0400071563180290E-008   0.0000000000000000     
   1.6411392889535995E-016   1.6518715747393982E-008   0.0000000000000000     
   3.2374647095779826E-016   2.3909427526431949E-008   0.0000000000000000     
   2.9875271140716523E-016   3.2540431602136380E-008   0.0000000000000000     
   5.2784026068110475E-008   3.6670344218924897E-008   0.0000000000000000     
   5.9729213998358596E-008   4.6996449148924268E-008   0.0000000000000000     
   6.6745642371427487E-008   5.8496390879381918E-008   0.0000000000000000     
   7.3823420218511697E-008   7.1143099920049006E-008   0.0000000000000000     
   8.0952656570805769E-008   8.4909506780676709E-008   0.0000000000000000     
   8.8123460459504245E-008   9.9768541971016297E-008   0.0000000000000000     
   9.5325940915801630E-008   1.1569313600081889E-007   0.0000000000000000     
   1.0255020697089247E-007   1.3265621937983559E-007   0.0000000000000000     
   1.0978636765597133E-007   1.5063072261781780E-007   0.0000000000000000     
   4.6091898999471628E-008   3.5636281188441282E-008   0.0000000000000000     
   5.2149737700351311E-008   4.5849757255819986E-008   0.0000000000000000     
   5.8275894706825732E-008   5.7245311411295499E-008   0.0000000000000000     
   6.4460510557262678E-008   6.9795727042573200E-008   0.0000000000000000     
   7.0693725790030031E-008   8.3473787537358541E-008   0.0000000000000000     
   7.6965680943495527E-008   9.8252276283356933E-008   0.0000000000000000     
   8.3266516556027014E-008   1.1410397666827381E-007   0.0000000000000000     
   8.9586373165992274E-008   1.3100167207981451E-007   0.0000000000000000     
   9.5915391311759130E-008   1.4891814590568459E-007   0.0000000000000000     
   3.9437421536433651E-008   3.4766359257765844E-008   0.0000000000000000     
   4.4615591274038087E-008   4.4881820069637828E-008   0.0000000000000000     
   4.9856763988797657E-008   5.6184447441107041E-008   0.0000000000000000     
   5.5151593682326169E-008   6.8647467172222993E-008   0.0000000000000000     
   6.0490734356237451E-008   8.2244105063035201E-008   0.0000000000000000     
   6.5864840012145317E-008   9.6947586913593176E-008   0.0000000000000000     
   7.1264564651663636E-008   1.1273113852394641E-007   0.0000000000000000     
   7.6680562276406183E-008   1.2956798569414446E-007   0.0000000000000000     
   8.2103486887986825E-008   1.4743135422423678E-007   0.0000000000000000     
   3.2815215140120265E-008   3.4052482727478066E-008   0.0000000000000000     
   3.7120299005341129E-008   4.4084666281141147E-008   0.0000000000000000     
   4.1481019217768209E-008   5.5306585126129966E-008   0.0000000000000000     
   4.5888956345189227E-008   6.7692321349074303E-008   0.0000000000000000     
   5.0335690955391909E-008   8.1215957036603993E-008   0.0000000000000000     
   5.4812803616164009E-008   9.5851574275348805E-008   0.0000000000000000     
   5.9311874895293266E-008   1.1157325515193859E-007   0.0000000000000000     
   6.3824485360567383E-008   1.2835508175300304E-007   0.0000000000000000     
   6.8342215579774150E-008   1.4617113616517207E-007   0.0000000000000000     
   2.6219901271655203E-008   3.3486555898157448E-008   0.0000000000000000     
   2.9657385180182641E-008   4.3450324581093334E-008   0.0000000000000000     
   3.3141429394162348E-008   5.4604510623677685E-008   0.0000000000000000     
   3.6664885297339009E-008   6.6924290613203114E-008   0.0000000000000000     
   4.0220604273457321E-008   8.0384841136962244E-008   0.0000000000000000     
   4.3801437706261987E-008   9.4961338782247680E-008   0.0000000000000000     
   4.7400236979497680E-008   1.1062896013635209E-007   0.0000000000000000     
   5.1009853476909110E-008   1.2736288178656807E-007   0.0000000000000000     
   5.4623138582240955E-008   1.4513828032018819E-007   0.0000000000000000     
   1.9646101392162184E-008   3.3060483070383466E-008   0.0000000000000000     
   2.2220374084484803E-008   4.2970823660257763E-008   0.0000000000000000     
   2.4830763518404998E-008   5.4071010091063617E-008   0.0000000000000000     
   2.7471667290262642E-008   6.6337376004685304E-008   0.0000000000000000     
   3.0137482996397561E-008   7.9746255043007188E-008   0.0000000000000000     
   3.2822608233149607E-008   9.4273980847913565E-008   0.0000000000000000     
   3.5521440596858642E-008   1.0989688706128871E-007   0.0000000000000000     
   3.8228377683864472E-008   1.2659130732501697E-007   0.0000000000000000     
   4.0937817090506989E-008   1.4433357528098271E-007   0.0000000000000000     
   1.3088436962764949E-008   3.2766168544735628E-008   0.0000000000000000     
   1.4802790004169819E-008   4.2638192209397850E-008   0.0000000000000000     
   1.6541790590921136E-008   5.3698869685601211E-008   0.0000000000000000     
   1.8301589075447265E-008   6.5925578563596925E-008   0.0000000000000000     
   2.0078335810176536E-008   7.9295696433636194E-008   0.0000000000000000     
   2.1868181147537316E-008   9.3786600885970294E-008   0.0000000000000000     
   2.3667275439957924E-008   1.0937566951085034E-007   0.0000000000000000     
   2.5471769039866721E-008   1.2604027989852756E-007   0.0000000000000000     
   2.7277812299692063E-008   1.4375780963925318E-007   0.0000000000000000     
   6.5415294445872143E-009   3.2595516621793441E-008   0.0000000000000000     
   7.3981572251598828E-009   4.2444458919276910E-008   0.0000000000000000     
   8.2672796121356961E-009   5.3480875564603851E-008   0.0000000000000000     
   9.1469374043799998E-009   6.5682899330013867E-008   0.0000000000000000     
   1.0035171400758139E-008   7.9028662987746617E-008   0.0000000000000000     
   1.0930022400135464E-008   9.3496299310041685E-008   0.0000000000000000     
   1.1829531201377306E-008   1.0906394106913873E-007   0.0000000000000000     
   1.2731738603349023E-008   1.2570972103727747E-007   0.0000000000000000     
   1.3634685404915943E-008   1.4341177198669743E-007   0.0000000000000000     
   2.9875271140716523E-016   3.2540431602136380E-008   0.0000000000000000     
   3.3377192459056418E-017   4.2381652480658392E-008   0.0000000000000000     
  -4.1752638013257297E-016   5.3409813885384981E-008   0.0000000000000000     
  -9.7145202111583593E-016   6.5603339344012063E-008   0.0000000000000000     
  -1.5458937408702979E-015   7.8940652384235586E-008   0.0000000000000000     
  -2.0583455410707407E-015   9.3400176533751531E-008   0.0000000000000000     
  -2.4263014409113731E-015   1.0896033532025579E-007   0.0000000000000000     
  -2.5672554495532040E-015   1.2559955227144426E-007   0.0000000000000000     
  -2.3987015745303460E-015   1.4329625091501303E-007   0.0000000000000000     
   1.0978636765597133E-007   1.5063072261781780E-007   0.0000000000000000     
   1.1702566967536356E-007   1.6959254438040579E-007   0.0000000000000000     
   1.2426391042591807E-007   1.8952945595679699E-007   0.0000000000000000     
   1.3149802497761452E-007   2.1043219679207796E-007   0.0000000000000000     
   1.3872494840043275E-007   2.3229150633133553E-007   0.0000000000000000     
   1.4594161576435240E-007   2.5509812401965611E-007   0.0000000000000000     
   1.5314496213935323E-007   2.7884278930212652E-007   0.0000000000000000     
   1.6033192259541497E-007   3.0351624162383334E-007   0.0000000000000000     
   1.6749943220251741E-007   3.2910922042986302E-007   0.0000000000000000     
   9.5915391311759130E-008   1.4891814590568459E-007   0.0000000000000000     
   1.0224501343194253E-007   1.6782909935977105E-007   0.0000000000000000     
   1.0857188956614577E-007   1.8772190496068808E-007   0.0000000000000000     
   1.1489397165421943E-007   2.0858685305323150E-007   0.0000000000000000     
   1.2120921163601402E-007   2.3041423398219716E-007   0.0000000000000000     
   1.2751556145137995E-007   2.5319433809238082E-007   0.0000000000000000     
   1.3381097304016785E-007   2.7691745572857846E-007   0.0000000000000000     
   1.4009339834222807E-007   3.0157387723558575E-007   0.0000000000000000     
   1.4636078929741127E-007   3.2715389295819861E-007   0.0000000000000000     
   8.2103486887986825E-008   1.4743135422423678E-007   0.0000000000000000     
   8.7525336036405938E-008   1.6629718152880615E-007   0.0000000000000000     
   9.2943481465210425E-008   1.8615225148056806E-007   0.0000000000000000     
   9.8356638466333707E-008   2.0698605956677137E-007   0.0000000000000000     
   1.0376352233170927E-007   2.2878810127466488E-007   0.0000000000000000     
   1.0916284835327055E-007   2.5154787209149736E-007   0.0000000000000000     
   1.1455333182295100E-007   2.7525486750451761E-007   0.0000000000000000     
   1.1993368803268406E-007   2.9989858300097433E-007   0.0000000000000000     
   1.2530263227440319E-007   3.2546851406811646E-007   0.0000000000000000     
   6.8342215579774150E-008   1.4617113616517207E-007   0.0000000000000000     
   7.2857926250513117E-008   1.6499790011036211E-007   0.0000000000000000     
   7.7369598589631091E-008   1.8482145385163603E-007   0.0000000000000000     
   8.1876493943786794E-008   2.0563027728734322E-007   0.0000000000000000     
   8.6377873659638909E-008   2.2741285031583353E-007   0.0000000000000000     
   9.0872999083846103E-008   2.5015765283545630E-007   0.0000000000000000     
   9.5361131563066993E-008   2.7385316474456104E-007   0.0000000000000000     
   9.9841532443960393E-008   2.9848786594149751E-007   0.0000000000000000     
   1.0431346307318485E-007   3.2405023632461490E-007   0.0000000000000000     
   5.4623138582240955E-008   1.4513828032018819E-007   0.0000000000000000     
   5.8234072836023200E-008   1.6393236432729008E-007   0.0000000000000000     
   6.1841153405926806E-008   1.8373047040909092E-007   0.0000000000000000     
   6.5444006616408079E-008   2.0451996716959282E-007   0.0000000000000000     
   6.9042258791923210E-008   2.2628822321279790E-007   0.0000000000000000     
   7.2635536256928506E-008   2.4902260714270835E-007   0.0000000000000000     
   7.6223465335880208E-008   2.7271048756332623E-007   0.0000000000000000     
   7.9805672353234558E-008   2.9733923307865348E-007   0.0000000000000000     
   8.3381783633447838E-008   3.2289621229269264E-007   0.0000000000000000     
   4.0937817090506989E-008   1.4433357528098271E-007   0.0000000000000000     
   4.3645064554695426E-008   1.6310168340244120E-007   0.0000000000000000     
   4.6349058380616656E-008   1.8288025948813195E-007   0.0000000000000000     
   4.9049645014026940E-008   2.0365559016816564E-007   0.0000000000000000     
   5.1746670900682546E-008   2.2541396207265280E-007   0.0000000000000000     
   5.4439982486339747E-008   2.4814166183170402E-007   0.0000000000000000     
   5.7129426216754816E-008   2.7182497607542988E-007   0.0000000000000000     
   5.9814848537684036E-008   2.9645019143394090E-007   0.0000000000000000     
   6.2496095894883658E-008   3.2200359453734787E-007   0.0000000000000000     
   2.7277812299692063E-008   1.4375780963925318E-007   0.0000000000000000     
   2.9082190168289032E-008   1.6250696655866645E-007   0.0000000000000000     
   3.0884225980219676E-008   1.8227177942395820E-007   0.0000000000000000     
   3.2683877666472801E-008   2.0303760723770727E-007   0.0000000000000000     
   3.4481103158037243E-008   2.2478980900249304E-007   0.0000000000000000     
   3.6275860385901767E-008   2.4751374372089407E-007   0.0000000000000000     
   3.8068107281055185E-008   2.7119477039548945E-007   0.0000000000000000     
   3.9857801774486327E-008   2.9581824802885816E-007   0.0000000000000000     
   4.1644901797183958E-008   3.2136953562357896E-007   0.0000000000000000     
   1.3634685404915943E-008   1.4341177198669743E-007   0.0000000000000000     
   1.4536738438563197E-008   1.6214932301881698E-007   0.0000000000000000     
   1.5437568671254940E-008   1.8190598855176861E-007   0.0000000000000000     
   1.6337173103575108E-008   2.0266647933286361E-007   0.0000000000000000     
   1.7235548736107678E-008   2.2441550610941341E-007   0.0000000000000000     
   1.8132692569436519E-008   2.4713777962872912E-007   0.0000000000000000     
   1.9028601604145627E-008   2.7081801063812193E-007   0.0000000000000000     
   1.9923272840818921E-008   2.9544090988490365E-007   0.0000000000000000     
   2.0816703280040340E-008   3.2099118811638454E-007   0.0000000000000000     
  -2.3987015745303460E-015   1.4329625091501303E-007   0.0000000000000000     
  -1.8727228579845311E-015   1.6202986200574384E-007   0.0000000000000000     
  -1.0797585132569238E-015   1.8178384520676239E-007   0.0000000000000000     
  -1.4483677283715875E-016   2.0254266740828012E-007   0.0000000000000000     
   8.0701411951479347E-016   2.2429079550050878E-007   0.0000000000000000     
   1.6507659208015195E-015   2.4701269637365982E-007   0.0000000000000000     
   2.2613904003686917E-015   2.7069283691794487E-007   0.0000000000000000     
   2.5138593027966471E-015   2.9531568402357540E-007   0.0000000000000000     
   2.2831443904307191E-015   3.2086570458076303E-007   0.0000000000000000     
   1.6749943220251741E-007   3.2910922042986302E-007   0.0000000000000000     
   1.7464463560231347E-007   3.5561276518427781E-007   0.0000000000000000     
   1.8176551572314978E-007   3.8301911542704121E-007   0.0000000000000000     
   1.8886026506504604E-007   4.1132081071709236E-007   0.0000000000000000     
   1.9592707612802214E-007   4.4051039061337018E-007   0.0000000000000000     
   2.0296414141209775E-007   4.7058039467481370E-007   0.0000000000000000     
   2.0996965341729290E-007   5.0152336246036201E-007   0.0000000000000000     
   2.1694180464362718E-007   5.3333183352895397E-007   0.0000000000000000     
   2.2387878759112056E-007   5.6599834743952889E-007   0.0000000000000000     
   1.4636078929741127E-007   3.2715389295819861E-007   0.0000000000000000     
   1.5261109785421078E-007   3.5364810981979710E-007   0.0000000000000000     
   1.5884227599569184E-007   3.8104840105809922E-007   0.0000000000000000     
   1.6505227571356277E-007   4.0934695648940655E-007   0.0000000000000000     
   1.7123904899953170E-007   4.3853596593002157E-007   0.0000000000000000     
   1.7740054784530692E-007   4.6860761919624610E-007   0.0000000000000000     
   1.8353472424259652E-007   4.9955410610438211E-007   0.0000000000000000     
   1.8963953018310884E-007   5.3136761647073174E-007   0.0000000000000000     
   1.9571291765855199E-007   5.6404034011159673E-007   0.0000000000000000     
   1.2530263227440319E-007   3.2546851406811646E-007   0.0000000000000000     
   1.3065874363982508E-007   3.5195460150160220E-007   0.0000000000000000     
   1.3600005641979916E-007   3.7934856733072805E-007   0.0000000000000000     
   1.4132446870495805E-007   4.0764257889320000E-007   0.0000000000000000     
   1.4662987858593434E-007   4.3682880352672429E-007   0.0000000000000000     
   1.5191418415336090E-007   4.6689940856900667E-007   0.0000000000000000     
   1.5717528349787011E-007   4.9784656135775331E-007   0.0000000000000000     
   1.6241107471009476E-007   5.2966242923067001E-007   0.0000000000000000     
   1.6761945588066751E-007   5.6233917952546295E-007   0.0000000000000000     
   1.0431346307318485E-007   3.2405023632461490E-007   0.0000000000000000     
   1.0877597526167721E-007   3.5052940674683204E-007   0.0000000000000000     
   1.1322728267748640E-007   3.7791711187934311E-007   0.0000000000000000     
   1.1766538945293950E-007   4.0620573734791119E-007   0.0000000000000000     
   1.2208829972036356E-007   4.3538766877829955E-007   0.0000000000000000     
   1.2649401761208568E-007   4.6545529179627127E-007   0.0000000000000000     
   1.3088054726043282E-007   4.9640099202758979E-007   0.0000000000000000     
   1.3524589279773211E-007   5.2821715509801829E-007   0.0000000000000000     
   1.3958805835631059E-007   5.6089616663331961E-007   0.0000000000000000     
   8.3381783633447838E-008   3.2289621229269264E-007   0.0000000000000000     
   8.6951195022287794E-008   3.4936969207262620E-007   0.0000000000000000     
   9.0512380450768328E-008   3.7675153233835936E-007   0.0000000000000000     
   9.4063583371214807E-008   4.0503449127297819E-007   0.0000000000000000     
   9.7603047235952637E-008   4.3421132705956840E-007   0.0000000000000000     
   1.0112901549730720E-007   4.6427479788121565E-007   0.0000000000000000     
   1.0463973160760380E-007   4.9521766192100597E-007   0.0000000000000000     
   1.0813343901916797E-007   5.2703267736202521E-007   0.0000000000000000     
   1.1160838118432499E-007   5.5971260238735959E-007   0.0000000000000000     
   6.2496095894883658E-008   3.2200359453734787E-007   0.0000000000000000     
   6.5172805224177505E-008   3.4847262399612375E-007   0.0000000000000000     
   6.7843775421659618E-008   3.7584932634219227E-007   0.0000000000000000     
   7.0507595873491555E-008   4.0412690008783958E-007   0.0000000000000000     
   7.3162855965834938E-008   4.3329854374535168E-007   0.0000000000000000     
   7.5808145084851323E-008   4.6335745582701520E-007   0.0000000000000000     
   7.8442052616702281E-008   4.9429683484511614E-007   0.0000000000000000     
   8.1063167947549394E-008   5.2610987931194050E-007   0.0000000000000000     
   8.3670080463554232E-008   5.5878978773977471E-007   0.0000000000000000     
   4.1644901797183958E-008   3.2136953562357896E-007   0.0000000000000000     
   4.3429208169867043E-008   3.4783536903446408E-007   0.0000000000000000     
   4.5209893272174994E-008   3.7520799152525673E-007   0.0000000000000000     
   4.6985972373477419E-008   4.0348102321193359E-007   0.0000000000000000     
   4.8756460743143904E-008   4.3264808421047110E-007   0.0000000000000000     
   5.0520373650544016E-008   4.6270279463684586E-007   0.0000000000000000     
   5.2276726365047315E-008   4.9363877460703407E-007   0.0000000000000000     
   5.4024534156023455E-008   5.2544964423701259E-007   0.0000000000000000     
   5.5762812292841922E-008   5.5812902364275765E-007   0.0000000000000000     
   2.0816703280040340E-008   3.2099118811638454E-007   0.0000000000000000     
   2.1708806161877063E-008   3.4745509370478642E-007   0.0000000000000000     
   2.2599159684329178E-008   3.7482502552196810E-007   0.0000000000000000     
   2.3487258284880007E-008   4.0309492006469876E-007   0.0000000000000000     
   2.4372596401012932E-008   4.3225871382974752E-007   0.0000000000000000     
   2.5254668470211207E-008   4.6231034331388303E-007   0.0000000000000000     
   2.6132968929958213E-008   4.9324374501387447E-007   0.0000000000000000     
   2.7006992217737276E-008   5.2505285542649098E-007   0.0000000000000000     
   2.7876232771031704E-008   5.5773161104850087E-007   0.0000000000000000     
   2.2831443904307191E-015   3.2086570458076303E-007   0.0000000000000000     
   1.5027282733353380E-015   3.4732896452422999E-007   0.0000000000000000     
   3.4013686826630837E-016   3.7469792596674150E-007   0.0000000000000000     
  -9.7859302970063226E-016   4.0296665006557346E-007   0.0000000000000000     
  -2.2274246437394186E-015   4.3212919797800191E-007   0.0000000000000000     
  -3.1803212172640609E-015   4.6217963086130244E-007   0.0000000000000000     
  -3.6112459524393989E-015   4.9311200987275113E-007   0.0000000000000000     
  -3.2941620852550122E-015   5.2492039616962398E-007   0.0000000000000000     
  -2.0030328219575213E-015   5.5759885090919672E-007   0.0000000000000000     
   2.2387878759112056E-007   5.6599834743952889E-007   0.0000000000000000     
   2.3077917581503951E-007   5.9951616270187512E-007   0.0000000000000000     
   2.3764306709163823E-007   6.3388141362918158E-007   0.0000000000000000     
   2.4447094025241729E-007   6.6909095348548528E-007   0.0000000000000000     
   2.5126327412887766E-007   7.0514163553482505E-007   0.0000000000000000     
   2.5802054755252002E-007   7.4203031304123802E-007   0.0000000000000000     
   2.6474323935484526E-007   7.7975383926876258E-007   0.0000000000000000     
   2.7143182836735406E-007   8.1830906748143683E-007   0.0000000000000000     
   2.7808679342154737E-007   8.5769285094329852E-007   0.0000000000000000     
   1.9571291765855199E-007   5.6404034011159673E-007   0.0000000000000000     
   2.0175328461505592E-007   5.9756522814482154E-007   0.0000000000000000     
   2.0776081281643733E-007   6.3193827689441774E-007   0.0000000000000000     
   2.1373612998093450E-007   6.6715624398593886E-007   0.0000000000000000     
   2.1967986382678589E-007   7.0321588704493936E-007   0.0000000000000000     
   2.2559264207222978E-007   7.4011396369697244E-007   0.0000000000000000     
   2.3147509243550463E-007   7.7784723156759192E-007   0.0000000000000000     
   2.3732784263484873E-007   8.1641244828235184E-007   0.0000000000000000     
   2.4315152038850046E-007   8.5580637146680584E-007   0.0000000000000000     
   1.6761945588066751E-007   5.6233917952546295E-007   0.0000000000000000     
   1.7279879092830363E-007   5.9586969921103198E-007   0.0000000000000000     
   1.7794930708404939E-007   6.3024975378105234E-007   0.0000000000000000     
   1.8307169740703371E-007   6.6547582836039379E-007   0.0000000000000000     
   1.8816665495638560E-007   7.0154440807392525E-007   0.0000000000000000     
   1.9323487279123402E-007   7.3845197804651616E-007   0.0000000000000000     
   1.9827704397070785E-007   7.7619502340303546E-007   0.0000000000000000     
   2.0329386155393609E-007   8.1477002926835310E-007   0.0000000000000000     
   2.0828601860004770E-007   8.5417348076733768E-007   0.0000000000000000     
   1.3958805835631059E-007   5.6089616663331961E-007   0.0000000000000000     
   1.4390549517983530E-007   5.9443103035614674E-007   0.0000000000000000     
   1.4819844295733287E-007   6.2881722237670977E-007   0.0000000000000000     
   1.5246758848917002E-007   6.6405083690210807E-007   0.0000000000000000     
   1.5671361857571358E-007   7.0012796813944142E-007   0.0000000000000000     
   1.6093722001733007E-007   7.3704471029580918E-007   0.0000000000000000     
   1.6513907961438611E-007   7.7479715757831041E-007   0.0000000000000000     
   1.6931988416724860E-007   8.1338140419404583E-007   0.0000000000000000     
   1.7348032047628407E-007   8.5279354435011386E-007   0.0000000000000000     
   1.1160838118432499E-007   5.5971260238735959E-007   0.0000000000000000     
   1.1506319779470368E-007   5.9325067603580653E-007   0.0000000000000000     
   1.1849811349914632E-007   6.2764206076901373E-007   0.0000000000000000     
   1.2191374918579867E-007   6.6288239990434080E-007   0.0000000000000000     
   1.2531072574280635E-007   6.9896733675914670E-007   0.0000000000000000     
   1.2868966405831512E-007   7.3589251465079179E-007   0.0000000000000000     
   1.3205118502047065E-007   7.7365357689663514E-007   0.0000000000000000     
   1.3539590951741870E-007   8.1224616681403625E-007   0.0000000000000000     
   1.3872445843730494E-007   8.5166592772035483E-007   0.0000000000000000     
   8.3670080463554232E-008   5.5878978773977471E-007   0.0000000000000000     
   8.6261699197961501E-008   5.9233009070565131E-007   0.0000000000000000     
   8.8838211772348228E-008   6.2672564704558820E-007   0.0000000000000000     
   9.1400125455374575E-008   6.6197164766034978E-007   0.0000000000000000     
   9.3947947515700652E-008   6.9806328345070056E-007   0.0000000000000000     
   9.6482185221986622E-008   7.3499574531740461E-007   0.0000000000000000     
   9.9003345842892648E-008   7.7276422416122623E-007   0.0000000000000000     
   1.0151193664707884E-007   8.1136391088293002E-007   0.0000000000000000     
   1.0400846490320533E-007   8.5078999638328029E-007   0.0000000000000000     
   5.5762812292841922E-008   5.5812902364275765E-007   0.0000000000000000     
   5.7490799814661473E-008   5.9167072882132147E-007   0.0000000000000000     
   5.9208630839797088E-008   6.2606935929405717E-007   0.0000000000000000     
   6.0916663256352931E-008   6.6131971046339399E-007   0.0000000000000000     
   6.2615254952433138E-008   6.9741657773176106E-007   0.0000000000000000     
   6.4304763816141887E-008   7.3435475650158729E-007   0.0000000000000000     
   6.5985547735583254E-008   7.7212904217530150E-007   0.0000000000000000     
   6.7657964598861437E-008   8.1073423015533314E-007   0.0000000000000000     
   6.9322372294080512E-008   8.5016511584411027E-007   0.0000000000000000     
   2.7876232771031704E-008   5.5773161104850087E-007   0.0000000000000000     
   2.8740300069856290E-008   5.9127404483845719E-007   0.0000000000000000     
   2.9599263764351405E-008   6.2567457560204486E-007   0.0000000000000000     
   3.0453308547188869E-008   6.6092771860673209E-007   0.0000000000000000     
   3.1302619111040553E-008   6.9702798911998820E-007   0.0000000000000000     
   3.2147380148578213E-008   7.3396990240928078E-007   0.0000000000000000     
   3.2987776352473748E-008   7.7174797374207881E-007   0.0000000000000000     
   3.3823992415398943E-008   8.1035671838585116E-007   0.0000000000000000     
   3.4656213030025605E-008   8.4979065160806533E-007   0.0000000000000000     
  -2.0030328219575213E-015   5.5759885090919672E-007   0.0000000000000000     
   3.8859866823735685E-016   5.9114149321269876E-007   0.0000000000000000     
   3.6088696727403449E-015   6.2554267405717471E-007   0.0000000000000000     
   7.2863374816561879E-015   6.6079680238362231E-007   0.0000000000000000     
   1.1049559473597956E-014   6.9689828713303974E-007   0.0000000000000000     
   1.4527092965450368E-014   7.3384153724642484E-007   0.0000000000000000     
   1.7347495281852958E-014   7.7162096166477545E-007   0.0000000000000000     
   1.9139323775970069E-014   8.1023096932908976E-007   0.0000000000000000     
   1.9531135778477070E-014   8.4966596918036540E-007   0.0000000000000000     
   2.7808679342154737E-007   8.5769285094329852E-007   0.0000000000000000     
   2.8470852373436433E-007   8.9790182068897030E-007   0.0000000000000000     
   2.9129705006449834E-007   9.3893171883541419E-007   0.0000000000000000     
   2.9785231355608085E-007   9.8077806527017698E-007   0.0000000000000000     
   3.0437425535324360E-007   1.0234363798808064E-006   0.0000000000000000     
   3.1086281660011836E-007   1.0669021825548479E-006   0.0000000000000000     
   3.1731793844083673E-007   1.1111709931798492E-006   0.0000000000000000     
   3.2373956201953042E-007   1.1562383316433567E-006   0.0000000000000000     
   3.3012762848033119E-007   1.2020997178329174E-006   0.0000000000000000     
   2.4315152038850046E-007   8.5580637146680584E-007   0.0000000000000000     
   2.4894661941031354E-007   8.9602555035385068E-007   0.0000000000000000     
   2.5471309739660268E-007   9.3706570060575421E-007   0.0000000000000000     
   2.6045077803929820E-007   9.7892232949212832E-007   0.0000000000000000     
   2.6615948503033017E-007   1.0215909442825838E-006   0.0000000000000000     
   2.7183904206162879E-007   1.0650670522467317E-006   0.0000000000000000     
   2.7748927282512411E-007   1.1093461606541837E-006   0.0000000000000000     
   2.8311000101274642E-007   1.1544237767745502E-006   0.0000000000000000     
   2.8870105031642582E-007   1.2002954078774433E-006   0.0000000000000000     
   2.0828601860004770E-007   8.5417348076733768E-007   0.0000000000000000     
   2.1325405203310437E-007   8.9440171871095451E-007   0.0000000000000000     
   2.1819787423689966E-007   9.3545050665454970E-007   0.0000000000000000     
   2.2311724146015975E-007   9.7731546383956574E-007   0.0000000000000000     
   2.2801190995161105E-007   1.0199922095074443E-006   0.0000000000000000     
   2.3288163595997977E-007   1.0634763628996274E-006   0.0000000000000000     
   2.3772617573399213E-007   1.1077635432575573E-006   0.0000000000000000     
   2.4254528552237454E-007   1.1528493698226757E-006   0.0000000000000000     
   2.4733872157385318E-007   1.1987294618364252E-006   0.0000000000000000     
   1.7348032047628407E-007   8.5279354435011386E-007   0.0000000000000000     
   1.7762091615040765E-007   8.9302962620508485E-007   0.0000000000000000     
   1.8174156203272770E-007   9.3408551372340886E-007   0.0000000000000000     
   1.8584198977490107E-007   9.7595702482100576E-007   0.0000000000000000     
   1.8992193102858475E-007   1.0186399774137971E-006   0.0000000000000000     
   1.9398111744543543E-007   1.0621301894177023E-006   0.0000000000000000     
   1.9801928067710996E-007   1.1064234787486418E-006   0.0000000000000000     
   2.0203615237526529E-007   1.1515156633225371E-006   0.0000000000000000     
   2.0603146419155805E-007   1.1974025610553073E-006   0.0000000000000000     
   1.3872445843730494E-007   8.5166592772035483E-007   0.0000000000000000     
   1.4203730630989382E-007   8.9190857328104485E-007   0.0000000000000000     
   1.4533434223142522E-007   9.3297009855393960E-007   0.0000000000000000     
   1.4861530893975766E-007   9.7484656894496617E-007   0.0000000000000000     
   1.5187994917274968E-007   1.0175340498600522E-006   0.0000000000000000     
   1.5512800566825990E-007   1.0610286067051243E-006   0.0000000000000000     
   1.5835922116414686E-007   1.1053263048861105E-006   0.0000000000000000     
   1.6157333839826922E-007   1.1504232098089390E-006   0.0000000000000000     
   1.6477010010848547E-007   1.1963153868795359E-006   0.0000000000000000     
   1.0400846490320533E-007   8.5078999638328029E-007   0.0000000000000000     
   1.0649331705923367E-007   8.9103786038363809E-007   0.0000000000000000     
   1.0896639628033077E-007   9.3210363788775056E-007   0.0000000000000000     
   1.1142748491096484E-007   9.7398365271996223E-007   0.0000000000000000     
   1.1387636529560424E-007   1.0166742287046175E-006   0.0000000000000000     
   1.1631281977871716E-007   1.0601716896660601E-006   0.0000000000000000     
   1.1873663070477192E-007   1.1044723594286349E-006   0.0000000000000000     
   1.2114758041823682E-007   1.1495725618166849E-006   0.0000000000000000     
   1.2354545126358006E-007   1.1954686206545556E-006   0.0000000000000000     
   6.9322372294080512E-008   8.5016511584411027E-007   0.0000000000000000     
   7.0979042946097788E-008   8.9041678795766688E-007   0.0000000000000000     
   7.2627905626782788E-008   9.3148550846645008E-007   0.0000000000000000     
   7.4268803644758225E-008   9.7336783265451153E-007   0.0000000000000000     
   7.5901580308646867E-008   1.0160603158059042E-006   0.0000000000000000     
   7.7526078927071361E-008   1.0595595132046785E-006   0.0000000000000000     
   7.9142142808654341E-008   1.1038619801348865E-006   0.0000000000000000     
   8.0749615262018642E-008   1.1489642718805803E-006   0.0000000000000000     
   8.2348339595786805E-008   1.1948629437258117E-006   0.0000000000000000     
   3.4656213030025605E-008   8.4979065160806533E-007   0.0000000000000000     
   3.5484578518156743E-008   8.9004465644793500E-007   0.0000000000000000     
   3.6309051718119791E-008   9.3111508703164616E-007   0.0000000000000000     
   3.7129551097373361E-008   9.7299866525713100E-007   0.0000000000000000     
   3.7945995123376096E-008   1.0156921130223205E-006   0.0000000000000000     
   3.8758302263586561E-008   1.0591921522251461E-006   0.0000000000000000     
   3.9566390985463367E-008   1.1034955047635383E-006   0.0000000000000000     
   4.0370179756465171E-008   1.1485988925354291E-006   0.0000000000000000     
   4.1169587044050526E-008   1.1944990374387490E-006   0.0000000000000000     
   1.9531135778477070E-014   8.4966596918036540E-007   0.0000000000000000     
   1.8323081173881439E-014   8.8992076629924477E-007   0.0000000000000000     
   1.6001680216133179E-014   9.3099175032494725E-007   0.0000000000000000     
   1.3225045653005034E-014   9.7287570703633634E-007   0.0000000000000000     
   1.0651290269596274E-014   1.0155694222122765E-006   0.0000000000000000     
   8.9385268281036031E-015   1.0590696816316305E-006   0.0000000000000000     
   8.7448681394369111E-015   1.1033732710732620E-006   0.0000000000000000     
   1.0728426962123905E-014   1.1484769763160350E-006   0.0000000000000000     
   1.5547316100826999E-014   1.1943775831388137E-006   0.0000000000000000     
   3.3012762848033119E-007   1.2020997178329174E-006   0.0000000000000000     
   3.3648214289804899E-007   1.2487508874107977E-006   0.0000000000000000     
   3.4280336607020871E-007   1.2961884391381454E-006   0.0000000000000000     
   3.4909162272501321E-007   1.3444091875508266E-006   0.0000000000000000     
   3.5534723759066577E-007   1.3934099471847085E-006   0.0000000000000000     
   3.6157053539536931E-007   1.4431875325756577E-006   0.0000000000000000     
   3.6776184086732718E-007   1.4937387582595417E-006   0.0000000000000000     
   3.7392147873474244E-007   1.5450604387722271E-006   0.0000000000000000     
   3.8004977372581786E-007   1.5971493886495804E-006   0.0000000000000000     
   2.8870105031642582E-007   1.2002954078774433E-006   0.0000000000000000     
   2.9426233431322028E-007   1.2469567769570905E-006   0.0000000000000000     
   2.9979412612069944E-007   1.2944044699061889E-006   0.0000000000000000     
   3.0529678874156047E-007   1.3426352883420505E-006   0.0000000000000000     
   3.1077068517850104E-007   1.3916460338819910E-006   0.0000000000000000     
   3.1621617843421833E-007   1.4414335081433217E-006   0.0000000000000000     
   3.2163363151140974E-007   1.4919945127433572E-006   0.0000000000000000     
   3.2702340741277276E-007   1.5433258492994109E-006   0.0000000000000000     
   3.3238586914100465E-007   1.5954243194287954E-006   0.0000000000000000     
   2.4733872157385318E-007   1.1987294618364252E-006   0.0000000000000000     
   2.5210634234866175E-007   1.2453996183949798E-006   0.0000000000000000     
   2.5684841515306345E-007   1.2928563580134458E-006   0.0000000000000000     
   2.6156530950482879E-007   1.3410963790616628E-006   0.0000000000000000     
   2.6625739492172836E-007   1.3901163799094693E-006   0.0000000000000000     
   2.7092504092153263E-007   1.4399130589267039E-006   0.0000000000000000     
   2.7556861702201231E-007   1.4904831144832066E-006   0.0000000000000000     
   2.8018849274093773E-007   1.5418232449488156E-006   0.0000000000000000     
   2.8478503759607953E-007   1.5939301486933691E-006   0.0000000000000000     
   2.0603146419155805E-007   1.1974025610553073E-006   0.0000000000000000     
   2.1000505064524850E-007   1.2440801090735064E-006   0.0000000000000000     
   2.1395715772600901E-007   1.2915447213462196E-006   0.0000000000000000     
   2.1788813429111544E-007   1.3397929310531638E-006   0.0000000000000000     
   2.2179832919784348E-007   1.3888212713740592E-006   0.0000000000000000     
   2.2568809130346905E-007   1.4386262754886213E-006   0.0000000000000000     
   2.2955776946526771E-007   1.4892044765765692E-006   0.0000000000000000     
   2.3340771254051545E-007   1.5405524078176227E-006   0.0000000000000000     
   2.3723826938648776E-007   1.5926666023914963E-006   0.0000000000000000     
   1.6477010010848547E-007   1.1963153868795359E-006   0.0000000000000000     
   1.6794934284385553E-007   1.2429989463417126E-006   0.0000000000000000     
   1.7111127839824417E-007   1.2904701777908106E-006   0.0000000000000000     
   1.7425621237671777E-007   1.3387254156600563E-006   0.0000000000000000     
   1.7738445038434238E-007   1.3877609943826739E-006   0.0000000000000000     
   1.8049629802618414E-007   1.4375732483918888E-006   0.0000000000000000     
   1.8359206090730927E-007   1.4881585121209269E-006   0.0000000000000000     
   1.8667204463278406E-007   1.5395131200030129E-006   0.0000000000000000     
   1.8973655480767447E-007   1.5916334064713719E-006   0.0000000000000000     
   1.2354545126358006E-007   1.1954686206545556E-006   0.0000000000000000     
   1.2593010258535778E-007   1.2421568275486388E-006   0.0000000000000000     
   1.2830170172847709E-007   1.2896333452335220E-006   0.0000000000000000     
   1.3066049303793302E-007   1.3378943042258395E-006   0.0000000000000000     
   1.3300672085872045E-007   1.3869358350422281E-006   0.0000000000000000     
   1.3534062953583439E-007   1.4367540681993219E-006   0.0000000000000000     
   1.3766246341426983E-007   1.4873451342137570E-006   0.0000000000000000     
   1.3997246683902171E-007   1.5387051636021675E-006   0.0000000000000000     
   1.4227088415508492E-007   1.5908302868811904E-006   0.0000000000000000     
   8.2348339595786805E-008   1.1948629437258117E-006   0.0000000000000000     
   8.3938213510630383E-008   1.2415544500433273E-006   0.0000000000000000     
   8.5519352275415879E-008   1.2890348415606548E-006   0.0000000000000000     
   8.7091925551058542E-008   1.3373000680940166E-006   0.0000000000000000     
   8.8656102998473660E-008   1.3863460794596364E-006   0.0000000000000000     
   9.0212054278576575E-008   1.4361688254737371E-006   0.0000000000000000     
   9.1759949052282403E-008   1.4867642559525395E-006   0.0000000000000000     
   9.3299956980506580E-008   1.5381283207122687E-006   0.0000000000000000     
   9.4832247724164341E-008   1.5902569695691463E-006   0.0000000000000000     
   4.1169587044050526E-008   1.1944990374387490E-006   0.0000000000000000     
   4.1964559260548361E-008   1.2411925111748186E-006   0.0000000000000000     
   4.2755154597768652E-008   1.2886752846585115E-006   0.0000000000000000     
   4.3541459192391679E-008   1.3369431786080890E-006   0.0000000000000000     
   4.4323559181097764E-008   1.3859920137418142E-006   0.0000000000000000     
   4.5101540700567161E-008   1.4358176107779492E-006   0.0000000000000000     
   4.5875489887480120E-008   1.4864157904347557E-006   0.0000000000000000     
   4.6645492878516980E-008   1.5377823734304975E-006   0.0000000000000000     
   4.7411635810358016E-008   1.5899131804834343E-006   0.0000000000000000     
   1.5547316100826999E-014   1.1943775831388137E-006   0.0000000000000000     
   2.3475986701191443E-014   1.2410717082921551E-006   0.0000000000000000     
   3.3254243531927555E-014   1.2885552924133932E-006   0.0000000000000000     
   4.3238229719638838E-014   1.3368241071115567E-006   0.0000000000000000     
   5.1784088420293709E-014   1.3858739239956751E-006   0.0000000000000000     
   5.7247962751138192E-014   1.4357005146747744E-006   0.0000000000000000     
   5.7985995895851253E-014   1.4862996507578847E-006   0.0000000000000000     
   5.2354330952246635E-014   1.5376671038540340E-006   0.0000000000000000     
   3.8709111097418171E-014   1.5897986455722498E-006   0.0000000000000000     
   3.8004977372581786E-007   1.5971493886495804E-006   0.0000000000000000     
   3.8614698168693616E-007   1.6500022128546176E-006   0.0000000000000000     
   3.9221308293719764E-007   1.7036146780589486E-006   0.0000000000000000     
   3.9824798891388117E-007   1.7579823413613294E-006   0.0000000000000000     
   4.0425161105426649E-007   1.8131007598605198E-006   0.0000000000000000     
   4.1022386079563287E-007   1.8689654906552772E-006   0.0000000000000000     
   4.1616464957525985E-007   1.9255720908443593E-006   0.0000000000000000     
   4.2207388883042664E-007   1.9829161175265242E-006   0.0000000000000000     
   4.2795148999841274E-007   2.0409931278005306E-006   0.0000000000000000     
   3.3238586914100465E-007   1.5954243194287954E-006   0.0000000000000000     
   3.3772129576326348E-007   1.6482865230580394E-006   0.0000000000000000     
   3.4302963060454933E-007   1.7019082533505265E-006   0.0000000000000000     
   3.4831073305432301E-007   1.7562851017788568E-006   0.0000000000000000     
   3.5356446250204525E-007   1.8114126598156279E-006   0.0000000000000000     
   3.5879067833717663E-007   1.8672865189334387E-006   0.0000000000000000     
   3.6398923994917809E-007   1.9239022706048890E-006   0.0000000000000000     
   3.6916000672751048E-007   1.9812555063025760E-006   0.0000000000000000     
   3.7430283806163418E-007   2.0393418174990994E-006   0.0000000000000000     
   2.8478503759607953E-007   1.5939301486933691E-006   0.0000000000000000     
   2.8935853170137447E-007   1.6468003634764903E-006   0.0000000000000000     
   2.9390889755542299E-007   1.7004297846169304E-006   0.0000000000000000     
   2.9843596825299196E-007   1.7548141468232241E-006   0.0000000000000000     
   3.0293957688884809E-007   1.8099491848039077E-006   0.0000000000000000     
   3.0741955655775803E-007   1.8658306332675140E-006   0.0000000000000000     
   3.1187574035448876E-007   1.9224542269225802E-006   0.0000000000000000     
   3.1630796137380688E-007   1.9798157004776400E-006   0.0000000000000000     
   3.2071605271047906E-007   2.0379107886412278E-006   0.0000000000000000     
   2.3723826938648776E-007   1.5926666023914963E-006   0.0000000000000000     
   2.4104970217645034E-007   1.6455434965763324E-006   0.0000000000000000     
   2.4484192634762773E-007   1.6991791390439551E-006   0.0000000000000000     
   2.4861477065323418E-007   1.7535694815646120E-006   0.0000000000000000     
   2.5236806384648401E-007   1.8087104759085495E-006   0.0000000000000000     
   2.5610163468059158E-007   1.8645980738460155E-006   0.0000000000000000     
   2.5981531190877126E-007   1.9212282271472562E-006   0.0000000000000000     
   2.6350892428423733E-007   1.9785968875825192E-006   0.0000000000000000     
   2.6718230056020416E-007   2.0367000069220523E-006   0.0000000000000000     
   1.8973655480767447E-007   1.5916334064713719E-006   0.0000000000000000     
   1.9278581986367259E-007   1.6445156848239291E-006   0.0000000000000000     
   1.9581975953897296E-007   1.6981561838173994E-006   0.0000000000000000     
   1.9883821639839603E-007   1.7525511110731999E-006   0.0000000000000000     
   2.0184103300676224E-007   1.8076966742127472E-006   0.0000000000000000     
   2.0482805192889192E-007   1.8635890808574553E-006   0.0000000000000000     
   2.0779911572960550E-007   1.9202245386287412E-006   0.0000000000000000     
   2.1075406697372346E-007   1.9775992551480193E-006   0.0000000000000000     
   2.1369274822606610E-007   2.0357094380367074E-006   0.0000000000000000     
   1.4227088415508492E-007   1.5908302868811904E-006   0.0000000000000000     
   1.4455789743822238E-007   1.6437166906856414E-006   0.0000000000000000     
   1.4683343968726801E-007   1.6973607861230602E-006   0.0000000000000000     
   1.4909738163182383E-007   1.7517590404191697E-006   0.0000000000000000     
   1.5134959400149173E-007   1.8069079207996909E-006   0.0000000000000000     
   1.5358994752587353E-007   1.8628038944903462E-006   0.0000000000000000     
   1.5581831293457115E-007   1.9194434287168560E-006   0.0000000000000000     
   1.5803456095718656E-007   1.9768229907049436E-006   0.0000000000000000     
   1.6023856232332164E-007   2.0349390476803293E-006   0.0000000000000000     
   9.4832247724164341E-008   1.5902569695691463E-006   0.0000000000000000     
   9.6356947575281021E-008   1.6431462766278326E-006   0.0000000000000000     
   9.7874009350322278E-008   1.6967928131467354E-006   0.0000000000000000     
   9.9383342496863869E-008   1.7511932746727009E-006   0.0000000000000000     
   1.0088485646248155E-007   1.8063443567525747E-006   0.0000000000000000     
   1.0237846069475096E-007   1.8622427549332001E-006   0.0000000000000000     
   1.0386406464124799E-007   1.9188851647614254E-006   0.0000000000000000     
   1.0534157774954825E-007   1.9762682817840951E-006   0.0000000000000000     
   1.0681090946722757E-007   2.0343888015480543E-006   0.0000000000000000     
   4.7411635810358016E-008   1.5899131804834343E-006   0.0000000000000000     
   4.8173982950029916E-008   1.6428042051168652E-006   0.0000000000000000     
   4.8932511085945110E-008   1.6964521320742219E-006   0.0000000000000000     
   4.9687175136862425E-008   1.7508538189039733E-006   0.0000000000000000     
   5.0437930021540771E-008   1.8060061231545874E-006   0.0000000000000000     
   5.1184730658738878E-008   1.8619059023745302E-006   0.0000000000000000     
   5.1927531967215699E-008   1.9185500141122720E-006   0.0000000000000000     
   5.2666288865730004E-008   1.9759353159162778E-006   0.0000000000000000     
   5.3400956273040669E-008   2.0340586653350176E-006   0.0000000000000000     
   3.8709111097418171E-014   1.5897986455722498E-006   0.0000000000000000     
   1.6237650283834220E-014   1.6426902386191018E-006   0.0000000000000000     
  -1.2548054216292323E-014   1.6963386100913180E-006   0.0000000000000000     
  -4.4304834192865358E-014   1.7507406781831685E-006   0.0000000000000000     
  -7.5689521573514356E-014   1.8058933610889220E-006   0.0000000000000000     
  -1.0335894819363815E-013   1.8617935770028488E-006   0.0000000000000000     
  -1.2396994597140534E-013   1.9184382441192173E-006   0.0000000000000000     
  -1.3417934671415524E-013   1.9758242806322959E-006   0.0000000000000000     
  -1.3064398236307533E-013   2.0339486047363561E-006   0.0000000000000000     
   0.0000000000000000        0.0000000000000000        0.0000000000000000     
  -4.8417227157625426E-016  -7.1832326227512336E-010   0.0000000000000000     
  -6.5252438007442331E-016  -5.7024389368285102E-012   0.0000000000000000     
  -5.8846406988542679E-016   2.1060871718570570E-009   0.0000000000000000     
  -3.7539908560697947E-016   5.5852702719487034E-009   0.0000000000000000     
  -9.6737171009615531E-017   1.0400071563180290E-008   0.0000000000000000     
   1.6411392889535995E-016   1.6518715747393982E-008   0.0000000000000000     
   3.2374647095779826E-016   2.3909427526431949E-008   0.0000000000000000     
   2.9875271140716523E-016   3.2540431602136380E-008   0.0000000000000000     
   0.0000000000000000        0.0000000000000000        0.0000000000000000     
  -8.0939742176855299E-010  -7.0968655755411930E-010   0.0000000000000000     
  -1.6163306066304427E-009   1.0540666909203202E-011   0.0000000000000000     
  -2.4232164877739057E-009   2.1291713683775300E-009   0.0000000000000000     
  -3.2324719983871826E-009   5.6146952418384221E-009   0.0000000000000000     
  -4.0465140716585088E-009   1.0435601982279449E-008   0.0000000000000000     
  -4.8677596407761252E-009   1.6560381284688167E-008   0.0000000000000000     
  -5.6986256389282661E-009   2.3957522844052141E-008   0.0000000000000000     
  -6.5415289993031652E-009   3.2595516355358929E-008   0.0000000000000000     
   0.0000000000000000        0.0000000000000000        0.0000000000000000     
  -1.6171935942540248E-009  -6.8392047197562150E-010   0.0000000000000000     
  -3.2305325750284046E-009   5.9525102426884498E-011   0.0000000000000000     
  -4.8446386805427139E-009   2.1994667679277483E-009   0.0000000000000000     
  -6.4641336490165257E-009   5.7050345692471990E-009   0.0000000000000000     
  -8.0936392186694238E-009   1.0545358551105473E-008   0.0000000000000000     
  -9.7377771277209740E-009   1.6689568758222797E-008   0.0000000000000000     
  -1.1401169114390764E-008   2.4106795235319394E-008   0.0000000000000000     
  -1.3088436916898357E-008   3.2766168027115514E-008   0.0000000000000000     
   0.0000000000000000        0.0000000000000000        0.0000000000000000     
  -2.4217883165454962E-009  -6.4124086222190913E-010   0.0000000000000000     
  -4.8404786706646668E-009   1.4163377907530476E-010   0.0000000000000000     
  -7.2624735324041581E-009   2.3185377655222740E-009   0.0000000000000000     
  -9.6941753718106231E-009   5.8593849387496273E-009   0.0000000000000000     
  -1.2141986658930697E-008   1.0734089140387999E-008   0.0000000000000000     
  -1.4612309863811048E-008   1.6912564212068017E-008   0.0000000000000000     
  -1.7111547456498314E-008   2.4364723995420309E-008   0.0000000000000000     
  -1.9646101907039132E-008   3.3060482332075516E-008   0.0000000000000000     
   0.0000000000000000        0.0000000000000000        0.0000000000000000     
  -3.2215809035597745E-009  -5.8186358497526300E-010   0.0000000000000000     
  -6.4440410064856290E-009   2.5724960831355398E-010   0.0000000000000000     
  -9.6749274089919121E-009   2.4879487561756708E-009   0.0000000000000000     
  -1.2921787211292964E-008   6.0808430349203043E-009   0.0000000000000000     
  -1.6192167513603130E-008   1.1006541620856669E-008   0.0000000000000000     
  -1.9493615416136747E-008   1.7235653690293982E-008   0.0000000000000000     
  -2.2833678019108191E-008   2.4738788419541476E-008   0.0000000000000000     
  -2.6219902422731765E-008   3.3486554984908342E-008   0.0000000000000000     
   0.0000000000000000        0.0000000000000000        0.0000000000000000     
  -4.0149706702136675E-009  -5.0600449691796246E-010   0.0000000000000000     
  -8.0390916954376948E-009   4.0675550160072245E-010   0.0000000000000000     
  -1.2080206675939636E-008   2.7092641349025008E-009   0.0000000000000000     
  -1.6146159211987044E-008   6.3725055423338181E-009   0.0000000000000000     
  -2.0244792903847484E-008   1.1367463863241127E-008   0.0000000000000000     
  -2.4383951351788515E-008   1.7665123236970860E-008   0.0000000000000000     
  -2.8571478156077671E-008   2.5236467802869462E-008   0.0000000000000000     
  -3.2815216916982519E-008   3.4052481700283395E-008   0.0000000000000000     
   0.0000000000000000        0.0000000000000000        0.0000000000000000     
  -4.8003569314239856E-009  -4.1387945473228752E-010   0.0000000000000000     
  -9.6235028504672613E-009   5.9053437039589945E-010   0.0000000000000000     
  -1.4476517698881003E-008   2.9840482967173306E-009   0.0000000000000000     
  -1.9366481418416373E-008   6.7374691455647742E-009   0.0000000000000000     
  -2.4300473950824561E-008   1.1821603738271008E-008   0.0000000000000000     
  -2.9285575237856727E-008   1.8207258896168788E-008   0.0000000000000000     
  -3.4328865221264040E-008   2.5865241440590885E-008   0.0000000000000000     
  -3.9437423842797680E-008   3.4766358192870080E-008   0.0000000000000000     
   0.0000000000000000        0.0000000000000000        0.0000000000000000     
  -5.5761390021075307E-009  -3.0570431510051757E-010   0.0000000000000000     
  -1.1195146584520730E-008   8.0896912615817443E-010   0.0000000000000000     
  -1.6862066843449677E-008   3.3138656366347202E-009   0.0000000000000000     
  -2.2581943875104455E-008   7.1788305291877651E-009   0.0000000000000000     
  -2.8359821775695137E-008   1.2373709116675947E-008   0.0000000000000000     
  -3.4200744641431827E-008   1.8868346711957922E-008   0.0000000000000000     
  -4.0109756568524578E-008   2.6632588627892321E-008   0.0000000000000000     
  -4.6091901653183493E-008   3.5636280177337795E-008   0.0000000000000000     
   0.0000000000000000        0.0000000000000000        0.0000000000000000     
  -6.3407161971811157E-009  -1.8169493470493253E-010   0.0000000000000000     
  -1.2751895010544500E-008   1.0624426803466373E-009   0.0000000000000000     
  -1.9235060475279331E-008   3.7002805496692346E-009   0.0000000000000000     
  -2.5791736626574768E-008   7.6996863777773797E-009   0.0000000000000000     
  -3.2423447499620007E-008   1.3028527869185600E-008   0.0000000000000000     
  -3.9131717129604222E-008   1.9654672728408419E-008   0.0000000000000000     
  -4.5918069551716565E-008   2.7545988659960348E-008   0.0000000000000000     
  -5.2784028801146248E-008   3.6670343368355931E-008   0.0000000000000000     
   2.9875271140716523E-016   3.2540431602136380E-008   0.0000000000000000     
   3.3377192459056418E-017   4.2381652480658392E-008   0.0000000000000000     
  -4.1752638013257297E-016   5.3409813885384981E-008   0.0000000000000000     
  -9.7145202111583593E-016   6.5603339344012063E-008   0.0000000000000000     
  -1.5458937408702979E-015   7.8940652384235586E-008   0.0000000000000000     
  -2.0583455410707407E-015   9.3400176533751531E-008   0.0000000000000000     
  -2.4263014409113731E-015   1.0896033532025579E-007   0.0000000000000000     
  -2.5672554495532040E-015   1.2559955227144426E-007   0.0000000000000000     
  -2.3987015745303460E-015   1.4329625091501303E-007   0.0000000000000000     
  -6.5415289993031652E-009   3.2595516355358929E-008   0.0000000000000000     
  -7.3981572742985206E-009   4.2444458689444373E-008   0.0000000000000000     
  -8.2672804931497986E-009   5.3480875420537350E-008   0.0000000000000000     
  -9.1469393043019013E-009   6.5682899298715007E-008   0.0000000000000000     
  -1.0035174356199764E-008   7.9028663074054523E-008   0.0000000000000000     
  -1.0930026297288296E-008   9.3496299496632998E-008   0.0000000000000000     
  -1.1829535776012432E-008   1.0906394131652764E-007   0.0000000000000000     
  -1.2731743440817064E-008   1.2570972128381559E-007   0.0000000000000000     
  -1.3634689940147123E-008   1.4341177214857395E-007   0.0000000000000000     
  -1.3088436916898357E-008   3.2766168027115514E-008   0.0000000000000000     
  -1.4802790357157414E-008   4.2638191762091847E-008   0.0000000000000000     
  -1.6541791591857843E-008   5.3698869403771035E-008   0.0000000000000000     
  -1.8301590861383643E-008   6.5925578499436204E-008   0.0000000000000000     
  -2.0078338406118809E-008   7.9295696596370388E-008   0.0000000000000000     
  -2.1868184466447336E-008   9.3786601241856758E-008   0.0000000000000000     
  -2.3667279282753219E-008   1.0937566998317837E-007   0.0000000000000000     
  -2.5471773095420454E-008   1.2604028036761843E-007   0.0000000000000000     
  -2.7277816144833014E-008   1.4375780994245997E-007   0.0000000000000000     
  -1.9646101907039132E-008   3.3060482332075516E-008   0.0000000000000000     
  -2.2220374863532100E-008   4.2970823020196529E-008   0.0000000000000000     
  -2.4830764686283478E-008   5.4071009684075449E-008   0.0000000000000000     
  -2.7471668913651492E-008   6.6337375904536562E-008   0.0000000000000000     
  -3.0137485083994301E-008   7.9746255262404206E-008   0.0000000000000000     
  -3.2822610735670168E-008   9.4273981338502779E-008   0.0000000000000000     
  -3.5521443407037265E-008   1.0989688771365653E-007   0.0000000000000000     
  -3.8228380636453799E-008   1.2659130796868978E-007   0.0000000000000000     
  -4.0937819962277971E-008   1.4433357568442699E-007   0.0000000000000000     
  -2.6219902422731765E-008   3.3486554984908342E-008   0.0000000000000000     
  -2.9657386441755213E-008   4.3450323785354188E-008   0.0000000000000000     
  -3.3141430749059661E-008   5.4604510110439988E-008   0.0000000000000000     
  -3.6664886732059654E-008   6.6924290472377150E-008   0.0000000000000000     
  -4.0220605778169695E-008   8.0384841383377045E-008   0.0000000000000000     
  -4.3801439274804296E-008   9.4961339355651040E-008   0.0000000000000000     
  -4.7400238609378012E-008   1.1062896090141048E-007   0.0000000000000000     
  -5.1009855169305324E-008   1.2736288253286676E-007   0.0000000000000000     
  -5.4623140342000766E-008   1.4513828076223129E-007   0.0000000000000000     
  -3.2815216916982519E-008   3.4052481700283395E-008   0.0000000000000000     
  -3.7120300740159360E-008   4.4084665379160491E-008   0.0000000000000000     
  -4.1481020752819338E-008   5.5306584531854092E-008   0.0000000000000000     
  -4.5888957587562388E-008   6.7692321161318955E-008   0.0000000000000000     
  -5.0335691876988379E-008   8.1215957270509852E-008   0.0000000000000000     
  -5.4812804253697273E-008   9.5851574862381548E-008   0.0000000000000000     
  -5.9311875350288872E-008   1.1157325593988874E-007   0.0000000000000000     
  -6.3824485799363179E-008   1.2835508250598611E-007   0.0000000000000000     
  -6.8342216233520082E-008   1.4617113656362868E-007   0.0000000000000000     
  -3.9437423842797680E-008   3.4766358192870080E-008   0.0000000000000000     
  -4.4615593407077152E-008   4.4881819123211182E-008   0.0000000000000000     
  -4.9856765670195472E-008   5.6184446797307142E-008   0.0000000000000000     
  -5.5151594751113930E-008   6.8647466929722992E-008   0.0000000000000000     
  -6.0490734768793821E-008   8.2244105235023680E-008   0.0000000000000000     
  -6.5864839842196534E-008   9.6947587427774270E-008   0.0000000000000000     
  -7.1264564090283379E-008   1.1273113922253974E-007   0.0000000000000000     
  -7.6680561632015598E-008   1.2956798633388505E-007   0.0000000000000000     
  -8.2103486586354634E-008   1.4743135447637531E-007   0.0000000000000000     
  -4.6091901653183493E-008   3.5636280177337795E-008   0.0000000000000000     
  -5.2149740090841256E-008   4.5849756339101989E-008   0.0000000000000000     
  -5.8275896473821004E-008   5.7245310755788573E-008   0.0000000000000000     
  -6.4460511493668494E-008   6.9795726735950198E-008   0.0000000000000000     
  -7.0693725841929474E-008   8.3473787588139542E-008   0.0000000000000000     
  -7.6965680210149675E-008   9.8252276620909237E-008   0.0000000000000000     
  -8.3266515289874872E-008   1.1410397714281201E-007   0.0000000000000000     
  -8.9586371772650830E-008   1.3100167246240053E-007   0.0000000000000000     
  -9.5915390350023231E-008   1.4891814588822729E-007   0.0000000000000000     
  -5.2784028801146248E-008   3.6670343368355931E-008   0.0000000000000000     
  -5.9729216439784225E-008   4.6996448348428627E-008   0.0000000000000000     
  -6.6745644136328894E-008   5.8496390256287760E-008   0.0000000000000000     
  -7.3823421086180339E-008   7.1143099538361600E-008   0.0000000000000000     
  -8.0952656484738698E-008   8.4909506641078387E-008   0.0000000000000000     
  -8.8123459527404163E-008   9.9768542010866458E-008   0.0000000000000000     
  -9.5325939409576859E-008   1.1569313609415400E-007   0.0000000000000000     
  -1.0255020532665694E-007   1.3265621933736927E-007   0.0000000000000000     
  -1.0978636647404458E-007   1.5063072218694072E-007   0.0000000000000000     
  -2.3987015745303460E-015   1.4329625091501303E-007   0.0000000000000000     
  -1.8727228579845311E-015   1.6202986200574384E-007   0.0000000000000000     
  -1.0797585132569238E-015   1.8178384520676239E-007   0.0000000000000000     
  -1.4483677283715875E-016   2.0254266740828012E-007   0.0000000000000000     
   8.0701411951479347E-016   2.2429079550050878E-007   0.0000000000000000     
   1.6507659208015195E-015   2.4701269637365982E-007   0.0000000000000000     
   2.2613904003686917E-015   2.7069283691794487E-007   0.0000000000000000     
   2.5138593027966471E-015   2.9531568402357540E-007   0.0000000000000000     
   2.2831443904307191E-015   3.2086570458076303E-007   0.0000000000000000     
  -1.3634689940147123E-008   1.4341177214857395E-007   0.0000000000000000     
  -1.4536742018967139E-008   1.6214932299945436E-007   0.0000000000000000     
  -1.5437570808320121E-008   1.8190598827940575E-007   0.0000000000000000     
  -1.6337173535768679E-008   2.0266647876995156E-007   0.0000000000000000     
  -1.7235547428875427E-008   2.2441550525261534E-007   0.0000000000000000     
  -1.8132689715202984E-008   2.4713777850892033E-007   0.0000000000000000     
  -1.9028597622313970E-008   2.7081800932039023E-007   0.0000000000000000     
  -1.9923268377770995E-008   2.9544090846854815E-007   0.0000000000000000     
  -2.0816699209136670E-008   3.2099118673491779E-007   0.0000000000000000     
  -2.7277816144833014E-008   1.4375780994245997E-007   0.0000000000000000     
  -2.9082193314196576E-008   1.6250696650858031E-007   0.0000000000000000     
  -3.0884228058003407E-008   1.8227177888123388E-007   0.0000000000000000     
  -3.2683878473567416E-008   2.0303760612926919E-007   0.0000000000000000     
  -3.4481102658202578E-008   2.2478980732153488E-007   0.0000000000000000     
  -3.6275858709222792E-008   2.4751374152687958E-007   0.0000000000000000     
  -3.8068104723942001E-008   2.7119476781415183E-007   0.0000000000000000     
  -3.9857798799674144E-008   2.9581824525220030E-007   0.0000000000000000     
  -4.1644899033733144E-008   3.2136953290987350E-007   0.0000000000000000     
  -4.0937819962277971E-008   1.4433357568442699E-007   0.0000000000000000     
  -4.3645067087595306E-008   1.6310168329890982E-007   0.0000000000000000     
  -4.6349060374400355E-008   1.8288025867904905E-007   0.0000000000000000     
  -4.9049646349415052E-008   2.0365558854897330E-007   0.0000000000000000     
  -5.1746671539361303E-008   2.2541395963281076E-007   0.0000000000000000     
  -5.4439982470960990E-008   2.4814165865468985E-007   0.0000000000000000     
  -5.7129425670936030E-008   2.7182497233873874E-007   0.0000000000000000     
  -5.9814847666008293E-008   2.9645018740908608E-007   0.0000000000000000     
  -6.2496094982899655E-008   3.2200359058985971E-007   0.0000000000000000     
  -5.4623140342000766E-008   1.4513828076223129E-007   0.0000000000000000     
  -5.8234074668347464E-008   1.6393236413623078E-007   0.0000000000000000     
  -6.1841155303103022E-008   1.8373046933965378E-007   0.0000000000000000     
  -6.5444008554493697E-008   2.0451996509180428E-007   0.0000000000000000     
  -6.9042260730745654E-008   2.2628822011198617E-007   0.0000000000000000     
  -7.2635538140085149E-008   2.4902260311950339E-007   0.0000000000000000     
  -7.6223467090738345E-008   2.7271048283365985E-007   0.0000000000000000     
  -7.9805673890931566E-008   2.9733922797375960E-007   0.0000000000000000     
  -8.3381784848890950E-008   3.2289620725910639E-007   0.0000000000000000     
  -6.8342216233520082E-008   1.4617113656362868E-007   0.0000000000000000     
  -7.2857927385637203E-008   1.6499789978633121E-007   0.0000000000000000     
  -7.7369600389703397E-008   1.8482145252985025E-007   0.0000000000000000     
  -8.1876496479985352E-008   2.0563027482050238E-007   0.0000000000000000     
  -8.6377876890749569E-008   2.2741284668460429E-007   0.0000000000000000     
  -9.0873002856262658E-008   2.5015764814847265E-007   0.0000000000000000     
  -9.5361135610791292E-008   2.7385315923842416E-007   0.0000000000000000     
  -9.9841536388602079E-008   2.9848785998077530E-007   0.0000000000000000     
  -1.0431346642396160E-007   3.2405023040184305E-007   0.0000000000000000     
  -8.2103486586354634E-008   1.4743135447637531E-007   0.0000000000000000     
  -8.7525336568648646E-008   1.6629718101499928E-007   0.0000000000000000     
  -9.2943483179793562E-008   1.8615224991644093E-007   0.0000000000000000     
  -9.8356641517072063E-008   2.0698605679780804E-007   0.0000000000000000     
  -1.0376352667776699E-007   2.2878809727620845E-007   0.0000000000000000     
  -1.0916285375916111E-007   2.5154786696875003E-007   0.0000000000000000     
  -1.1455333785853714E-007   2.7525486149254054E-007   0.0000000000000000     
  -1.1993369407317798E-007   2.9989857646468768E-007   0.0000000000000000     
  -1.2530263750036621E-007   3.2546850750229938E-007   0.0000000000000000     
  -9.5915390350023231E-008   1.4891814588822729E-007   0.0000000000000000     
  -1.0224501354656604E-007   1.6782909858802287E-007   0.0000000000000000     
  -1.0857189121896547E-007   1.8772190316622803E-007   0.0000000000000000     
  -1.1489397505693595E-007   2.0858685008646144E-007   0.0000000000000000     
  -1.2120921675019201E-007   2.3041422981234200E-007   0.0000000000000000     
  -1.2751556798844796E-007   2.5319433280748789E-007   0.0000000000000000     
  -1.3381098046141827E-007   2.7691744953551792E-007   0.0000000000000000     
  -1.4009340585881742E-007   3.0157387046005099E-007   0.0000000000000000     
  -1.4636079587035965E-007   3.2715388604470510E-007   0.0000000000000000     
  -1.0978636647404458E-007   1.5063072218694072E-007   0.0000000000000000     
  -1.1702566964857339E-007   1.6959254327119002E-007   0.0000000000000000     
  -1.2426391205281113E-007   1.8952945394601407E-007   0.0000000000000000     
  -1.3149802849075911E-007   2.1043219374920324E-007   0.0000000000000000     
  -1.3872495376641858E-007   2.3229150221854794E-007   0.0000000000000000     
  -1.4594162268379072E-007   2.5509811889183861E-007   0.0000000000000000     
  -1.5314497004687701E-007   2.7884278330686554E-007   0.0000000000000000     
  -1.6033193065967841E-007   3.0351623500141921E-007   0.0000000000000000     
  -1.6749943932619643E-007   3.2910921351329007E-007   0.0000000000000000     
   2.2831443904307191E-015   3.2086570458076303E-007   0.0000000000000000     
   1.5027282733353380E-015   3.4732896452422999E-007   0.0000000000000000     
   3.4013686826630837E-016   3.7469792596674150E-007   0.0000000000000000     
  -9.7859302970063226E-016   4.0296665006557346E-007   0.0000000000000000     
  -2.2274246437394186E-015   4.3212919797800191E-007   0.0000000000000000     
  -3.1803212172640609E-015   4.6217963086130244E-007   0.0000000000000000     
  -3.6112459524393989E-015   4.9311200987275113E-007   0.0000000000000000     
  -3.2941620852550122E-015   5.2492039616962398E-007   0.0000000000000000     
  -2.0030328219575213E-015   5.5759885090919672E-007   0.0000000000000000     
  -2.0816699209136670E-008   3.2099118673491779E-007   0.0000000000000000     
  -2.1708803476996330E-008   3.4745509250964082E-007   0.0000000000000000     
  -2.2599159074026164E-008   3.7482502461733273E-007   0.0000000000000000     
  -2.3487260025924963E-008   4.0309491949122728E-007   0.0000000000000000     
  -2.4372600358391681E-008   4.3225871356455865E-007   0.0000000000000000     
  -2.5254674097125108E-008   4.6231034327056015E-007   0.0000000000000000     
  -2.6132975267824143E-008   4.9324374504246628E-007   0.0000000000000000     
  -2.7006997896187693E-008   5.2505285531351044E-007   0.0000000000000000     
  -2.7876236007914547E-008   5.5773161051692650E-007   0.0000000000000000     
  -4.1644899033733144E-008   3.2136953290987350E-007   0.0000000000000000     
  -4.3429206334464503E-008   3.4783536667669139E-007   0.0000000000000000     
  -4.5209892854339921E-008   3.7520798972485950E-007   0.0000000000000000     
  -4.6985973556862729E-008   4.0348102204725476E-007   0.0000000000000000     
  -4.8756463405536150E-008   4.3264808363675419E-007   0.0000000000000000     
  -5.0520377363863546E-008   4.6270279448623440E-007   0.0000000000000000     
  -5.2276730395348127E-008   4.9363877458857256E-007   0.0000000000000000     
  -5.4024537463493203E-008   5.2544964393664518E-007   0.0000000000000000     
  -5.5762813531802103E-008   5.5812902252332971E-007   0.0000000000000000     
  -6.2496094982899655E-008   3.2200359058985971E-007   0.0000000000000000     
  -6.5172804598781594E-008   3.4847262054076110E-007   0.0000000000000000     
  -6.7843775292623440E-008   3.7584932366378060E-007   0.0000000000000000     
  -7.0507596293844043E-008   4.0412689829648194E-007   0.0000000000000000     
  -7.3162856831862387E-008   4.3329854277642857E-007   0.0000000000000000     
  -7.5808146136097336E-008   4.6335745544118359E-007   0.0000000000000000     
  -7.8442053435967715E-008   4.9429683462831043E-007   0.0000000000000000     
  -8.1063167960892519E-008   5.2610987867537290E-007   0.0000000000000000     
  -8.3670078940290533E-008   5.5878978591993395E-007   0.0000000000000000     
  -8.3381784848890950E-008   3.2289620725910639E-007   0.0000000000000000     
  -8.6951195799053045E-008   3.4936968761722914E-007   0.0000000000000000     
  -9.0512380680695620E-008   3.7675152880855448E-007   0.0000000000000000     
  -9.4063582959306827E-008   4.0503448880173468E-007   0.0000000000000000     
  -9.7603046100374713E-008   4.3421132556542129E-007   0.0000000000000000     
  -1.0112901356938735E-007   4.6427479706826619E-007   0.0000000000000000     
  -1.0463972883183292E-007   4.9521766127892122E-007   0.0000000000000000     
  -1.0813343535319947E-007   5.2703267616603788E-007   0.0000000000000000     
  -1.1160837659897509E-007   5.5971259969826842E-007   0.0000000000000000     
  -1.0431346642396160E-007   3.2405023040184305E-007   0.0000000000000000     
  -1.0877597746438422E-007   3.5052940142147460E-007   0.0000000000000000     
  -1.1322728331037551E-007   3.7791710753363946E-007   0.0000000000000000     
  -1.1766538827568877E-007   4.0620573412583867E-007   0.0000000000000000     
  -1.2208829667407731E-007   4.3538766658557218E-007   0.0000000000000000     
  -1.2649401281929456E-007   4.6545529030034084E-007   0.0000000000000000     
  -1.3088054102509358E-007   4.9640099065764476E-007   0.0000000000000000     
  -1.3524588560522794E-007   5.2821715304498470E-007   0.0000000000000000     
  -1.3958805087345081E-007   5.6089616284986082E-007   0.0000000000000000     
  -1.2530263750036621E-007   3.2546850750229938E-007   0.0000000000000000     
  -1.3065874712388057E-007   3.5195459546887680E-007   0.0000000000000000     
  -1.3600005747348207E-007   3.7934856221349427E-007   0.0000000000000000     
  -1.4132446696542774E-007   4.0764257483161963E-007   0.0000000000000000     
  -1.4662987401597462E-007   4.3682880041872101E-007   0.0000000000000000     
  -1.5191417704137954E-007   4.6689940607026588E-007   0.0000000000000000     
  -1.5717527445789957E-007   4.9784655888172195E-007   0.0000000000000000     
  -1.6241106468179165E-007   5.2966242594855763E-007   0.0000000000000000     
  -1.6761944612931267E-007   5.6233917436624001E-007   0.0000000000000000     
  -1.4636079587035965E-007   3.2715388604470510E-007   0.0000000000000000     
  -1.5261110230664744E-007   3.5364810327481523E-007   0.0000000000000000     
  -1.5884227746183425E-007   3.8104839522257732E-007   0.0000000000000000     
  -1.6505227375096149E-007   4.0934695148190388E-007   0.0000000000000000     
  -1.7123904358907082E-007   4.3853596164670751E-007   0.0000000000000000     
  -1.7740053939120339E-007   4.6860761531089989E-007   0.0000000000000000     
  -1.8353471357240083E-007   4.9955410206839368E-007   0.0000000000000000     
  -1.8963951854770463E-007   5.3136761151310084E-007   0.0000000000000000     
  -1.9571290673215593E-007   5.6404033323893349E-007   0.0000000000000000     
  -1.6749943932619643E-007   3.2910921351329007E-007   0.0000000000000000     
  -1.7464464054179023E-007   3.5561275835466873E-007   0.0000000000000000     
  -1.8176551756725104E-007   3.8301910893534703E-007   0.0000000000000000     
  -1.8886026335472796E-007   4.1132080463951719E-007   0.0000000000000000     
  -1.9592707085637021E-007   4.4051038485137133E-007   0.0000000000000000     
  -2.0296413302432691E-007   4.7058038895510165E-007   0.0000000000000000     
  -2.0996964281074737E-007   5.0152335633490010E-007   0.0000000000000000     
  -2.1694179316778055E-007   5.3333182637495902E-007   0.0000000000000000     
  -2.2387877704757575E-007   5.6599833845947055E-007   0.0000000000000000     
  -2.0030328219575213E-015   5.5759885090919672E-007   0.0000000000000000     
   3.8859866823735685E-016   5.9114149321269876E-007   0.0000000000000000     
   3.6088696727403449E-015   6.2554267405717471E-007   0.0000000000000000     
   7.2863374816561879E-015   6.6079680238362231E-007   0.0000000000000000     
   1.1049559473597956E-014   6.9689828713303974E-007   0.0000000000000000     
   1.4527092965450368E-014   7.3384153724642484E-007   0.0000000000000000     
   1.7347495281852958E-014   7.7162096166477545E-007   0.0000000000000000     
   1.9139323775970069E-014   8.1023096932908976E-007   0.0000000000000000     
   1.9531135778477070E-014   8.4966596918036540E-007   0.0000000000000000     
  -2.7876236007914547E-008   5.5773161051692650E-007   0.0000000000000000     
  -2.8740298851865853E-008   5.9127404357793791E-007   0.0000000000000000     
  -2.9599256569551599E-008   6.2567457338972577E-007   0.0000000000000000     
  -3.0453294525644019E-008   6.6092771533746063E-007   0.0000000000000000     
  -3.1302598084815338E-008   6.9702798480631314E-007   0.0000000000000000     
  -3.2147352611737746E-008   7.3396989718145367E-007   0.0000000000000000     
  -3.2987743471083546E-008   7.7174796784805277E-007   0.0000000000000000     
  -3.3823956027524929E-008   8.1035671219128121E-007   0.0000000000000000     
  -3.4656175645734114E-008   8.4979064559630945E-007   0.0000000000000000     
  -5.5762813531802103E-008   5.5812902252332971E-007   0.0000000000000000     
  -5.7490797465520480E-008   5.9167072628107146E-007   0.0000000000000000     
  -5.9208623736863819E-008   6.2606935490059458E-007   0.0000000000000000     
  -6.0916650719790046E-008   6.6131970401219117E-007   0.0000000000000000     
  -6.2615236788256978E-008   6.9741656924615365E-007   0.0000000000000000     
  -6.4304740316222587E-008   7.3435474623277468E-007   0.0000000000000000     
  -6.5985519677644763E-008   7.7212903060234678E-007   0.0000000000000000     
  -6.7657933246481378E-008   8.1073421798516237E-007   0.0000000000000000     
  -6.9322339396690294E-008   8.5016510401151411E-007   0.0000000000000000     
  -8.3670078940290533E-008   5.5878978591993395E-007   0.0000000000000000     
  -8.6261695314155534E-008   5.9233008684724799E-007   0.0000000000000000     
  -8.8838204864780395E-008   6.2672564053333262E-007   0.0000000000000000     
  -9.1400115085032848E-008   6.6197163820189549E-007   0.0000000000000000     
  -9.3947933467780666E-008   6.9806327107664547E-007   0.0000000000000000     
  -9.6482167505891487E-008   7.3499573038129000E-007   0.0000000000000000     
  -9.9003324692232992E-008   7.7276420733953740E-007   0.0000000000000000     
  -1.0151191251967304E-007   8.1136389317509661E-007   0.0000000000000000     
  -1.0400843848107927E-007   8.5078997911167509E-007   0.0000000000000000     
  -1.1160837659897509E-007   5.5971259969826842E-007   0.0000000000000000     
  -1.1506319225956148E-007   5.9325067080161609E-007   0.0000000000000000     
  -1.1849810692501482E-007   6.2764205223149115E-007   0.0000000000000000     
  -1.2191374141030491E-007   6.6288238770065570E-007   0.0000000000000000     
  -1.2531071653040140E-007   6.9896732092187163E-007   0.0000000000000000     
  -1.2868965310027418E-007   7.3589249560790073E-007   0.0000000000000000     
  -1.3205117193489296E-007   7.7365355547150531E-007   0.0000000000000000     
  -1.3539589384922754E-007   8.1224614422544716E-007   0.0000000000000000     
  -1.3872443965824770E-007   8.5166590558248828E-007   0.0000000000000000     
  -1.3958805087345081E-007   5.6089616284986082E-007   0.0000000000000000     
  -1.4390548816352862E-007   5.9443102366932381E-007   0.0000000000000000     
  -1.4819843688928036E-007   6.2881721193862165E-007   0.0000000000000000     
  -1.5246758348453827E-007   6.6405082230255290E-007   0.0000000000000000     
  -1.5671361438313427E-007   7.0012794940591569E-007   0.0000000000000000     
  -1.6093721601890058E-007   7.3704468789350879E-007   0.0000000000000000     
  -1.6513907482566923E-007   7.7479713241012960E-007   0.0000000000000000     
  -1.6931987723727234E-007   8.1338137760057687E-007   0.0000000000000000     
  -1.7348030968754207E-007   8.5279351810964906E-007   0.0000000000000000     
  -1.6761944612931267E-007   5.6233917436624001E-007   0.0000000000000000     
  -1.7279878288784732E-007   5.9586969097551963E-007   0.0000000000000000     
  -1.7794930172929061E-007   6.3024974159827529E-007   0.0000000000000000     
  -1.8307169509666540E-007   6.6547581180166888E-007   0.0000000000000000     
  -1.8816665543299449E-007   7.0154438715286176E-007   0.0000000000000000     
  -1.9323487518130059E-007   7.3845195321901518E-007   0.0000000000000000     
  -1.9827704678460644E-007   7.7619499556729029E-007   0.0000000000000000     
  -2.0329386268593501E-007   8.1476999976484961E-007   0.0000000000000000     
  -2.0828601532830874E-007   8.5417345137885291E-007   0.0000000000000000     
  -1.9571290673215593E-007   5.6404033323893349E-007   0.0000000000000000     
  -2.0175327629430797E-007   5.9756521824535182E-007   0.0000000000000000     
  -2.0776080841675881E-007   6.3193826315400364E-007   0.0000000000000000     
  -2.1373613003561855E-007   6.6715622599208561E-007   0.0000000000000000     
  -2.1967986808699705E-007   7.0321586478679286E-007   0.0000000000000000     
  -2.2559264950700401E-007   7.4011393756532161E-007   0.0000000000000000     
  -2.3147510123174935E-007   7.7784720235486796E-007   0.0000000000000000     
  -2.3732785019734301E-007   8.1641241718262779E-007   0.0000000000000000     
  -2.4315152333989460E-007   8.5580634007579605E-007   0.0000000000000000     
  -2.2387877704757575E-007   5.6599833845947055E-007   0.0000000000000000     
  -2.3077916824470089E-007   5.9951615100396906E-007   0.0000000000000000     
  -2.3764306392339855E-007   6.3388139854935841E-007   0.0000000000000000     
  -2.4447094209033008E-007   6.6909093466788423E-007   0.0000000000000000     
  -2.5126328075215713E-007   7.0514161293179267E-007   0.0000000000000000     
  -2.5802055791554069E-007   7.4203028691333002E-007   0.0000000000000000     
  -2.6474325158714255E-007   7.7975381018474200E-007   0.0000000000000000     
  -2.7143183977362382E-007   8.1830903631827488E-007   0.0000000000000000     
  -2.7808680048164603E-007   8.5769281888617440E-007   0.0000000000000000     
   1.9531135778477070E-014   8.4966596918036540E-007   0.0000000000000000     
   1.8323081173881439E-014   8.8992076629924477E-007   0.0000000000000000     
   1.6001680216133179E-014   9.3099175032494725E-007   0.0000000000000000     
   1.3225045653005034E-014   9.7287570703633634E-007   0.0000000000000000     
   1.0651290269596274E-014   1.0155694222122765E-006   0.0000000000000000     
   8.9385268281036031E-015   1.0590696816316305E-006   0.0000000000000000     
   8.7448681394369111E-015   1.1033732710732620E-006   0.0000000000000000     
   1.0728426962123905E-014   1.1484769763160350E-006   0.0000000000000000     
   1.5547316100826999E-014   1.1943775831388137E-006   0.0000000000000000     
  -3.4656175645734114E-008   8.4979064559630945E-007   0.0000000000000000     
  -3.5484543008128558E-008   8.9004465116266519E-007   0.0000000000000000     
  -3.6309020068106562E-008   9.3111508284730446E-007   0.0000000000000000     
  -3.7129524096811667E-008   9.7299866232154054E-007   0.0000000000000000     
  -3.7945972365387414E-008   1.0156921112566871E-006   0.0000000000000000     
  -3.8758282144977298E-008   1.0591921513240566E-006   0.0000000000000000     
  -3.9566370706724908E-008   1.1034955041949627E-006   0.0000000000000000     
  -4.0370155321773712E-008   1.1485988915407185E-006   0.0000000000000000     
  -4.1169553261267277E-008   1.1944990350326378E-006   0.0000000000000000     
  -6.9322339396690294E-008   8.5016510401151411E-007   0.0000000000000000     
  -7.0979010511153295E-008   8.9041677751432493E-007   0.0000000000000000     
  -7.2627875008447635E-008   9.3148550013704074E-007   0.0000000000000000     
  -7.4268775316074374E-008   9.7336782672573766E-007   0.0000000000000000     
  -7.5901553861534687E-008   1.0160603121264918E-006   0.0000000000000000     
  -7.7526053072329595E-008   1.0595595111853795E-006   0.0000000000000000     
  -7.9142115375960261E-008   1.1038619787484776E-006   0.0000000000000000     
  -8.0749583199927755E-008   1.1489642696618610E-006   0.0000000000000000     
  -8.2348298971733177E-008   1.1948629387716076E-006   0.0000000000000000     
  -1.0400843848107927E-007   8.5078997911167509E-007   0.0000000000000000     
  -1.0649328913834420E-007   8.9103784503661870E-007   0.0000000000000000     
  -1.0896636732945925E-007   9.3210362549182201E-007   0.0000000000000000     
  -1.1142745496144058E-007   9.7398364368281695E-007   0.0000000000000000     
  -1.1387633394130461E-007   1.0166742228151365E-006   0.0000000000000000     
  -1.1631278617606740E-007   1.0601716860943121E-006   0.0000000000000000     
  -1.1873659357274520E-007   1.1044723567258755E-006   0.0000000000000000     
  -1.2114753803835417E-007   1.1495725579153600E-006   0.0000000000000000     
  -1.2354540147991069E-007   1.1954686128682965E-006   0.0000000000000000     
  -1.3872443965824770E-007   8.5166590558248828E-007   0.0000000000000000     
  -1.4203728384205243E-007   8.9190855341194038E-007   0.0000000000000000     
  -1.4533431554125757E-007   9.3297008220931391E-007   0.0000000000000000     
  -1.4861527756160853E-007   9.7484655662666915E-007   0.0000000000000000     
  -1.5187991270885027E-007   1.0175340413160667E-006   0.0000000000000000     
  -1.5512796378872803E-007   1.0610286009295660E-006   0.0000000000000000     
  -1.5835917360698692E-007   1.1053263001192279E-006   0.0000000000000000     
  -1.6157328496937228E-007   1.1504232035371121E-006   0.0000000000000000     
  -1.6477004068162904E-007   1.1963153758352798E-006   0.0000000000000000     
  -1.7348030968754207E-007   8.5279351810964906E-007   0.0000000000000000     
  -1.7762089957462906E-007   8.9302960232268438E-007   0.0000000000000000     
  -1.8174153815395907E-007   9.3408549358718259E-007   0.0000000000000000     
  -1.8584195764527616E-007   9.7595700899118394E-007   0.0000000000000000     
  -1.8992189026832463E-007   1.0186399656227275E-006   0.0000000000000000     
  -1.9398106824284874E-007   1.0621301805698539E-006   0.0000000000000000     
  -1.9801922378859274E-007   1.1064234709206028E-006   0.0000000000000000     
  -2.0203608912530090E-007   1.1515156537630149E-006   0.0000000000000000     
  -2.0603139647271740E-007   1.1974025461851295E-006   0.0000000000000000     
  -2.0828601532830874E-007   8.5417345137885291E-007   0.0000000000000000     
  -2.1325404128842531E-007   8.9440169145124490E-007   0.0000000000000000     
  -2.1819785367767964E-007   9.3545048292309347E-007   0.0000000000000000     
  -2.2311720974114148E-007   9.7731544421024973E-007   0.0000000000000000     
  -2.2801186672388066E-007   1.0199921937285649E-006   0.0000000000000000     
  -2.3288158187096700E-007   1.0634763498938880E-006   0.0000000000000000     
  -2.3772611242746987E-007   1.1077635311220712E-006   0.0000000000000000     
  -2.4254521563845925E-007   1.1528493558289651E-006   0.0000000000000000     
  -2.4733864874900493E-007   1.1987294424304195E-006   0.0000000000000000     
  -2.4315152333989460E-007   8.5580634007579605E-007   0.0000000000000000     
  -2.4894661393579227E-007   8.9602552048001634E-007   0.0000000000000000     
  -2.5471308062253569E-007   9.3706567351471279E-007   0.0000000000000000     
  -2.6045074837790268E-007   9.7892230571775812E-007   0.0000000000000000     
  -2.6615944217967166E-007   1.0215909236270239E-006   0.0000000000000000     
  -2.7183898700561986E-007   1.0650670337803818E-006   0.0000000000000000     
  -2.7748920783352564E-007   1.1093461427157030E-006   0.0000000000000000     
  -2.8310992964116673E-007   1.1544237569708608E-006   0.0000000000000000     
  -2.8870097740632063E-007   1.2002953830837255E-006   0.0000000000000000     
  -2.7808680048164603E-007   8.5769281888617440E-007   0.0000000000000000     
  -2.8470852246908113E-007   8.9790178909139268E-007   0.0000000000000000     
  -2.9129703749864339E-007   9.3893168865970620E-007   0.0000000000000000     
  -2.9785228808425810E-007   9.8077803694759772E-007   0.0000000000000000     
  -3.0437421673985031E-007   1.0234363533115500E-006   0.0000000000000000     
  -3.1086276597934494E-007   1.0669021571080456E-006   0.0000000000000000     
  -3.1731787831666715E-007   1.1111709676935676E-006   0.0000000000000000     
  -3.2373949626574185E-007   1.1562383044245980E-006   0.0000000000000000     
  -3.3012756234049422E-007   1.2020996866576195E-006   0.0000000000000000     
   1.5547316100826999E-014   1.1943775831388137E-006   0.0000000000000000     
   2.3475986701191443E-014   1.2410717082921551E-006   0.0000000000000000     
   3.3254243531927555E-014   1.2885552924133932E-006   0.0000000000000000     
   4.3238229719638838E-014   1.3368241071115567E-006   0.0000000000000000     
   5.1784088420293709E-014   1.3858739239956751E-006   0.0000000000000000     
   5.7247962751138192E-014   1.4357005146747744E-006   0.0000000000000000     
   5.7985995895851253E-014   1.4862996507578847E-006   0.0000000000000000     
   5.2354330952246635E-014   1.5376671038540340E-006   0.0000000000000000     
   3.8709111097418171E-014   1.5897986455722498E-006   0.0000000000000000     
  -4.1169553261267277E-008   1.1944990350326378E-006   0.0000000000000000     
  -4.1964510438607704E-008   1.2411925062977482E-006   0.0000000000000000     
  -4.2755087336231144E-008   1.2886752767859381E-006   0.0000000000000000     
  -4.3541373078832419E-008   1.3369431679028108E-006   0.0000000000000000     
  -4.4323456791106299E-008   1.3859920010539700E-006   0.0000000000000000     
  -4.5101427597747487E-008   1.4358175976450186E-006   0.0000000000000000     
  -4.5875374623450765E-008   1.4864157790815606E-006   0.0000000000000000     
  -4.6645386992910916E-008   1.5377823667691990E-006   0.0000000000000000     
  -4.7411553830822716E-008   1.5899131821135365E-006   0.0000000000000000     
  -8.2348298971733177E-008   1.1948629387716076E-006   0.0000000000000000     
  -8.3938160024500631E-008   1.2415544403074965E-006   0.0000000000000000     
  -8.5519283313846308E-008   1.2890348260341250E-006   0.0000000000000000     
  -8.7091840701009376E-008   1.3373000470997923E-006   0.0000000000000000     
  -8.8656004047228927E-008   1.3863460546527998E-006   0.0000000000000000     
  -9.0211945213744198E-008   1.4361687998414471E-006   0.0000000000000000     
  -9.1759836061794319E-008   1.4867642338140362E-006   0.0000000000000000     
  -9.3299848452618474E-008   1.5381283077188663E-006   0.0000000000000000     
  -9.4832154247455793E-008   1.5902569727042378E-006   0.0000000000000000     
  -1.2354540147991069E-007   1.1954686128682965E-006   0.0000000000000000     
  -1.2593004305938610E-007   1.2421568129906700E-006   0.0000000000000000     
  -1.2830163095857272E-007   1.2896333224902680E-006   0.0000000000000000     
  -1.3066041061421812E-007   1.3378942737753314E-006   0.0000000000000000     
  -1.3300662746306991E-007   1.3869357992541009E-006   0.0000000000000000     
  -1.3534052694187570E-007   1.4367540313348170E-006   0.0000000000000000     
  -1.3766235448738291E-007   1.4873451024257197E-006   0.0000000000000000     
  -1.3997235553633927E-007   1.5387051449350503E-006   0.0000000000000000     
  -1.4227077552549222E-007   1.5908302912710473E-006   0.0000000000000000     
  -1.6477004068162904E-007   1.1963153758352798E-006   0.0000000000000000     
  -1.6794927732095798E-007   1.2429989270165371E-006   0.0000000000000000     
  -1.7111120655038105E-007   1.2904701484866824E-006   0.0000000000000000     
  -1.7425613380437576E-007   1.3387253770022589E-006   0.0000000000000000     
  -1.7738436451741965E-007   1.3877609493198108E-006   0.0000000000000000     
  -1.8049620412399006E-007   1.4375732021958827E-006   0.0000000000000000     
  -1.8359195805856463E-007   1.4881584723870182E-006   0.0000000000000000     
  -1.8667193175562076E-007   1.5395130966497621E-006   0.0000000000000000     
  -1.8973643064963599E-007   1.5916334117406584E-006   0.0000000000000000     
  -2.0603139647271740E-007   1.1974025461851295E-006   0.0000000000000000     
  -2.1000498058691020E-007   1.2440800850543684E-006   0.0000000000000000     
  -2.1395708636924200E-007   1.2915446863556822E-006   0.0000000000000000     
  -2.1788806125739927E-007   1.3397928858534037E-006   0.0000000000000000     
  -2.2179825268906832E-007   1.3888212193118652E-006   0.0000000000000000     
  -2.2568800810193563E-007   1.4386262224953996E-006   0.0000000000000000     
  -2.2955767493368755E-007   1.4892044311683386E-006   0.0000000000000000     
  -2.3340760062201049E-007   1.5405523810950160E-006   0.0000000000000000     
  -2.3723813260459091E-007   1.5926666080397627E-006   0.0000000000000000     
  -2.4733864874900493E-007   1.1987294424304195E-006   0.0000000000000000     
  -2.5210627063493671E-007   1.2453995897734322E-006   0.0000000000000000     
  -2.5684834669512654E-007   1.2928563184295824E-006   0.0000000000000000     
  -2.6156524395920566E-007   1.3410963294015968E-006   0.0000000000000000     
  -2.6625732945680635E-007   1.3901163236922017E-006   0.0000000000000000     
  -2.7092497021756044E-007   1.4399130023041241E-006   0.0000000000000000     
  -2.7556853327109962E-007   1.4904830662400889E-006   0.0000000000000000     
  -2.8018838564705592E-007   1.5418232165028237E-006   0.0000000000000000     
  -2.8478489437506111E-007   1.5939301540950549E-006   0.0000000000000000     
  -2.8870097740632063E-007   1.2002953830837255E-006   0.0000000000000000     
  -2.9426226524273153E-007   1.2469567438429983E-006   0.0000000000000000     
  -2.9979406380800488E-007   1.2944044270406973E-006   0.0000000000000000     
  -3.0529673289571190E-007   1.3426352367196680E-006   0.0000000000000000     
  -3.1077063229942407E-007   1.3916459769227573E-006   0.0000000000000000     
  -3.1621612181271257E-007   1.4414334516928115E-006   0.0000000000000000     
  -3.2163356122914899E-007   1.4919944650726765E-006   0.0000000000000000     
  -3.2702331034230461E-007   1.5433258211052005E-006   0.0000000000000000     
  -3.3238572894575060E-007   1.5954243238332280E-006   0.0000000000000000     
  -3.3012756234049422E-007   1.2020996866576195E-006   0.0000000000000000     
  -3.3648208218798868E-007   1.2487508499323367E-006   0.0000000000000000     
  -3.4280331398784823E-007   1.2961883945213418E-006   0.0000000000000000     
  -3.4909157905283518E-007   1.3444091368804474E-006   0.0000000000000000     
  -3.5534719869571185E-007   1.3934098934654686E-006   0.0000000000000000     
  -3.6157049422924059E-007   1.4431874807322175E-006   0.0000000000000000     
  -3.6776178696618393E-007   1.4937387151365092E-006   0.0000000000000000     
  -3.7392139821930402E-007   1.5450604131341570E-006   0.0000000000000000     
  -3.8004964930136327E-007   1.5971493911809735E-006   0.0000000000000000     
   3.8709111097418171E-014   1.5897986455722498E-006   0.0000000000000000     
   1.6237650283834220E-014   1.6426902386191018E-006   0.0000000000000000     
  -1.2548054216292323E-014   1.6963386100913180E-006   0.0000000000000000     
  -4.4304834192865358E-014   1.7507406781831685E-006   0.0000000000000000     
  -7.5689521573514356E-014   1.8058933610889220E-006   0.0000000000000000     
  -1.0335894819363815E-013   1.8617935770028488E-006   0.0000000000000000     
  -1.2396994597140534E-013   1.9184382441192173E-006   0.0000000000000000     
  -1.3417934671415524E-013   1.9758242806322959E-006   0.0000000000000000     
  -1.3064398236307533E-013   2.0339486047363561E-006   0.0000000000000000     
  -4.7411553830822716E-008   1.5899131821135365E-006   0.0000000000000000     
  -4.8173940908572643E-008   1.6428042186475686E-006   0.0000000000000000     
  -4.8932520584314063E-008   1.6964521584138555E-006   0.0000000000000000     
  -4.9687241862892111E-008   1.7508538555823483E-006   0.0000000000000000     
  -5.0438053749151916E-008   1.8060061643229991E-006   0.0000000000000000     
  -5.1184905247938525E-008   1.8619059388057584E-006   0.0000000000000000     
  -5.1927745364097167E-008   1.9185500332005783E-006   0.0000000000000000     
  -5.2666523102472810E-008   1.9759353016774113E-006   0.0000000000000000     
  -5.3401187467910681E-008   2.0340585984062070E-006   0.0000000000000000     
  -9.4832154247455793E-008   1.5902569727042378E-006   0.0000000000000000     
  -9.6356880922937656E-008   1.6431463029019512E-006   0.0000000000000000     
  -9.7873978417263987E-008   1.6967928643778071E-006   0.0000000000000000     
  -9.9383352284027052E-008   1.7511933461811046E-006   0.0000000000000000     
  -1.0088490807681885E-007   1.8063444373611445E-006   0.0000000000000000     
  -1.0237855134923166E-007   1.8622428269672251E-006   0.0000000000000000     
  -1.0386418765485758E-007   1.9188852040486473E-006   0.0000000000000000     
  -1.0534172254728875E-007   1.9762682576547120E-006   0.0000000000000000     
  -1.0681106158011739E-007   2.0343886768347175E-006   0.0000000000000000     
  -1.4227077552549222E-007   1.5908302912710473E-006   0.0000000000000000     
  -1.4455779726163979E-007   1.6437167281286001E-006   0.0000000000000000     
  -1.4683335303178143E-007   1.6973608593491813E-006   0.0000000000000000     
  -1.4909731249296708E-007   1.7517591430609119E-006   0.0000000000000000     
  -1.5134954530224659E-007   1.8069080373919135E-006   0.0000000000000000     
  -1.5358992111666989E-007   1.8628040004703054E-006   0.0000000000000000     
  -1.5581830959328687E-007   1.9194434904242096E-006   0.0000000000000000     
  -1.5803458038914743E-007   1.9768229653817447E-006   0.0000000000000000     
  -1.6023860316130144E-007   2.0349388834710358E-006   0.0000000000000000     
  -1.8973643064963599E-007   1.5916334117406584E-006   0.0000000000000000     
  -1.9278568338087390E-007   1.6445157310738637E-006   0.0000000000000000     
  -1.9581961141274368E-007   1.6981562746939854E-006   0.0000000000000000     
  -1.9883805941444030E-007   1.7525512393032444E-006   0.0000000000000000     
  -2.0184087205515926E-007   1.8076968216038617E-006   0.0000000000000000     
  -2.0482789400409559E-007   1.8635892182980557E-006   0.0000000000000000     
  -2.0779896993044464E-007   1.9202246260880483E-006   0.0000000000000000     
  -2.1075394450340165E-007   1.9775992416760602E-006   0.0000000000000000     
  -2.1369266239216183E-007   2.0357092617643099E-006   0.0000000000000000     
  -2.3723813260459091E-007   1.5926666080397627E-006   0.0000000000000000     
  -2.4104953273683502E-007   1.6455435484840916E-006   0.0000000000000000     
  -2.4484172054502791E-007   1.6991792417782278E-006   0.0000000000000000     
  -2.4861452997317491E-007   1.7535696279895766E-006   0.0000000000000000     
  -2.5236779496528094E-007   1.8087106471855438E-006   0.0000000000000000     
  -2.5610134946535127E-007   1.8645982394335330E-006   0.0000000000000000     
  -2.5981502741739064E-007   1.9212283448009499E-006   0.0000000000000000     
  -2.6350866276540441E-007   1.9785969033552002E-006   0.0000000000000000     
  -2.6718208945339757E-007   2.0366998551636886E-006   0.0000000000000000     
  -2.8478489437506111E-007   1.5939301540950549E-006   0.0000000000000000     
  -2.8935833878571787E-007   1.6468004171056335E-006   0.0000000000000000     
  -2.9390864741351167E-007   1.7004298919679162E-006   0.0000000000000000     
  -2.9843566109389884E-007   1.7548143022013822E-006   0.0000000000000000     
  -3.0293922066233579E-007   1.8099493713255153E-006   0.0000000000000000     
  -3.0741916695427889E-007   1.8658308228597937E-006   0.0000000000000000     
  -3.1187534080518427E-007   1.9224543803236995E-006   0.0000000000000000     
  -3.1630758305050839E-007   1.9798157672367159E-006   0.0000000000000000     
  -3.2071573452570752E-007   2.0379107071183207E-006   0.0000000000000000     
  -3.3238572894575060E-007   1.5954243238332280E-006   0.0000000000000000     
  -3.3772109498371742E-007   1.6482865736848402E-006   0.0000000000000000     
  -3.4302935900307200E-007   1.7019083566290577E-006   0.0000000000000000     
  -3.4831038970134027E-007   1.7562852550201359E-006   0.0000000000000000     
  -3.5356405577604808E-007   1.8114128512123311E-006   0.0000000000000000     
  -3.5879022592472103E-007   1.8672867275598942E-006   0.0000000000000000     
  -3.6398876884488519E-007   1.9239024664170822E-006   0.0000000000000000     
  -3.6915955323406641E-007   1.9812556501381513E-006   0.0000000000000000     
  -3.7430244778979077E-007   2.0393418610773547E-006   0.0000000000000000     
  -3.8004964930136327E-007   1.5971493911809735E-006   0.0000000000000000     
  -3.8614679478702894E-007   1.6500022549680596E-006   0.0000000000000000     
  -3.9221282229858675E-007   1.7036147671276618E-006   0.0000000000000000     
  -3.9824765272022747E-007   1.7579824795273128E-006   0.0000000000000000     
  -4.0425120693614152E-007   1.8131009440345444E-006   0.0000000000000000     
  -4.1022340583051993E-007   1.8689657125168904E-006   0.0000000000000000     
  -4.1616417028755305E-007   1.9255723368418828E-006   0.0000000000000000     
  -4.2207342119143161E-007   1.9829163688770545E-006   0.0000000000000000     
  -4.2795107942634642E-007   2.0409933604899396E-006   0.0000000000000000     
   0.0000000000000000        0.0000000000000000        0.0000000000000000     
  -6.3407161971811157E-009  -1.8169493470493253E-010   0.0000000000000000     
  -1.2751895010544500E-008   1.0624426803466373E-009   0.0000000000000000     
  -1.9235060475279331E-008   3.7002805496692346E-009   0.0000000000000000     
  -2.5791736626574768E-008   7.6996863777773797E-009   0.0000000000000000     
  -3.2423447499620007E-008   1.3028527869185600E-008   0.0000000000000000     
  -3.9131717129604222E-008   1.9654672728408419E-008   0.0000000000000000     
  -4.5918069551716565E-008   2.7545988659960348E-008   0.0000000000000000     
  -5.2784028801146248E-008   3.6670343368355931E-008   0.0000000000000000     
   0.0000000000000000        0.0000000000000000        0.0000000000000000     
  -7.0940551689873047E-009  -4.1561357185023589E-011   0.0000000000000000     
  -1.4294001147664313E-008   1.3520013252013563E-009   0.0000000000000000     
  -2.1596297045572440E-008   4.1454167373956532E-009   0.0000000000000000     
  -2.8997401972253081E-008   8.3034135696343845E-009   0.0000000000000000     
  -3.6493775037247665E-008   1.3790720512154052E-008   0.0000000000000000     
  -4.4081875350097571E-008   2.0572066255191180E-008   0.0000000000000000     
  -5.1758162020344240E-008   2.8612179488982276E-008   0.0000000000000000     
  -5.9519094157529059E-008   3.7875788903763865E-008   0.0000000000000000     
   0.0000000000000000        0.0000000000000000        0.0000000000000000     
  -7.8423919195716864E-009   1.1700962599087544E-010   0.0000000000000000     
  -1.5831241639723270E-008   1.6813448760863123E-009   0.0000000000000000     
  -2.3956943347806749E-008   4.6536351276296351E-009   0.0000000000000000     
  -3.2209891231174115E-008   8.9945097579641650E-009   0.0000000000000000     
  -4.0580479477177381E-008   1.4664598144433241E-008   0.0000000000000000     
  -4.9059102273168531E-008   2.1624529664380171E-008   0.0000000000000000     
  -5.7636153806499568E-008   2.9834933695148284E-008   0.0000000000000000     
  -6.6302028264522476E-008   3.9256439614080916E-008   0.0000000000000000     
   0.0000000000000000        0.0000000000000000        0.0000000000000000     
  -8.5935297884056026E-009   2.9683703639721921E-010   0.0000000000000000     
  -1.7375774036743803E-008   2.0548365291464645E-009   0.0000000000000000     
  -2.6330758261028828E-008   5.2298559547470571E-009   0.0000000000000000     
  -3.5442507977274877E-008   9.7777527896983097E-009   0.0000000000000000     
  -4.4695048701496196E-008   1.5654384510499553E-008   0.0000000000000000     
  -5.4072405949707002E-008   2.2815608593650097E-008   0.0000000000000000     
  -6.3558605237921500E-008   3.1217282515649265E-008   0.0000000000000000     
  -7.3137672082153941E-008   4.0815263752996375E-008   0.0000000000000000     
   0.0000000000000000        0.0000000000000000        0.0000000000000000     
  -9.3552721149604059E-009   5.0073989560846239E-010   0.0000000000000000     
  -1.8939755888748355E-008   2.4768394805267731E-009   0.0000000000000000     
  -2.8731500664285217E-008   5.8789994531237912E-009   0.0000000000000000     
  -3.8708555784492349E-008   1.0657920511768373E-008   0.0000000000000000     
  -4.8848970592291097E-008   1.6764303354829379E-008   0.0000000000000000     
  -5.9130794430602853E-008   2.4148848680675668E-008   0.0000000000000000     
  -6.9532076642348972E-008   3.2762257187676096E-008   0.0000000000000000     
  -8.0030866570450816E-008   4.2555229574199529E-008   0.0000000000000000     
   0.0000000000000000        0.0000000000000000        0.0000000000000000     
  -1.0135422238707437E-008   7.3153722519906017E-010   0.0000000000000000     
  -2.0535344745759364E-008   2.9517169263721963E-009   0.0000000000000000     
  -3.1172929436622487E-008   6.6059858571357143E-009   0.0000000000000000     
  -4.2021338226763490E-008   1.1639790771105914E-008   0.0000000000000000     
  -5.3053733031649106E-008   1.7998578421899113E-008   0.0000000000000000     
  -6.4243275766746023E-008   2.5627795563131608E-008   0.0000000000000000     
  -7.5563128347520890E-008   3.4472888948419679E-008   0.0000000000000000     
  -8.6986452689440529E-008   4.4479305331379683E-008   0.0000000000000000     
   0.0000000000000000        0.0000000000000000        0.0000000000000000     
  -1.0941783499118040E-008   9.9204804674346696E-010   0.0000000000000000     
  -2.2174698157799262E-008   3.4838320628276954E-009   0.0000000000000000     
  -3.3668803457087197E-008   7.4157354011587064E-009   0.0000000000000000     
  -4.5394158878025327E-008   1.2728141414642508E-008   0.0000000000000000     
  -5.7320823901657223E-008   1.9361433456185138E-008   0.0000000000000000     
  -6.9418858009026349E-008   2.7255994878692594E-008   0.0000000000000000     
  -8.1658320681176218E-008   3.6352209035070913E-008   0.0000000000000000     
  -9.4009271399150441E-008   4.6590459278226090E-008   0.0000000000000000     
   0.0000000000000000        0.0000000000000000        0.0000000000000000     
  -1.1782159235663568E-008   1.2850913818161376E-009   0.0000000000000000     
  -2.3869973674890497E-008   4.0775480860382278E-009   0.0000000000000000     
  -3.6232881604725888E-008   8.3131683195686337E-009   0.0000000000000000     
  -4.8840321312214841E-008   1.3927750289309718E-008   0.0000000000000000     
  -6.1661731084402416E-008   2.0857092202163841E-008   0.0000000000000000     
  -7.4666549208333770E-008   2.9036992265033371E-008   0.0000000000000000     
  -8.7824213971053948E-008   3.8403248684820668E-008   0.0000000000000000     
  -1.0110416365960798E-007   4.8891659668428102E-008   0.0000000000000000     
   0.0000000000000000        0.0000000000000000        0.0000000000000000     
  -1.2664352787815355E-008   1.6134862519915271E-009   0.0000000000000000     
  -2.5633328847055497E-008   4.7372281921487536E-009   0.0000000000000000     
  -3.8878922758585147E-008   9.3032048467413805E-009   0.0000000000000000     
  -5.2373129103268993E-008   1.5243395242039102E-008   0.0000000000000000     
  -6.6087942461971760E-008   2.2489778404311626E-008   0.0000000000000000     
  -7.9995357415558156E-008   3.0974333359828642E-008   0.0000000000000000     
  -9.4067368544892843E-008   4.0629039134859843E-008   0.0000000000000000     
  -1.0827597043084062E-007   5.1385874755674965E-008   0.0000000000000000     
  -5.2784028801146248E-008   3.6670343368355931E-008   0.0000000000000000     
  -5.9729216439784225E-008   4.6996448348428627E-008   0.0000000000000000     
  -6.6745644136328894E-008   5.8496390256287760E-008   0.0000000000000000     
  -7.3823421086180339E-008   7.1143099538361600E-008   0.0000000000000000     
  -8.0952656484738698E-008   8.4909506641078387E-008   0.0000000000000000     
  -8.8123459527404163E-008   9.9768542010866458E-008   0.0000000000000000     
  -9.5325939409576859E-008   1.1569313609415400E-007   0.0000000000000000     
  -1.0255020532665694E-007   1.3265621933736927E-007   0.0000000000000000     
  -1.0978636647404458E-007   1.5063072218694072E-007   0.0000000000000000     
  -5.9519094157529059E-008   3.7875788903763865E-008   0.0000000000000000     
  -6.7360149131158737E-008   4.8329131790872281E-008   0.0000000000000000     
  -7.5272877350601130E-008   5.9944479846043177E-008   0.0000000000000000     
  -8.3247847485189306E-008   7.2695613366112049E-008   0.0000000000000000     
  -9.1275628204256466E-008   8.6556312647914445E-008   0.0000000000000000     
  -9.9346788177135680E-008   1.0150035798828575E-007   0.0000000000000000     
  -1.0745189607316014E-007   1.1750152968406156E-007   0.0000000000000000     
  -1.1558152056166292E-007   1.3453360803207731E-007   0.0000000000000000     
  -1.2372623031197713E-007   1.5257037332916849E-007   0.0000000000000000     
  -6.6302028264522476E-008   3.9256439614080916E-008   0.0000000000000000     
  -7.5047268957897281E-008   4.9852104578455928E-008   0.0000000000000000     
  -8.3863015690515793E-008   6.1594696865289392E-008   0.0000000000000000     
  -9.2740557389577985E-008   7.4459412531531946E-008   0.0000000000000000     
  -1.0167118298228362E-007   8.8421447634134143E-008   0.0000000000000000     
  -1.1064618139583262E-007   1.0345599823004663E-007   0.0000000000000000     
  -1.1965684155742489E-007   1.1953826037622010E-007   0.0000000000000000     
  -1.2869445239426027E-007   1.3664343012960508E-007   0.0000000000000000     
  -1.3775030283353864E-007   1.5474670354715217E-007   0.0000000000000000     
  -7.3137672082153941E-008   4.0815263752996375E-008   0.0000000000000000     
  -8.2794957741852324E-008   5.1568929941288031E-008   0.0000000000000000     
  -9.2521116450200098E-008   6.3451739352510017E-008   0.0000000000000000     
  -1.0230812818381441E-007   7.6440670417745397E-008   0.0000000000000000     
  -1.1214797291931249E-007   9.0512701568077203E-008   0.0000000000000000     
  -1.2203263063331155E-007   1.0564481123458855E-007   0.0000000000000000     
  -1.3195408130242877E-007   1.2181397784836245E-007   0.0000000000000000     
  -1.4190430490328130E-007   1.3899717984048191E-007   0.0000000000000000     
  -1.5187528141248643E-007   1.5717139564203012E-007   0.0000000000000000     
  -8.0030866570450816E-008   4.2555229574199529E-008   0.0000000000000000     
  -9.0607597304876506E-008   5.3483171109477064E-008   0.0000000000000000     
  -1.0125223692378119E-007   6.5520305346188680E-008   0.0000000000000000     
  -1.1195713725236688E-007   7.8645560407876666E-008   0.0000000000000000     
  -1.2271465011583554E-007   9.2837864418083284E-008   0.0000000000000000     
  -1.3351712733938900E-007   1.0807614550035081E-007   0.0000000000000000     
  -1.4435692074822928E-007   1.2433933177822136E-007   0.0000000000000000     
  -1.5522638216755836E-007   1.4160635137523735E-007   0.0000000000000000     
  -1.6611786342257811E-007   1.5985613241494095E-007   0.0000000000000000     
  -8.6986452689440529E-008   4.4479305331379683E-008   0.0000000000000000     
  -9.8489569468822203E-008   5.5598391313131426E-008   0.0000000000000000     
  -1.1006143440538622E-007   6.7805092884808982E-008   0.0000000000000000     
  -1.2169416197970349E-007   8.1080255885050003E-008   0.0000000000000000     
  -1.3337986667234496E-007   9.5404726152492041E-008   0.0000000000000000     
  -1.4511066296388149E-007   1.1075934952577277E-007   0.0000000000000000     
  -1.5687866533488405E-007   1.2712497184352975E-007   0.0000000000000000     
  -1.6867598826592354E-007   1.4448243894440056E-007   0.0000000000000000     
  -1.8049474623757096E-007   1.6281259666702289E-007   0.0000000000000000     
  -9.4009271399150441E-008   4.6590459278226090E-008   0.0000000000000000     
  -1.0644525605554200E-007   5.7918153782359615E-008   0.0000000000000000     
  -1.1895376618914233E-007   7.0310800006854577E-008   0.0000000000000000     
  -1.3152577975029247E-007   8.3750930232389568E-008   0.0000000000000000     
  -1.4415227468933319E-007   9.8221076739643094E-008   0.0000000000000000     
  -1.5682422895660561E-007   1.1370377180929382E-007   0.0000000000000000     
  -1.6953262050245069E-007   1.3018154772202027E-007   0.0000000000000000     
  -1.8226842727720931E-007   1.4763693675850098E-007   0.0000000000000000     
  -1.9502262723122253E-007   1.6605247119941453E-007   0.0000000000000000     
  -1.0110416365960798E-007   4.8891659668428102E-008   0.0000000000000000     
  -1.1447903888688841E-007   6.0446021747270063E-008   0.0000000000000000     
  -1.2793428956917668E-007   7.3042124750809025E-008   0.0000000000000000     
  -1.4145856794860179E-007   8.6663756833019584E-008   0.0000000000000000     
  -1.5504052626729259E-007   1.0129470614787619E-007   0.0000000000000000     
  -1.6866881676737790E-007   1.1691876084935344E-007   0.0000000000000000     
  -1.8233209169098677E-007   1.3351970909142587E-007   0.0000000000000000     
  -1.9601900328024793E-007   1.5108133902806799E-007   0.0000000000000000     
  -2.0971820377729029E-007   1.6958743881325430E-007   0.0000000000000000     
  -1.0827597043084062E-007   5.1385874755674965E-008   0.0000000000000000     
  -1.2259529978471392E-007   6.3185558437971202E-008   0.0000000000000000     
  -1.3700806183961647E-007   7.6003765155155979E-008   0.0000000000000000     
  -1.5149910395909983E-007   8.9824909070064222E-008   0.0000000000000000     
  -1.6605327350671546E-007   1.0463340434553087E-007   0.0000000000000000     
  -1.8065541784601492E-007   1.2041366514439094E-007   0.0000000000000000     
  -1.9529038434054977E-007   1.3715010562947928E-007   0.0000000000000000     
  -2.0994302035387147E-007   1.5482713996363081E-007   0.0000000000000000     
  -2.2459817324953162E-007   1.7342918230968063E-007   0.0000000000000000     
  -1.0978636647404458E-007   1.5063072218694072E-007   0.0000000000000000     
  -1.1702566964857339E-007   1.6959254327119002E-007   0.0000000000000000     
  -1.2426391205281113E-007   1.8952945394601407E-007   0.0000000000000000     
  -1.3149802849075911E-007   2.1043219374920324E-007   0.0000000000000000     
  -1.3872495376641858E-007   2.3229150221854794E-007   0.0000000000000000     
  -1.4594162268379072E-007   2.5509811889183861E-007   0.0000000000000000     
  -1.5314497004687701E-007   2.7884278330686554E-007   0.0000000000000000     
  -1.6033193065967841E-007   3.0351623500141921E-007   0.0000000000000000     
  -1.6749943932619643E-007   3.2910921351329007E-007   0.0000000000000000     
  -1.2372623031197713E-007   1.5257037332916849E-007   0.0000000000000000     
  -1.3187744289268162E-007   1.7158843751457589E-007   0.0000000000000000     
  -1.4002997146933767E-007   1.9157573909716119E-007   0.0000000000000000     
  -1.4817947810675226E-007   2.1252304822819154E-007   0.0000000000000000     
  -1.5632162486973245E-007   2.3442113505893379E-007   0.0000000000000000     
  -1.6445207382308523E-007   2.5726076974065508E-007   0.0000000000000000     
  -1.7256648703161755E-007   2.8103272242462248E-007   0.0000000000000000     
  -1.8066052656013636E-007   3.0572776326210276E-007   0.0000000000000000     
  -1.8872985447344877E-007   3.3133666240436312E-007   0.0000000000000000     
  -1.3775030283353864E-007   1.5474670354715217E-007   0.0000000000000000     
  -1.4681617805220838E-007   1.7382583050540405E-007   0.0000000000000000     
  -1.5588584822621222E-007   1.9386877615927143E-007   0.0000000000000000     
  -1.6495357978124132E-007   2.1486605948325696E-007   0.0000000000000000     
  -1.7401363914298694E-007   2.3680819945186330E-007   0.0000000000000000     
  -1.8306029273714024E-007   2.5968571503959316E-007   0.0000000000000000     
  -1.9208780698939256E-007   2.8348912522094940E-007   0.0000000000000000     
  -2.0109044832543505E-007   3.0820894897043450E-007   0.0000000000000000     
  -2.1006248317095888E-007   3.3383570526255122E-007   0.0000000000000000     
  -1.5187528141248643E-007   1.5717139564203012E-007   0.0000000000000000     
  -1.6185914658929810E-007   1.7631580311518534E-007   0.0000000000000000     
  -1.7184865932351703E-007   1.9641837784650657E-007   0.0000000000000000     
  -1.8183673428758077E-007   2.1746929485364804E-007   0.0000000000000000     
  -1.9181628615392704E-007   2.3945872915426428E-007   0.0000000000000000     
  -2.0178022959499309E-007   2.6237685576600929E-007   0.0000000000000000     
  -2.1172147928321659E-007   2.8621384970653745E-007   0.0000000000000000     
  -2.2163294989103531E-007   3.1095988599350335E-007   0.0000000000000000     
  -2.3150755609088644E-007   3.3660513964456083E-007   0.0000000000000000     
  -1.6611786342257811E-007   1.5985613241494095E-007   0.0000000000000000     
  -1.7702361996609511E-007   1.7906943621543049E-007   0.0000000000000000     
  -1.8793552176133429E-007   1.9923435687302848E-007   0.0000000000000000     
  -1.9884534239912534E-007   2.2034082167861367E-007   0.0000000000000000     
  -2.0974485547029763E-007   2.4237875792306455E-007   0.0000000000000000     
  -2.2062583456568083E-007   2.6533809289725981E-007   0.0000000000000000     
  -2.3148005327610446E-007   2.8920875389207806E-007   0.0000000000000000     
  -2.4229928519239813E-007   3.1398066819839788E-007   0.0000000000000000     
  -2.5307530390539134E-007   3.3964376310709803E-007   0.0000000000000000     
  -1.8049474623757096E-007   1.6281259666702289E-007   0.0000000000000000     
  -1.9232686964474385E-007   1.8209781067765017E-007   0.0000000000000000     
  -2.0416355253974633E-007   2.0232652595299910E-007   0.0000000000000000     
  -2.1599580488922940E-007   2.2348870729740215E-007   0.0000000000000000     
  -2.2781463665984386E-007   2.4557431951519201E-007   0.0000000000000000     
  -2.3961105781824059E-007   2.6857332741070110E-007   0.0000000000000000     
  -2.5137607833107048E-007   2.9247569578826187E-007   0.0000000000000000     
  -2.6310070816498449E-007   3.1727138945220711E-007   0.0000000000000000     
  -2.7477595728663328E-007   3.4295037320686918E-007   0.0000000000000000     
  -1.9502262723122253E-007   1.6605247119941453E-007   0.0000000000000000     
  -2.0778616708738863E-007   1.8541200737335525E-007   0.0000000000000000     
  -2.2054986865883530E-007   2.0570469780058017E-007   0.0000000000000000     
  -2.3330452253124763E-007   2.2692101904926221E-007   0.0000000000000000     
  -2.4604091929031069E-007   2.4905144768757437E-007   0.0000000000000000     
  -2.5874984952170961E-007   2.7208646028368941E-007   0.0000000000000000     
  -2.7142210381112937E-007   2.9601653340578008E-007   0.0000000000000000     
  -2.8404847274425510E-007   3.2083214362201958E-007   0.0000000000000000     
  -2.9661974690677180E-007   3.4652376750058039E-007   0.0000000000000000     
  -2.0971820377729029E-007   1.6958743881325430E-007   0.0000000000000000     
  -2.2341878375617398E-007   1.8902310717405643E-007   0.0000000000000000     
  -2.3711158711868350E-007   2.0937868512993364E-007   0.0000000000000000     
  -2.5078789609853458E-007   2.3064582427344257E-007   0.0000000000000000     
  -2.6443899292944332E-007   2.5281617619713973E-007   0.0000000000000000     
  -2.7805615984512514E-007   2.7588139249358127E-007   0.0000000000000000     
  -2.9163067907929568E-007   2.9983312475532396E-007   0.0000000000000000     
  -3.0515383286567125E-007   3.2466302457492436E-007   0.0000000000000000     
  -3.1861690343796693E-007   3.5036274354493824E-007   0.0000000000000000     
  -2.2459817324953162E-007   1.7342918230968063E-007   0.0000000000000000     
  -2.3924199111324411E-007   1.9294219095126436E-007   0.0000000000000000     
  -2.5386582491937314E-007   2.1335830065522136E-007   0.0000000000000000     
  -2.6846232636444506E-007   2.3467119030919177E-007   0.0000000000000000     
  -2.8302414714498648E-007   2.5687453880081570E-007   0.0000000000000000     
  -2.9754393895752410E-007   2.7996202501773318E-007   0.0000000000000000     
  -3.1201435349858409E-007   3.0392732784758462E-007   0.0000000000000000     
  -3.2642804246469348E-007   3.2876412617800977E-007   0.0000000000000000     
  -3.4077765755237844E-007   3.5446609889664902E-007   0.0000000000000000     
  -1.6749943932619643E-007   3.2910921351329007E-007   0.0000000000000000     
  -1.7464464054179023E-007   3.5561275835466873E-007   0.0000000000000000     
  -1.8176551756725104E-007   3.8301910893534703E-007   0.0000000000000000     
  -1.8886026335472796E-007   4.1132080463951719E-007   0.0000000000000000     
  -1.9592707085637021E-007   4.4051038485137133E-007   0.0000000000000000     
  -2.0296413302432691E-007   4.7058038895510165E-007   0.0000000000000000     
  -2.0996964281074737E-007   5.0152335633490010E-007   0.0000000000000000     
  -2.1694179316778055E-007   5.3333182637495902E-007   0.0000000000000000     
  -2.2387877704757575E-007   5.6599833845947055E-007   0.0000000000000000     
  -1.8872985447344877E-007   3.3133666240436312E-007   0.0000000000000000     
  -1.9677062728976336E-007   3.5785060626414756E-007   0.0000000000000000     
  -2.0478097934089570E-007   3.8526244630010761E-007   0.0000000000000000     
  -2.1275953941206290E-007   4.1356545023237219E-007   0.0000000000000000     
  -2.2070493628848221E-007   4.4275288578106989E-007   0.0000000000000000     
  -2.2861579875537072E-007   4.7281802066632941E-007   0.0000000000000000     
  -2.3649075559794571E-007   5.0375412260827942E-007   0.0000000000000000     
  -2.4432843560142437E-007   5.3555445932704893E-007   0.0000000000000000     
  -2.5212746755102378E-007   5.6821229854276606E-007   0.0000000000000000     
  -2.1006248317095888E-007   3.3383570526255122E-007   0.0000000000000000     
  -2.1899899973641694E-007   3.6036054072028429E-007   0.0000000000000000     
  -2.2789837337130851E-007   3.8777711256054581E-007   0.0000000000000000     
  -2.3675980120989469E-007   4.1607970564872987E-007   0.0000000000000000     
  -2.4558248038643639E-007   4.4526260485023079E-007   0.0000000000000000     
  -2.5436560803519472E-007   4.7532009503044255E-007   0.0000000000000000     
  -2.6310838129043048E-007   5.0624646105475941E-007   0.0000000000000000     
  -2.7180999728640475E-007   5.3803598778857557E-007   0.0000000000000000     
  -2.8046965315737865E-007   5.7068296009728514E-007   0.0000000000000000     
  -2.3150755609088644E-007   3.3660513964456083E-007   0.0000000000000000     
  -2.4133936299894993E-007   3.6314066748044264E-007   0.0000000000000000     
  -2.5112703750637413E-007   3.9056105353419391E-007   0.0000000000000000     
  -2.6087039694804982E-007   4.1886176364193829E-007   0.0000000000000000     
  -2.7056925865886789E-007   4.4803826363979943E-007   0.0000000000000000     
  -2.8022343997371867E-007   4.7808601936390052E-007   0.0000000000000000     
  -2.8983275822749282E-007   5.0900049665036515E-007   0.0000000000000000     
  -2.9939703075508161E-007   5.4077716133531708E-007   0.0000000000000000     
  -3.0891607489137511E-007   5.7341147925487954E-007   0.0000000000000000     
  -2.5307530390539134E-007   3.3964376310709803E-007   0.0000000000000000     
  -2.6380132219456156E-007   3.6618909230198589E-007   0.0000000000000000     
  -2.7447630959397721E-007   3.9361221503858434E-007   0.0000000000000000     
  -2.8510067482635490E-007   4.2190981696534542E-007   0.0000000000000000     
  -2.9567482661441121E-007   4.5107858373072069E-007   0.0000000000000000     
  -3.0619917368086223E-007   4.8111520098316217E-007   0.0000000000000000     
  -3.1667412474842436E-007   5.1201635437112151E-007   0.0000000000000000     
  -3.2710008853981459E-007   5.4377872954305083E-007   0.0000000000000000     
  -3.3747747377774885E-007   5.7639901214740185E-007   0.0000000000000000     
  -2.7477595728663328E-007   3.4295037320686918E-007   0.0000000000000000     
  -2.8639448244045074E-007   3.6950392094227751E-007   0.0000000000000000     
  -2.9795552748200227E-007   3.9692854289124944E-007   0.0000000000000000     
  -3.0945998304463637E-007   4.2522205837229893E-007   0.0000000000000000     
  -3.2090873976170111E-007   4.5438228670394018E-007   0.0000000000000000     
  -3.3230268826654495E-007   4.8440704720468722E-007   0.0000000000000000     
  -3.4364271919251634E-007   5.1529415919305411E-007   0.0000000000000000     
  -3.5492972317296340E-007   5.4704144198755507E-007   0.0000000000000000     
  -3.6616459084123455E-007   5.7964671490670395E-007   0.0000000000000000     
  -2.9661974690677180E-007   3.4652376750058039E-007   0.0000000000000000     
  -3.0912844885381667E-007   3.7308325915868116E-007   0.0000000000000000     
  -3.2157402901833407E-007   4.0050798290972155E-007   0.0000000000000000     
  -3.3395766980272039E-007   4.2879668061614691E-007   0.0000000000000000     
  -3.4628055360937254E-007   4.5794809414040298E-007   0.0000000000000000     
  -3.5854386284068683E-007   4.8796096534493468E-007   0.0000000000000000     
  -3.7074877989905964E-007   5.1883403609218728E-007   0.0000000000000000     
  -3.8289648718688785E-007   5.5056604824460665E-007   0.0000000000000000     
  -3.9498816710656748E-007   5.8315574366463759E-007   0.0000000000000000     
  -3.1861690343796693E-007   3.5036274354493824E-007   0.0000000000000000     
  -3.3201282655185843E-007   3.7692521270856024E-007   0.0000000000000000     
  -3.4534115205085685E-007   4.0434848091153322E-007   0.0000000000000000     
  -3.5860308330043386E-007   4.3263187645023751E-007   0.0000000000000000     
  -3.7179982366606047E-007   4.6177472762105433E-007   0.0000000000000000     
  -3.8493257651320744E-007   4.9177636272036395E-007   0.0000000000000000     
  -3.9800254520734600E-007   5.2263611004454684E-007   0.0000000000000000     
  -4.1101093311394766E-007   5.5435329788998390E-007   0.0000000000000000     
  -4.2395894359848285E-007   5.8692725455305536E-007   0.0000000000000000     
  -3.4077765755237844E-007   3.5446609889664902E-007   0.0000000000000000     
  -3.5505722065177484E-007   3.8102788734927819E-007   0.0000000000000000     
  -3.6926623442745567E-007   4.0844798271421635E-007   0.0000000000000000     
  -3.8340557173760300E-007   4.3672583862791840E-007   0.0000000000000000     
  -3.9747610544039921E-007   4.6586090872683953E-007   0.0000000000000000     
  -4.1147870839402644E-007   4.9585264664743424E-007   0.0000000000000000     
  -4.2541425345666687E-007   5.2670050602615734E-007   0.0000000000000000     
  -4.3928361348650251E-007   5.5840394049946401E-007   0.0000000000000000     
  -4.5308766134171583E-007   5.9096240370380923E-007   0.0000000000000000     
  -2.2387877704757575E-007   5.6599833845947055E-007   0.0000000000000000     
  -2.3077916824470089E-007   5.9951615100396906E-007   0.0000000000000000     
  -2.3764306392339855E-007   6.3388139854935841E-007   0.0000000000000000     
  -2.4447094209033008E-007   6.6909093466788423E-007   0.0000000000000000     
  -2.5126328075215713E-007   7.0514161293179267E-007   0.0000000000000000     
  -2.5802055791554069E-007   7.4203028691333002E-007   0.0000000000000000     
  -2.6474325158714255E-007   7.7975381018474200E-007   0.0000000000000000     
  -2.7143183977362382E-007   8.1830903631827488E-007   0.0000000000000000     
  -2.7808680048164603E-007   8.5769281888617440E-007   0.0000000000000000     
  -2.5212746755102378E-007   5.6821229854276606E-007   0.0000000000000000     
  -2.5988674922743152E-007   6.0172148593776087E-007   0.0000000000000000     
  -2.6760625439321569E-007   6.3607817904316615E-007   0.0000000000000000     
  -2.7528622580641490E-007   6.7127911335231591E-007   0.0000000000000000     
  -2.8292690622506757E-007   7.0732102435854451E-007   0.0000000000000000     
  -2.9052853840721235E-007   7.4420064755518565E-007   0.0000000000000000     
  -2.9809136511088764E-007   7.8191471843557336E-007   0.0000000000000000     
  -3.0561562909413202E-007   8.2045997249304145E-007   0.0000000000000000     
  -3.1310157311498388E-007   8.5983314522092426E-007   0.0000000000000000     
  -2.8046965315737865E-007   5.7068296009728514E-007   0.0000000000000000     
  -2.8908667223736510E-007   6.0418202437808193E-007   0.0000000000000000     
  -2.9766088265938662E-007   6.3852927315535950E-007   0.0000000000000000     
  -3.0619223875621782E-007   6.7372116048531134E-007   0.0000000000000000     
  -3.1468069486063300E-007   7.0975414042413052E-007   0.0000000000000000     
  -3.2312620530540705E-007   7.4662466702801052E-007   0.0000000000000000     
  -3.3152872442331444E-007   7.8432919435314474E-007   0.0000000000000000     
  -3.3988820654712956E-007   8.2286417645572655E-007   0.0000000000000000     
  -3.4820460600962726E-007   8.6222606739194913E-007   0.0000000000000000     
  -3.0891607489137511E-007   5.7341147925487954E-007   0.0000000000000000     
  -3.1838968089598191E-007   6.0689901881752825E-007   0.0000000000000000     
  -3.2781753072738035E-007   6.4123575872114639E-007   0.0000000000000000     
  -3.3719927926876631E-007   6.7641778023596910E-007   0.0000000000000000     
  -3.4653458140333593E-007   7.1244116463223257E-007   0.0000000000000000     
  -3.5582309201428506E-007   7.4930199318017142E-007   0.0000000000000000     
  -3.6506446598480959E-007   7.8699634715002100E-007   0.0000000000000000     
  -3.7425835819810575E-007   8.2552030781201708E-007   0.0000000000000000     
  -3.8340442353736936E-007   8.6486995643639438E-007   0.0000000000000000     
  -3.3747747377774885E-007   5.7639901214740185E-007   0.0000000000000000     
  -3.4780651882476245E-007   6.0987372174869596E-007   0.0000000000000000     
  -3.5808678060266592E-007   6.4419871357573497E-007   0.0000000000000000     
  -3.6831764567308826E-007   6.7936967677339023E-007   0.0000000000000000     
  -3.7849850059765858E-007   7.1538230048653289E-007   0.0000000000000000     
  -3.8862873193800620E-007   7.5223227386003431E-007   0.0000000000000000     
  -3.9870772625576002E-007   7.8991528603876607E-007   0.0000000000000000     
  -4.0873487011254963E-007   8.2842702616759931E-007   0.0000000000000000     
  -4.1870955007000370E-007   8.6776318339140539E-007   0.0000000000000000     
  -3.6616459084123455E-007   5.7964671490670395E-007   0.0000000000000000     
  -3.7734792964518688E-007   6.1310738566418130E-007   0.0000000000000000     
  -3.8847921429071203E-007   6.4741921555433348E-007   0.0000000000000000     
  -3.9955763629821072E-007   6.8257755426667343E-007   0.0000000000000000     
  -4.1058238718808339E-007   7.1857775149071315E-007   0.0000000000000000     
  -4.2155265848073045E-007   7.5541515691596579E-007   0.0000000000000000     
  -4.3246764169655254E-007   7.9308512023194366E-007   0.0000000000000000     
  -4.4332652835595002E-007   8.3158299112815961E-007   0.0000000000000000     
  -4.5412850997932345E-007   8.7090411929412627E-007   0.0000000000000000     
  -3.9498816710656748E-007   5.8315574366463759E-007   0.0000000000000000     
  -4.0702465697873540E-007   6.1660126305657998E-007   0.0000000000000000     
  -4.1900541379698789E-007   6.5089834249215008E-007   0.0000000000000000     
  -4.3092954947316151E-007   6.8604211688491826E-007   0.0000000000000000     
  -4.4279617591909276E-007   7.2202772114845555E-007   0.0000000000000000     
  -4.5460440504661799E-007   7.5885029019633180E-007   0.0000000000000000     
  -4.6635334876757359E-007   7.9650495894211791E-007   0.0000000000000000     
  -4.7804211899379635E-007   8.3498686229938479E-007   0.0000000000000000     
  -4.8966982763712217E-007   8.7429113518170198E-007   0.0000000000000000     
  -4.2395894359848285E-007   5.8692725455305536E-007   0.0000000000000000     
  -4.3684744444688859E-007   6.2035660641848843E-007   0.0000000000000000     
  -4.4967596112696246E-007   6.5463717222439279E-007   0.0000000000000000     
  -4.6244368352696807E-007   6.8976406879722491E-007   0.0000000000000000     
  -4.7514980153516927E-007   7.2573241296344179E-007   0.0000000000000000     
  -4.8779350503982861E-007   7.6253732154949904E-007   0.0000000000000000     
  -5.0037398392921025E-007   8.0017391138185314E-007   0.0000000000000000     
  -5.1289042809157728E-007   8.3863729928696099E-007   0.0000000000000000     
  -5.2534202741519306E-007   8.7792260209127810E-007   0.0000000000000000     
  -4.5308766134171583E-007   5.9096240370380923E-007   0.0000000000000000     
  -4.6682703567112644E-007   6.2437466824250195E-007   0.0000000000000000     
  -4.8050143828610467E-007   6.5863678258626935E-007   0.0000000000000000     
  -4.9411033678865816E-007   6.9374411417269282E-007   0.0000000000000000     
  -5.0765319878079495E-007   7.2969203043935363E-007   0.0000000000000000     
  -5.2112949186452260E-007   7.6647589882383347E-007   0.0000000000000000     
  -5.3453868364184912E-007   8.0409108676371330E-007   0.0000000000000000     
  -5.4788024171478229E-007   8.4253296169657502E-007   0.0000000000000000     
  -5.6115363368532977E-007   8.8179689105999960E-007   0.0000000000000000     
  -2.7808680048164603E-007   8.5769281888617440E-007   0.0000000000000000     
  -2.8470852246908113E-007   8.9790178909139268E-007   0.0000000000000000     
  -2.9129703749864339E-007   9.3893168865970620E-007   0.0000000000000000     
  -2.9785228808425810E-007   9.8077803694759772E-007   0.0000000000000000     
  -3.0437421673985031E-007   1.0234363533115500E-006   0.0000000000000000     
  -3.1086276597934494E-007   1.0669021571080456E-006   0.0000000000000000     
  -3.1731787831666715E-007   1.1111709676935676E-006   0.0000000000000000     
  -3.2373949626574185E-007   1.1562383044245980E-006   0.0000000000000000     
  -3.3012756234049422E-007   1.2020996866576195E-006   0.0000000000000000     
  -3.1310157311498388E-007   8.5983314522092426E-007   0.0000000000000000     
  -3.2054941809123969E-007   9.0003079627079227E-007   0.0000000000000000     
  -3.2795929757972737E-007   9.4104878192716427E-007   0.0000000000000000     
  -3.3533132329703249E-007   9.8288278263279561E-007   0.0000000000000000     
  -3.4266560695974072E-007   1.0255284788304420E-006   0.0000000000000000     
  -3.4996226028443783E-007   1.0689815509628582E-006   0.0000000000000000     
  -3.5722139498770960E-007   1.1132376794728002E-006   0.0000000000000000     
  -3.6444312278614160E-007   1.1582925448030235E-006   0.0000000000000000     
  -3.7162755539631954E-007   1.2041418273962831E-006   0.0000000000000000     
  -3.4820460600962726E-007   8.6222606739194913E-007   0.0000000000000000     
  -3.5647793700760393E-007   9.0241123821572916E-007   0.0000000000000000     
  -3.6470845319394502E-007   9.4341572797187652E-007   0.0000000000000000     
  -3.7289646808555775E-007   9.8523549270292417E-007   0.0000000000000000     
  -3.8104229519934946E-007   1.0278664884514056E-006   0.0000000000000000     
  -3.8914624805222748E-007   1.0713046712598535E-006   0.0000000000000000     
  -3.9720864016109925E-007   1.1155459971708011E-006   0.0000000000000000     
  -4.0522978504287183E-007   1.1605864222267819E-006   0.0000000000000000     
  -4.1320999621445277E-007   1.2064219024703286E-006   0.0000000000000000     
  -3.8340442353736936E-007   8.6486995643639438E-007   0.0000000000000000     
  -3.9250246167410644E-007   9.0504141042674175E-007   0.0000000000000000     
  -4.0155285143306249E-007   9.4603093172005752E-007   0.0000000000000000     
  -4.1055611642729322E-007   9.8783481838669275E-007   0.0000000000000000     
  -4.1951278026985443E-007   1.0304493684970004E-006   0.0000000000000000     
  -4.2842336657380145E-007   1.0738708801213305E-006   0.0000000000000000     
  -4.3728839895219000E-007   1.1180956513300355E-006   0.0000000000000000     
  -4.4610840101807599E-007   1.1631199801934665E-006   0.0000000000000000     
  -4.5488389638451474E-007   1.2089401647819747E-006   0.0000000000000000     
  -4.1870955007000370E-007   8.6776318339140539E-007   0.0000000000000000     
  -4.2863137454667962E-007   9.0791960840436802E-007   0.0000000000000000     
  -4.3850083938884544E-007   9.4889279809792162E-007   0.0000000000000000     
  -4.4831866229969778E-007   9.9067941091281221E-007   0.0000000000000000     
  -4.5808556098243300E-007   1.0332761052897856E-006   0.0000000000000000     
  -4.6780225314024712E-007   1.0766795396695891E-006   0.0000000000000000     
  -4.7746945647633664E-007   1.1208863724929686E-006   0.0000000000000000     
  -4.8708788869389793E-007   1.1658932622006710E-006   0.0000000000000000     
  -4.9665826749612685E-007   1.2116968672334416E-006   0.0000000000000000     
  -4.5412850997932345E-007   8.7090411929412627E-007   0.0000000000000000     
  -4.6487305808125606E-007   9.1104412764914638E-007   0.0000000000000000     
  -4.7556076415305988E-007   9.5199973203168288E-007   0.0000000000000000     
  -4.8619249968023056E-007   9.9376792150998976E-007   0.0000000000000000     
  -4.9676913614826275E-007   1.0363456851523204E-006   0.0000000000000000     
  -5.0729154504265185E-007   1.0797300120269279E-006   0.0000000000000000     
  -5.1776059784889265E-007   1.1239178912020660E-006   0.0000000000000000     
  -5.2817716605248020E-007   1.1689063117459881E-006   0.0000000000000000     
  -5.3854212113891014E-007   1.2146922627269479E-006   0.0000000000000000     
  -4.8966982763712217E-007   8.7429113518170198E-007   0.0000000000000000     
  -5.0123589473376838E-007   9.1441326366161418E-007   0.0000000000000000     
  -5.1274097281747177E-007   9.5535013844755608E-007   0.0000000000000000     
  -5.2418602254635002E-007   9.9709900140693626E-007   0.0000000000000000     
  -5.3557200457852148E-007   1.0396570944071638E-006   0.0000000000000000     
  -5.4689987957210309E-007   1.0830216593156470E-006   0.0000000000000000     
  -5.5817060818521245E-007   1.1271899379997934E-006   0.0000000000000000     
  -5.6938515107596756E-007   1.1721591723270126E-006   0.0000000000000000     
  -5.8054446890248517E-007   1.2179266041647129E-006   0.0000000000000000     
  -5.2534202741519306E-007   8.7792260209127810E-007   0.0000000000000000     
  -5.3772826696014900E-007   9.1802531194231045E-007   0.0000000000000000     
  -5.5004981247384684E-007   9.5894242227175547E-007   0.0000000000000000     
  -5.6230762487551614E-007   1.0006713018323615E-006   0.0000000000000000     
  -5.7450266508438682E-007   1.0432093193768755E-006   0.0000000000000000     
  -5.8663589401968801E-007   1.0865538436580445E-006   0.0000000000000000     
  -5.9870827260064983E-007   1.1307022434286158E-006   0.0000000000000000     
  -6.1072076174650227E-007   1.1756518874413377E-006   0.0000000000000000     
  -6.2267432237647407E-007   1.2214001444489560E-006   0.0000000000000000     
  -5.6115363368532977E-007   8.8179689105999960E-007   0.0000000000000000     
  -5.7435855721633070E-007   9.2187856799177265E-007   0.0000000000000000     
  -5.8749563021395112E-007   9.6277498843049542E-007   0.0000000000000000     
  -6.0056570064518712E-007   1.0044834740149741E-006   0.0000000000000000     
  -6.1356961647703608E-007   1.0470013463840137E-006   0.0000000000000000     
  -6.2650822567649465E-007   1.0903259271764205E-006   0.0000000000000000     
  -6.3938237621055967E-007   1.1344545380309997E-006   0.0000000000000000     
  -6.5219291604622821E-007   1.1793845005865565E-006   0.0000000000000000     
  -6.6494069315049721E-007   1.2251131364818973E-006   0.0000000000000000     
  -3.3012756234049422E-007   1.2020996866576195E-006   0.0000000000000000     
  -3.3648208218798868E-007   1.2487508499323367E-006   0.0000000000000000     
  -3.4280331398784823E-007   1.2961883945213418E-006   0.0000000000000000     
  -3.4909157905283518E-007   1.3444091368804474E-006   0.0000000000000000     
  -3.5534719869571185E-007   1.3934098934654686E-006   0.0000000000000000     
  -3.6157049422924059E-007   1.4431874807322175E-006   0.0000000000000000     
  -3.6776178696618393E-007   1.4937387151365092E-006   0.0000000000000000     
  -3.7392139821930402E-007   1.5450604131341570E-006   0.0000000000000000     
  -3.8004964930136327E-007   1.5971493911809735E-006   0.0000000000000000     
  -3.7162755539631954E-007   1.2041418273962831E-006   0.0000000000000000     
  -3.7877482759386717E-007   1.2507813809851005E-006   0.0000000000000000     
  -3.8588516639055901E-007   1.2982077524610602E-006   0.0000000000000000     
  -3.9295882185720815E-007   1.3464176620055119E-006   0.0000000000000000     
  -3.9999604406462716E-007   1.3954078297998070E-006   0.0000000000000000     
  -4.0699708308362855E-007   1.4451749760252939E-006   0.0000000000000000     
  -4.1396218898502539E-007   1.4957158208633243E-006   0.0000000000000000     
  -4.2089161183963028E-007   1.5470270844952489E-006   0.0000000000000000     
  -4.2778560171825580E-007   1.5991054871024160E-006   0.0000000000000000     
  -4.1320999621445277E-007   1.2064219024703286E-006   0.0000000000000000     
  -4.2114956096538667E-007   1.2530484910424829E-006   0.0000000000000000     
  -4.2904866167576755E-007   1.3004626294783207E-006   0.0000000000000000     
  -4.3690745449832684E-007   1.3486608564114251E-006   0.0000000000000000     
  -4.4472609558579566E-007   1.3976397104753812E-006   0.0000000000000000     
  -4.5250474109090559E-007   1.4473957303037717E-006   0.0000000000000000     
  -4.6024354716638798E-007   1.4979254545301815E-006   0.0000000000000000     
  -4.6794266996497401E-007   1.5492254217881946E-006   0.0000000000000000     
  -4.7560226563939511E-007   1.6012921707113942E-006   0.0000000000000000     
  -4.5488389638451474E-007   1.2089401647819747E-006   0.0000000000000000     
  -4.6361533015303246E-007   1.2555525044200616E-006   0.0000000000000000     
  -4.7230283337903588E-007   1.3029533034488211E-006   0.0000000000000000     
  -4.8094645860640274E-007   1.3511388674634972E-006   0.0000000000000000     
  -4.8954625837901095E-007   1.4001055020593355E-006   0.0000000000000000     
  -4.9810228524073722E-007   1.4498495128315787E-006   0.0000000000000000     
  -5.0661459173545905E-007   1.5003672053754707E-006   0.0000000000000000     
  -5.1508323040705470E-007   1.5516548852862567E-006   0.0000000000000000     
  -5.2350825379940092E-007   1.6037088581591786E-006   0.0000000000000000     
  -4.9665826749612685E-007   1.2116968672334416E-006   0.0000000000000000     
  -5.0618118300728941E-007   1.2582937454334132E-006   0.0000000000000000     
  -5.1565671503592637E-007   1.3056800522482598E-006   0.0000000000000000     
  -5.2508481581164839E-007   1.3538518425270405E-006   0.0000000000000000     
  -5.3446543756406551E-007   1.4028051711188145E-006   0.0000000000000000     
  -5.4379853252278837E-007   1.4525360928726423E-006   0.0000000000000000     
  -5.5308405291742700E-007   1.5030406626375824E-006   0.0000000000000000     
  -5.6232195097759185E-007   1.5543149352626949E-006   0.0000000000000000     
  -5.7151217893289294E-007   1.6063549655970392E-006   0.0000000000000000     
  -5.3854212113891014E-007   1.2146922627269479E-006   0.0000000000000000     
  -5.4885616737864255E-007   1.2612725383981157E-006   0.0000000000000000     
  -5.5911934018200105E-007   1.3086431537523347E-006   0.0000000000000000     
  -5.6933150774427498E-007   1.3567999289673631E-006   0.0000000000000000     
  -5.7949253826075312E-007   1.4057386842209615E-006   0.0000000000000000     
  -5.8960229992672447E-007   1.4554552396908892E-006   0.0000000000000000     
  -5.9966066093747846E-007   1.5059454155549058E-006   0.0000000000000000     
  -6.0966748948830431E-007   1.5572050319907717E-006   0.0000000000000000     
  -6.1962265377449069E-007   1.6092299091762449E-006   0.0000000000000000     
  -5.8054446890248517E-007   1.2179266041647129E-006   0.0000000000000000     
  -5.9164933111757653E-007   1.2644892076297466E-006   0.0000000000000000     
  -6.0269974235282213E-007   1.3118428858367435E-006   0.0000000000000000     
  -6.1369551603449392E-007   1.3599832741497764E-006   0.0000000000000000     
  -6.2463646558886583E-007   1.4089060079329198E-006   0.0000000000000000     
  -6.3552240444221097E-007   1.4586067225502473E-006   0.0000000000000000     
  -6.4635314602080159E-007   1.5090810533658313E-006   0.0000000000000000     
  -6.5712850375091173E-007   1.5603246357437464E-006   0.0000000000000000     
  -6.6784829105881377E-007   1.6123331050480659E-006   0.0000000000000000     
  -6.2267432237647407E-007   1.2214001444489560E-006   0.0000000000000000     
  -6.3456972207457733E-007   1.2679440774438833E-006   0.0000000000000000     
  -6.4640695508395144E-007   1.3152795263771850E-006   0.0000000000000000     
  -6.5818582231251750E-007   1.3634020254395919E-006   0.0000000000000000     
  -6.6990612466819794E-007   1.4123071088218350E-006   0.0000000000000000     
  -6.8156766305891292E-007   1.4619903107146435E-006   0.0000000000000000     
  -6.9317023839258391E-007   1.5124471653087486E-006   0.0000000000000000     
  -7.0471365157713339E-007   1.5636732067948824E-006   0.0000000000000000     
  -7.1619770352048211E-007   1.6156639693637715E-006   0.0000000000000000     
  -6.6494069315049721E-007   1.2251131364818973E-006   0.0000000000000000     
  -6.7762638810012902E-007   1.2716374721561029E-006   0.0000000000000000     
  -6.9025001191095155E-007   1.3189533532493571E-006   0.0000000000000000     
  -7.0281140820855767E-007   1.3670563302021188E-006   0.0000000000000000     
  -7.1531042061854142E-007   1.4159419534548488E-006   0.0000000000000000     
  -7.2774689276649546E-007   1.4656057734480055E-006   0.0000000000000000     
  -7.4012066827801350E-007   1.5160433406220490E-006   0.0000000000000000     
  -7.5243159077868884E-007   1.5672502054174381E-006   0.0000000000000000     
  -7.6467950389411478E-007   1.6192219182746322E-006   0.0000000000000000     
  -3.8004964930136327E-007   1.5971493911809735E-006   0.0000000000000000     
  -3.8614679478702894E-007   1.6500022549680596E-006   0.0000000000000000     
  -3.9221282229858675E-007   1.7036147671276618E-006   0.0000000000000000     
  -3.9824765272022747E-007   1.7579824795273128E-006   0.0000000000000000     
  -4.0425120693614152E-007   1.8131009440345444E-006   0.0000000000000000     
  -4.1022340583051993E-007   1.8689657125168904E-006   0.0000000000000000     
  -4.1616417028755305E-007   1.9255723368418828E-006   0.0000000000000000     
  -4.2207342119143161E-007   1.9829163688770545E-006   0.0000000000000000     
  -4.2795107942634642E-007   2.0409933604899396E-006   0.0000000000000000     
  -4.2778560171825580E-007   1.5991054871024160E-006   0.0000000000000000     
  -4.3464436673891109E-007   1.6519475712856829E-006   0.0000000000000000     
  -4.4146794720839029E-007   1.7055491693239282E-006   0.0000000000000000     
  -4.4825634148068403E-007   1.7599059359155381E-006   0.0000000000000000     
  -4.5500954790978257E-007   1.8150135257588967E-006   0.0000000000000000     
  -4.6172756484967622E-007   1.8708675935523894E-006   0.0000000000000000     
  -4.6841039065435575E-007   1.9274637939944006E-006   0.0000000000000000     
  -4.7505802367781143E-007   1.9847977817833165E-006   0.0000000000000000     
  -4.8167046227403377E-007   2.0428652116175205E-006   0.0000000000000000     
  -4.7560226563939511E-007   1.6012921707113942E-006   0.0000000000000000     
  -4.8322247973088049E-007   1.6541221273042577E-006   0.0000000000000000     
  -4.9080341533464877E-007   1.7077112670548302E-006   0.0000000000000000     
  -4.9834516493441741E-007   1.7620554528220512E-006   0.0000000000000000     
  -5.0584782101390333E-007   1.8171505474648595E-006   0.0000000000000000     
  -5.1331147605682282E-007   1.8729924138421932E-006   0.0000000000000000     
  -5.2073622254689354E-007   1.9295769148129916E-006   0.0000000000000000     
  -5.2812215296783209E-007   1.9868999132361939E-006   0.0000000000000000     
  -5.3546935980335497E-007   2.0449572719707370E-006   0.0000000000000000     
  -5.2350825379940092E-007   1.6037088581591786E-006   0.0000000000000000     
  -5.3188973774151666E-007   1.6565254012743720E-006   0.0000000000000000     
  -5.4022785120298515E-007   1.7101006786515323E-006   0.0000000000000000     
  -5.4852278643853075E-007   1.7644308259952426E-006   0.0000000000000000     
  -5.5677473570287805E-007   1.8195119790100884E-006   0.0000000000000000     
  -5.6498389125075129E-007   1.8753402734006550E-006   0.0000000000000000     
  -5.7315044533687506E-007   1.9319118448715265E-006   0.0000000000000000     
  -5.8127459021597380E-007   1.9892228291272884E-006   0.0000000000000000     
  -5.8935651814277264E-007   2.0472693618725253E-006   0.0000000000000000     
  -5.7151217893289294E-007   1.6063549655970392E-006   0.0000000000000000     
  -5.8065474474940071E-007   1.6591568714466173E-006   0.0000000000000000     
  -5.8974987933902254E-007   1.7127170224452004E-006   0.0000000000000000     
  -5.9879786935012688E-007   1.7670318511835040E-006   0.0000000000000000     
  -6.0779900143108091E-007   1.8220977902522412E-006   0.0000000000000000     
  -6.1675356223025264E-007   1.8779112722421268E-006   0.0000000000000000     
  -6.2566183839600945E-007   1.9344687297438756E-006   0.0000000000000000     
  -6.3452411657671863E-007   1.9917665953482015E-006   0.0000000000000000     
  -6.4334068342074882E-007   2.0498013016458184E-006   0.0000000000000000     
  -6.1962265377449069E-007   1.6092299091762449E-006   0.0000000000000000     
  -6.2952610473311242E-007   1.6620160160715800E-006   0.0000000000000000     
  -6.3937812426838485E-007   1.7155599167669998E-006   0.0000000000000000     
  -6.4917907702630904E-007   1.7698583241352254E-006   0.0000000000000000     
  -6.5892932765288636E-007   1.8249079510489729E-006   0.0000000000000000     
  -6.6862924079411787E-007   1.8807055103809619E-006   0.0000000000000000     
  -6.7827918109600420E-007   1.9372477150039093E-006   0.0000000000000000     
  -6.8787951320454652E-007   1.9945312777905337E-006   0.0000000000000000     
  -6.9743060176574629E-007   2.0525529116135547E-006   0.0000000000000000     
  -6.6784829105881377E-007   1.6123331050480659E-006   0.0000000000000000     
  -6.7851242167123211E-007   1.6651023133998491E-006   0.0000000000000000     
  -6.8912121051669461E-007   1.7186289799480968E-006   0.0000000000000000     
  -6.9967507282418047E-007   1.7729100405987991E-006   0.0000000000000000     
  -7.1017442382266875E-007   1.8279424312579414E-006   0.0000000000000000     
  -7.2061967874113832E-007   1.8837230878315116E-006   0.0000000000000000     
  -7.3101125280856878E-007   1.9402489462254979E-006   0.0000000000000000     
  -7.4134956125393857E-007   1.9975169423458869E-006   0.0000000000000000     
  -7.5163501930622751E-007   2.0555240120986691E-006   0.0000000000000000     
  -7.1619770352048211E-007   1.6156639693637715E-006   0.0000000000000000     
  -7.2762229954234019E-007   1.6684152416820135E-006   0.0000000000000000     
  -7.3898776260957542E-007   1.7219238303196567E-006   0.0000000000000000     
  -7.5029452010084358E-007   1.7761867963226141E-006   0.0000000000000000     
  -7.6154299939480201E-007   1.8312012007368012E-006   0.0000000000000000     
  -7.7273362787010553E-007   1.8869641046081285E-006   0.0000000000000000     
  -7.8386683290541150E-007   1.9434725689825122E-006   0.0000000000000000     
  -7.9494304187937570E-007   2.0007236549058630E-006   0.0000000000000000     
  -8.0596268217065484E-007   2.0587144234240969E-006   0.0000000000000000     
  -7.6467950389411478E-007   1.6192219182746322E-006   0.0000000000000000     
  -7.7686434232501709E-007   1.6719542791686624E-006   0.0000000000000000     
  -7.8898640507265066E-007   1.7254440862128446E-006   0.0000000000000000     
  -8.0104608221340245E-007   1.7796883870550645E-006   0.0000000000000000     
  -8.1304376382366005E-007   1.8346842293432098E-006   0.0000000000000000     
  -8.2497983997981051E-007   1.8904286607251669E-006   0.0000000000000000     
  -8.3685470075824101E-007   1.9469187288488216E-006   0.0000000000000000     
  -8.4866873623533858E-007   2.0041514813620624E-006   0.0000000000000000     
  -8.6042233648749115E-007   2.0621239659127755E-006   0.0000000000000000     
   0.0000000000000000        0.0000000000000000        0.0000000000000000     
  -1.2664352787815355E-008   1.6134862519915271E-009   0.0000000000000000     
  -2.5633328847055497E-008   4.7372281921487536E-009   0.0000000000000000     
  -3.8878922758585147E-008   9.3032048467413805E-009   0.0000000000000000     
  -5.2373129103268993E-008   1.5243395242039102E-008   0.0000000000000000     
  -6.6087942461971760E-008   2.2489778404311626E-008   0.0000000000000000     
  -7.9995357415558156E-008   3.0974333359828642E-008   0.0000000000000000     
  -9.4067368544892843E-008   4.0629039134859843E-008   0.0000000000000000     
  -1.0827597043084062E-007   5.1385874755674965E-008   0.0000000000000000     
   0.0000000000000000        0.0000000000000000        0.0000000000000000     
  -1.3592039346640759E-008   1.9806207790354941E-009   0.0000000000000000     
  -2.7471124907643463E-008   5.4687656910612950E-009   0.0000000000000000     
  -4.1615158529298689E-008   1.0393497004574647E-008   0.0000000000000000     
  -5.6002042057897012E-008   1.6683876988072803E-008   0.0000000000000000     
  -7.0609677339729008E-008   2.4268967910053016E-008   0.0000000000000000     
  -8.5415966221085206E-008   3.3077832039012504E-008   0.0000000000000000     
  -1.0039881054825622E-007   4.3039531643448552E-008   0.0000000000000000     
  -1.1553611216753264E-007   5.4083128991858392E-008   0.0000000000000000     
   0.0000000000000000        0.0000000000000000        0.0000000000000000     
  -1.4552381509591124E-008   2.3921594854795098E-009   0.0000000000000000     
  -2.9366537823310581E-008   6.2841743477061169E-009   0.0000000000000000     
  -4.4427711453848978E-008   1.1602623965053481E-008   0.0000000000000000     
  -5.9721144913896910E-008   1.8274087715895253E-008   0.0000000000000000     
  -7.5232080716145030E-008   2.6225144978605121E-008   0.0000000000000000     
  -9.0945761373283905E-008   3.5382375131556720E-008   0.0000000000000000     
  -1.0684742939800410E-007   4.5672357553123723E-008   0.0000000000000000     
  -1.2292232730299630E-007   5.7021671621679782E-008   0.0000000000000000     
   0.0000000000000000        0.0000000000000000        0.0000000000000000     
  -1.5528413725713822E-008   2.8543359940464534E-009   0.0000000000000000     
  -3.1296947244039819E-008   7.1969980407705496E-009   0.0000000000000000     
  -4.7297176800805654E-008   1.2951896687684742E-008   0.0000000000000000     
  -6.3520678641838991E-008   2.0042942482301474E-008   0.0000000000000000     
  -7.9959029012967526E-008   2.8394045972133216E-008   0.0000000000000000     
  -9.6603804160018897E-008   3.7929117704692411E-008   0.0000000000000000     
  -1.1344658032882075E-007   4.8572068227491505E-008   0.0000000000000000     
  -1.3047893376520086E-007   6.0246808088042962E-008   0.0000000000000000     
   0.0000000000000000        0.0000000000000000        0.0000000000000000     
  -1.6503170444056215E-008   3.3733839274592011E-009   0.0000000000000000     
  -3.3239732819814118E-008   8.2207806489419202E-009   0.0000000000000000     
  -5.0204149838738319E-008   1.4462626131975297E-008   0.0000000000000000     
  -6.7390884212293483E-008   2.2019356344086470E-008   0.0000000000000000     
  -8.4794398651944133E-008   3.0811407252802559E-008   0.0000000000000000     
  -1.0240915586915493E-007   4.0759214825650702E-008   0.0000000000000000     
  -1.2022961857539052E-007   5.1783215030158079E-008   0.0000000000000000     
  -1.3825024948211547E-007   6.3803843833851758E-008   0.0000000000000000     
   0.0000000000000000        0.0000000000000000        0.0000000000000000     
  -1.7459686113665649E-008   3.9555369084406283E-009   0.0000000000000000     
  -3.5172274200616432E-008   9.3690660509075641E-009   0.0000000000000000     
  -5.3129225836216655E-008   1.6156123257432022E-008   0.0000000000000000     
  -7.1322002595830585E-008   2.4232244358045227E-008   0.0000000000000000     
  -8.9742066054822578E-008   3.3512965182778410E-008   0.0000000000000000     
  -1.0838087778855680E-007   4.3913821561662774E-008   0.0000000000000000     
  -1.2722989937239770E-007   5.5350349324729560E-008   0.0000000000000000     
  -1.4628059238170940E-007   6.7738084302009936E-008   0.0000000000000000     
   0.0000000000000000        0.0000000000000000        0.0000000000000000     
  -1.8380995183589490E-008   4.6070285597136120E-009   0.0000000000000000     
  -3.7071951036429726E-008   1.0655398125354801E-008   0.0000000000000000     
  -5.6053000061810256E-008   1.8053699023561784E-008   0.0000000000000000     
  -7.5304274763020631E-008   2.6710521580972781E-008   0.0000000000000000     
  -9.4805907643350457E-008   3.6534456124226039E-008   0.0000000000000000     
  -1.1453803120608923E-007   4.7434092979959736E-008   0.0000000000000000     
  -1.3448077795452649E-007   5.9318022474812110E-008   0.0000000000000000     
  -1.5461428039195184E-007   7.2094834935421383E-008   0.0000000000000000     
   0.0000000000000000        0.0000000000000000        0.0000000000000000     
  -1.9250132102875096E-008   5.3340925040010293E-009   0.0000000000000000     
  -3.8916142977236934E-008   1.2093320750970961E-008   0.0000000000000000     
  -5.8956067784088771E-008   2.0176664389871450E-008   0.0000000000000000     
  -7.9327941684433887E-008   2.9483103069664142E-008   0.0000000000000000     
  -9.9989799839275511E-008   3.9911616439310684E-008   0.0000000000000000     
  -1.2089967740961687E-007   5.1361184147772711E-008   0.0000000000000000     
  -1.4201560955646134E-007   6.3730785844011903E-008   0.0000000000000000     
  -1.6329563144081201E-007   7.6919401176989865E-008   0.0000000000000000     
   0.0000000000000000        0.0000000000000000        0.0000000000000000     
  -2.0050131320569813E-008   6.1429623640257551E-009   0.0000000000000000     
  -4.0682229673021010E-008   1.3696377806443382E-008   0.0000000000000000     
  -6.1819024271621854E-008   2.2546330315867895E-008   0.0000000000000000     
  -8.3383244330640540E-008   3.2578903880914294E-008   0.0000000000000000     
  -1.0529761906434535E-007   4.3680182490197624E-008   0.0000000000000000     
  -1.2748487768700458E-007   5.5736250132332868E-008   0.0000000000000000     
  -1.4986774941288641E-007   6.8633190795935067E-008   0.0000000000000000     
  -1.7236896345625917E-007   8.2257088469619241E-008   0.0000000000000000     
  -1.0827597043084062E-007   5.1385874755674965E-008   0.0000000000000000     
  -1.2259529978471392E-007   6.3185558437971202E-008   0.0000000000000000     
  -1.3700806183961647E-007   7.6003765155155979E-008   0.0000000000000000     
  -1.5149910395909983E-007   8.9824909070064222E-008   0.0000000000000000     
  -1.6605327350671546E-007   1.0463340434553087E-007   0.0000000000000000     
  -1.8065541784601492E-007   1.2041366514439094E-007   0.0000000000000000     
  -1.9529038434054977E-007   1.3715010562947928E-007   0.0000000000000000     
  -2.0994302035387147E-007   1.5482713996363081E-007   0.0000000000000000     
  -2.2459817324953162E-007   1.7342918230968063E-007   0.0000000000000000     
  -1.1553611216753264E-007   5.4083128991858392E-008   0.0000000000000000     
  -1.3080603764018328E-007   6.6146903082993951E-008   0.0000000000000000     
  -1.4618781238739035E-007   7.9205999836625769E-008   0.0000000000000000     
  -1.6166092654531428E-007   9.3244781902779149E-008   0.0000000000000000     
  -1.7720487025011550E-007   1.0824761193147938E-007   0.0000000000000000     
  -1.9279913363795444E-007   1.2419885257275164E-007   0.0000000000000000     
  -2.0842320684499170E-007   1.4108286647662127E-007   0.0000000000000000     
  -2.2405658000738755E-007   1.5888401629311346E-007   0.0000000000000000     
  -2.3967874326130250E-007   1.7758666467225353E-007   0.0000000000000000     
  -1.2292232730299630E-007   5.7021671621679782E-008   0.0000000000000000     
  -1.3915371962171042E-007   6.9366498904558840E-008   0.0000000000000000     
  -1.5551695897063338E-007   8.2681429724935681E-008   0.0000000000000000     
  -1.7198541998701168E-007   9.6950656594945634E-008   0.0000000000000000     
  -1.8853247730809150E-007   1.1215837202672360E-007   0.0000000000000000     
  -2.0513150557111929E-007   1.2828876853240486E-007   0.0000000000000000     
  -2.2175587941334131E-007   1.4532603862412460E-007   0.0000000000000000     
  -2.3837897347200395E-007   1.6325437481401782E-007   0.0000000000000000     
  -2.5497416238435345E-007   1.8205796961421974E-007   0.0000000000000000     
  -1.3047893376520086E-007   6.0246808088042962E-008   0.0000000000000000     
  -1.4768842996702129E-007   7.2887365123308856E-008   0.0000000000000000     
  -1.6504659144028223E-007   8.6468236328049865E-008   0.0000000000000000     
  -1.8252092994301814E-007   1.0097403598647619E-007   0.0000000000000000     
  -2.0007895723326364E-007   1.1638937838279814E-007   0.0000000000000000     
  -2.1768818506905335E-007   1.3269887780122598E-007   0.0000000000000000     
  -2.3531612520842190E-007   1.4988714852596990E-007   0.0000000000000000     
  -2.5293028940940360E-007   1.6793880484124023E-007   0.0000000000000000     
  -2.7049818943003332E-007   1.8683846103124720E-007   0.0000000000000000     
  -1.3825024948211547E-007   6.3803843833851758E-008   0.0000000000000000     
  -1.5646025291384212E-007   7.6752520959887109E-008   0.0000000000000000     
  -1.7482779964727335E-007   9.0604601153932282E-008   0.0000000000000000     
  -1.9331580207215985E-007   1.0534642291728360E-007   0.0000000000000000     
  -2.1188717257825209E-007   1.2096432475123742E-007   0.0000000000000000     
  -2.3050482355530078E-007   1.3744464515709010E-007   0.0000000000000000     
  -2.4913166739305650E-007   1.5477372263613789E-007   0.0000000000000000     
  -2.6773061648126987E-007   1.7293789568967728E-007   0.0000000000000000     
  -2.8626458320969134E-007   1.9192350281900445E-007   0.0000000000000000     
  -1.4628059238170940E-007   6.7738084302009936E-008   0.0000000000000000     
  -1.6551927269989895E-007   8.1004985634936534E-008   0.0000000000000000     
  -1.8491167344254349E-007   9.5128705710546975E-008   0.0000000000000000     
  -2.0441838203326281E-007   1.1009932022728044E-007   0.0000000000000000     
  -2.2399998589567693E-007   1.2590690488357595E-007   0.0000000000000000     
  -2.4361707245340549E-007   1.4254153537787250E-007   0.0000000000000000     
  -2.6323022913006836E-007   1.5999328740860928E-007   0.0000000000000000     
  -2.8280004334928538E-007   1.7825223667422519E-007   0.0000000000000000     
  -3.0228710253467638E-007   1.9730845887315944E-007   0.0000000000000000     
  -1.5461428039195184E-007   7.2094834935421383E-008   0.0000000000000000     
  -1.7491557356291789E-007   8.5687778369100107E-008   0.0000000000000000     
  -1.9534930267702914E-007   1.0007873150585806E-007   0.0000000000000000     
  -2.1587701548515350E-007   1.1526423075637941E-007   0.0000000000000000     
  -2.3646025973815832E-007   1.3124081253134815E-007   0.0000000000000000     
  -2.5706058318691153E-007   1.4800501324144857E-007   0.0000000000000000     
  -2.7763953358228067E-007   1.6555336929736470E-007   0.0000000000000000     
  -2.9815865867513330E-007   1.8388241710978059E-007   0.0000000000000000     
  -3.1857950621633734E-007   2.0298869308938042E-007   0.0000000000000000     
  -1.6329563144081201E-007   7.6919401176989865E-008   0.0000000000000000     
  -1.8469923974062501E-007   9.0843918383020897E-008   0.0000000000000000     
  -2.0619177720166699E-007   1.0549286004782954E-007   0.0000000000000000     
  -2.2774004808665765E-007   1.2087265734449306E-007   0.0000000000000000     
  -2.4931085665831648E-007   1.3698974144608866E-007   0.0000000000000000     
  -2.7087100717936282E-007   1.5385054352569343E-007   0.0000000000000000     
  -2.9238730391251648E-007   1.7146149475638480E-007   0.0000000000000000     
  -3.1382655112049693E-007   1.8982902631123983E-007   0.0000000000000000     
  -3.3515555306602347E-007   2.0895956936333569E-007   0.0000000000000000     
  -1.7236896345625917E-007   8.2257088469619241E-008   0.0000000000000000     
  -1.9492035547074639E-007   9.6516424897341839E-008   0.0000000000000000     
  -2.1749018686739370E-007   1.1140927284442544E-007   0.0000000000000000     
  -2.4005582549660164E-007   1.2695610283153411E-007   0.0000000000000000     
  -2.6259463920877140E-007   1.4317738537933180E-007   0.0000000000000000     
  -2.8508399585430356E-007   1.6009359100848248E-007   0.0000000000000000     
  -3.0750126328359907E-007   1.7772519023965033E-007   0.0000000000000000     
  -3.2982380934705880E-007   1.9609265359349933E-007   0.0000000000000000     
  -3.5202900189508368E-007   2.1521645159069339E-007   0.0000000000000000     
  -2.2459817324953162E-007   1.7342918230968063E-007   0.0000000000000000     
  -2.3924199111324411E-007   1.9294219095126436E-007   0.0000000000000000     
  -2.5386582491937314E-007   2.1335830065522136E-007   0.0000000000000000     
  -2.6846232636444506E-007   2.3467119030919177E-007   0.0000000000000000     
  -2.8302414714498648E-007   2.5687453880081570E-007   0.0000000000000000     
  -2.9754393895752410E-007   2.7996202501773318E-007   0.0000000000000000     
  -3.1201435349858409E-007   3.0392732784758462E-007   0.0000000000000000     
  -3.2642804246469348E-007   3.2876412617800977E-007   0.0000000000000000     
  -3.4077765755237844E-007   3.5446609889664902E-007   0.0000000000000000     
  -2.3967874326130250E-007   1.7758666467225353E-007   0.0000000000000000     
  -2.5527176717056955E-007   1.9717722099507493E-007   0.0000000000000000     
  -2.7082804400971160E-007   2.1765028156664408E-007   0.0000000000000000     
  -2.8634254648092401E-007   2.3900248942303545E-007   0.0000000000000000     
  -3.0181024728640214E-007   2.6123048760032363E-007   0.0000000000000000     
  -3.1722611912834158E-007   2.8433091913458343E-007   0.0000000000000000     
  -3.3258513470893759E-007   3.0830042706188909E-007   0.0000000000000000     
  -3.4788226673038553E-007   3.3313565441831557E-007   0.0000000000000000     
  -3.6311248789488083E-007   3.5883324423993712E-007   0.0000000000000000     
  -2.5497416238435345E-007   1.8205796961421974E-007   0.0000000000000000     
  -2.7151891613942488E-007   2.0172368526992392E-007   0.0000000000000000     
  -2.8800708613340744E-007   2.2224906295855779E-007   0.0000000000000000     
  -3.0443661911427952E-007   2.4363431359060753E-007   0.0000000000000000     
  -3.2080546183001878E-007   2.6587964807655896E-007   0.0000000000000000     
  -3.3711156102860338E-007   2.8898527732689819E-007   0.0000000000000000     
  -3.5335286345801150E-007   3.1295141225211099E-007   0.0000000000000000     
  -3.6952731586622089E-007   3.3777826376268355E-007   0.0000000000000000     
  -3.8563286500120963E-007   3.6346604276910168E-007   0.0000000000000000     
  -2.7049818943003332E-007   1.8683846103124720E-007   0.0000000000000000     
  -2.8799294878091067E-007   2.0657395315883188E-007   0.0000000000000000     
  -3.0541013798289481E-007   2.2714600440135778E-007   0.0000000000000000     
  -3.2275093930941020E-007   2.4855855971481911E-007   0.0000000000000000     
  -3.4001653503388182E-007   2.7081556405521034E-007   0.0000000000000000     
  -3.5720810742973351E-007   2.9392096237852565E-007   0.0000000000000000     
  -3.7432683877038987E-007   3.1787869964075938E-007   0.0000000000000000     
  -3.9137391132927568E-007   3.4269272079790602E-007   0.0000000000000000     
  -4.0835050737981488E-007   3.6836697080595961E-007   0.0000000000000000     
  -2.8626458320969134E-007   1.9192350281900445E-007   0.0000000000000000     
  -3.0470337585612752E-007   2.1172039404481979E-007   0.0000000000000000     
  -3.2304438625060723E-007   2.3233246546543879E-007   0.0000000000000000     
  -3.4129190211121524E-007   2.5376712469858118E-007   0.0000000000000000     
  -3.5945021115603647E-007   2.7603177936196657E-007   0.0000000000000000     
  -3.7752360110315548E-007   2.9913383707331425E-007   0.0000000000000000     
  -3.9551635967065714E-007   3.2308070545034415E-007   0.0000000000000000     
  -4.1343277457662606E-007   3.4787979211077571E-007   0.0000000000000000     
  -4.3127713353914718E-007   3.7353850467232840E-007   0.0000000000000000     
  -3.0228710253467638E-007   1.9730845887315944E-007   0.0000000000000000     
  -3.2165970812617608E-007   2.1715537731090811E-007   0.0000000000000000     
  -3.4091701762897855E-007   2.3779980572119594E-007   0.0000000000000000     
  -3.6006590256459297E-007   2.5925190544480476E-007   0.0000000000000000     
  -3.7911323445452809E-007   2.8152183782251626E-007   0.0000000000000000     
  -3.9806588482029293E-007   3.0461976419511221E-007   0.0000000000000000     
  -4.1693072518339671E-007   3.2855584590337444E-007   0.0000000000000000     
  -4.3571462706534825E-007   3.5334024428808490E-007   0.0000000000000000     
  -4.5442446198765667E-007   3.7898312069002529E-007   0.0000000000000000     
  -3.1857950621633734E-007   2.0298869308938042E-007   0.0000000000000000     
  -3.3887145635215708E-007   2.2287127234011792E-007   0.0000000000000000     
  -3.5903521881044280E-007   2.4353938473902435E-007   0.0000000000000000     
  -3.7907933571444206E-007   2.6500479885640075E-007   0.0000000000000000     
  -3.9901234918740193E-007   2.8727928326254825E-007   0.0000000000000000     
  -4.1884280135256985E-007   3.1037460652776767E-007   0.0000000000000000     
  -4.3857923433319293E-007   3.3430253722235993E-007   0.0000000000000000     
  -4.5823019025251841E-007   3.5907484391662628E-007   0.0000000000000000     
  -4.7780421123379341E-007   3.8470329518086730E-007   0.0000000000000000     
  -3.3515555306602347E-007   2.0895956936333569E-007   0.0000000000000000     
  -3.5634813129517101E-007   2.2886044851546974E-007   0.0000000000000000     
  -3.7740617648743362E-007   2.4954256208931891E-007   0.0000000000000000     
  -3.9833859660566127E-007   2.7101770183628037E-007   0.0000000000000000     
  -4.1915429961270353E-007   2.9329765950775146E-007   0.0000000000000000     
  -4.3986219347140971E-007   3.1639422685512875E-007   0.0000000000000000     
  -4.6047118614462961E-007   3.4031919562981004E-007   0.0000000000000000     
  -4.8099018559521260E-007   3.6508435758319204E-007   0.0000000000000000     
  -5.0142809978600830E-007   3.9070150446667182E-007   0.0000000000000000     
  -3.5202900189508368E-007   2.1521645159069339E-007   0.0000000000000000     
  -3.7409924371631835E-007   2.3511527521998435E-007   0.0000000000000000     
  -3.9603707735238495E-007   2.5580069734247468E-007   0.0000000000000000     
  -4.1785008028314959E-007   2.7728251128735461E-007   0.0000000000000000     
  -4.3954582998847803E-007   2.9957051038381437E-007   0.0000000000000000     
  -4.6113190394823641E-007   3.2267448796104421E-007   0.0000000000000000     
  -4.8261587964229063E-007   3.4660423734823426E-007   0.0000000000000000     
  -5.0400533455050697E-007   3.7136955187457484E-007   0.0000000000000000     
  -5.2530784615275133E-007   3.9698022486925609E-007   0.0000000000000000     
  -3.4077765755237844E-007   3.5446609889664902E-007   0.0000000000000000     
  -3.5505722065177484E-007   3.8102788734927819E-007   0.0000000000000000     
  -3.6926623442745567E-007   4.0844798271421635E-007   0.0000000000000000     
  -3.8340557173760300E-007   4.3672583862791840E-007   0.0000000000000000     
  -3.9747610544039921E-007   4.6586090872683953E-007   0.0000000000000000     
  -4.1147870839402644E-007   4.9585264664743424E-007   0.0000000000000000     
  -4.2541425345666687E-007   5.2670050602615734E-007   0.0000000000000000     
  -4.3928361348650251E-007   5.5840394049946401E-007   0.0000000000000000     
  -4.5308766134171583E-007   5.9096240370380923E-007   0.0000000000000000     
  -3.6311248789488083E-007   3.5883324423993712E-007   0.0000000000000000     
  -3.7827163398560564E-007   3.8539024058848938E-007   0.0000000000000000     
  -3.9335899310968793E-007   4.1280529162835013E-007   0.0000000000000000     
  -4.0837471645524252E-007   4.4107744654955861E-007   0.0000000000000000     
  -4.2331895521038406E-007   4.7020575454215353E-007   0.0000000000000000     
  -4.3819186056322742E-007   5.0018926479617392E-007   0.0000000000000000     
  -4.5299358370188714E-007   5.3102702650165851E-007   0.0000000000000000     
  -4.6772427581447814E-007   5.6271808884864644E-007   0.0000000000000000     
  -4.8238408808911497E-007   5.9526150102717614E-007   0.0000000000000000     
  -3.8563286500120963E-007   3.6346604276910168E-007   0.0000000000000000     
  -4.0166766024475171E-007   3.9001463693501147E-007   0.0000000000000000     
  -4.1763066151380365E-007   4.1742264093669883E-007   0.0000000000000000     
  -4.3352103135911885E-007   4.4568832620361008E-007   0.0000000000000000     
  -4.4933793233144964E-007   4.7480996416519104E-007   0.0000000000000000     
  -4.6508052698154880E-007   5.0478582625088773E-007   0.0000000000000000     
  -4.8074797786016893E-007   5.3561418389014660E-007   0.0000000000000000     
  -4.9633944751806310E-007   5.6729330851241356E-007   0.0000000000000000     
  -5.1185409850598377E-007   5.9982147154713428E-007   0.0000000000000000     
  -4.0835050737981488E-007   3.6836697080595961E-007   0.0000000000000000     
  -4.2525729083545411E-007   3.9490429264795313E-007   0.0000000000000000     
  -4.4209285216972643E-007   4.2230312141507352E-007   0.0000000000000000     
  -4.5885526349618686E-007   4.5056079022554601E-007   0.0000000000000000     
  -4.7554259692839070E-007   4.7967463219759661E-007   0.0000000000000000     
  -4.9215292457989277E-007   5.0964198044945038E-007   0.0000000000000000     
  -5.0868431856424800E-007   5.4046016809933281E-007   0.0000000000000000     
  -5.2513485099501189E-007   5.7212652826546974E-007   0.0000000000000000     
  -5.4150259398573894E-007   6.0463839406608608E-007   0.0000000000000000     
  -4.3127713353914718E-007   3.7353850467232840E-007   0.0000000000000000     
  -4.4905251716395454E-007   4.0006242398642318E-007   0.0000000000000000     
  -4.6675717760737917E-007   4.2744982383928479E-007   0.0000000000000000     
  -4.8438815991340158E-007   4.5569715125083994E-007   0.0000000000000000     
  -5.0194250912600224E-007   4.8480085324101457E-007   0.0000000000000000     
  -5.1941727028916193E-007   5.1475737682973505E-007   0.0000000000000000     
  -5.3680948844686049E-007   5.4556316903692781E-007   0.0000000000000000     
  -5.5411620864307911E-007   5.7721467688251890E-007   0.0000000000000000     
  -5.7133447592179774E-007   6.0970834738643460E-007   0.0000000000000000     
  -4.5442446198765667E-007   3.7898312069002529E-007   0.0000000000000000     
  -4.7306533063649400E-007   4.0549224720952986E-007   0.0000000000000000     
  -4.9163525035668489E-007   4.3286583898514371E-007   0.0000000000000000     
  -5.1013046765771735E-007   4.6109972191496437E-007   0.0000000000000000     
  -5.2854722904907911E-007   4.9018972189708938E-007   0.0000000000000000     
  -5.4688178104025830E-007   5.2013166482961603E-007   0.0000000000000000     
  -5.6513037014074230E-007   5.5092137661064217E-007   0.0000000000000000     
  -5.8328924286001927E-007   5.8255468313826540E-007   0.0000000000000000     
  -6.0135464570757679E-007   6.1502741031058279E-007   0.0000000000000000     
  -4.7780421123379341E-007   3.8470329518086730E-007   0.0000000000000000     
  -4.9730772265931376E-007   4.1119697857638218E-007   0.0000000000000000     
  -5.1673868294756696E-007   4.3855425762846118E-007   0.0000000000000000     
  -5.3609293377608910E-007   4.6677081485339282E-007   0.0000000000000000     
  -5.5536631682241606E-007   4.9584233276746554E-007   0.0000000000000000     
  -5.7455467376408394E-007   5.2576449388696754E-007   0.0000000000000000     
  -5.9365384627862884E-007   5.5653298072818722E-007   0.0000000000000000     
  -6.1265967604358686E-007   5.8814347580741306E-007   0.0000000000000000     
  -6.3156800473649334E-007   6.2059166164093328E-007   0.0000000000000000     
  -5.0142809978600830E-007   3.9070150446667182E-007   0.0000000000000000     
  -5.2179168463865547E-007   4.1717983434608862E-007   0.0000000000000000     
  -5.4207908790994877E-007   4.4451817054504791E-007   0.0000000000000000     
  -5.6228630531547168E-007   4.7271274270159829E-007   0.0000000000000000     
  -5.8240933257080798E-007   5.0175978045378754E-007   0.0000000000000000     
  -6.0244416539154168E-007   5.3165551343966316E-007   0.0000000000000000     
  -6.2238679949325655E-007   5.6239617129727329E-007   0.0000000000000000     
  -6.4223323059153596E-007   5.9397798366466614E-007   0.0000000000000000     
  -6.6197945440196391E-007   6.2639718017988935E-007   0.0000000000000000     
  -5.2530784615275133E-007   3.9698022486925609E-007   0.0000000000000000     
  -5.4652920798076023E-007   4.2344403077775750E-007   0.0000000000000000     
  -5.6766807777375286E-007   4.5076066851071500E-007   0.0000000000000000     
  -5.8872132932281945E-007   4.7892781809505413E-007   0.0000000000000000     
  -6.0968583641904979E-007   5.0794315955769963E-007   0.0000000000000000     
  -6.3055847285353347E-007   5.3780437292557719E-007   0.0000000000000000     
  -6.5133611241736102E-007   5.6850913822561172E-007   0.0000000000000000     
  -6.7201562890162181E-007   6.0005513548472876E-007   0.0000000000000000     
  -6.9259389609740596E-007   6.3244004472985353E-007   0.0000000000000000     
  -4.5308766134171583E-007   5.9096240370380923E-007   0.0000000000000000     
  -4.6682703567112644E-007   6.2437466824250195E-007   0.0000000000000000     
  -4.8050143828610467E-007   6.5863678258626935E-007   0.0000000000000000     
  -4.9411033678865816E-007   6.9374411417269282E-007   0.0000000000000000     
  -5.0765319878079495E-007   7.2969203043935363E-007   0.0000000000000000     
  -5.2112949186452260E-007   7.6647589882383347E-007   0.0000000000000000     
  -5.3453868364184912E-007   8.0409108676371330E-007   0.0000000000000000     
  -5.4788024171478229E-007   8.4253296169657502E-007   0.0000000000000000     
  -5.6115363368532977E-007   8.8179689105999960E-007   0.0000000000000000     
  -4.8238408808911497E-007   5.9526150102717614E-007   0.0000000000000000     
  -4.9697314060533383E-007   6.2865579171374675E-007   0.0000000000000000     
  -5.1149142900835548E-007   6.6289740753069457E-007   0.0000000000000000     
  -5.2593891783482260E-007   6.9798227458681574E-007   0.0000000000000000     
  -5.4031557162137732E-007   7.3390631899090713E-007   0.0000000000000000     
  -5.5462135490466191E-007   7.7066546685176434E-007   0.0000000000000000     
  -5.6885623222131871E-007   8.0825564427818435E-007   0.0000000000000000     
  -5.8302016810798999E-007   8.4667277737896266E-007   0.0000000000000000     
  -5.9711312710131821E-007   8.8591279226289604E-007   0.0000000000000000     
  -5.1185409850598377E-007   5.9982147154713428E-007   0.0000000000000000     
  -5.2729133453301245E-007   6.3319668278746563E-007   0.0000000000000000     
  -5.4265152394154544E-007   6.6741590548140593E-007   0.0000000000000000     
  -5.5793527623230709E-007   7.0247584124066459E-007   0.0000000000000000     
  -5.7314320090602262E-007   7.3837319167694994E-007   0.0000000000000000     
  -5.8827590746341670E-007   7.7510465840197130E-007   0.0000000000000000     
  -6.0333400540521422E-007   8.1266694302743784E-007   0.0000000000000000     
  -6.1831810423213986E-007   8.5105674716505803E-007   0.0000000000000000     
  -6.3322881344491840E-007   8.9027077242654105E-007   0.0000000000000000     
  -5.4150259398573894E-007   6.0463839406608608E-007   0.0000000000000000     
  -5.5778615907006864E-007   6.3799313811143138E-007   0.0000000000000000     
  -5.7398631546197637E-007   6.7218829097984854E-007   0.0000000000000000     
  -5.9010437179552101E-007   7.0722142274170395E-007   0.0000000000000000     
  -6.0614163670476260E-007   7.4309010346736485E-007   0.0000000000000000     
  -6.2209941882375992E-007   7.7979190322719731E-007   0.0000000000000000     
  -6.3797902678657270E-007   8.1732439209156824E-007   0.0000000000000000     
  -6.5378176922726056E-007   8.5568514013084405E-007   0.0000000000000000     
  -6.6950895477988227E-007   8.9487171741539184E-007   0.0000000000000000     
  -5.7133447592179774E-007   6.0970834738643460E-007   0.0000000000000000     
  -5.8846215583240882E-007   6.4304095433341688E-007   0.0000000000000000     
  -6.0550039594595085E-007   6.7721057856746590E-007   0.0000000000000000     
  -6.2245116433887380E-007   7.1221562769739947E-007   0.0000000000000000     
  -6.3931642908762794E-007   7.4805450933203345E-007   0.0000000000000000     
  -6.5609815826866407E-007   7.8472563108018469E-007   0.0000000000000000     
  -6.7279831995843163E-007   8.2222740055066958E-007   0.0000000000000000     
  -6.8941888223338141E-007   8.6055822535230508E-007   0.0000000000000000     
  -7.0596181316996326E-007   8.9971651309390706E-007   0.0000000000000000     
  -6.0135464570757679E-007   6.1502741031058279E-007   0.0000000000000000     
  -6.1932386643593896E-007   6.4833592810119375E-007   0.0000000000000000     
  -6.3719835776977061E-007   6.8247878278570240E-007   0.0000000000000000     
  -6.5498061367677420E-007   7.1745506471521531E-007   0.0000000000000000     
  -6.7267312812465060E-007   7.5326386424083788E-007   0.0000000000000000     
  -6.9027839508110125E-007   7.8990427171367606E-007   0.0000000000000000     
  -7.0779890851382753E-007   8.2737537748483599E-007   0.0000000000000000     
  -7.2523716239053108E-007   8.6567627190542362E-007   0.0000000000000000     
  -7.4259565067891310E-007   9.0480604532654466E-007   0.0000000000000000     
  -6.3156800473649334E-007   6.2059166164093328E-007   0.0000000000000000     
  -6.5037583249656518E-007   6.5387385606253573E-007   0.0000000000000000     
  -6.6908479330973896E-007   6.8798891817600259E-007   0.0000000000000000     
  -6.8769767962363197E-007   7.2293634240261679E-007   0.0000000000000000     
  -7.0621728388586139E-007   7.5871562316365975E-007   0.0000000000000000     
  -7.2464639854404416E-007   7.9532625488041397E-007   0.0000000000000000     
  -7.4298781604579767E-007   8.3276773197416099E-007   0.0000000000000000     
  -7.6124432883873878E-007   8.7103954886618362E-007   0.0000000000000000     
  -7.7941872937048477E-007   9.1014119997776309E-007   0.0000000000000000     
  -6.6197945440196391E-007   6.2639718017988935E-007   0.0000000000000000     
  -6.8162259563019397E-007   6.5965053486521476E-007   0.0000000000000000     
  -7.0116429494215742E-007   6.9373699927981033E-007   0.0000000000000000     
  -7.2060732199385617E-007   7.2865606936706861E-007   0.0000000000000000     
  -7.3995444644129203E-007   7.6440724107038171E-007   0.0000000000000000     
  -7.5920843794046553E-007   8.0099001033314093E-007   0.0000000000000000     
  -7.7837206614737900E-007   8.3840387309873912E-007   0.0000000000000000     
  -7.9744810071803383E-007   8.7664832531056798E-007   0.0000000000000000     
  -8.1643931130843086E-007   9.1572286291201986E-007   0.0000000000000000     
  -6.9259389609740596E-007   6.3244004472985353E-007   0.0000000000000000     
  -7.1306869745273144E-007   6.6566176115700394E-007   0.0000000000000000     
  -7.3344145504332856E-007   6.9971904063857028E-007   0.0000000000000000     
  -7.5371450060185625E-007   7.3461085421603619E-007   0.0000000000000000     
  -7.7389016586097312E-007   7.7033617293088496E-007   0.0000000000000000     
  -7.9397078255333765E-007   8.0689396782459958E-007   0.0000000000000000     
  -8.1395868241160846E-007   8.4428320993866379E-007   0.0000000000000000     
  -8.3385619716844446E-007   8.8250287031456088E-007   0.0000000000000000     
  -8.5366565855650384E-007   9.2155191999377385E-007   0.0000000000000000     
  -5.6115363368532977E-007   8.8179689105999960E-007   0.0000000000000000     
  -5.7435855721633070E-007   9.2187856799177265E-007   0.0000000000000000     
  -5.8749563021395112E-007   9.6277498843049542E-007   0.0000000000000000     
  -6.0056570064518712E-007   1.0044834740149741E-006   0.0000000000000000     
  -6.1356961647703608E-007   1.0470013463840137E-006   0.0000000000000000     
  -6.2650822567649465E-007   1.0903259271764205E-006   0.0000000000000000     
  -6.3938237621055967E-007   1.1344545380309997E-006   0.0000000000000000     
  -6.5219291604622821E-007   1.1793845005865565E-006   0.0000000000000000     
  -6.6494069315049721E-007   1.2251131364818973E-006   0.0000000000000000     
  -5.9711312710131821E-007   8.8591279226289604E-007   0.0000000000000000     
  -6.1113518116256288E-007   9.2597180610876317E-007   0.0000000000000000     
  -6.2508683195145161E-007   9.6684670037526948E-007   0.0000000000000000     
  -6.3896868855232982E-007   1.0085345475911037E-006   0.0000000000000000     
  -6.5278136004954228E-007   1.0510324202849540E-006   0.0000000000000000     
  -6.6652545552743450E-007   1.0943373909855088E-006   0.0000000000000000     
  -6.8020158407035158E-007   1.1384465322214561E-006   0.0000000000000000     
  -6.9381035476263829E-007   1.1833569165214845E-006   0.0000000000000000     
  -7.0735237668863941E-007   1.2290656164142813E-006   0.0000000000000000     
  -6.3322881344491840E-007   8.9027077242654105E-007   0.0000000000000000     
  -6.4806668727636054E-007   9.3030571578494034E-007   0.0000000000000000     
  -6.6283205888762103E-007   9.7115825565868775E-007   0.0000000000000000     
  -6.7752520617194052E-007   1.0128250658275599E-006   0.0000000000000000     
  -6.9214640702255956E-007   1.0553028200713328E-006   0.0000000000000000     
  -7.0669593933271881E-007   1.0985881921697832E-006   0.0000000000000000     
  -7.2117408099565861E-007   1.1426778559026874E-006   0.0000000000000000     
  -7.3558110990462015E-007   1.1875684850498214E-006   0.0000000000000000     
  -7.4991730395284334E-007   1.2332567533909619E-006   0.0000000000000000     
  -6.6950895477988227E-007   8.9487171741539184E-007   0.0000000000000000     
  -6.8516165723955633E-007   9.3488146531018689E-007   0.0000000000000000     
  -7.0074001104563348E-007   9.7571081035864018E-007   0.0000000000000000     
  -7.1624391579852356E-007   1.0173559503987720E-006   0.0000000000000000     
  -7.3167327109863725E-007   1.0598130832686032E-006   0.0000000000000000     
  -7.4702797654638300E-007   1.1030784068061529E-006   0.0000000000000000     
  -7.6230793174217108E-007   1.1471481188494413E-006   0.0000000000000000     
  -7.7751303628641152E-007   1.1920184172364899E-006   0.0000000000000000     
  -7.9264318977951363E-007   1.2376854998053175E-006   0.0000000000000000     
  -7.0596181316996326E-007   8.9971651309390706E-007   0.0000000000000000     
  -7.2242867273398242E-007   9.3970022297438513E-007   0.0000000000000000     
  -7.3881938844866292E-007   9.8050552055301604E-007   0.0000000000000000     
  -7.5513347972658389E-007   1.0221281229791700E-006   0.0000000000000000     
  -7.7137046598032401E-007   1.0645637474022168E-006   0.0000000000000000     
  -7.8752986662246249E-007   1.1078081109715260E-006   0.0000000000000000     
  -8.0361120106557813E-007   1.1518569308364677E-006   0.0000000000000000     
  -8.1961398872224994E-007   1.1967059241464116E-006   0.0000000000000000     
  -8.3553774900505659E-007   1.2423508080507269E-006   0.0000000000000000     
  -7.4259565067891310E-007   9.0480604532654466E-007   0.0000000000000000     
  -7.5987631544147079E-007   9.4476315706741717E-007   0.0000000000000000     
  -7.7707889111988292E-007   9.8554354231970486E-007   0.0000000000000000     
  -7.9420256025062448E-007   1.0271425052431825E-006   0.0000000000000000     
  -8.1124650537016938E-007   1.0695553499976265E-006   0.0000000000000000     
  -8.2820990901499271E-007   1.1127773807428118E-006   0.0000000000000000     
  -8.4509195372156884E-007   1.1568039016385137E-006   0.0000000000000000     
  -8.6189182202637252E-007   1.2016302168445088E-006   0.0000000000000000     
  -8.7860869646587769E-007   1.2472516305205708E-006   0.0000000000000000     
  -7.7941872937048477E-007   9.1014119997776309E-007   0.0000000000000000     
  -7.9751316704385418E-007   9.5007143587916636E-007   0.0000000000000000     
  -8.1552721908246800E-007   9.9082603173659593E-007   0.0000000000000000     
  -8.3345981966514996E-007   1.0324000188652400E-006   0.0000000000000000     
  -8.5130990297072298E-007   1.0747884285802847E-006   0.0000000000000000     
  -8.6907640317800972E-007   1.1179862921969190E-006   0.0000000000000000     
  -8.8675825446583339E-007   1.1619886410303289E-006   0.0000000000000000     
  -9.0435439101301648E-007   1.2067905063957028E-006   0.0000000000000000     
  -9.2186374699838260E-007   1.2523869196082268E-006   0.0000000000000000     
  -8.1643931130843086E-007   9.1572286291201986E-007   0.0000000000000000     
  -8.3534780922296424E-007   9.5562622769951450E-007   0.0000000000000000     
  -8.5417307235959159E-007   9.9635414488157897E-007   0.0000000000000000     
  -8.7291392026466479E-007   1.0379015855197703E-006   0.0000000000000000     
  -8.9156917248453371E-007   1.0802635206756442E-006   0.0000000000000000     
  -9.1013764856554861E-007   1.1234349214107558E-006   0.0000000000000000     
  -9.2861816805406075E-007   1.1674107587866612E-006   0.0000000000000000     
  -9.4700955049642030E-007   1.2121860038649161E-006   0.0000000000000000     
  -9.6531061543897711E-007   1.2577556277070751E-006   0.0000000000000000     
  -8.5366565855650384E-007   9.2155191999377385E-007   0.0000000000000000     
  -8.7338882366063306E-007   9.6142870081834388E-007   0.0000000000000000     
  -8.9302515097442843E-007   1.0021290378325437E-006   0.0000000000000000     
  -9.1257352434367287E-007   1.0436481268812049E-006   0.0000000000000000     
  -9.3203282761415066E-007   1.0859811638091570E-006   0.0000000000000000     
  -9.5140194463164514E-007   1.1291233444612316E-006   0.0000000000000000     
  -9.7067975924194059E-007   1.1730698646822588E-006   0.0000000000000000     
  -9.8986515529082004E-007   1.2178159203170696E-006   0.0000000000000000     
  -1.0089570166240667E-006   1.2633567072104947E-006   0.0000000000000000     
  -6.6494069315049721E-007   1.2251131364818973E-006   0.0000000000000000     
  -6.7762638810012902E-007   1.2716374721561029E-006   0.0000000000000000     
  -6.9025001191095155E-007   1.3189533532493571E-006   0.0000000000000000     
  -7.0281140820855767E-007   1.3670563302021188E-006   0.0000000000000000     
  -7.1531042061854142E-007   1.4159419534548488E-006   0.0000000000000000     
  -7.2774689276649546E-007   1.4656057734480055E-006   0.0000000000000000     
  -7.4012066827801350E-007   1.5160433406220490E-006   0.0000000000000000     
  -7.5243159077868884E-007   1.5672502054174381E-006   0.0000000000000000     
  -7.6467950389411478E-007   1.6192219182746322E-006   0.0000000000000000     
  -7.0735237668863941E-007   1.2290656164142813E-006   0.0000000000000000     
  -7.2082814883945114E-007   1.2755694764188118E-006   0.0000000000000000     
  -7.3423772983316645E-007   1.3228644290151421E-006   0.0000000000000000     
  -7.4758106819462994E-007   1.3709461786736141E-006   0.0000000000000000     
  -7.6085811244868604E-007   1.4198104298645714E-006   0.0000000000000000     
  -7.7406881112017859E-007   1.4694528870583559E-006   0.0000000000000000     
  -7.8721311273395149E-007   1.5198692547253098E-006   0.0000000000000000     
  -8.0029096581484954E-007   1.5710552373357764E-006   0.0000000000000000     
  -8.1330231888771631E-007   1.6230065393600969E-006   0.0000000000000000     
  -7.4991730395284334E-007   1.2332567533909619E-006   0.0000000000000000     
  -7.6418291111669793E-007   1.2797392162317344E-006   0.0000000000000000     
  -7.7837805970506743E-007   1.3270119549811618E-006   0.0000000000000000     
  -7.9250284810996573E-007   1.3750709325741176E-006   0.0000000000000000     
  -8.0655737472340478E-007   1.4239121119454718E-006   0.0000000000000000     
  -8.2054173793739783E-007   1.4735314560300986E-006   0.0000000000000000     
  -8.3445603614395726E-007   1.5239249277628697E-006   0.0000000000000000     
  -8.4830036773509622E-007   1.5750884900786575E-006   0.0000000000000000     
  -8.6207483110282741E-007   1.6270181059123339E-006   0.0000000000000000     
  -7.9264318977951363E-007   1.2376854998053175E-006   0.0000000000000000     
  -8.0769835355075837E-007   1.2841455779314234E-006   0.0000000000000000     
  -8.2267873584490935E-007   1.3313949171402239E-006   0.0000000000000000     
  -8.3758460663560070E-007   1.3794297964946124E-006   0.0000000000000000     
  -8.5241623589646738E-007   1.4282464950574842E-006   0.0000000000000000     
  -8.6717389360114372E-007   1.4778412918917339E-006   0.0000000000000000     
  -8.8185784972326350E-007   1.5282104660602546E-006   0.0000000000000000     
  -8.9646837423646255E-007   1.5793502966259431E-006   0.0000000000000000     
  -9.1100573711437411E-007   1.6312570626516922E-006   0.0000000000000000     
  -8.3553774900505659E-007   1.2423508080507269E-006   0.0000000000000000     
  -8.5138215476052195E-007   1.2887874478544321E-006   0.0000000000000000     
  -8.6714749257094525E-007   1.3360123014851335E-006   0.0000000000000000     
  -8.8283420245257131E-007   1.3840219750260854E-006   0.0000000000000000     
  -8.9844272442164360E-007   1.4328130745605432E-006   0.0000000000000000     
  -9.1397349849440652E-007   1.4823822061717609E-006   0.0000000000000000     
  -9.2942696468710447E-007   1.5327259759429936E-006   0.0000000000000000     
  -9.4480356301598144E-007   1.5838409899574948E-006   0.0000000000000000     
  -9.6010373349728184E-007   1.6357238542985202E-006   0.0000000000000000     
  -8.7860869646587769E-007   1.2472516305205708E-006   0.0000000000000000     
  -8.9524199336487690E-007   1.2936637123373134E-006   0.0000000000000000     
  -9.1179206420142921E-007   1.3408630940086974E-006   0.0000000000000000     
  -9.2825949424191207E-007   1.3888466727595214E-006   0.0000000000000000     
  -9.4464486875270211E-007   1.4376113458145825E-006   0.0000000000000000     
  -9.6094877300017659E-007   1.4871540103986797E-006   0.0000000000000000     
  -9.7717179225071254E-007   1.5374715637366103E-006   0.0000000000000000     
  -9.9331451177068637E-007   1.5885609030531734E-006   0.0000000000000000     
  -1.0093775168264754E-006   1.6404189255731664E-006   0.0000000000000000     
  -9.2186374699838260E-007   1.2523869196082268E-006   0.0000000000000000     
  -9.3928554798271167E-007   1.2987732577166200E-006   0.0000000000000000     
  -9.5662018505461555E-007   1.3459462807037231E-006   0.0000000000000000     
  -9.7386834068465931E-007   1.3939030942859047E-006   0.0000000000000000     
  -9.9103069734341277E-007   1.4426408041795368E-006   0.0000000000000000     
  -1.0081079375014444E-006   1.4921565161009904E-006   0.0000000000000000     
  -1.0251007436293209E-006   1.5424473357666340E-006   0.0000000000000000     
  -1.0420097981976099E-006   1.5935103688928398E-006   0.0000000000000000     
  -1.0588357836768814E-006   1.6453427211959797E-006   0.0000000000000000     
  -9.6531061543897711E-007   1.2577556277070751E-006   0.0000000000000000     
  -9.8352049723291639E-007   1.3041149703289069E-006   0.0000000000000000     
  -1.0016395894487557E-006   1.3512608475630159E-006   0.0000000000000000     
  -1.0196686004618485E-006   1.3991904441962211E-006   0.0000000000000000     
  -1.0376082386475455E-006   1.4479009450153409E-006   0.0000000000000000     
  -1.0554592123811997E-006   1.4973895348071911E-006   0.0000000000000000     
  -1.0732222300381626E-006   1.5476533983585903E-006   0.0000000000000000     
  -1.0908979999937872E-006   1.5986897204563570E-006   0.0000000000000000     
  -1.1084872306234248E-006   1.6504956858873079E-006   0.0000000000000000     
  -1.0089570166240667E-006   1.2633567072104947E-006   0.0000000000000000     
  -1.0279545197343786E-006   1.3096877365107241E-006   0.0000000000000000     
  -1.0468580117021064E-006   1.3568057805793823E-006   0.0000000000000000     
  -1.0656681322545150E-006   1.4047079270814557E-006   0.0000000000000000     
  -1.0843855211188693E-006   1.4533912636819275E-006   0.0000000000000000     
  -1.1030108180224330E-006   1.5028528780457830E-006   0.0000000000000000     
  -1.1215446626924717E-006   1.5530898578380071E-006   0.0000000000000000     
  -1.1399876948562492E-006   1.6040992907235844E-006   0.0000000000000000     
  -1.1583405542410308E-006   1.6558782643674986E-006   0.0000000000000000     
  -7.6467950389411478E-007   1.6192219182746322E-006   0.0000000000000000     
  -7.7686434232501709E-007   1.6719542791686624E-006   0.0000000000000000     
  -7.8898640507265066E-007   1.7254440862128446E-006   0.0000000000000000     
  -8.0104608221340245E-007   1.7796883870550645E-006   0.0000000000000000     
  -8.1304376382366005E-007   1.8346842293432098E-006   0.0000000000000000     
  -8.2497983997981051E-007   1.8904286607251669E-006   0.0000000000000000     
  -8.3685470075824101E-007   1.9469187288488216E-006   0.0000000000000000     
  -8.4866873623533858E-007   2.0041514813620624E-006   0.0000000000000000     
  -8.6042233648749115E-007   2.0621239659127755E-006   0.0000000000000000     
  -8.1330231888771631E-007   1.6230065393600969E-006   0.0000000000000000     
  -8.2624717858130120E-007   1.6757190596539428E-006   0.0000000000000000     
  -8.3912578393997298E-007   1.7291894746142984E-006   0.0000000000000000     
  -8.5193843211200679E-007   1.7834146550234783E-006   0.0000000000000000     
  -8.6468542024567630E-007   1.8383914716637932E-006   0.0000000000000000     
  -8.7736704548925539E-007   1.8941167953175563E-006   0.0000000000000000     
  -8.8998360499101868E-007   1.9505874967670815E-006   0.0000000000000000     
  -9.0253539589924078E-007   2.0078004467946814E-006   0.0000000000000000     
  -9.1502271536219515E-007   2.0657525161826681E-006   0.0000000000000000     
  -8.6207483110282741E-007   1.6270181059123339E-006   0.0000000000000000     
  -8.7577953520706359E-007   1.6797098391062353E-006   0.0000000000000000     
  -8.8941463127931603E-007   1.7331601571325522E-006   0.0000000000000000     
  -9.0298028111899639E-007   1.7873656283709408E-006   0.0000000000000000     
  -9.1647664652551610E-007   1.8423228212010545E-006   0.0000000000000000     
  -9.2990388929828573E-007   1.8980283040025471E-006   0.0000000000000000     
  -9.4326217123671789E-007   1.9544786451550761E-006   0.0000000000000000     
  -9.5655165414022317E-007   2.0116704130382947E-006   0.0000000000000000     
  -9.6977249980821289E-007   2.0696001760318568E-006   0.0000000000000000     
  -9.1100573711437411E-007   1.6312570626516922E-006   0.0000000000000000     
  -9.2547016368163404E-007   1.6839270290374797E-006   0.0000000000000000     
  -9.3986170066688204E-007   1.7373564040316114E-006   0.0000000000000000     
  -9.5418035014975859E-007   1.7915413817194776E-006   0.0000000000000000     
  -9.6842611420990406E-007   1.8464781561864665E-006   0.0000000000000000     
  -9.8259899492695906E-007   1.9021629215179698E-006   0.0000000000000000     
  -9.9669899438056436E-007   1.9585918717993747E-006   0.0000000000000000     
  -1.0107261146503593E-006   2.0157612011160711E-006   0.0000000000000000     
  -1.0246803578159866E-006   2.0736671035534500E-006   0.0000000000000000     
  -9.6010373349728184E-007   1.6357238542985202E-006   0.0000000000000000     
  -9.7532781548434233E-007   1.6883710409596140E-006   0.0000000000000000     
  -9.9047574567887413E-007   1.7417784855754803E-006   0.0000000000000000     
  -1.0055473601196805E-006   1.7959419896911128E-006   0.0000000000000000     
  -1.0205424948455650E-006   1.8508573548515057E-006   0.0000000000000000     
  -1.0354609858953315E-006   1.9065203826016519E-006   0.0000000000000000     
  -1.0503026693077834E-006   1.9629268744865461E-006   0.0000000000000000     
  -1.0650673811217247E-006   2.0200726320511834E-006   0.0000000000000000     
  -1.0797549573759583E-006   2.0779534568405557E-006   0.0000000000000000     
  -1.0093775168264754E-006   1.6404189255731664E-006   0.0000000000000000     
  -1.0253612420945178E-006   1.6930422863845794E-006   0.0000000000000000     
  -1.0412655198914948E-006   1.7464266720281652E-006   0.0000000000000000     
  -1.0570900319441488E-006   1.8005675269078710E-006   0.0000000000000000     
  -1.0728344599792229E-006   1.8554602954276417E-006   0.0000000000000000     
  -1.0884984857234595E-006   1.9111004219914228E-006   0.0000000000000000     
  -1.1040817909036016E-006   1.9674833510031608E-006   0.0000000000000000     
  -1.1195840572463914E-006   2.0246045268667991E-006   0.0000000000000000     
  -1.1350049664785710E-006   2.0824593939862864E-006   0.0000000000000000     
  -1.0588357836768814E-006   1.6453427211959797E-006   0.0000000000000000     
  -1.0755791949914896E-006   1.6979411768243134E-006   0.0000000000000000     
  -1.0922397768809471E-006   1.7513012336536727E-006   0.0000000000000000     
  -1.1088170865385510E-006   1.8054180679917768E-006   0.0000000000000000     
  -1.1253106811576031E-006   1.8602868561463501E-006   0.0000000000000000     
  -1.1417201179314013E-006   1.9159027744251117E-006   0.0000000000000000     
  -1.1580449540532447E-006   1.9722609991357847E-006   0.0000000000000000     
  -1.1742847467164337E-006   2.0293567065860895E-006   0.0000000000000000     
  -1.1904390531142668E-006   2.0871850730837492E-006   0.0000000000000000     
  -1.1084872306234248E-006   1.6504956858873079E-006   0.0000000000000000     
  -1.1259904256545877E-006   1.7030681237907560E-006   0.0000000000000000     
  -1.1434072702234329E-006   1.7564024407160063E-006   0.0000000000000000     
  -1.1607372448182740E-006   1.8104936875648553E-006   0.0000000000000000     
  -1.1779798299274295E-006   1.8653369152391036E-006   0.0000000000000000     
  -1.1951345060392113E-006   1.9209271746405477E-006   0.0000000000000000     
  -1.2122007536419384E-006   1.9772595166709875E-006   0.0000000000000000     
  -1.2291780532239254E-006   2.0343289922322250E-006   0.0000000000000000     
  -1.2460658852734877E-006   2.0921306522260537E-006   0.0000000000000000     
  -1.1583405542410308E-006   1.6558782643674986E-006   0.0000000000000000     
  -1.1766036855631422E-006   1.7084235387958477E-006   0.0000000000000000     
  -1.1947767534951562E-006   1.7617305634791738E-006   0.0000000000000000     
  -1.2128592276987059E-006   1.8157944602491311E-006   0.0000000000000000     
  -1.2308505778354251E-006   1.8706103509373741E-006   0.0000000000000000     
  -1.2487502735669483E-006   1.9261733573755601E-006   0.0000000000000000     
  -1.2665577845549087E-006   1.9824786013953415E-006   0.0000000000000000     
  -1.2842725804609403E-006   2.0395212048283732E-006   0.0000000000000000     
  -1.3018941309466763E-006   2.0972962895063103E-006   0.0000000000000000     
   0.0000000000000000        0.0000000000000000        0.0000000000000000     
  -2.0050131320569813E-008   6.1429623640257551E-009   0.0000000000000000     
  -4.0682229673021010E-008   1.3696377806443382E-008   0.0000000000000000     
  -6.1819024271621854E-008   2.2546330315867895E-008   0.0000000000000000     
  -8.3383244330640540E-008   3.2578903880914294E-008   0.0000000000000000     
  -1.0529761906434535E-007   4.3680182490197624E-008   0.0000000000000000     
  -1.2748487768700458E-007   5.5736250132332868E-008   0.0000000000000000     
  -1.4986774941288641E-007   6.8633190795935067E-008   0.0000000000000000     
  -1.7236896345625917E-007   8.2257088469619241E-008   0.0000000000000000     
   0.0000000000000000        0.0000000000000000        0.0000000000000000     
  -2.0801775971099138E-008   7.0572401753610254E-009   0.0000000000000000     
  -4.2406344827895740E-008   1.5503716010037138E-008   0.0000000000000000     
  -6.4688574899837770E-008   2.5210559666759777E-008   0.0000000000000000     
  -8.7523334516373178E-008   3.6048903308260343E-008   0.0000000000000000     
  -1.1078549200694989E-007   4.7889879097270284E-008   0.0000000000000000     
  -1.3434991570101584E-007   6.0604619196521014E-008   0.0000000000000000     
  -1.5809147392801907E-007   7.4064255768743974E-008   0.0000000000000000     
  -1.8188503501740739E-007   8.8139920976670514E-008   0.0000000000000000     
   0.0000000000000000        0.0000000000000000        0.0000000000000000     
  -2.1676843930400963E-008   8.1700016249814850E-009   0.0000000000000000     
  -4.4359638362498171E-008   1.7656893438328366E-008   0.0000000000000000     
  -6.7875865471599641E-008   2.8323422930562966E-008   0.0000000000000000     
  -9.2053007433013403E-008   4.0032337592207660E-008   0.0000000000000000     
  -1.1671854642204742E-007   5.2646384913784772E-008   0.0000000000000000     
  -1.4169996461400972E-007   6.6028312385816646E-008   0.0000000000000000     
  -1.6682474418420834E-007   8.0040867498825620E-008   0.0000000000000000     
  -1.9192036730795129E-007   9.4546797743334010E-008   0.0000000000000000     
   0.0000000000000000        0.0000000000000000        0.0000000000000000     
  -2.2884861759791308E-008   9.5916908127121380E-009   0.0000000000000000     
  -4.6872014251596184E-008   2.0323071007470915E-008   0.0000000000000000     
  -7.1758151896629272E-008   3.2065542500995163E-008   0.0000000000000000     
  -9.7339969116105179E-008   4.4690507210003699E-008   0.0000000000000000     
  -1.2341416033123866E-007   5.8069367051215361E-008   0.0000000000000000     
  -1.4977741996324414E-007   7.2073523941348919E-008   0.0000000000000000     
  -1.7622644243333647E-007   8.6574379797123308E-008   0.0000000000000000     
  -2.0255792216273024E-007   1.0144333653525725E-007   0.0000000000000000     
   0.0000000000000000        0.0000000000000000        0.0000000000000000     
  -2.4635356020586212E-008   1.1432751838377997E-008   0.0000000000000000     
  -5.0273376469957639E-008   2.3669409633618688E-008   0.0000000000000000     
  -7.6712690084648377E-008   3.6617540771774013E-008   0.0000000000000000     
  -1.0375192560119248E-007   5.0184712638895905E-008   0.0000000000000000     
  -1.3118971175612398E-007   6.4278492621036285E-008   0.0000000000000000     
  -1.5882467728597702E-007   7.8806448104247093E-008   0.0000000000000000     
  -1.8645545092728562E-007   9.3676146474580263E-008   0.0000000000000000     
  -2.1388066141658377E-007   1.0879515511808772E-007   0.0000000000000000     
   0.0000000000000000        0.0000000000000000        0.0000000000000000     
  -2.7137853274101669E-008   1.3803628801804053E-008   0.0000000000000000     
  -5.4893628992350412E-008   2.7863070232925549E-008   0.0000000000000000     
  -8.3116735945378760E-008   4.2160040136617197E-008   0.0000000000000000     
  -1.1165658292381914E-007   5.6676254356131726E-008   0.0000000000000000     
  -1.4036257871830406E-007   7.1393428734721845E-008   0.0000000000000000     
  -1.6908413211946609E-007   8.6293279115640270E-008   0.0000000000000000     
  -1.9767065191793765E-007   1.0135752134213973E-007   0.0000000000000000     
  -2.2597154690435130E-007   1.1656787125747296E-007   0.0000000000000000     
   0.0000000000000000        0.0000000000000000        0.0000000000000000     
  -3.0601880081653724E-008   1.6814765802815323E-008   0.0000000000000000     
  -6.1062675793542427E-008   3.3071213721545377E-008   0.0000000000000000     
  -9.1347545388542188E-008   4.8873662989242390E-008   0.0000000000000000     
  -1.2142164711952919E-007   6.4326432838958614E-008   0.0000000000000000     
  -1.5125013923937959E-007   7.9533842503746321E-008   0.0000000000000000     
  -1.8079818000096948E-007   9.4600211216657672E-008   0.0000000000000000     
  -2.1003092765717502E-007   1.0962985821074500E-007   0.0000000000000000     
  -2.3891354046087226E-007   1.2472710271906046E-007   0.0000000000000000     
   0.0000000000000000        0.0000000000000000        0.0000000000000000     
  -3.5236963004558385E-008   2.0576606941236805E-008   0.0000000000000000     
  -6.9110420848301461E-008   3.9461001015632035E-008   0.0000000000000000     
  -1.0178237432386045E-007   5.6939031723367266E-008   0.0000000000000000     
  -1.3341482422386655E-007   7.3296548564624062E-008   0.0000000000000000     
  -1.6416977134095094E-007   8.8819401039583936E-008   0.0000000000000000     
  -1.9420921646774491E-007   1.0379343864842848E-007   0.0000000000000000     
  -2.2369516039687961E-007   1.1850451089133921E-007   0.0000000000000000     
  -2.5278960392098619E-007   1.3323846726849779E-007   0.0000000000000000     
   0.0000000000000000        0.0000000000000000        0.0000000000000000     
  -4.1252628604131697E-008   2.5199596316893506E-008   0.0000000000000000     
  -7.9366768131395487E-008   4.7199593031339430E-008   0.0000000000000000     
  -1.1479847866105533E-007   6.6536768732709520E-008   0.0000000000000000     
  -1.4800382027237513E-007   8.3747902010375470E-008   0.0000000000000000     
  -1.7943885304461878E-007   9.9369771453709002E-008   0.0000000000000000     
  -2.0955963705705033E-007   1.1393915565208185E-007   0.0000000000000000     
  -2.3882223238893361E-007   1.2799283319486573E-007   0.0000000000000000     
  -2.6768269911953268E-007   1.4206758267143239E-007   0.0000000000000000     
  -1.7236896345625917E-007   8.2257088469619241E-008   0.0000000000000000     
  -1.9492035547074639E-007   9.6516424897341839E-008   0.0000000000000000     
  -2.1749018686739370E-007   1.1140927284442544E-007   0.0000000000000000     
  -2.4005582549660164E-007   1.2695610283153411E-007   0.0000000000000000     
  -2.6259463920877140E-007   1.4317738537933180E-007   0.0000000000000000     
  -2.8508399585430356E-007   1.6009359100848248E-007   0.0000000000000000     
  -3.0750126328359907E-007   1.7772519023965033E-007   0.0000000000000000     
  -3.2982380934705880E-007   1.9609265359349933E-007   0.0000000000000000     
  -3.5202900189508368E-007   2.1521645159069339E-007   0.0000000000000000     
  -1.8188503501740739E-007   8.8139920976670514E-008   0.0000000000000000     
  -2.0562523655772037E-007   1.0273067342476082E-007   0.0000000000000000     
  -2.2928579317386301E-007   1.1784727748438952E-007   0.0000000000000000     
  -2.5286018874983205E-007   1.3352842396866010E-007   0.0000000000000000     
  -2.7634190716962426E-007   1.4981280369067579E-007   0.0000000000000000     
  -2.9972443231723604E-007   1.6673910746354009E-007   0.0000000000000000     
  -3.2300124807666431E-007   1.8434602610035635E-007   0.0000000000000000     
  -3.4616583833190539E-007   2.0267225041422787E-007   0.0000000000000000     
  -3.6921168696695612E-007   2.2175647121825811E-007   0.0000000000000000     
  -1.9192036730795129E-007   9.4546797743334010E-008   0.0000000000000000     
  -2.1684512507283359E-007   1.0944146464619489E-007   0.0000000000000000     
  -2.4158054421559877E-007   1.2475068587958416E-007   0.0000000000000000     
  -2.6613896038527729E-007   1.4053289315200823E-007   0.0000000000000000     
  -2.9053270923089962E-007   1.5684651817197373E-007   0.0000000000000000     
  -3.1477412640149641E-007   1.7374999264798714E-007   0.0000000000000000     
  -3.3887554754609794E-007   1.9130174828855492E-007   0.0000000000000000     
  -3.6284930831373500E-007   2.0956021680218376E-007   0.0000000000000000     
  -3.8670774435343786E-007   2.2858382989738010E-007   0.0000000000000000     
  -2.0255792216273024E-007   1.0144333653525725E-007   0.0000000000000000     
  -2.2860749465408530E-007   1.1658595553461611E-007   0.0000000000000000     
  -2.5436655973584196E-007   1.3204443602265134E-007   0.0000000000000000     
  -2.7986545831788608E-007   1.4789513668896070E-007   0.0000000000000000     
  -3.0513453131010321E-007   1.6421441622314209E-007   0.0000000000000000     
  -3.3020411962237900E-007   1.8107863331479349E-007   0.0000000000000000     
  -3.5510456416459913E-007   1.9856414665351271E-007   0.0000000000000000     
  -3.7986620584664916E-007   2.1674731492889770E-007   0.0000000000000000     
  -4.0451938557841478E-007   2.3570449683054620E-007   0.0000000000000000     
  -2.1388066141658377E-007   1.0879515511808772E-007   0.0000000000000000     
  -2.4093981893947422E-007   1.2410130306299638E-007   0.0000000000000000     
  -2.6763595947783356E-007   1.3965346590623304E-007   0.0000000000000000     
  -2.9401300046260726E-007   1.5554078088689956E-007   0.0000000000000000     
  -3.2011485932474038E-007   1.7185238524409781E-007   0.0000000000000000     
  -3.4598545349517817E-007   1.8867741621692936E-007   0.0000000000000000     
  -3.7166870040486612E-007   2.0610501104449627E-007   0.0000000000000000     
  -3.9720851748474929E-007   2.2422430696590019E-007   0.0000000000000000     
  -4.2264882216577325E-007   2.4312444122024306E-007   0.0000000000000000     
  -2.2597154690435130E-007   1.1656787125747296E-007   0.0000000000000000     
  -2.5386957156699937E-007   1.3192466420430764E-007   0.0000000000000000     
  -2.8138086318481465E-007   1.4750271352297141E-007   0.0000000000000000     
  -3.0855490473438958E-007   1.6339545205320710E-007   0.0000000000000000     
  -3.3544117919231675E-007   1.7969631263475730E-007   0.0000000000000000     
  -3.6208916953518859E-007   1.9649872810736461E-007   0.0000000000000000     
  -3.8854835873959788E-007   2.1389613131077202E-007   0.0000000000000000     
  -4.1486822978213708E-007   2.3198195508472197E-007   0.0000000000000000     
  -4.4109826563939871E-007   2.5084963226895730E-007   0.0000000000000000     
  -2.3891354046087226E-007   1.2472710271906046E-007   0.0000000000000000     
  -2.6742422617465991E-007   1.3999319593152175E-007   0.0000000000000000     
  -2.9559339060002626E-007   1.5551711686550843E-007   0.0000000000000000     
  -3.2346448904818192E-007   1.7138477649526533E-007   0.0000000000000000     
  -3.5108097683033781E-007   1.8768208579503734E-007   0.0000000000000000     
  -3.7848630925770469E-007   2.0449495573906955E-007   0.0000000000000000     
  -4.0572394164149306E-007   2.2190929730160667E-007   0.0000000000000000     
  -4.3283732929291390E-007   2.4001102145689369E-007   0.0000000000000000     
  -4.5986992752317779E-007   2.5888603917917552E-007   0.0000000000000000     
  -2.5278960392098619E-007   1.3323846726849779E-007   0.0000000000000000     
  -2.8163125640045470E-007   1.4824405521761087E-007   0.0000000000000000     
  -3.1026566146670940E-007   1.6362161392648605E-007   0.0000000000000000     
  -3.3871507131893328E-007   1.7943438052045650E-007   0.0000000000000000     
  -3.6700173815630944E-007   1.9574559212485473E-007   0.0000000000000000     
  -3.9514791417802075E-007   2.1261848586501373E-007   0.0000000000000000     
  -4.2317585158325042E-007   2.3011629886626665E-007   0.0000000000000000     
  -4.5110780257118136E-007   2.4830226825394602E-007   0.0000000000000000     
  -4.7896601934099637E-007   2.6723963115338468E-007   0.0000000000000000     
  -2.6768269911953268E-007   1.4206758267143239E-007   0.0000000000000000     
  -2.9651813588238278E-007   1.5661439903554674E-007   0.0000000000000000     
  -3.2538979552810506E-007   1.7174114269854647E-007   0.0000000000000000     
  -3.5427996946159231E-007   1.8746989043616264E-007   0.0000000000000000     
  -3.8317094908773680E-007   2.0382271902412601E-007   0.0000000000000000     
  -4.1204502581143140E-007   2.2082170523816770E-007   0.0000000000000000     
  -4.4088449103756840E-007   2.3848892585401851E-007   0.0000000000000000     
  -4.6967163617104068E-007   2.5684645764740940E-007   0.0000000000000000     
  -4.9838875261674071E-007   2.7591637739407142E-007   0.0000000000000000     
  -3.5202900189508368E-007   2.1521645159069339E-007   0.0000000000000000     
  -3.7409924371631835E-007   2.3511527521998435E-007   0.0000000000000000     
  -3.9603707735238495E-007   2.5580069734247468E-007   0.0000000000000000     
  -4.1785008028314959E-007   2.7728251128735461E-007   0.0000000000000000     
  -4.3954582998847803E-007   2.9957051038381437E-007   0.0000000000000000     
  -4.6113190394823641E-007   3.2267448796104421E-007   0.0000000000000000     
  -4.8261587964229063E-007   3.4660423734823426E-007   0.0000000000000000     
  -5.0400533455050697E-007   3.7136955187457484E-007   0.0000000000000000     
  -5.2530784615275133E-007   3.9698022486925609E-007   0.0000000000000000     
  -3.6921168696695612E-007   2.2175647121825811E-007   0.0000000000000000     
  -3.9213409299345665E-007   2.4163186789313337E-007   0.0000000000000000     
  -4.1493561593361974E-007   2.6230957408987153E-007   0.0000000000000000     
  -4.3762063043730213E-007   2.8379521202707359E-007   0.0000000000000000     
  -4.6019351115436034E-007   3.0609440392334039E-007   0.0000000000000000     
  -4.8265863273465107E-007   3.2921277199727294E-007   0.0000000000000000     
  -5.0502036982803042E-007   3.5315593846747209E-007   0.0000000000000000     
  -5.2728309708435528E-007   3.7792952555253862E-007   0.0000000000000000     
  -5.4945118915348201E-007   4.0353915547107354E-007   0.0000000000000000     
  -3.8670774435343786E-007   2.2858382989738010E-007   0.0000000000000000     
  -4.1046113297146888E-007   2.4842132620019152E-007   0.0000000000000000     
  -4.3411151810301669E-007   2.6908267200682913E-007   0.0000000000000000     
  -4.5765888534050165E-007   2.9056814053104494E-007   0.0000000000000000     
  -4.8110322027634415E-007   3.1287800498659120E-007   0.0000000000000000     
  -5.0444450850296475E-007   3.3601253858721993E-007   0.0000000000000000     
  -5.2768273561278365E-007   3.5997201454668339E-007   0.0000000000000000     
  -5.5081788719822113E-007   3.8475670607873354E-007   0.0000000000000000     
  -5.7384994885169792E-007   4.1036688639712263E-007   0.0000000000000000     
  -4.0451938557841478E-007   2.3570449683054620E-007   0.0000000000000000     
  -4.2908860611199540E-007   2.5549849586288456E-007   0.0000000000000000     
  -4.5357501756834412E-007   2.7613789478965173E-007   0.0000000000000000     
  -4.7797393191062744E-007   2.9761772118941534E-007   0.0000000000000000     
  -5.0228066110201261E-007   3.1993300264074259E-007   0.0000000000000000     
  -5.2649051710566627E-007   3.4307876672220120E-007   0.0000000000000000     
  -5.5059881188475503E-007   3.6705004101235835E-007   0.0000000000000000     
  -5.7460085740244590E-007   3.9184185308978167E-007   0.0000000000000000     
  -5.9849196562190603E-007   4.1744923053303840E-007   0.0000000000000000     
  -4.2264882216577325E-007   2.4312444122024306E-007   0.0000000000000000     
  -4.4802475487667608E-007   2.6287822260293800E-007   0.0000000000000000     
  -4.7333634803736947E-007   2.8349314613464386E-007   0.0000000000000000     
  -4.9857485706555880E-007   3.0496037839233147E-007   0.0000000000000000     
  -5.2373153737894879E-007   3.2727108595297089E-007   0.0000000000000000     
  -5.4879764439524407E-007   3.5041643539353259E-007   0.0000000000000000     
  -5.7376443353214978E-007   3.7438759329098685E-007   0.0000000000000000     
  -5.9862316020737127E-007   3.9917572622230444E-007   0.0000000000000000     
  -6.2336507983861290E-007   4.2477200076445551E-007   0.0000000000000000     
  -4.4109826563939871E-007   2.5084963226895730E-007   0.0000000000000000     
  -4.6727782172715065E-007   2.7057535214207739E-007   0.0000000000000000     
  -4.9340574321786152E-007   2.9116632973811028E-007   0.0000000000000000     
  -5.1947074772317517E-007   3.1261253652994021E-007   0.0000000000000000     
  -5.4546155285473595E-007   3.3490394399045195E-007   0.0000000000000000     
  -5.7136687622418724E-007   3.5803052359252991E-007   0.0000000000000000     
  -5.9717543544317326E-007   3.8198224680905901E-007   0.0000000000000000     
  -6.2287594812333805E-007   4.0674908511292350E-007   0.0000000000000000     
  -6.4845713187632562E-007   4.3232100997700846E-007   0.0000000000000000     
  -4.5986992752317779E-007   2.5888603917917552E-007   0.0000000000000000     
  -4.8685604912505930E-007   2.7860473020202861E-007   0.0000000000000000     
  -5.1379343681758751E-007   2.9917534929635494E-007   0.0000000000000000     
  -5.4067069080135611E-007   3.2059061999238826E-007   0.0000000000000000     
  -5.6747641127695696E-007   3.4284326582036189E-007   0.0000000000000000     
  -5.9419919844498412E-007   3.6592601031050949E-007   0.0000000000000000     
  -6.2082765250602986E-007   3.8983157699306486E-007   0.0000000000000000     
  -6.4735037366068783E-007   4.1455268939826116E-007   0.0000000000000000     
  -6.7375596210955062E-007   4.4008207105633225E-007   0.0000000000000000     
  -4.7896601934099637E-007   2.6723963115338468E-007   0.0000000000000000     
  -5.0676767953204207E-007   2.8698120250451724E-007   0.0000000000000000     
  -5.3450966254431590E-007   3.0753810850568262E-007   0.0000000000000000     
  -5.6218377321798011E-007   3.2891105316982228E-007   0.0000000000000000     
  -5.8978181639319561E-007   3.5110074050987699E-007   0.0000000000000000     
  -6.1729559691012305E-007   3.7410787453878704E-007   0.0000000000000000     
  -6.4471691960892501E-007   3.9793315926949432E-007   0.0000000000000000     
  -6.7203758932976196E-007   4.2257729871493880E-007   0.0000000000000000     
  -6.9924941091279520E-007   4.4804099688806168E-007   0.0000000000000000     
  -4.9838875261674071E-007   2.7591637739407142E-007   0.0000000000000000     
  -5.2702095540973852E-007   2.9571961477126858E-007   0.0000000000000000     
  -5.5556465410581456E-007   3.1627251106239776E-007   0.0000000000000000     
  -5.8401908189092737E-007   3.3759026045238922E-007   0.0000000000000000     
  -6.1238347195103422E-007   3.5968805712617287E-007   0.0000000000000000     
  -6.4065705747209353E-007   3.8258109526867883E-007   0.0000000000000000     
  -6.6883907164006322E-007   4.0628456906483726E-007   0.0000000000000000     
  -6.9692874764090127E-007   4.3081367269957807E-007   0.0000000000000000     
  -7.2492531866056603E-007   4.5618360035783170E-007   0.0000000000000000     
  -5.2530784615275133E-007   3.9698022486925609E-007   0.0000000000000000     
  -5.4652920798076023E-007   4.2344403077775750E-007   0.0000000000000000     
  -5.6766807777375286E-007   4.5076066851071500E-007   0.0000000000000000     
  -5.8872132932281945E-007   4.7892781809505413E-007   0.0000000000000000     
  -6.0968583641904979E-007   5.0794315955769963E-007   0.0000000000000000     
  -6.3055847285353347E-007   5.3780437292557719E-007   0.0000000000000000     
  -6.5133611241736102E-007   5.6850913822561172E-007   0.0000000000000000     
  -6.7201562890162181E-007   6.0005513548472876E-007   0.0000000000000000     
  -6.9259389609740596E-007   6.3244004472985353E-007   0.0000000000000000     
  -5.4945118915348201E-007   4.0353915547107354E-007   0.0000000000000000     
  -5.7152804877524018E-007   4.2998953175246510E-007   0.0000000000000000     
  -5.9351319104935048E-007   4.5728168316924956E-007   0.0000000000000000     
  -6.1540515916550795E-007   4.8541571980475139E-007   0.0000000000000000     
  -6.3720249631340597E-007   5.1439175174229451E-007   0.0000000000000000     
  -6.5890374568273935E-007   5.4420988906520258E-007   0.0000000000000000     
  -6.8050745046320178E-007   5.7487024185680002E-007   0.0000000000000000     
  -7.0201215384448735E-007   6.0637292020041048E-007   0.0000000000000000     
  -7.2341639901629047E-007   6.3871803417935786E-007   0.0000000000000000     
  -5.7384994885169792E-007   4.1036688639712263E-007   0.0000000000000000     
  -5.9677902184519051E-007   4.3680329163915494E-007   0.0000000000000000     
  -6.1960567016890260E-007   4.6406850963634413E-007   0.0000000000000000     
  -6.4233057349259299E-007   4.9216559114375572E-007   0.0000000000000000     
  -6.6495441148602157E-007   5.2109758691645588E-007   0.0000000000000000     
  -6.8747786381894760E-007   5.5086754770950964E-007   0.0000000000000000     
  -7.0990161016113128E-007   5.8147852427798349E-007   0.0000000000000000     
  -7.3222633018233143E-007   6.1293356737694268E-007   0.0000000000000000     
  -7.5445270355230793E-007   6.4523572776145317E-007   0.0000000000000000     
  -5.9849196562190603E-007   4.1744923053303840E-007   0.0000000000000000     
  -6.2226870669707862E-007   4.4386901242873926E-007   0.0000000000000000     
  -6.4593268354501711E-007   4.7110528389566786E-007   0.0000000000000000     
  -6.6948675727355091E-007   4.9916394156065098E-007   0.0000000000000000     
  -6.9293378899051030E-007   5.2805088205051534E-007   0.0000000000000000     
  -7.1627663980372541E-007   5.5777200199208729E-007   0.0000000000000000     
  -7.3951817082102589E-007   5.8833319801219440E-007   0.0000000000000000     
  -7.6266124315024208E-007   6.1974036673766275E-007   0.0000000000000000     
  -7.8570871789920331E-007   6.5199940479531928E-007   0.0000000000000000     
  -6.2336507983861290E-007   4.2477200076445551E-007   0.0000000000000000     
  -6.4798368283737050E-007   4.5117039611212899E-007   0.0000000000000000     
  -6.7248139959030244E-007   4.7837614193088974E-007   0.0000000000000000     
  -6.9686289547785811E-007   5.0639728050402062E-007   0.0000000000000000     
  -7.2113283588048732E-007   5.3524185411480459E-007   0.0000000000000000     
  -7.4529588617863892E-007   5.6491790504652490E-007   0.0000000000000000     
  -7.6935671175276197E-007   5.9543347558246479E-007   0.0000000000000000     
  -7.9331997798330640E-007   6.2679660800590758E-007   0.0000000000000000     
  -8.1719035025072114E-007   6.5901534460013579E-007   0.0000000000000000     
  -6.4845713187632562E-007   4.3232100997700846E-007   0.0000000000000000     
  -6.7391052977253205E-007   4.5869114468023544E-007   0.0000000000000000     
  -6.9923898671736701E-007   4.8586521972567845E-007   0.0000000000000000     
  -7.2444817307499137E-007   5.1385211742244806E-007   0.0000000000000000     
  -7.4954375920956675E-007   5.4266072007965565E-007   0.0000000000000000     
  -7.7453141548525436E-007   5.7229991000641151E-007   0.0000000000000000     
  -7.9941681226621560E-007   6.0277856951182744E-007   0.0000000000000000     
  -8.2420561991661219E-007   6.3410558090501385E-007   0.0000000000000000     
  -8.4890350880060596E-007   6.6628982649508220E-007   0.0000000000000000     
  -6.7375596210955062E-007   4.4008207105633225E-007   0.0000000000000000     
  -7.0003582700903108E-007   4.6641496012397047E-007   0.0000000000000000     
  -7.2619261333881934E-007   4.9355665326370329E-007   0.0000000000000000     
  -7.5223177503442695E-007   5.2151496176451771E-007   0.0000000000000000     
  -7.7815876603136303E-007   5.5029769691539989E-007   0.0000000000000000     
  -8.0397904026513808E-007   5.7991267000533668E-007   0.0000000000000000     
  -8.2969805167126302E-007   6.1036769232331430E-007   0.0000000000000000     
  -8.5532125418524802E-007   6.4167057515831948E-007   0.0000000000000000     
  -8.8085410174260273E-007   6.7382912979933854E-007   0.0000000000000000     
  -6.9924941091279520E-007   4.4804099688806168E-007   0.0000000000000000     
  -7.2634615405333307E-007   4.7432554443424491E-007   0.0000000000000000     
  -7.5332944786726787E-007   5.0143457852863331E-007   0.0000000000000000     
  -7.8020288632564028E-007   5.2937232297881289E-007   0.0000000000000000     
  -8.0697006339949038E-007   5.5814300159236945E-007   0.0000000000000000     
  -8.3363457305985696E-007   5.8775083817688904E-007   0.0000000000000000     
  -8.6020000927778040E-007   6.1820005653995741E-007   0.0000000000000000     
  -8.8666996602430076E-007   6.4949488048916083E-007   0.0000000000000000     
  -9.1304803727045673E-007   6.8163953383208484E-007   0.0000000000000000     
  -7.2492531866056603E-007   4.5618360035783170E-007   0.0000000000000000     
  -7.5282809041190413E-007   4.8240659960197037E-007   0.0000000000000000     
  -7.8063665871532058E-007   5.0948313150413703E-007   0.0000000000000000     
  -8.0835069191810941E-007   5.3741071051391715E-007   0.0000000000000000     
  -8.3596985836756365E-007   5.6618685108089580E-007   0.0000000000000000     
  -8.6349382641097734E-007   5.9580906765465815E-007   0.0000000000000000     
  -8.9092226439564411E-007   6.2627487468478946E-007   0.0000000000000000     
  -9.1825484066885781E-007   6.5758178662087521E-007   0.0000000000000000     
  -9.4549122357791228E-007   6.8972731791250079E-007   0.0000000000000000     
  -6.9259389609740596E-007   6.3244004472985353E-007   0.0000000000000000     
  -7.1306869745273144E-007   6.6566176115700394E-007   0.0000000000000000     
  -7.3344145504332856E-007   6.9971904063857028E-007   0.0000000000000000     
  -7.5371450060185625E-007   7.3461085421603619E-007   0.0000000000000000     
  -7.7389016586097312E-007   7.7033617293088496E-007   0.0000000000000000     
  -7.9397078255333765E-007   8.0689396782459958E-007   0.0000000000000000     
  -8.1395868241160846E-007   8.4428320993866379E-007   0.0000000000000000     
  -8.3385619716844446E-007   8.8250287031456088E-007   0.0000000000000000     
  -8.5366565855650384E-007   9.2155191999377385E-007   0.0000000000000000     
  -7.2341639901629047E-007   6.3871803417935786E-007   0.0000000000000000     
  -7.4471921062710927E-007   6.7190532048180706E-007   0.0000000000000000     
  -7.6592153916065572E-007   7.0593302221528372E-007   0.0000000000000000     
  -7.8702481655944733E-007   7.4079900909215588E-007   0.0000000000000000     
  -8.0803047476600031E-007   7.7650115082478969E-007   0.0000000000000000     
  -8.2893994572283152E-007   8.1303731712555256E-007   0.0000000000000000     
  -8.4975466137245708E-007   8.5040537770681116E-007   0.0000000000000000     
  -8.7047605365739405E-007   8.8860320228093279E-007   0.0000000000000000     
  -8.9110555452015876E-007   9.2762866056028425E-007   0.0000000000000000     
  -7.5445270355230793E-007   6.4523572776145317E-007   0.0000000000000000     
  -7.7658133200436036E-007   6.7838695396805483E-007   0.0000000000000000     
  -7.9861250552594775E-007   7.1238478565918436E-007   0.0000000000000000     
  -8.2054643616806935E-007   7.4722566027875138E-007   0.0000000000000000     
  -8.4238333598172419E-007   7.8290601527066680E-007   0.0000000000000000     
  -8.6412341701791140E-007   8.1942228807884109E-007   0.0000000000000000     
  -8.8576689132763025E-007   8.5677091614718442E-007   0.0000000000000000     
  -9.0731397096187986E-007   8.9494833691960716E-007   0.0000000000000000     
  -9.2876486797165938E-007   9.3395098784001999E-007   0.0000000000000000     
  -7.8570871789920331E-007   6.5199940479531928E-007   0.0000000000000000     
  -8.0866278948254408E-007   6.8511439164031076E-007   0.0000000000000000     
  -8.3152298554211416E-007   7.1908213804106186E-007   0.0000000000000000     
  -8.5428816702656727E-007   7.5389763759431823E-007   0.0000000000000000     
  -8.7695719488455817E-007   7.8955588389682459E-007   0.0000000000000000     
  -8.9952893006474004E-007   8.2605187054532608E-007   0.0000000000000000     
  -9.2200223351576733E-007   8.6338059113656783E-007   0.0000000000000000     
  -9.4437596618629364E-007   9.0153703926729508E-007   0.0000000000000000     
  -9.6664898902497363E-007   9.4051620853425202E-007   0.0000000000000000     
  -8.1719035025072114E-007   6.5901534460013579E-007   0.0000000000000000     
  -8.4097131095971859E-007   6.9209536352313594E-007   0.0000000000000000     
  -8.6466161061206435E-007   7.2603288643170705E-007   0.0000000000000000     
  -8.8825881673378753E-007   7.6082177085735168E-007   0.0000000000000000     
  -9.1176049685091676E-007   7.9645587433157172E-007   0.0000000000000000     
  -9.3516421848948008E-007   8.3292905438586950E-007   0.0000000000000000     
  -9.5846754917550749E-007   8.7023516855174671E-007   0.0000000000000000     
  -9.8166805643502661E-007   9.0836807436070673E-007   0.0000000000000000     
  -1.0047633077940670E-006   9.4732162934425062E-007   0.0000000000000000     
  -8.4890350880060596E-007   6.6628982649508220E-007   0.0000000000000000     
  -8.7351462433394230E-007   6.9933759964109334E-007   0.0000000000000000     
  -8.9803701213870855E-007   7.3324483790191077E-007   0.0000000000000000     
  -9.2246719288857521E-007   7.6800488988634739E-007   0.0000000000000000     
  -9.4680168725721337E-007   8.0361110420321672E-007   0.0000000000000000     
  -9.7103701591829469E-007   8.4005682946133152E-007   0.0000000000000000     
  -9.9516969954548975E-007   8.7733541426950628E-007   0.0000000000000000     
  -1.0191962588124701E-006   9.1544020723655291E-007   0.0000000000000000     
  -1.0431132143929069E-006   9.5436455697128621E-007   0.0000000000000000     
  -8.8085410174260273E-007   6.7382912979933854E-007   0.0000000000000000     
  -9.0630045750327466E-007   7.0684883001874563E-007   0.0000000000000000     
  -9.3165782152495630E-007   7.4072579952246310E-007   0.0000000000000000     
  -9.5692210308977610E-007   7.7545382449980082E-007   0.0000000000000000     
  -9.8208921147986325E-007   8.1102669114006801E-007   0.0000000000000000     
  -1.0071550559773458E-006   8.4743818563257464E-007   0.0000000000000000     
  -1.0321155458643535E-006   8.8468209416663058E-007   0.0000000000000000     
  -1.0569665904230154E-006   9.2275220293154557E-007   0.0000000000000000     
  -1.0817040989354598E-006   9.6164229811662897E-007   0.0000000000000000     
  -9.1304803727045673E-007   6.8163953383208484E-007   0.0000000000000000     
  -9.3933653836577448E-007   7.1463678468065527E-007   0.0000000000000000     
  -9.6553267017371718E-007   7.4848357836415476E-007   0.0000000000000000     
  -9.9163235493623569E-007   7.8317540451620687E-007   0.0000000000000000     
  -1.0176315148952795E-006   8.1870775277043433E-007   0.0000000000000000     
  -1.0435260722927966E-006   8.5507611276045912E-007   0.0000000000000000     
  -1.0693119493707386E-006   8.9227597411990524E-007   0.0000000000000000     
  -1.0949850683710539E-006   9.3030282648239468E-007   0.0000000000000000     
  -1.1205413515356925E-006   9.6915215948155005E-007   0.0000000000000000     
  -9.4549122357791228E-007   6.8972731791250079E-007   0.0000000000000000     
  -9.7263059481949911E-007   7.2270919365138409E-007   0.0000000000000000     
  -9.9967018948790125E-007   7.5652598149777648E-007   0.0000000000000000     
  -1.0266067560268001E-006   7.9117645975406186E-007   0.0000000000000000     
  -1.0534370428798761E-006   8.2665940672262391E-007   0.0000000000000000     
  -1.0801577984908099E-006   8.6297360070584684E-007   0.0000000000000000     
  -1.1067657713032835E-006   9.0011782000611465E-007   0.0000000000000000     
  -1.1332577097609768E-006   9.3809084292581092E-007   0.0000000000000000     
  -1.1596303623075717E-006   9.7689144776732049E-007   0.0000000000000000     
  -8.5366565855650384E-007   9.2155191999377385E-007   0.0000000000000000     
  -8.7338882366063306E-007   9.6142870081834388E-007   0.0000000000000000     
  -8.9302515097442843E-007   1.0021290378325437E-006   0.0000000000000000     
  -9.1257352434367287E-007   1.0436481268812049E-006   0.0000000000000000     
  -9.3203282761415066E-007   1.0859811638091570E-006   0.0000000000000000     
  -9.5140194463164514E-007   1.1291233444612316E-006   0.0000000000000000     
  -9.7067975924194059E-007   1.1730698646822588E-006   0.0000000000000000     
  -9.8986515529082004E-007   1.2178159203170696E-006   0.0000000000000000     
  -1.0089570166240667E-006   1.2633567072104947E-006   0.0000000000000000     
  -8.9110555452015876E-007   9.2762866056028425E-007   0.0000000000000000     
  -9.1164421597174486E-007   9.6747926699892439E-007   0.0000000000000000     
  -9.3209157029705219E-007   1.0081511150176786E-006   0.0000000000000000     
  -9.5244676984945918E-007   1.0496399427790655E-006   0.0000000000000000     
  -9.7270896698234258E-007   1.0919414884456025E-006   0.0000000000000000     
  -9.9287731404907998E-007   1.1350514901798064E-006   0.0000000000000000     
  -1.0129509634030492E-006   1.1789656861441962E-006   0.0000000000000000     
  -1.0329290673976267E-006   1.2236798145012894E-006   0.0000000000000000     
  -1.0528107783861907E-006   1.2691896134136032E-006   0.0000000000000000     
  -9.2876486797165938E-007   9.3395098784001999E-007   0.0000000000000000     
  -9.5011968750338529E-007   9.7377531189807220E-007   0.0000000000000000     
  -9.7137810708514208E-007   1.0144177742663680E-006   0.0000000000000000     
  -9.9253969734043094E-007   1.0558748456632508E-006   0.0000000000000000     
  -1.0136040288927542E-006   1.0981429968070625E-006   0.0000000000000000     
  -1.0345706723656132E-006   1.1412186984161484E-006   0.0000000000000000     
  -1.0554391983825099E-006   1.1850984212088497E-006   0.0000000000000000     
  -1.0762091775669459E-006   1.2297786359035105E-006   0.0000000000000000     
  -1.0968801805424229E-006   1.2752558132184742E-006   0.0000000000000000     
  -9.6664898902497363E-007   9.4051620853425202E-007   0.0000000000000000     
  -9.8882036353569416E-007   9.8031346464599189E-007   0.0000000000000000     
  -1.0108899534432767E-006   1.0209256617582955E-006   0.0000000000000000     
  -1.0328578230277771E-006   1.0623500261387518E-006   0.0000000000000000     
  -1.0547240365692495E-006   1.1045837840549490E-006   0.0000000000000000     
  -1.0764886583477508E-006   1.1476241617744756E-006   0.0000000000000000     
  -1.0981517526433345E-006   1.1914683855649203E-006   0.0000000000000000     
  -1.1197133837360562E-006   1.2361136816938721E-006   0.0000000000000000     
  -1.1411736159059711E-006   1.2815572764289190E-006   0.0000000000000000     
  -1.0047633077940670E-006   9.4732162934425062E-007   0.0000000000000000     
  -1.0277513693488082E-006   9.8709035437288677E-007   0.0000000000000000     
  -1.0506323014760358E-006   1.0276714236731442E-006   0.0000000000000000     
  -1.0734066631226850E-006   1.0690626748105605E-006   0.0000000000000000     
  -1.0960750132356942E-006   1.1112619453506695E-006   0.0000000000000000     
  -1.1186379107619975E-006   1.1542670728590075E-006   0.0000000000000000     
  -1.1410959146485324E-006   1.1980758949011099E-006   0.0000000000000000     
  -1.1634495838422361E-006   1.2426862490425125E-006   0.0000000000000000     
  -1.1856994772900432E-006   1.2880959728487507E-006   0.0000000000000000     
  -1.0431132143929069E-006   9.5436455697128621E-007   0.0000000000000000     
  -1.0669178302228664E-006   9.9410261020896015E-007   0.0000000000000000     
  -1.0906103432879975E-006   1.0346517061905993E-006   0.0000000000000000     
  -1.1141917338363447E-006   1.0760099822836690E-006   0.0000000000000000     
  -1.1376629821159502E-006   1.1181755758556350E-006   0.0000000000000000     
  -1.1610250683748589E-006   1.1611466242739632E-006   0.0000000000000000     
  -1.1842789728611155E-006   1.2049212649061198E-006   0.0000000000000000     
  -1.2074256758227626E-006   1.2494976351195696E-006   0.0000000000000000     
  -1.2304661575078454E-006   1.2948738722817799E-006   0.0000000000000000     
  -1.0817040989354598E-006   9.6164229811662897E-007   0.0000000000000000     
  -1.1063248714380071E-006   1.0013468612844164E-006   0.0000000000000000     
  -1.1308292709837423E-006   1.0418631554903425E-006   0.0000000000000000     
  -1.1552185513799426E-006   1.0831891391630684E-006   0.0000000000000000     
  -1.1794939664338831E-006   1.1253227707312546E-006   0.0000000000000000     
  -1.2036567699528413E-006   1.1682620086235621E-006   0.0000000000000000     
  -1.2277082157440936E-006   1.2120048112686519E-006   0.0000000000000000     
  -1.2516495576149164E-006   1.2565491370951834E-006   0.0000000000000000     
  -1.2754820493725864E-006   1.3018929445318185E-006   0.0000000000000000     
  -1.1205413515356925E-006   9.6915215948155005E-007   0.0000000000000000     
  -1.1459776182743682E-006   1.0088197367294588E-006   0.0000000000000000     
  -1.1712942766678483E-006   1.0493024177520575E-006   0.0000000000000000     
  -1.1964926319646674E-006   1.0905973360537507E-006   0.0000000000000000     
  -1.2215739894133566E-006   1.1327016251389386E-006   0.0000000000000000     
  -1.2465396542624488E-006   1.1756124185120229E-006   0.0000000000000000     
  -1.2713909317604777E-006   1.2193268496774070E-006   0.0000000000000000     
  -1.2961291271559753E-006   1.2638420521394923E-006   0.0000000000000000     
  -1.3207555456974729E-006   1.3091551594026796E-006   0.0000000000000000     
  -1.1596303623075717E-006   9.7689144776732049E-007   0.0000000000000000     
  -1.1858811960120869E-006   1.0165178656742910E-006   0.0000000000000000     
  -1.2120105524448951E-006   1.0569661391554296E-006   0.0000000000000000     
  -1.2380194918017077E-006   1.0982317635607075E-006   0.0000000000000000     
  -1.2639090742782348E-006   1.1403102342400955E-006   0.0000000000000000     
  -1.2896803600701881E-006   1.1831970465435652E-006   0.0000000000000000     
  -1.3153344093732784E-006   1.2268876958210873E-006   0.0000000000000000     
  -1.3408722823832163E-006   1.2713776774226335E-006   0.0000000000000000     
  -1.3662950392957134E-006   1.3166624866981749E-006   0.0000000000000000     
  -1.0089570166240667E-006   1.2633567072104947E-006   0.0000000000000000     
  -1.0279545197343786E-006   1.3096877365107241E-006   0.0000000000000000     
  -1.0468580117021064E-006   1.3568057805793823E-006   0.0000000000000000     
  -1.0656681322545150E-006   1.4047079270814557E-006   0.0000000000000000     
  -1.0843855211188693E-006   1.4533912636819275E-006   0.0000000000000000     
  -1.1030108180224330E-006   1.5028528780457830E-006   0.0000000000000000     
  -1.1215446626924717E-006   1.5530898578380071E-006   0.0000000000000000     
  -1.1399876948562492E-006   1.6040992907235844E-006   0.0000000000000000     
  -1.1583405542410308E-006   1.6558782643674986E-006   0.0000000000000000     
  -1.0528107783861907E-006   1.2691896134136032E-006   0.0000000000000000     
  -1.0725954670798577E-006   1.3154909967400185E-006   0.0000000000000000     
  -1.0922833776206992E-006   1.3625805811248631E-006   0.0000000000000000     
  -1.1118749725085278E-006   1.4104551589088289E-006   0.0000000000000000     
  -1.1313707142431551E-006   1.4591115224326073E-006   0.0000000000000000     
  -1.1507710653243925E-006   1.5085464640368892E-006   0.0000000000000000     
  -1.1700764882520510E-006   1.5587567760623661E-006   0.0000000000000000     
  -1.1892874455259436E-006   1.6097392508497298E-006   0.0000000000000000     
  -1.2084043996458807E-006   1.6614906807396704E-006   0.0000000000000000     
  -1.0968801805424229E-006   1.2752558132184742E-006   0.0000000000000000     
  -1.1174518827575897E-006   1.3215264080603012E-006   0.0000000000000000     
  -1.1379243789616827E-006   1.3685868120884278E-006   0.0000000000000000     
  -1.1582978687290854E-006   1.4164334011505051E-006   0.0000000000000000     
  -1.1785725516341821E-006   1.4650625510941864E-006   0.0000000000000000     
  -1.1987486272513557E-006   1.5144706377671245E-006   0.0000000000000000     
  -1.2188262951549904E-006   1.5646540370169723E-006   0.0000000000000000     
  -1.2388057549194693E-006   1.6156091246913831E-006   0.0000000000000000     
  -1.2586872061191761E-006   1.6673322766380086E-006   0.0000000000000000     
  -1.1411736159059711E-006   1.2815572764289190E-006   0.0000000000000000     
  -1.1625324832296826E-006   1.3277961816564785E-006   0.0000000000000000     
  -1.1837898989699844E-006   1.3748265517382803E-006   0.0000000000000000     
  -1.2049457461862198E-006   1.4226443266548835E-006   0.0000000000000000     
  -1.2259999079377305E-006   1.4712454463868464E-006   0.0000000000000000     
  -1.2469522672838588E-006   1.5206258509147279E-006   0.0000000000000000     
  -1.2678027072839476E-006   1.5707814802190859E-006   0.0000000000000000     
  -1.2885511109973387E-006   1.6217082742804804E-006   0.0000000000000000     
  -1.3091973614833746E-006   1.6734021730794689E-006   0.0000000000000000     
  -1.1856994772900432E-006   1.2880959728487507E-006   0.0000000000000000     
  -1.2078459849582429E-006   1.3343025287134530E-006   0.0000000000000000     
  -1.2298888208905325E-006   1.3813018783426255E-006   0.0000000000000000     
  -1.2518275301499618E-006   1.4290896082703651E-006   0.0000000000000000     
  -1.2736616577995804E-006   1.4776613050307701E-006   0.0000000000000000     
  -1.2953907489024372E-006   1.5270125551579385E-006   0.0000000000000000     
  -1.3170143485215819E-006   1.5771389451859684E-006   0.0000000000000000     
  -1.3385320017200641E-006   1.6280360616489581E-006   0.0000000000000000     
  -1.3599432535609329E-006   1.6796994910810047E-006   0.0000000000000000     
  -1.2304661575078454E-006   1.2948738722817799E-006   0.0000000000000000     
  -1.2534011044053770E-006   1.3410476604161302E-006   0.0000000000000000     
  -1.2762300279682547E-006   1.3880148701696667E-006   0.0000000000000000     
  -1.2989521458903442E-006   1.4357709188453489E-006   0.0000000000000000     
  -1.3215666758655126E-006   1.4843112237461387E-006   0.0000000000000000     
  -1.3440728355876268E-006   1.5336312021749952E-006   0.0000000000000000     
  -1.3664698427505530E-006   1.5837262714348799E-006   0.0000000000000000     
  -1.3887569150481577E-006   1.6345918488287513E-006   0.0000000000000000     
  -1.4109332701743085E-006   1.6862233516595724E-006   0.0000000000000000     
  -1.2754820493725864E-006   1.3018929445318185E-006   0.0000000000000000     
  -1.2992065580331927E-006   1.3480337879494139E-006   0.0000000000000000     
  -1.3228224034480782E-006   1.3949676054876080E-006   0.0000000000000000     
  -1.3463285186773981E-006   1.4426899312282366E-006   0.0000000000000000     
  -1.3697238367813075E-006   1.4911962992531339E-006   0.0000000000000000     
  -1.3930072908199633E-006   1.5404822436441368E-006   0.0000000000000000     
  -1.4161778138535193E-006   1.5905432984830792E-006   0.0000000000000000     
  -1.4392343389421323E-006   1.6413749978517972E-006   0.0000000000000000     
  -1.4621757991459579E-006   1.6929728758321261E-006   0.0000000000000000     
  -1.3207555456974729E-006   1.3091551594026796E-006   0.0000000000000000     
  -1.3452710623037959E-006   1.3552631224982077E-006   0.0000000000000000     
  -1.3696748305749303E-006   1.4021621625646528E-006   0.0000000000000000     
  -1.3939655737811548E-006   1.4498483182674255E-006   0.0000000000000000     
  -1.4181420151927462E-006   1.4983176282719381E-006   0.0000000000000000     
  -1.4422028780799821E-006   1.5475661312436021E-006   0.0000000000000000     
  -1.4661468857131409E-006   1.5975898658478297E-006   0.0000000000000000     
  -1.4899727613625008E-006   1.6483848707500321E-006   0.0000000000000000     
  -1.5136792282983388E-006   1.6999471846156205E-006   0.0000000000000000     
  -1.3662950392957134E-006   1.3166624866981749E-006   0.0000000000000000     
  -1.3916033336792940E-006   1.3627378752474170E-006   0.0000000000000000     
  -1.4167961925937397E-006   1.4096006196690047E-006   0.0000000000000000     
  -1.4418722364716459E-006   1.4572477528113172E-006   0.0000000000000000     
  -1.4668300857456069E-006   1.5056763075227324E-006   0.0000000000000000     
  -1.4916683608482186E-006   1.5548833166516305E-006   0.0000000000000000     
  -1.5163856822120760E-006   1.6048658130463901E-006   0.0000000000000000     
  -1.5409806702697742E-006   1.6556208295553901E-006   0.0000000000000000     
  -1.5654519454539084E-006   1.7071453990270104E-006   0.0000000000000000     
  -1.1583405542410308E-006   1.6558782643674986E-006   0.0000000000000000     
  -1.1766036855631422E-006   1.7084235387958477E-006   0.0000000000000000     
  -1.1947767534951562E-006   1.7617305634791738E-006   0.0000000000000000     
  -1.2128592276987059E-006   1.8157944602491311E-006   0.0000000000000000     
  -1.2308505778354251E-006   1.8706103509373741E-006   0.0000000000000000     
  -1.2487502735669483E-006   1.9261733573755601E-006   0.0000000000000000     
  -1.2665577845549087E-006   1.9824786013953415E-006   0.0000000000000000     
  -1.2842725804609403E-006   2.0395212048283732E-006   0.0000000000000000     
  -1.3018941309466763E-006   2.0972962895063103E-006   0.0000000000000000     
  -1.2084043996458807E-006   1.6614906807396704E-006   0.0000000000000000     
  -1.2274276589213883E-006   1.7140076284895467E-006   0.0000000000000000     
  -1.2463569149008448E-006   1.7672857385233771E-006   0.0000000000000000     
  -1.2651917049423453E-006   1.8213204256818506E-006   0.0000000000000000     
  -1.2839315664039820E-006   1.8761071048056538E-006   0.0000000000000000     
  -1.3025760366438483E-006   1.9316411907354719E-006   0.0000000000000000     
  -1.3211246530200373E-006   1.9879180983119930E-006   0.0000000000000000     
  -1.3395769528906430E-006   2.0449332423759041E-006   0.0000000000000000     
  -1.3579324736137581E-006   2.1026820377678906E-006   0.0000000000000000     
  -1.2586872061191761E-006   1.6673322766380086E-006   0.0000000000000000     
  -1.2784707608331856E-006   1.7198197800738899E-006   0.0000000000000000     
  -1.2981561811593331E-006   1.7730675676936133E-006   0.0000000000000000     
  -1.3177431417001447E-006   1.8270714835611543E-006   0.0000000000000000     
  -1.3372313170581468E-006   1.8818273717404864E-006   0.0000000000000000     
  -1.3566203818358659E-006   1.9373310762955841E-006   0.0000000000000000     
  -1.3759100106358286E-006   1.9935784412904242E-006   0.0000000000000000     
  -1.3950998780605601E-006   2.0505653107889778E-006   0.0000000000000000     
  -1.4141896587125878E-006   2.1082875288552207E-006   0.0000000000000000     
  -1.3091973614833746E-006   1.6734021730794689E-006   0.0000000000000000     
  -1.3297413391273013E-006   1.7258591758889364E-006   0.0000000000000000     
  -1.3501829136179783E-006   1.7790755191510756E-006   0.0000000000000000     
  -1.3705219519701680E-006   1.8330474986004026E-006   0.0000000000000000     
  -1.3907583211986330E-006   1.8877714099714357E-006   0.0000000000000000     
  -1.4108918883181368E-006   1.9432435489986941E-006   0.0000000000000000     
  -1.4309225203434410E-006   1.9994602114166931E-006   0.0000000000000000     
  -1.4508500842893100E-006   2.0564176929599523E-006   0.0000000000000000     
  -1.4706744471705047E-006   2.1141122893629903E-006   0.0000000000000000     
  -1.3599432535609329E-006   1.6796994910810047E-006   0.0000000000000000     
  -1.3812477416325024E-006   1.7321249982747448E-006   0.0000000000000000     
  -1.4024454736241398E-006   1.7853090610569562E-006   0.0000000000000000     
  -1.4235365497504794E-006   1.8392483355129570E-006   0.0000000000000000     
  -1.4445210702261539E-006   1.8939394777280644E-006   0.0000000000000000     
  -1.4653991352657950E-006   1.9493791437875939E-006   0.0000000000000000     
  -1.4861708450840361E-006   2.0055639897768627E-006   0.0000000000000000     
  -1.5068362998955090E-006   2.0624906717811887E-006   0.0000000000000000     
  -1.5273955999148468E-006   2.1201558458858871E-006   0.0000000000000000     
  -1.4109332701743085E-006   1.6862233516595724E-006   0.0000000000000000     
  -1.4329983161775539E-006   1.7386164295713715E-006   0.0000000000000000     
  -1.4549522225251773E-006   1.7917676615724495E-006   0.0000000000000000     
  -1.4767953490391456E-006   1.8456738590121811E-006   0.0000000000000000     
  -1.4985280555414228E-006   1.9003318332399337E-006   0.0000000000000000     
  -1.5201507018539766E-006   1.9557383956050808E-006   0.0000000000000000     
  -1.5416636477987719E-006   2.0118903574569931E-006   0.0000000000000000     
  -1.5630672531977754E-006   2.0687845301450421E-006   0.0000000000000000     
  -1.5843618778729525E-006   2.1264177250185999E-006   0.0000000000000000     
  -1.4621757991459579E-006   1.6929728758321261E-006   0.0000000000000000     
  -1.4850014105912235E-006   1.7453326521188750E-006   0.0000000000000000     
  -1.5077115216684493E-006   1.7984507888587500E-006   0.0000000000000000     
  -1.5303067638342288E-006   1.8523239338114342E-006   0.0000000000000000     
  -1.5527877685451530E-006   1.9069487347366070E-006   0.0000000000000000     
  -1.5751551672578157E-006   1.9623218393939499E-006   0.0000000000000000     
  -1.5974095914288095E-006   2.0184398955431459E-006   0.0000000000000000     
  -1.6195516725147266E-006   2.0752995509438752E-006   0.0000000000000000     
  -1.6415820419721599E-006   2.1328974533558185E-006   0.0000000000000000     
  -1.5136792282983388E-006   1.6999471846156205E-006   0.0000000000000000     
  -1.5372653727022776E-006   1.7522728482573131E-006   0.0000000000000000     
  -1.5607317324013147E-006   1.8053579110770501E-006   0.0000000000000000     
  -1.5840792081337945E-006   1.8591984246240792E-006   0.0000000000000000     
  -1.6073087006380577E-006   1.9137904404476462E-006   0.0000000000000000     
  -1.6304211106524483E-006   1.9691300100969977E-006   0.0000000000000000     
  -1.6534173389153082E-006   2.0252131851213811E-006   0.0000000000000000     
  -1.6762982861649805E-006   2.0820360170700439E-006   0.0000000000000000     
  -1.6990648531398077E-006   2.1395945574922310E-006   0.0000000000000000     
  -1.5654519454539084E-006   1.7071453990270104E-006   0.0000000000000000     
  -1.5897985503394820E-006   1.7594362003267439E-006   0.0000000000000000     
  -1.6140212160711328E-006   1.8124884963885435E-006   0.0000000000000000     
  -1.6381210959359068E-006   1.8662971961634778E-006   0.0000000000000000     
  -1.6620993432208501E-006   1.9208572086026139E-006   0.0000000000000000     
  -1.6859571112130085E-006   1.9761634426570189E-006   0.0000000000000000     
  -1.7096955531994277E-006   2.0322108072777609E-006   0.0000000000000000     
  -1.7333158224671545E-006   2.0889942114159081E-006   0.0000000000000000     
  -1.7568190723032344E-006   2.1465085640225271E-006   0.0000000000000000     
 </DataArray>
 <DataArray  type="Float64" Name="stress" NumberOfComponents="3" format="ascii">
   36268.076393925301        10880.422918177590        7968.9793767068659     
   32138.066886364290        5732.0118423848162        4943.1228770868402     
   28826.417715412612        2143.9552103145743        2690.5124863259034     
   26259.927871733085       -127.75034248987140        1108.3418296576924     
   24365.396345988600       -1327.1081804854975        93.804532315701977     
   23069.622128842002       -1698.1216681293454       -455.90578046663126     
   22299.404210956418       -1484.7941698780478       -643.59548345560540     
   21981.541582994709       -931.12905018835863       -572.07095141757236     
   22042.833235619844       -281.12967351726275       -344.13855911908331     
   30359.389438589049        9107.8168315766216        6356.0841792511001     
   28083.488085627447        5219.4098493952124        4251.2947243006947     
   26276.409308548984        2479.0235849317414        2669.2455181759260     
   24883.848596812059        705.64300304775315        1538.2278901833884     
   23851.501439875130       -281.74693139543706        786.53316962953716     
   23125.063327196680       -664.16125353636471        342.45268582092910     
   22650.229748235099       -622.61499851360259        134.27776806408434     
   22372.696192448733       -338.12320146577713        90.299745665497724     
   22238.158149296083        8.2991024683460637        138.80994793154767     
   25876.372568220351        7762.9117704661048        5059.5535247580783     
   24919.253750364165        4889.0902492548503        3693.3669869780065     
   24177.069497816323        2820.9131084277560        2646.2474427376537     
   23611.760448256420        1431.5158069161862        1872.8212353860740     
   23185.267239363784        594.03380365140129        1327.7147082722677     
   22859.530508817679        181.60255756462448        965.55420474519121     
   22596.490894297640        67.357527587315417        740.96606815398127     
   22358.089033482960        124.43417265060725        608.57664184753173     
   22106.265564053105        225.96795168577955        523.01226917485201     
   22600.039572108155        6780.0118716324459        4037.7978022157122     
   22508.419543205531        4699.9697407531403        3245.1668535928025     
   22459.888133386834        3149.0707358543827        2611.6690056341290     
   22429.979777977722        2045.7629746889779        2113.5029257007641     
   22394.228912304119        1308.4945750098123        1726.8672811538204     
   22328.169971691783        855.71365456966578        1427.9607393543517     
   22207.337391466652        605.86833112146724        1192.9819676635052     
   22007.265606954603        477.40672241806351        998.12963344236914     
   21703.489053481455        388.77694621228966        819.60240405203479     
   20311.404239541873        6093.4212718625622        3249.2274006122329     
   20714.041126783239        4610.9650226795084        2882.5215126191088     
   21056.355065432508        3442.9434222631521        2555.6609524882438     
   21324.822937887548        2544.2794119395139        2261.6540215623477     
   21505.921626546024        1869.8959330346624        1993.5090211841859     
   21586.128013805930        1374.7159268747582        1744.2342526965620     
   21551.918982064966        1013.6623347857421        1506.8380174421536     
   21389.771413720991        741.65809809379425        1274.3286167637834     
   21086.162191171847        513.62615812498916        1039.7143520042112     
   18791.480359811168        5637.4441079433509        2652.2527089358623     
   19399.174163728414        4580.9927938233723        2581.2581525309679     
   19897.960144125333        3681.9781227056947        2468.3740289229509     
   20282.606279897191        2922.9600242412457        2318.6555834057817     
   20547.880549939262        2286.4984280809476        2137.1580612734351     
   20688.550933146795        1755.1532638758454        1928.9367078199559     
   20699.385408415092        1311.4844612768657        1699.0467683393269     
   20575.151954639430        938.05194993497025        1452.5434881255387     
   20310.618550715113        617.41565950114000        1194.4821124725977     
   17821.281722205513        5346.3845166616620        2205.2841161748001     
   18426.874316672642        4568.9697529741734        2317.2039618024173     
   18916.193219637538        3845.6217922336359        2339.9589805611954     
   19289.646155918472        3177.6997171676153        2285.8886716659895     
   19547.640850333606        2566.5626105035899        2167.3325343315860     
   19690.585027701232        2013.5695549690945        1996.6300677728095     
   19718.886412839689        1520.0796332916443        1786.1207712044727     
   19632.952730567122        1087.4519281987259        1548.1441438413694     
   19433.191705701858        717.04552241789315        1295.0396848983373     
   17181.822116014613        5154.5466348043983        1866.7320113172552     
   17660.197248247310        4533.8125989213331        2066.1861289074873     
   18042.544142141072        3913.3213858986555        2160.5665530259785     
   18332.258917862739        3304.3933962921687        2164.7343467779888     
   18532.737695578842        2718.3490306575713        2093.5505732687125     
   18647.376595456211        2166.5086895505801        1961.8762956033311     
   18679.571737661485        1660.1927735268928        1784.5725768870388     
   18632.719242361454        1210.7216831423293        1576.5004802250976     
   18510.215229722766        829.41581895251420        1352.5210687226490     
   16654.115330527682        4996.2345991583106        1595.0067833513704     
   16962.198621083662        4434.4380304541992        1804.0318423201629     
   17208.502761808031        3864.5238587523418        1920.3474919402272     
   17396.760917641579        3298.9359671883235        1956.5736691766999     
   17530.706253524753        2750.1182388977413        1925.3303109947778     
   17614.071934398380        2230.5145570162426        1839.2373543596491     
   17650.591125203089        1752.5688046794162        1710.9147362364747     
   17643.996990879634        1328.7248650228830        1552.9823935904440     
   17598.022696368680        971.42662118228600        1378.0602633867484     
   22042.833235619844       -281.12967351726275       -344.13855911908331     
   22224.532348634337        209.13789057910617       -118.99966484450334     
   22325.387976335725        475.26048752737006        22.633239665235660     
   22358.442921129332        560.71412534563751        95.687079459378623     
   22336.739985420551        508.97481205145959        115.08877958684832     
   22273.321971614721        363.51855566305858        95.765265096952263     
   22181.231682117217        167.82136419813378        52.643461038698511     
   22073.511919333363       -34.640754325464513       0.65029246119223294     
   21963.205485668572       -200.39179188980142       -45.287315586434786     
   22238.158149296083        8.2991024683460637        138.80994793154767     
   22143.714680476849        252.52609966568161        188.64935431147299     
   22027.961309021681        368.75351427324858        202.36945754547753     
   21898.838216386001        383.44861780894553        188.82735687747206     
   21764.285584024896        323.07868178985245        156.88015155083514     
   21632.243593393632        214.11097773362235        115.38494080932813     
   21510.652425947621        83.012777157740857        73.198823896599308     
   21407.452263141990       -43.748648420170866        39.178900056343814     
   21330.583286432018       -139.70602748270903        22.182268532171527     
   22106.265564053105        225.96795168577955        523.01226917485201     
   21842.957945332808        278.19585112838831        444.38377927499749     
   21597.931084133084        280.11301570109208        365.61471653840476     
   21374.866789362793        243.99214176682835        290.55049719180835     
   21177.446869930754        182.10592568820266        223.03653746173825     
   21009.353134745685        106.72706382781416        166.91825357472132     
   20874.267392716509        30.128252548550336        126.04106175745697     
   20775.871452751977       -35.417811786998755        104.25037823645997     
   20717.847123760901       -77.638432816048407        105.39161923835260     
   21703.489053481455        388.77694621228966        819.60240405203479     
   21360.091579180633        297.49597576072301        654.04756968168545     
   21057.645865145703        216.04356085364452        513.90789294503486     
   20796.419596142707        145.31198404445786        399.07524983993306     
   20576.680456937665        86.193527886723132        309.44151636437419     
   20398.696132296653        39.580474933843107        244.89856851620578     
   20262.734306985687        6.3651077392732986        205.33828229333872     
   20169.062665770798       -12.560291143509858        190.65253369369344     
   20117.948893418063       -16.303439161020833        200.73319871517526     
   21086.162191171847        513.62615812498916        1039.7143520042112     
   20732.945017998649        321.77530435620702        823.48468516715900     
   20429.454215535148        183.24971877344797        648.78786306623635     
   20173.387592808322        90.375431466482951        512.62036425905148     
   19962.442958845004        35.478472525139296        411.97866730323949     
   19794.318122672252        10.884872039112452        343.85925075636499     
   19666.710893316922        8.9206600982652162        305.25859317609155     
   19577.319079806042        21.911866792425826        293.17317312003769     
   19523.840491166429        42.184522211251533        304.59946914575755     
   20310.618550715113        617.41565950114000        1194.4821124725977     
   19999.347697765286        362.38266770832251        958.53908536699578     
   19735.704698777172        188.43605850328277        771.79350320304025     
   19515.661735442281        82.149770857698968        629.40458988643832     
   19335.190989452152        30.097743743192041        526.53156932287436     
   19190.264642498238        18.853916131507503        458.33366541808522     
   19076.854876272057        34.992226994177145        419.97010207770978     
   18990.933872465095        65.086615303062899        406.60010320754617     
   18928.473812768825        95.711020029582869        413.38289271318212     
   19433.191705701858        717.04552241789315        1295.0396848983373     
   19197.129054458859        430.66689661058354        1065.0547299168202     
   18998.745878347443        238.30714908580467        884.46368965640204     
   18833.132980127404        123.60228904283395        747.64667615937049     
   18695.381162558482        70.188325680725939        648.98380146786462     
   18580.581228400348        61.701268198502476        582.85517762402162     
   18483.823980412773        81.777125795465508        543.64091667011462     
   18400.200221355473        114.05190767050317        525.72113064822270     
   18324.800753988220        142.16162302296289        523.47593160062968     
   18510.215229722766        829.41581895251420        1352.5210687226490     
   18364.118524057736        537.97682185649683        1148.8755784522286     
   18240.926317721693        339.56755956386041        988.33729872737979     
   18135.692282946387        217.70027284685148        865.56537251522218     
   18043.470091963380        155.88720247754190        775.21894278276852     
   17959.313417004367        137.64058922813274        711.95715249710474     
   17878.275930300948        146.47267387064312        670.43914462523571     
   17795.411304084748        165.89569717724135        645.32406213421825     
   17705.773210587435        179.42189992014391        631.27104799114568     
   17598.022696368680        971.42662118228600        1378.0602633867484     
   17538.145542540311        695.66127423955277        1215.8455906088325     
   17484.594580375651        498.92185898005391        1084.9532067169021     
   17433.230599981915        367.41100909445595        981.37942839124639     
   17379.914391466293        287.33135827354818        901.12057231220945     
   17320.506744936039        244.88554020795164        840.17295516004901     
   17250.868450498332        226.27618858832193        794.53289361505642     
   17166.860298260392        217.70593710544563        760.19670435756098     
   17064.343078329424        205.37741945006655        733.16070406788367     
   21963.205485668572       -200.39179188980142       -45.287315586434786     
   21867.563302616272       -293.61307395566200       -74.231648195896497     
   21792.073958652232       -317.69370270953550       -87.134174933215093     
   21732.136756655291       -287.96933522200197       -86.901747460719960     
   21683.150999504214       -219.77562856379518       -76.441217440829803     
   21640.515990077864       -128.44823980539877       -58.659436535774979     
   21599.631031255107       -29.322826017396437       -36.463256407941380     
   21555.895425914467        62.264955729049689       -12.759528719862859     
   21504.708476935080        130.97944836400984        9.5448948663507309     
   21330.583286432018       -139.70602748270903        22.182268532171527     
   21273.348692119234       -188.20809189388547        20.099626351705968     
   21221.897951886815       -196.44932224582317        23.899584004495942     
   21173.440660262666       -173.73107011198863        32.056110927664783     
   21125.186411774386       -129.35468706687971        43.043176557849897     
   21074.344800949882       -72.621524684400356        55.334750331983464     
   21018.125422317040       -12.832934538372683        67.404801687040333     
   20953.737870403646        40.709731797462155        77.727300059980976     
   20878.391739737406        78.705122748491704        84.776214887481473     
   20717.847123760901       -77.638432816048407        105.39161923835260     
   20679.897072699241       -93.975513253818463        118.83753946984315     
   20638.399760160057       -92.951643692035759        131.12291447695532     
   20592.050685507733       -78.915159582622437        141.83619174528360     
   20539.545348106381       -56.214396378458332        150.56581875999794     
   20479.579247320526       -29.197689531258220        156.90024300676737     
   20410.847882514397       -2.2133744935053983        160.42791197100101     
   20332.046753052291        20.390213282482364        160.73727313805193     
   20241.871358298584        34.264738344615580        157.41677399347185     
   20117.948893418063       -16.303439161020833        200.73319871517526     
   20083.950200757099       -11.892811115072618        220.28246142763328     
   20041.350020365870       -7.2694759799160238        234.36564355797410     
   19990.005369632661       -2.9100424611160634        243.41932758944202     
   19929.773265945805       0.70888073582045763        247.88009600536387     
   19860.510726693687        3.1106849054549457        248.18453128909724     
   19782.074769264746        3.8187613423160656        244.76921592399208     
   19694.322411047211        2.3565013407942388        238.07073239327480     
   19597.110669429461       -1.7527038045273002        228.52566318031879     
   19523.840491166429        42.184522211251533        304.59946914575755     
   19482.249832693436        57.062541442519432        322.73476249407167     
   19430.519369397793        60.528371958388561        333.45759832108615     
   19369.343249879294        54.895842425134106        337.78635105727977     
   19299.415622737837        42.478781509117653        336.73939513316202     
   19221.430636573372        25.591017876763544        331.33510497928052     
   19136.082439985850        6.5463801942742066        322.59185502613082     
   19044.065181575068       -12.341302871922380        311.52801970421910     
   18946.073009940992       -28.758202655524656        299.16197344406140     
   18928.473812768825        95.711020029582869        413.38289271318212     
   18871.537724908994        111.91307133909595        424.49481293815489     
   18805.678444149573        110.37309119106430        428.22860584007634     
   18732.102863489556        95.114056248655288        425.91809474595425     
   18652.017875927893        70.158943175127206        418.89710298282057     
   18566.630374463544        39.530728633840226        408.49945387774142     
   18477.147252095459        7.2523892877825347        396.05897075764187     
   18384.775401822688       -22.653098199549277        382.90947694966331     
   18290.721716644097       -46.162757165144285        370.38479578072275     
   18324.800753988220        142.16162302296289        523.47593160062968     
   18248.555633804495        151.68130549496436        523.86298302894454     
   18166.597881515048        142.19587278621020        518.50849318864323     
   18080.322747705446        118.35616018200926        508.79539125263733     
   17991.125482961292        84.813002967536704        496.10660639376715     
   17900.401337868050        46.217236427790340        481.82506778481024     
   17809.545563011317        7.2196958481654292        467.33370459868723     
   17719.953408976722       -27.528783486140128        454.01544600826026     
   17633.020126349686       -53.377366290112150        443.25322118632010     
   17705.773210587435        179.42189992014391        631.27104799114568     
   17610.045315780630        175.38977083023656        619.13964303542866     
   17513.048318387882        155.92790781208896        604.12708744056567     
   17416.041439768913        125.23371539787422        587.39907317453594     
   17320.283901283383        87.504598119767252        570.12129220534143     
   17227.034924290943        46.937960510036646        553.45943650099423     
   17137.553730151260        7.7312071008864223        538.57919802948584     
   17053.099540223895       -25.918257575674943        526.64626875875138     
   16974.931575868675       -49.813028987186044        518.82634065687830     
   17064.343078329424        205.37741945006655        733.16070406788367     
   16952.748527238091        182.06099426522360        708.62516322667364     
   16844.800391661818        151.50038733667316        684.91421566947645     
   16741.297476921911        116.35828306876647        662.70997310879443     
   16643.038588339550        79.297365865651955        642.69454725701894     
   16550.822531236048        42.980320131517146        625.55004982658500     
   16465.448110932808        10.069830270881539        611.95859253005881     
   16387.714132751025       -16.771419312104626        602.60228707985300     
   16318.419402011970       -34.880744213079197        598.16324518843942     
   21504.708476935080        130.97944836400984        9.5448948663507309     
   21442.778104846333        165.28768221071095        25.668260950703072     
   21371.309068110677        168.64614736911335        33.770884060128971     
   21292.445926506134        148.20337643260336        35.359014422609008     
   21208.333239810599        111.10790199422536        31.938902265905863     
   21121.115567802310        64.508256648041424        25.016797818078459     
   21032.937470259276        15.552972987302383        16.098951307064130     
   20945.943506959233       -28.609416395092012        6.6916129605529946     
   20862.278237680595       -60.830378904889585       -1.6989669932702303     
   20878.391739737406        78.705122748491704        84.776214887481473     
   20794.950219694838        95.604591487635844        87.939046630576172     
   20708.988534322507        94.899606754312117        88.176443300286536     
   20621.784330153816        80.848990326624516        86.322095659369907     
   20534.615253721902        57.711563981803010        83.209694470261852     
   20448.758951560074        29.746149497368606        79.672930495494626     
   20365.493070201755        1.2115686513061519        76.545494497743249     
   20286.095256180088       -23.633356779032511        74.661077239491561     
   20211.843156028393       -40.529805016086357        74.853369483322965     
   20241.871358298584        34.264738344615580        157.41677399347185     
   20146.441293673324        38.233721187590163        152.39961040014848     
   20053.121816747003        35.272889474097610        148.08390138369865     
   19962.476920109202        27.262218502887663        144.75547917314077     
   19875.070596349280        16.081683571870599        142.70017599736772     
   19791.466838057084        3.6112599804873753        142.20382408561986     
   19712.229637822100       -8.2690769729733802        143.55225566689228     
   19637.922988233975       -17.679351989784664        147.03130297031390     
   19569.110881882254       -22.739589771192186        152.92679822494370     
   19597.110669429461       -1.7527038045273002        228.52566318031879     
   19497.475317333163       -6.7577315233647823        219.26796799145080     
   19402.549848052386       -10.581724670782933        213.04900129574077     
   19312.337859534073       -13.212690090224896        209.73143772063551     
   19226.842949725164       -14.638634625074701        209.17795189352640     
   19146.068716572681       -14.847565118639068        211.25121844192032     
   19070.018758023649       -13.827488414438449        215.81391199323446     
   18998.696672025057       -11.566411355692253        222.72870717494217     
   18932.106056523800       -8.0523407859755025        231.85827861447032     
   18946.073009940992       -28.758202655524656        299.16197344406140     
   18848.276281225226       -39.302569480381862        288.76213513593308     
   18756.113560906455       -43.011955880407186        282.62748602154954     
   18669.181311590088       -41.231486504049826        280.32224405861479     
   18587.075995881576       -35.306285999848114        281.41062720482080     
   18509.394076386299       -26.581479016429512        285.45685341783872     
   18435.732015709811       -16.402190202269594        292.02514065537270     
   18365.686276457509       -6.1135442058548506        300.67970687514270     
   18298.853321234754        2.9393343241472394        310.98477003478558     
   18290.721716644097       -46.162757165144285        370.38479578072275     
   18199.068175900677       -59.333595518023685        361.10012756532910     
   18112.653887977343       -62.365524354011541        356.37509854644861     
   18030.821439439052       -57.449921789971086        355.60017094387155     
   17952.913416850712       -46.778165942767373        358.16580697737572     
   17878.272406777418       -32.541634928846179        363.46246886686345     
   17806.240995783977       -16.931706865432716        370.88061883201391     
   17736.161770435516       -2.1397598688627113        379.81071909278455     
   17667.377317296850        9.6428279437513993        389.64323186883280     
   17633.020126349686       -53.377366290112150        443.25322118632010     
   17550.074991910580       -66.783612470918342        436.49996101132569     
   17471.011761933038       -68.990150291472673        433.84758185562708     
   17395.072406242587       -62.523746999790092        434.63749113305363     
   17321.498894664841       -49.911169843966491        438.21109625739678     
   17249.533197025303       -33.679186072283301        443.90980464240704     
   17178.417283149556       -16.354562932806402        451.07502370188382     
   17107.393122863199      -0.46406767356438650        459.04816084965495     
   17035.702685991739        11.465532457163135        467.17062349944848     
   16974.931575868675       -49.813028987186044        518.82634065687830     
   16901.520719806045       -61.585423173807612        515.17965120559734     
   16830.028115441564       -63.233553892132477        514.60067893441396     
   16759.748375162497       -57.108713184598855        516.50647738301802     
   16689.976111356067       -45.562193093943279        520.31410009098386     
   16620.005936409503       -30.945285662659444        525.44060059800995     
   16549.132462709982       -15.609282933390205        531.30303244368326     
   16476.650302644804       -1.9054769486238001        537.31844916766465     
   16401.854068601173        7.8148402490542139        542.90390430961793     
   16318.419402011970       -34.880744213079197        598.16324518843942     
   16253.629350138088       -43.671830461345053        597.35721387982915     
   16188.543881170934       -45.443455355703009        598.19013276803787     
   16122.663509360462       -41.860571396241539        600.27940245040509     
   16055.488748956586       -34.588131083073677        603.24242352428382     
   15986.520114209308       -25.291086916370659        606.69659658703119     
   15915.258119368642       -15.634391396256433        610.25932223603729     
   15841.203278684519       -7.2829970227376180        613.54800106865184     
   15763.856106406854       -1.9018562960773124        616.18003368221309     
   20862.278237680595       -60.830378904889585       -1.6989669932702303     
   20782.318456361114       -76.111460058293233       -7.6961210894044116     
   20704.305025039386       -76.573978368954158       -11.182514736971116     
   20627.178605644091       -65.749060741274661       -12.540897019436697     
   20549.879860104156       -47.167834078807573       -12.154017020254066     
   20471.349450348258       -24.361425285969744       -10.404623822959669     
   20390.528038305358      -0.86096126640131843       -7.6754665108986853     
   20306.356285903945        19.802431075383538       -4.3492941677404149     
   20217.774855073170        34.097624836015711      -0.80885587677406823     
   20211.843156028393       -40.529805016086357        74.853369483322965     
   20140.459599232425       -47.243678515112151        76.507325269903077     
   20068.403750505240       -45.753095640752690        78.375730818861854     
   19995.057759221676       -38.117558476727936        80.344025161988441     
   19919.803774756354       -26.396569107497271        82.297647330819686     
   19842.023946483849       -12.649629618001200        84.122036356759779     
   19761.100423779098        1.0637579080557771        85.702631271535921     
   19676.415356016551        12.684091385822285        86.924871106643678     
   19587.350892570972        20.151868730962633        87.674194893622740     
   19569.110881882254       -22.739589771192186        152.92679822494370     
   19502.191417440132       -23.234727616821147        159.42156092935431     
   19433.015250385652       -20.774513476745597        164.57306438583828     
   19361.325208515467       -16.216188028507531        168.47912152895583     
   19286.864119625956       -10.416991950988631        171.23754529290198     
   19209.374811514102       -4.2341659208659621        172.94614861247086     
   19128.600111976451        1.4750493836445457        173.70274442205732     
   19044.282848809584        5.8534132844815758        173.60514565603339     
   18956.165849810324        8.0436851045142248        172.75116524907247     
   18932.106056523800       -8.0523407859755025        231.85827861447032     
   18866.391634243457       -4.4212903847883354        240.83635029490543     
   18797.710860739429       -1.7668310589506291        247.55777819792826     
   18726.086433206394       -1.3305492813742603E-002   252.27693494880953     
   18651.541048838997       0.91494362928460760        255.24819317279963     
   18574.097404832130        1.0935736235596778        256.72592549533221     
   18493.778198380471       0.59824180535360938        256.96450454162363     
   18410.606126678758      -0.49539450930205930        256.21830293699742     
   18324.603886921661       -2.1116780048087094        254.74169330671356     
   18298.853321234754        2.9393343241472394        310.98477003478558     
   18231.937972901098        8.8599501581411459        320.54145777203922     
   18162.061917625029        11.141352429647668        327.47816448882099     
   18089.446912975403        10.522733035095371        332.15000828913224     
   18014.314716521134        7.7432838707172778        334.91210727697506     
   17936.887085831124        3.5421968329847004        336.11957955635660     
   17857.385778474312       -1.3413361818347767        336.12754323135312     
   17776.032552019566       -6.1681232773871670        335.29111640588678     
   17693.049164035754       -10.198972557403977        333.96541718401124     
   17667.377317296850        9.6428279437513993        389.64323186883280     
   17597.708156672023        16.272310989763355        398.32664776645152     
   17525.639757101217        17.821437807112488        404.48251549245816     
   17451.512127503542        15.423571459607956        408.51088441741712     
   17375.665276798118        10.212075010965236        410.81180391192242     
   17298.439213904287        3.3203115256364981        411.78532334670876     
   17220.173947741041       -4.1183559331566357        411.83149209225269     
   17141.209487227661       -10.970564300989281        411.35035951923504     
   17061.885841283249       -16.102950514178701        410.74197499826732     
   17035.702685991739        11.465532457163135        467.17062349944848     
   16962.579908815111        17.479109087736106        473.98168468378907     
   16888.015715226564        18.144825890715765        478.71912344260284     
   16812.387556471596        14.720853684603753        481.77210620106257     
   16736.072883795823        8.4653632879890210        483.52979938428967     
   16659.449148444706       0.63652551910490729        484.38136941735701     
   16582.893801663780       -7.5074888034996548        484.71598272537580     
   16506.784294698649       -14.708508861309383        484.92280573349927     
   16431.498078794764       -19.708363836042736        485.39100486677631     
   16401.854068601173        7.8148402490542139        542.90390430961793     
   16325.430952589248        12.143661429628992        547.29633292965718     
   16248.761128059725        11.982917498182360        550.33628057315127     
   16172.178679560646        8.4462236148210650        552.34621650763825     
   16096.017691639918        2.6471949392116585        553.64861000055589     
   16020.612248845615       -4.3005533683262911        554.56593031946727     
   15946.296435725710       -11.283406147948881        555.42064673183449     
   15873.404336828125       -17.187748239836765        556.53522850512070     
   15802.270036700997       -20.899964483639451        558.23214490691419     
   15763.856106406854       -1.9018562960773124        616.18003368221309     
   15685.139011253332       -7.0715006759201060E-002   618.06035690974886     
   15607.447331659363      -0.79288655287382426        619.48227911793060     
   15530.990976451521       -3.3686748459022056        620.64575820453172     
   15455.979854456240       -7.0983837973944901        621.75075206730969     
   15382.623874500145       -11.282317318890819        622.99721860404884     
   15311.132945409825       -15.220779321794907        624.58511571258066     
   15241.716976011772       -18.214073717702377        626.71440129061421     
   15174.585875132587       -19.562504417905075        629.58503323599950     
   20217.774855073170        34.097624836015711      -0.80885587677406823     
   20125.812093303604        39.923205174700342        2.1653946114834048     
   20032.555785090499        38.709213932617786        4.1303907447978716     
   19938.535747869511        32.221709228570944        5.2094642372124573     
   19844.281799076023        22.226749180554179        5.5259468025430527     
   19750.323756145601        10.490391907154844        5.2031701548282019     
   19657.191436513822       -1.2213044731324771        4.3644660078992201     
   19565.414657616009       -11.142281842476223        3.1331660756191870     
   19475.523236887791       -17.506482082083494        1.6326020720506207     
   19587.350892570972        20.151868730962633        87.674194893622740     
   19495.717238812296        22.601742242018190        88.103415979023296     
   19403.938759561493        21.215562387412319        88.458183087723611     
   19312.318843370438        17.004624340144801        88.763188319303453     
   19221.160878790663        10.980223272122203        89.043123773241760     
   19130.768254373783        4.1536543552965668        89.322681548961782     
   19041.444358671783       -2.4637872373041318        89.626553746133823     
   18953.492580236150       -7.8608063337005660        89.979432464167459     
   18867.216307618579       -11.026107761863386        90.406009802504272     
   18956.165849810324        8.0436851045142248        172.75116524907247     
   18866.312415270328        8.0750424182233473        171.83030876448356     
   18777.036759553790        6.8130430418150354        171.43223778617178     
   18688.458081565368        4.6550166576816991        171.50499927880412     
   18600.695580209416        1.9982929470152158        171.99664020690065     
   18513.868454390991      -0.75979840677518951        172.85520753544358     
   18428.095903014706       -3.2219277216372575        174.02874822904317     
   18343.497124985133       -4.9907653155232765        175.46530925241072     
   18260.191319207130       -5.6689815056624866        177.11293757035875     
   18324.603886921661       -2.1116780048087094        254.74169330671356     
   18237.670266640162       -3.6351011072829351        253.43607670381365     
   18151.673754231728       -4.5511533545759448        252.96220330407385     
   18066.591598190895       -4.9356730981908186        253.21346941712591     
   17982.401047012034       -4.8644986899662399        254.08327135248817     
   17899.079349189888       -4.4134684809905593        255.46500541989363     
   17816.603753218908       -3.6584208232261517        257.25206792890134     
   17734.951507593632       -2.6751940680760526        259.33785518907547     
   17654.099860808547       -1.5396265671415676        261.61576351004408     
   17693.049164035754       -10.198972557403977        333.96541718401124     
   17609.863436883759       -12.506895146449097        333.01072353256910     
   17527.673712759359       -12.929836052852806        332.95772810514126     
   17446.357528983644       -11.876004206025755        333.66717103584421     
   17365.792422877799       -9.7536085353367525        334.99979245876636     
   17285.855931763144       -6.9708579700081827        336.81633250815622     
   17206.425592960863       -3.9359614393206357        338.97753131808196     
   17127.378943792130       -1.0571278726347373        341.34412902267275     
   17048.593521578099        1.2574338006206744        343.77686575608760     
   17061.885841283249       -16.102950514178701        410.74197499826732     
   16982.964569963427       -18.518546510371380        410.64425298655641     
   16904.860604300848       -18.375814303598418        411.32846065315260     
   16827.394009680240       -16.274535944872696        412.64467643641683     
   16750.384851486182       -12.814493485381718        414.44297877451709     
   16673.653195103572       -8.5954689755171785        416.57344610595715     
   16597.019105917007       -4.2172444668831304        418.88615686895264     
   16520.302649311245      -0.27960200994311890        421.23118950187200     
   16443.323890670959        2.6176763441244475        423.45862244297285     
   16431.498078794764       -19.708363836042736        485.39100486677631     
   16357.046309841318       -21.648262010499820        486.42666880151330     
   16283.058398020408       -20.941897357765811        487.98404941190307     
   16209.339176017173       -18.239827594036797        489.92455792021775     
   16135.693476516630       -14.192610435989991        492.10960554853870     
   16061.926132203789       -9.4508036001398068        494.40060351902895     
   15987.841975763749       -4.6649648028851516        496.65896305386406     
   15913.245839881554      -0.48565176074589544        498.74609537517949     
   15837.942557242237        2.4365778097180737        500.52341170513438     
   15802.270036700997       -20.899964483639451        558.23214490691419     
   15732.181300479617       -21.874248458188049        560.44797471314962     
   15662.091063082233       -20.680894465806887        562.83414284523121     
   15591.831163731118       -17.880438432268420        565.28538778884479     
   15521.233441648474       -14.033416283631595        567.69644802958396     
   15450.129736056546       -9.7003639457598183        569.96206205316560     
   15378.351886177492       -5.4418173445992579        571.97696834517103     
   15305.731731233624       -1.8183124060133196        573.63590539125698     
   15232.101110447096       0.60961494400271476        574.83361167709484     
   15174.585875132587       -19.562504417905075        629.58503323599950     
   15108.442185840526       -19.174712664786966        632.79817445719505     
   15041.782568650462       -17.645614878663764        635.78838941684035     
   14974.508108558659       -15.304927738767219        638.50573834369391     
   14906.519890561211       -12.482367924420032        640.90028146649706     
   14837.718999654458       -9.5076521148102984        642.92207901406221     
   14768.006520834679       -6.7104969891015571        644.52119121521309     
   14697.283539098016       -4.4206192265928621        645.64767829869061     
   14625.451139440745       -2.9677355063695359        646.25160049330543     
   19475.523236887791       -17.506482082083494        1.6326020720506207     
   19386.868037146280       -19.329623731584434       0.18818077648237863     
   19298.235406562959       -17.509140815823230      -0.94867958557945364     
   19209.308390605420       -13.101548442738931       -1.7656301307580444     
   19119.770034741196       -7.1633617206880444       -2.2503219755977639     
   19029.303384437953      -0.75109575746955670       -2.3904062367608745     
   18937.591485162870        5.0787343376687204       -2.1735340310012643     
   18844.317382383666        9.2696134570824142       -1.5873564748951436     
   18749.164121567883        10.765026492549623      -0.61952468511554060     
   18867.216307618579       -11.026107761863386        90.406009802504272     
   18781.741858688922       -11.546829136199449        90.770342740749157     
   18695.872063515209       -10.088400744226419        90.952493932264929     
   18609.425078947257       -7.2569664199727413        91.001163987491253     
   18522.219061834276       -3.6586699990029956        90.965053516821982     
   18434.072169025923       0.10034468380763428        90.892863130622857     
   18344.802557371797        3.4139337938786412        90.833293439454067     
   18254.228383721300        5.6759534958837321        90.835045053659158     
   18162.167804923887        6.2802599545984776        90.946818583543077     
   18260.191319207130       -5.6689815056624866        177.11293757035875     
   18177.281544193309       -5.2608618337408188        178.58222692600773     
   18093.743245569811       -4.1960681296604889        179.56876122236852     
   18009.504202911408       -2.7153351442220810        180.14807266386836     
   17924.492195792191       -1.0593976303707677        180.39569345448581     
   17838.635003787116       0.53100966173042252        180.38715579873471     
   17751.860406470554        1.8151519799339439        180.19799190080809     
   17664.096183417081        2.5522945728780542        179.90373396495292     
   17575.270114201285        2.5017026892810463        179.57991419559011     
   17654.099860808547       -1.5396265671415676        261.61576351004408     
   17573.284876734451      -0.53238690073703765        263.61130202431718     
   17491.765729340768       0.14289001290762826        264.98294476798947     
   17409.554332270203       0.52591631624909496        265.82353540602236     
   17326.662599165298       0.65640415112375194        266.22591760328612     
   17243.102443668937       0.57406566023655614        266.28293502493915     
   17158.885779423526       0.31861298532021465        266.08743133576394     
   17074.024520071889       -7.0241731204987445E-002   265.73225020083754     
   16988.530579256658      -0.55278634719616093        265.31023528507507     
   17048.593521578099        1.2574338006206744        343.77686575608760     
   16969.549639386896        2.5779305846999705        345.84503672755574     
   16889.856291441538        2.9035066668202489        347.27786705189436     
   16809.584036795884        2.4693588933523642        348.17599172158714     
   16728.803434503767        1.5106841103188344        348.64004572908044     
   16647.585043618918       0.26267916352117027        348.77066406677943     
   16565.999423195273       -1.0394591007079725        348.66848172724997     
   16484.117132286563       -2.1605338363769988        348.43413370291910     
   16402.008729946643       -2.8653481975088653        348.16825498617823     
   16443.323890670959        2.6176763441244475        423.45862244297285     
   16365.873615225393        4.0094255450567289        425.27089972773001     
   16287.931708485974        4.0608148166438696        426.53635055724516     
   16209.601886260680        3.1175635188265005        427.35388111824722     
   16130.987864357567        1.5253910119072316        427.82239759750115     
   16052.193358584751      -0.36998334388681542        428.04080618187527     
   15973.322084750132       -2.2228401888187364        428.10801305804330     
   15894.477758661826       -3.6874601625049763        428.12292441285786     
   15815.764096127874       -4.4181239048584757        428.18444643307004     
   15837.942557242237        2.4365778097180737        500.52341170513438     
   15762.054587324634        3.7014329027015265        501.87635971678071     
   15685.908757087673        3.5898474460200305        502.84121776693746     
   15609.616450436715        2.4731011241465239        503.50564310354201     
   15533.289051277068       0.72247362149209948        503.95729297452755     
   15457.037943513915       -1.2907553780160015        504.28382462771617     
   15380.974511052689       -3.1953061895865176        504.57289531106466     
   15305.210137798606       -4.6198991290675622        504.91216227245724     
   15229.856207656989       -5.1932545122144802        505.38928275984159     
   15232.101110447096       0.60961494400271476        574.83361167709484     
   15157.890338759291        1.5932875799990143        575.64888538663558     
   15083.704213860465        1.4656375393733470        576.27529116403514     
   15009.636299096215       0.53854264093297388        576.77971718514448     
   14935.780157812198      -0.87611929655759013        577.22905162579730     
   14862.229353354054       -2.4664704542956315        577.69018266183571     
   14789.077449067318       -3.9206330137794794        578.22999846912433     
   14716.418008297689       -4.9267291560317972        578.91538722345194     
   14644.344594390746       -5.1728810625691040        579.81323710071399     
   14625.451139440745       -2.9677355063695359        646.25160049330543     
   14553.178652604140       -2.3756755004742445        646.57594542930747     
   14481.234855418012       -2.3367819192326351        646.92139323154868     
   14409.670002011439       -2.6835409989107575        647.32454287067219     
   14338.534346513308       -3.2484389765577362        647.82199331722518     
   14267.878143052618       -3.8639620887752244        648.45034354178915     
   14197.751645758492       -4.3625965720912063        649.24619251500542     
   14128.205108759887       -4.5768286631337105        650.24613920750460     
   14059.288786185716       -4.3391445987681436        651.48678258982056     
   18749.164121567883        10.765026492549623      -0.61952468511554060     
   18653.020906743175        9.1992546029232471       0.44145554528824560     
   18557.210720442145        5.6525072975773583        1.2481905198112544     
   18462.067275889814        1.2371619927052961        1.7246972672559859     
   18367.924286310728       -2.9344038959652607        1.7949928157017043     
   18275.115464929753       -5.7498129526493358        1.3830941938568402     
   18183.974524971749       -6.0966877610089796       0.41301843029085800     
   18094.835179661575       -2.8626509048281150       -1.1912174466307992     
   18008.031142223808        5.0646750318064733       -3.5055964084089135     
   18162.167804923887        6.2802599545984776        90.946818583543077     
   18069.440829725241        5.1107629386515327        91.205904752637721     
   17977.117354388109        2.8843306065264187        91.562232651567911     
   17885.390367037933       0.24425670960772550        91.933460441829340     
   17794.452855800493       -2.1661649995685366        92.237246285085163     
   17704.497808800807       -3.7036407705209058        92.391248342424262     
   17615.718214164775       -3.7248768507843124        92.313124775669507     
   17528.307060017942       -1.5865794883920898        91.920533746226909     
   17442.457334485520        3.3545450675410393        91.131133415463694     
   17575.270114201285        2.5017026892810463        179.57991419559011     
   17486.065047255710        1.7256324977170152        179.43673224319423     
   17397.264670920023       0.62247319086873176        179.57772511820556     
   17308.948024629430      -0.54431044716238830        179.91843106472172     
   17221.194147819006       -1.5112536328160786        180.37438832663295     
   17134.082079924261       -2.0148915812414998        180.86113514815082     
   17047.690860380222       -1.7917595087565132        181.29420977317869     
   16962.099528622053      -0.57839263169080368        181.58915044567433     
   16877.387124085111        1.8886738346900529        181.66149540984190     
   16988.530579256658      -0.55278634719616093        265.31023528507507     
   16902.901335899074      -0.95380375056720368        265.08209553221690     
   16817.620804594637       -1.1426245819502583        265.19174896013976     
   16732.680852497408       -1.1463583281656611        265.55685284492228     
   16648.073346761183      -0.99211447615743964        266.09506446267233     
   16563.790154540002      -0.70700251264952385        266.72404108952742     
   16479.823142987807      -0.31813192454228556        267.36144000164745     
   16396.164179258478       0.14738780126481288        267.92491847507983     
   16312.805130505865       0.66244717790777941        268.33213378583878     
   16402.008729946643       -2.8653481975088653        348.16825498617823     
   16319.957472219719       -2.9252128368161721        348.09015213504182     
   16238.153889968702       -2.4205223449898767        348.30138521759648     
   16156.529454475252       -1.5797057830723134        348.72596949157025     
   16075.015637021108      -0.63119221214401477        349.28792021482286     
   15993.543908887907       0.19658930694822629        349.91125264494337     
   15912.045741357439       0.67520971306566935        350.51998203992099     
   15830.452605711162       0.57623994508412579        351.03812365725963     
   15748.695973231086      -0.32874905773678620        351.38969275489950     
   15815.764096127874       -4.4181239048584757        428.18444643307004     
   15737.241232782098       -4.1862617917831813        428.40905956695434     
   15658.832061598701       -3.2207797314440541        428.80371493086881     
   15580.434434396258       -1.8621716622074018        429.30302471389064     
   15501.946202993206      -0.45093152224671940        429.84160110488864     
   15423.265219207937       0.67244674956600647        430.35405629292296     
   15344.289334859026        1.1674692150681949        430.77500246683377     
   15264.916401764756       0.69364193547153263        431.03905181563039     
   15185.044271743698       -1.0895290274193030        431.08081652822756     
   15229.856207656989       -5.1932545122144802        505.38928275984159     
   15154.760394150608       -4.7346176462451695        505.98697534316898     
   15079.623454041477       -3.5529563741283710        506.59581914033492     
   15004.336396093817       -2.0115748151210937        507.16526222099463     
   14928.790229071921      -0.47377708825479203        507.64475265491279     
   14852.875961740025       0.69713268721170607        507.98373851174841     
   14776.484602862387        1.1378503921914671        508.13166786127226     
   14699.507161203310       0.48507190744749096        508.03798877319679     
   14621.834645527011       -1.6245068860635001        507.65214931715519     
   14644.344594390746       -5.1728810625691040        579.81323710071399     
   14572.522732889722       -4.5679474308044519        580.77205697911654     
   14500.496201853517       -3.4266119063349834        581.57477888619974     
   14428.175943401151       -2.0457340921811920        582.18992572205502     
   14355.472899651637      -0.72217359188289265        582.58602038663821     
   14282.298012724157       0.24720999190049042        582.73158577998606     
   14208.562224737747       0.56555705581013171        582.59514480221605     
   14134.176477811259       -6.3992003489147464E-002   582.14522035314906     
   14059.051714063906       -1.9382967888313942        581.35033533281535     
   14059.288786185716       -4.3391445987681436        651.48678258982056     
   13990.536025563944       -3.6839181758405175        652.71246199000097     
   13921.418439591613       -2.8513059605447779        653.63767520883334     
   13851.893680151648       -1.9824683432752863        654.25425892625560     
   13781.919399126919       -1.2185657143863864        654.55404982204789     
   13711.453248400208      -0.70075846435065614        654.52888457610732     
   13640.452879854669      -0.57020698335782072        654.17059986837546     
   13568.875945372854      -0.96807166216058249        653.47103237859335     
   13496.680096837741       -2.0355128907995095        652.42201878657283     
   16654.115330527682        4996.2345991583106        1595.0067833513704     
   16962.198621083662        4434.4380304541992        1804.0318423201629     
   17208.502761808031        3864.5238587523418        1920.3474919402272     
   17396.760917641579        3298.9359671883235        1956.5736691766999     
   17530.706253524753        2750.1182388977413        1925.3303109947778     
   17614.071934398380        2230.5145570162426        1839.2373543596491     
   17650.591125203089        1752.5688046794162        1710.9147362364747     
   17643.996990879634        1328.7248650228830        1552.9823935904440     
   17598.022696368680        971.42662118228600        1378.0602633867484     
   16058.969131353224        4817.6907394059672        1355.1802068482962     
   16233.484164562657        4281.0445113615015        1543.7097847876880     
   16376.538495496994        3746.9588794487831        1662.7830269016331     
   16490.955121160830        3224.8438336826284        1720.7578192424978     
   16579.557038558545        2724.1093640777999        1725.9920478626382     
   16645.167244694516        2254.1654606490933        1686.8435988144286     
   16690.608736573304        1824.4221134113136        1611.6703581502370     
   16718.704511199205        1444.2893123791901        1508.8302119223915     
   16732.277565576725        1123.1770475675457        1386.6810461832781     
   15376.367189373708        4612.9101568121168        1138.9695987107214     
   15472.090541029429        4113.0597853211593        1312.9499478265031     
   15555.251540750411        3622.1953508472784        1436.4156771705254     
   15627.919942759170        3147.2160341314448        1514.1834623672428     
   15692.165501277588        2695.0210159144226        1551.0699790409926     
   15750.057970528147        2272.5094769370689        1551.8919028161356     
   15803.667104733064        1886.5805979403085        1521.4659093171038     
   15855.062658114604        1544.1335596649974        1464.6086741682727     
   15906.314384894968        1252.0675428519403        1386.1368729939886     
   14626.087151790607        4387.8261455371794        944.75366142421956     
   14687.219812562964        3933.2444709568485        1109.7214830646599     
   14745.327918766887        3490.4390793074326        1238.9881228638578     
   14801.884906996898        3064.3214259029105        1334.5498865031229     
   14858.364213846922        2659.8029660570537        1398.4030796636687     
   14916.239275911152        2281.7951550837593        1432.5440080267683     
   14976.983529783747        1935.2094482968828        1438.9689772736685     
   15042.070412058918        1624.9573010102399        1419.6742930855930     
   15112.973359330757        1355.9501685377431        1376.6562611438205     
   13827.906665805402        4148.3719997416219        770.91109747444534     
   13888.074041241875        3744.3591868921667        931.99354213020888     
   13947.453650744797        3351.8958711887249        1068.2430440984920     
   14007.079538434729        2974.4288663652078        1179.5563796023234     
   14067.985748431645        2615.4049861553158        1265.8303248646253     
   14131.206324855535        2278.2710442927541        1326.9616561083233     
   14197.775311826694        1966.4738545113682        1362.8471495564240     
   14268.726753465176        1683.4602305448479        1373.3835814318440     
   14345.094693891175        1432.6769861270263        1358.4677279575797     
   13001.603378619395        3900.4810135858183        615.82060934695960     
   13083.855289144796        3549.1645517507118        777.73527665119661     
   13162.314757882579        3206.7715328507134        921.92312099136711     
   13237.733361633194        2875.8072128865060        1046.9022296170324     
   13310.862677196714        2558.7768478586449        1151.1906897776901     
   13382.454281373310        2258.1856937676566        1233.3065887228042     
   13453.259750963183        1976.5390066141813        1291.7680137019274     
   13524.030662766547        1716.3420423987518        1325.0930519645394     
   13595.518593583491        1480.1000571219915        1331.7997907601671     
   12166.954937434230        3650.0864812302689        477.86089952739479     
   12283.765618350550        3350.4211841561209        644.91583825566556     
   12390.597261378589        3055.2718706528917        797.77103365936171     
   12488.075901152761        2766.7253228349578        934.28672449943826     
   12576.827572307262        2486.8683228165582        1052.3231495367404     
   12657.478309476461        2217.7876527120588        1149.7405475322091     
   12730.654147294561        1961.5700946357131        1224.3991572467064     
   12796.981120395920        1720.3024307018377        1274.1592174411401     
   12857.085263414834        1496.0714430248017        1296.8809668764382     
   11343.738989451038        3403.1216968353110        355.41067050133296     
   11497.007090937695        3150.8897027319613        531.50437857164593     
   11632.987182431259        2897.6026909547973        693.52946221939271     
   11752.336681553932        2645.4520535786974        839.40915220170416     
   11855.713005928314        2396.6291826786201        967.06667927569674     
   11943.773573176924        2153.3254703295497        1074.4252741985347     
   12017.175800922136        1917.7323086063714        1159.4081677273089     
   12076.577106786499        1692.0410895840914        1219.9385906191849     
   12122.634908392505        1478.4432053375945        1253.9397736312660     
   10551.733181871317        3165.5199545613955        246.84862475438453     
   10732.781768985204        2953.3307261019308        435.47004922721453     
   10890.170542238975        2733.9698001159354        606.94108678834823     
   11024.745227397272        2510.2562624858983        759.96880067602137     
   11137.351550224943        2285.0091990943238        893.26025412842182     
   11228.835236486644        2061.0476958236968        1005.5225103837613     
   11300.042011947191        1841.1908385565330        1095.4626326802570     
   11351.817602371239        1628.2577131753096        1161.7876842560984     
   11385.007733523638        1425.0674055625350        1203.2047283495071     
   17598.022696368680        971.42662118228600        1378.0602633867484     
   17538.145542540311        695.66127423955277        1215.8455906088325     
   17484.594580375651        498.92185898005391        1084.9532067169021     
   17433.230599981915        367.41100909445595        981.37942839124639     
   17379.914391466293        287.33135827354818        901.12057231220945     
   17320.506744936039        244.88554020795164        840.17295516004901     
   17250.868450498332        226.27618858832193        794.53289361505642     
   17166.860298260392        217.70593710544563        760.19670435756098     
   17064.343078329424        205.37741945006655        733.16070406788367     
   16732.277565576725        1123.1770475675457        1386.6810461832781     
   16736.880652893811        868.37042990013924        1267.6764682750281     
   16734.184584431612        674.21476394463843        1167.1736677274848     
   16721.189444334250        530.71033018143135        1082.8859038744372     
   16694.895316745835        427.85740909099695        1012.5264360497123     
   16652.302285810540        355.65628115381969        953.80852358715549     
   16590.410435672511        304.10722685032124        904.44542582057056     
   16506.219850475838        263.21052666093510        862.15040208376786     
   16396.730614364707        222.96646106619937        824.63671171061037     
   15906.314384894968        1252.0675428519403        1386.1368729939886     
   15950.964522961676        1012.6455024353845        1302.9086883720049     
   15979.815128787321        818.99645530036560        1227.9922505168086     
   15990.825684471953        664.31867511379915        1160.5191565078462     
   15981.955672115779        541.81043554278222        1099.6210034246603     
   15951.164573818878        444.67001025434092        1044.4293883467499     
   15896.411871681310        366.09567291539497        994.07590835357837     
   15815.657047803254        299.28569719310963        947.69216052471097     
   15706.859584284724        237.43835675440459        904.40974193958675     
   15112.973359330757        1355.9501685377431        1376.6562611438205     
   15177.681776006702        1127.6718788242028        1322.6293730846960     
   15222.362098081545        933.52969843890924        1269.1448033686886     
   15245.753309530388        769.32024063220615        1216.4538819131058     
   15246.594394328346        630.84011865458979        1164.8079386353309     
   15223.624336450563        513.88594575635943        1114.4583034526627     
   15175.582119872070        414.25433518789850        1065.6563062824166     
   15101.206728568062        327.74190019958223        1018.6532770419335     
   14999.237146513655        250.14525404189953        973.70054564858208     
   14345.094693891175        1432.6769861270263        1358.4677279575797     
   14414.317035291682        1212.6349460453425        1327.9256445979563     
   14462.701376953135        1018.0772587519295        1292.3671745669403     
   14489.586308644728        846.79922347729871        1252.8647757118395     
   14494.310420135620        696.59613945202864        1210.4909058799767     
   14476.212301194993        565.26330590672751        1166.3180229186937     
   14434.630541591994        450.59602207188254        1121.4185846752732     
   14368.903731095814        350.38958717807782        1076.8650489970519     
   14278.370459475596        262.43930045594334        1033.7298737313627     
   13595.518593583491        1480.1000571219915        1331.7997907601671     
   13658.154924079330        1266.7200910776592        1319.8846250966790     
   13701.708850040826        1072.9019016310112        1299.3952123953388     
   13725.938670950225        897.83982038954218        1271.9265335255893     
   13730.602686289749        740.72817896076685        1239.0735693568711     
   13715.459195541698        600.76130895224787        1202.4313007586536     
   13680.266498188341        477.13354197153058        1163.5947086004078     
   13624.782893711939        369.03920962621169        1124.1587737516124     
   13548.766681594707        275.67264352370512        1085.7184770816721     
   12857.085263414834        1496.0714430248017        1296.8809668764382     
   12906.480065632482        1289.1127009000270        1299.5934367657910     
   12940.260401983436        1098.2663924678482        1291.9647651377177     
   12958.424385582111        923.52622810952471        1275.8138509759535     
   12960.970129542886        764.88591820641113        1252.9595932642551     
   12947.895746980204        622.33917313985830        1225.2208909863994     
   12919.199351008410        495.87970329112977        1194.4166431261131     
   12874.879054741943        385.50121904159005        1162.3657486671780     
   12814.932971295171        291.19743077259682        1130.8871065933411     
   12122.634908392505        1478.4432053375945        1253.9397736312660     
   12156.577083213871        1278.9981624912334        1268.1392017901569     
   12179.231917419718        1094.4334966540318        1271.8116810778497     
   12190.657441675625        924.94264337785626        1266.7014236845280     
   12190.911686647147        770.71903821460683        1254.5526418003990     
   12180.052682999898        631.95611671629331        1237.1095476156995     
   12158.138461399421        508.84731443473856        1216.1163533205993     
   12125.227052511287        401.58606692188232        1193.3172711053217     
   12081.376487001111        310.36580972973707        1170.4565131600930     
   11385.007733523638        1425.0674055625350        1203.2047283495071     
   11405.730600086279        1235.5618628301308        1226.6090423546796     
   11419.499280988497        1061.6659795812011        1240.6718084995443     
   11426.251828366034        903.17326293506767        1246.7639472729070     
   11425.926294354704        759.87722001104385        1246.2563791635857     
   11418.460731090303        631.57135792845111        1240.5200246603890     
   11403.793190708644        518.04918380657182        1230.9258042521321     
   11381.861725345500        419.10420476478566        1218.8446384276344     
   11352.604387136673        334.52992792235773        1205.6474476757019     
   17064.343078329424        205.37741945006655        733.16070406788367     
   16952.748527238091        182.06099426522360        708.62516322667364     
   16844.800391661818        151.50038733667316        684.91421566947645     
   16741.297476921911        116.35828306876647        662.70997310879443     
   16643.038588339550        79.297365865651955        642.69454725701894     
   16550.822531236048        42.980320131517146        625.55004982658500     
   16465.448110932808        10.069830270881539        611.95859253005881     
   16387.714132751025       -16.771419312104626        602.60228707985300     
   16318.419402011970       -34.880744213079197        598.16324518843942     
   16396.730614364707        222.96646106619937        824.63671171061037     
   16277.248398604381        180.50069029038968        790.81090326624189     
   16165.233208887701        140.11998931625203        761.18614771002615     
   16060.916631000076        102.59631076186270        735.88563796705353     
   15964.530250726897        68.701607245312516        715.03256696240373     
   15876.305653853642        39.207831384697784        698.75012762118968     
   15796.474426165700        14.886935798032027        687.16151286848208     
   15725.268153448491       -3.4891268966284770        680.38991562935814     
   15662.918421487428       -15.148404081218359        678.55852882891952     
   15706.859584284724        237.43835675440459        904.40974193958675     
   15588.112314178004        180.70984955744916        865.70123370874830     
   15478.718513179963        133.29118237594412        833.40477897287917     
   15378.453327357620        94.432842100032758        807.20031785667038     
   15287.091902778026        63.385315619972971        786.76779048484934     
   15204.409385508314        39.399089826028103        771.78713698216166     
   15130.180921615518        21.724651608335080        761.93829747330255     
   15064.181657166706        9.6124878572063608        756.90121208300877     
   15006.186738228938        2.3130854628043380        756.35582093598896     
   14999.237146513655        250.14525404189953        973.70054564858208     
   14888.058411166312        183.50391322868836        933.86604115984721     
   14786.515894777685        131.39184358748025        901.61837489594802     
   14694.039083513911        91.907332338997549        876.30990016822534     
   14610.057463541307        63.148666704062634        857.29297028808867     
   14534.000521026057        43.214133903383299        843.91993856686167     
   14465.297742134344        30.202021157657327        835.54315831589906     
   14403.378613032417        22.210615687557947        831.51498284654178     
   14347.672619886494        17.338204713943014        831.18776547018206     
   14278.370459475596        262.43930045594334        1033.7298737313627     
   14179.804826776624        189.69832246626083        995.87521222513874     
   14089.884943919958        134.79985002266585        965.87520091715464     
   14007.805416988504        95.059236734768092        942.87027229239823     
   13932.760852065121        67.791836212175440        926.00085883586769     
   13863.945855232698        50.313002064485772        914.40739303256873     
   13800.555032574139        39.938087901352446        907.23030736750172     
   13741.782990172302        33.982447332357879        903.61003432566611     
   13686.824334110119        29.761433967205448        902.68700639207077     
   13548.766681594707        275.67264352370512        1085.7184770816721     
   13466.069698216237        200.10851843233377        1052.2986335102491     
   13390.085250845897        143.89307875313352        1026.2235224743820     
   13319.883845300739        103.92801054298161        1006.5373216197248     
   13254.535987397843        77.114999858730698        992.28420859193761     
   13193.112182954235        60.355732757164333        982.50836103662937     
   13134.682937786985        50.551895295202485        976.25395659947014     
   13078.318757713139        44.605173529706917        972.56517292611511     
   13023.090148549787        39.417253517553945        970.48618766221352     
   12814.932971295171        291.19743077259682        1130.8871065933411     
   12749.571162692526        215.54994228925352        1103.7061916208356     
   12688.376405794592        159.04940685075690        1082.7116050055779     
   12630.405885970138        118.55310901962912        1066.9669355408853     
   12574.716788587863        90.918333358281870        1055.5357720200388     
   12520.366299016539        73.002364429173667        1047.4817032363433     
   12466.411602624854        61.662486794794404        1041.8683179830928     
   12411.909884781626        53.755985017604416        1037.7592050536061     
   12355.918330855537        46.140143660053127        1034.2179532411826     
   12081.376487001111        310.36580972973707        1170.4565131600930     
   12033.027357412777        236.83803519902222        1150.6677731624759     
   11986.017999005122        180.64671138714175        1135.3877139486137     
   11939.503056516071        138.97398742044470        1123.8150014464404     
   11892.637174683548        109.00201242531557        1115.1483015839119     
   11844.574998245489        87.912935528269372        1108.5862802890040     
   11794.471171939800        72.888905855683788        1103.3276034896594     
   11741.480340504451        61.112072533979244        1098.5709371138453     
   11684.757148677360        49.764584689692583        1093.5149470895390     
   11352.604387136673        334.52992792235773        1205.6474476757019     
   11319.156419584348        264.78823832400303        1193.7532647408384     
   11284.269620716594        209.06286943404712        1184.3001147414057     
   11247.306874458038        165.23010100124839        1176.7374067270255     
   11207.631064733303        131.16621277438844        1170.5145497473350     
   11164.605075467020        104.74748450219658        1165.0809528519346     
   11117.591790583832        83.850195933478062        1159.8860250904736     
   11065.954094008366        66.350626816966269        1154.3791755125651     
   11009.054869665273        50.125056901447806        1148.0098131678419     
   16318.419402011970       -34.880744213079197        598.16324518843942     
   16253.629350138088       -43.671830461345053        597.35721387982915     
   16188.543881170934       -45.443455355703009        598.19013276803787     
   16122.663509360462       -41.860571396241539        600.27940245040509     
   16055.488748956586       -34.588131083073677        603.24242352428382     
   15986.520114209308       -25.291086916370659        606.69659658703119     
   15915.258119368642       -15.634391396256433        610.25932223603729     
   15841.203278684519       -7.2829970227376180        613.54800106865184     
   15763.856106406854       -1.9018562960773124        616.18003368221309     
   15662.918421487428       -15.148404081218359        678.55852882891952     
   15604.128583208620       -21.217790169506770        679.44770644903679     
   15543.285010649106       -23.880782538974927        680.65947370664242     
   15480.143818260767       -23.950333016596232        682.04953037955136     
   15414.461120495471       -22.239393429398660        683.47357624552910     
   15345.993031805130       -19.560915604445654        684.78731108238571     
   15274.495666641656       -16.727851368729716        685.84643466789339     
   15199.725139456916       -14.553152549317019        686.50664677984958     
   15121.437564702808       -13.849770973167324        686.62364719605785     
   15006.186738228938        2.3130854628043380        756.35582093598896     
   14950.642188115711       -2.4294374955388776        757.66729798196297     
   14892.115834116606       -6.4649496850834112        758.44432526870992     
   14830.565528262723       -9.9339443353346724        758.73210506797489     
   14765.949122585116       -12.976914676014530        758.57583965151878     
   14698.224469115012       -15.734353936554726        758.02073129114046     
   14627.349419883458       -18.346755346740792        757.11198225856094     
   14553.281826921688       -20.954612135882599        755.89479482562967     
   14475.979542260722       -23.698417533767497        754.41437126403775     
   14347.672619886494        17.338204713943014        831.18776547018206     
   14293.238258604944        12.713655684302466        831.93567169104244     
   14235.584852310354        6.9685934271701626        831.68857019198106     
   14174.818127990389       0.45544123473518994        830.63236905228757     
   14111.043812632770       -6.4733776006751214        828.95297635128520     
   14044.367633225134       -13.465439786952629        826.83630016825612     
   13974.895316755114       -20.168322031753632        824.46824858250045     
   13902.732590210420       -26.229601043045477        822.03472967330868     
   13827.985180578693       -31.296853528441716        819.72165151998411     
   13686.824334110119        29.761433967205448        902.68700639207077     
   13631.984888421750        24.231917493642868        902.17251078861921     
   13574.240565967182        16.584397018743402        900.53609121417389     
   13513.791106067954        7.4846702809800263        898.05556486911280     
   13450.836248045549       -2.4014649813416327        895.00874895379695     
   13385.575731221554       -12.408211029699487        891.67346066864968     
   13318.209294917404       -21.869770125877949        888.32751721399211     
   13248.936678454662       -30.120344531384944        885.24873579024791     
   13177.957621154867       -36.494136507729309        882.71493359779129     
   13023.090148549787        39.417253517553945        970.48618766221352     
   12966.950171311670        32.145776056055183        968.29749848708786     
   12908.631475824013        22.547011310723974        965.13077107302183     
   12848.373951119494        11.420589390560053        961.30693505503928     
   12786.417486230728      -0.43385959573788568        957.14692006809980     
   12723.001970190482       -12.216705539039140        952.97165574726125     
   12658.367292031358       -23.128318330561342        949.10207172750336     
   12592.753340786076       -32.369067861302938        945.85909764383564     
   12526.400005487281       -39.139324022398796        943.56366313128797     
   12355.918330855537        46.140143660053127        1034.2179532411826     
   12298.202201020256        36.475659495370110        1030.2303179988573     
   12239.306082617726        25.020986524268665        1025.6164925062944     
   12179.456151769096        12.530045150664137        1020.6917221466867     
   12118.878584595463      -0.24324422172639970        1015.7712523031829     
   12057.799557218043       -12.544961189076730        1011.1703283590404     
   11996.445245757875       -23.621185347579285        1007.2041956973654     
   11935.041826336233       -32.717996293382839        1004.1880997014341     
   11873.815475074169       -39.081473622672092        1002.4372857543973     
   11684.757148677360        49.764584689692583        1093.5149470895390     
   11625.809071292997        37.241995935075920        1087.8906525362895     
   11566.812887085200        24.170872880354182        1082.1371382516818     
   11507.927196640863        11.079884148550718        1076.5151686806280     
   11449.310600546944       -1.5023016372524580        1071.2855082680362     
   11391.121699390333       -13.047015853994253        1066.7089214588723     
   11333.519093757945       -23.025589878634946        1063.0461726980172     
   11276.661384236730       -30.909355088073426        1060.5580264304033     
   11220.707171413584       -36.169642859277701        1059.5052471009690     
   11009.054869665273        50.125056901447806        1148.0098131678419     
   10949.838875875412        34.465213498932826        1141.1981853117729     
   10891.700389963313        20.161220600052729        1134.8365910469308     
   10834.676574358964        7.3369529714950659        1129.0825171935055     
   10778.804591492351       -3.8837146200671668        1124.0934505716889     
   10724.121603793517       -13.376907407953240        1120.0268780017275     
   10670.664773692451       -21.018750625520170        1117.0402863037884     
   10618.471263619147       -26.685369506045390        1115.2911622980992     
   10567.578236003625       -30.252889282890919        1114.9369928048552     
   15763.856106406854       -1.9018562960773124        616.18003368221309     
   15685.139011253332       -7.0715006759201060E-002   618.06035690974886     
   15607.447331659363      -0.79288655287382426        619.48227911793060     
   15530.990976451521       -3.3686748459022056        620.64575820453172     
   15455.979854456240       -7.0983837973944901        621.75075206730969     
   15382.623874500145       -11.282317318890819        622.99721860404884     
   15311.132945409825       -15.220779321794907        624.58511571258066     
   15241.716976011772       -18.214073717702377        626.71440129061421     
   15174.585875132587       -19.562504417905075        629.58503323599950     
   15121.437564702808       -13.849770973167324        686.62364719605785     
   15042.298898789146       -14.403567210273650        686.56988792862819     
   14965.178357910172       -15.322869215966421        686.85629421870658     
   14890.136946194187       -16.404329895798583        687.54627568749879     
   14817.235667769517       -17.444602155203029        688.70324195622391     
   14746.535526764641       -18.240338899491690        690.39060264619275     
   14678.097527307877       -18.588193034176584        692.67176737861450     
   14611.982673527586       -18.284817464771550        695.61014577472520     
   14548.251969552153       -17.126865096548499        699.26914745579791     
   14475.979542260722       -23.698417533767497        754.41437126403775     
   14398.331582641371       -25.846596130828402        753.26353106151078     
   14323.217363784173       -26.699575918495611        752.97469335341293     
   14250.580336189681       -26.445855228165783        753.50245988287816     
   14180.363950358511       -25.273932391054586        754.80143239309268     
   14112.511656791303       -23.372305738379509        756.82621262723524     
   14046.966905988678       -20.929473601587233        759.53140232848330     
   13983.673148451344       -18.133934311551457        762.87160324005310     
   13922.573834679819       -15.174186199841643        766.80141710508633     
   13827.985180578693       -31.296853528441716        819.72165151998411     
   13753.354016263227       -34.364715732446712        818.14476136994506     
   13681.374372971086       -34.979999553517700        817.71155726014456     
   13611.903498645483       -33.618545180833280        818.29557345410933     
   13544.798641229823       -30.756192803070917        819.77034421550366     
   13479.917048667421       -26.868782609411028        822.00940380790598     
   13417.115968901435       -22.432154788897606        824.88628649480029     
   13356.252649875289       -17.922149530477327        828.27452653984722     
   13297.184339532272       -13.814607023015014        832.04765820662851     
   13177.957621154867       -36.494136507729309        882.71493359779129     
   13107.483153107936       -39.922839979199125        881.21705391545845     
   13039.459409160614       -40.221133014094448        880.94096667696954     
   12973.688785769229       -38.047694091228550        881.70687906469561     
   12909.973679390198       -34.061201689190057        883.33499826113257     
   12848.116486480008       -28.920334286442994        885.64553144876106     
   12787.919603495004       -23.283770361776988        888.45868580999013     
   12729.185426891643       -17.810188393795215        891.59466852732703     
   12671.716353126338       -13.158266860908043        894.87368678320570     
   12526.400005487281       -39.139324022398796        943.56366313128797     
   12460.835946628764       -42.485882835064331        942.48388375965487     
   12397.282496042466       -42.479969193369470        942.53700234196947     
   12335.518549768316       -39.858596297420263        943.51763937801570     
   12275.323003846281       -35.358777347347768        945.22041536759650     
   12216.474754316378       -29.717525543257580        947.43995081055573     
   12158.752697218488       -23.671854085439008        949.97086620666232     
   12101.935728592614       -17.958776173809838        952.60778205571910     
   12045.802744478684       -13.315305008651194        955.14531885754411     
   11873.815475074169       -39.081473622672092        1002.4372857543973     
   11813.529350278941       -42.018758264066491        1001.9487259640613     
   11754.653657306366       -41.813500984279472        1002.3737449932531     
   11696.975142850319       -39.176546137013702        1003.5091170575247     
   11640.280553604776       -34.818738075615329        1005.1516163725449     
   11584.356636263694       -29.450921153759737        1007.0980171539510     
   11528.990137520879       -23.783939725018172        1009.1450936172872     
   11473.967804070451       -18.528638142864565        1011.0896199782906     
   11419.076382606210       -14.395860760862433        1012.7283704525080     
   11220.707171413584       -36.169642859277701        1059.5052471009690     
   11165.680317511698       -38.486380230295708        1059.6150555902452     
   11111.382916641986       -38.278721280083573        1060.3252753688448     
   11057.640917222729       -36.126837947717831        1061.4625747666414     
   11004.280267672304       -32.610902172040369        1062.8536221135721     
   10951.126916409026       -28.311085891821222        1064.3250857395406     
   10898.006811851283       -23.807561045875900        1065.7036339744629     
   10844.745902417340       -19.680499573342786        1066.8159351482486     
   10791.170136525603       -16.510073412791826        1067.4886575908008     
   10567.578236003625       -30.252889282890919        1114.9369928048552     
   10517.405801780300       -31.853662697660639        1115.4863476997743     
   10467.280297739047       -31.932622973821708        1116.2656742068571     
   10417.098225093108       -30.834766067364399        1117.1592751688404     
   10366.756085055593       -28.905087934462244        1118.0514534283498     
   10316.150378839697       -26.488584531126435        1118.8265118280517     
   10265.177607658625       -23.930251813482755        1119.3687532106683     
   10213.734272725524       -21.575085737556037        1119.5624804188258     
   10161.716875253600       -19.768082259437961        1119.2919962952108     
   15174.585875132587       -19.562504417905075        629.58503323599950     
   15108.442185840526       -19.174712664786966        632.79817445719505     
   15041.782568650462       -17.645614878663764        635.78838941684035     
   14974.508108558659       -15.304927738767219        638.50573834369391     
   14906.519890561211       -12.482367924420032        640.90028146649706     
   14837.718999654458       -9.5076521148102984        642.92207901406221     
   14768.006520834679       -6.7104969891015571        644.52119121521309     
   14697.283539098016       -4.4206192265928621        645.64767829869061     
   14625.451139440745       -2.9677355063695359        646.25160049330543     
   14548.251969552153       -17.126865096548499        699.26914745579791     
   14485.285431409575       -15.455078257132300        703.03546661640758     
   14421.410600852536       -13.785113525215820        706.25998434711425     
   14356.609770596497       -12.175995182473343        708.95239061311429     
   14290.865233356906       -10.686747510743771        711.12237537953376     
   14224.159281849235       -9.3763947918096164        712.77962861163280     
   14156.474208789028       -8.3039613073187866        713.93384027455829     
   14087.792306891641       -7.5284713392684353        714.59470033346497     
   14018.095868872566       -7.1089491693310265        714.77189875357112     
   13922.573834679819       -15.174186199841643        766.80141710508633     
   13862.000410663324       -12.670896465115220        770.63370285934673     
   13800.352145449646       -11.018655444436263        773.74887908214293     
   13737.674224126953       -10.066846176929175        776.20288698184424     
   13674.011831783644       -9.6648517013891251        778.05166776693193     
   13609.410153508008       -9.6620550568786712        779.35116264583519     
   13543.914374388311       -9.9078392824794719        780.15731282696936     
   13477.569679512979       -10.251587416907569        780.52605951884300     
   13410.421253970233       -10.542682499272814        780.51334392982108     
   13297.184339532272       -13.814607023015014        832.04765820662851     
   13238.409129550731       -10.875565503997677        835.55636655070350     
   13178.580121056690       -9.3543650519559378        838.29485642432383     
   13117.787076164861       -8.9517986176524573        840.35194178599886     
   13056.119756990058       -9.3686591518462592        841.81643659430290     
   12993.667925647094       -10.305739605264534        842.77715480779705     
   12930.521344250597       -11.463832928812735        843.32291038497237     
   12866.769774915410       -12.543732073346291        843.54251728440909     
   12802.502979756277       -13.246229989548738        843.52478946465101     
   12671.716353126338       -13.158266860908043        894.87368678320570     
   12614.333594020707       -10.122483589102558        897.76694105518004     
   12556.067446288722       -8.8003667630173368        899.93769917619204     
   12497.033933725173       -8.8051703999672100        901.49426936173325     
   12437.349080124906       -9.7501485172251705        902.54495982734841     
   12377.128909282766       -11.248555131910962        903.19807878855113     
   12316.489444993578       -12.913644261334866        903.56193446082273     
   12255.546711052162       -14.358669922698937        903.74483505971841     
   12194.416731253348       -15.196886133195676        903.85508880072132     
   12045.802744478684       -13.315305008651194        955.14531885754411     
   11989.595810022145       -10.465048935749110        957.22890973739982     
   11932.787039760606       -9.3647849934168335        958.71719014014354     
   11875.500403822631       -9.6012794197772564        959.72458404510894     
   11817.859872336745       -10.761298453169729        960.36551543169617     
   11759.989415431421       -12.431608331971347        960.75440827919408     
   11702.013003235143       -14.198975294528282        961.00568656694156     
   11644.054605876487       -15.650165579003897        961.23377427430421     
   11586.238193483954       -16.371945423647048        961.55309538062352     
   11419.076382606210       -14.395860760862433        1012.7283704525080     
   11364.017783503965       -11.956659759228842        1013.9057559620634     
   11308.711820087341       -11.055744158381913        1014.6731121186360     
   11253.272093472187       -11.314443572306118        1015.1376001722942     
   11197.812204774205       -12.354087615070966        1015.4063813729963     
   11142.445755109278       -13.796005900646833        1015.5866169707959     
   11087.286345593167       -15.261528042980444        1015.7854682157026     
   11032.447577341747       -16.371983656069915        1016.1100963577956     
   10978.043051470726       -16.748702353932913        1016.6676626470315     
   10791.170136525603       -16.510073412791826        1067.4886575908008     
   10737.421520415097       -14.650714274948314        1067.7609630938334     
   10683.814705883882       -13.881368673624820        1067.8452479141595     
   10630.434609688609       -13.918980753263440        1067.8280320793297     
   10577.366148585965       -14.480494658334010        1067.7958356168854     
   10524.694239332724       -15.282854532890269        1067.8351785544471     
   10472.503798685544       -16.043004521381135        1068.0325809195401     
   10420.879743401125       -16.477888768185494        1068.4745627397060     
   10369.906990236241       -16.304451417335713        1069.2476440425689     
   10161.716875253600       -19.768082259437961        1119.2919962952108     
   10109.629026704475       -18.600610698095807        1118.7580144974095     
   10058.068615765136       -17.849782954612238        1118.2733803291478     
   10007.073559486795       -17.389208858254733        1117.8905941023770     
   9956.6817749206712       -17.092498238272583        1117.6621561290654     
   9906.9311791180207       -16.833260923928719        1117.6405667212048     
   9857.8596891300313       -16.485106744482891        1117.8783261907261     
   9809.5052220079669       -15.921645529133457        1118.4279348496113     
   9761.9056948030320       -15.016487107192461        1119.3418930098219     
   14625.451139440745       -2.9677355063695359        646.25160049330543     
   14553.178652604140       -2.3756755004742445        646.57594542930747     
   14481.234855418012       -2.3367819192326351        646.92139323154868     
   14409.670002011439       -2.6835409989107575        647.32454287067219     
   14338.534346513308       -3.2484389765577362        647.82199331722518     
   14267.878143052618       -3.8639620887752244        648.45034354178915     
   14197.751645758492       -4.3625965720912063        649.24619251500542     
   14128.205108759887       -4.5768286631337105        650.24613920750460     
   14059.288786185716       -4.3391445987681436        651.48678258982056     
   14018.095868872566       -7.1089491693310265        714.77189875357112     
   13948.169592729781       -6.8547026185869981        714.80008499723112     
   13878.810037836116       -6.5355015919294601        715.01079095817704     
   13810.017288969353       -6.1510634967171427        715.40903024863030     
   13741.791430907248       -5.7011057403851737        715.99981648074379     
   13674.132548427577       -5.1853457303022878        716.78816326672722     
   13607.040726308205       -4.6035008737817407        717.77908421885229     
   13540.516049326801       -3.9552885783805323        718.97759294925186     
   13474.558602261228       -3.2404262514000948        720.38870307013622     
   13410.421253970233       -10.542682499272814        780.51334392982108     
   13343.240058859976       -10.454989298127657        780.46762104592585     
   13276.741387766158       -9.8479309685926637        780.68695576797052     
   13210.886924503122       -8.8492281294957138        781.15170417670538     
   13145.638352885135       -7.5866013999966526        781.84222235276206     
   13080.957356726465       -6.1877713990406846        782.73886637680278     
   13016.805619841518       -4.7804587455029832        783.82199232956395     
   12953.144826044554       -3.4923840584297068        785.07195629170656     
   12889.936659149846       -2.4512679568870226        786.46911434387027     
   12802.502979756277       -13.246229989548738        843.52478946465101     
   12738.378087849043       -13.180124482836618        843.57167997179772     
   12674.949087685372       -12.298015305905210        843.90101679697125     
   12612.151030503841       -10.816398330029187        844.47542631620149     
   12549.918967543083       -8.9517694265568934        845.25753490555076     
   12488.187950041525       -6.9206244672877801        846.20996894093628     
   12426.893029237912       -4.9394593231572799        847.29535479851199     
   12365.969256370629       -3.2247698661080904        848.47631885423016     
   12305.351682678400       -1.9930519672179798        849.71548748415205     
   12194.416731253348       -15.196886133195676        903.85508880072132     
   12133.571716551338       -15.033697116422900        904.10538817140332     
   12073.353320070890       -13.909699860776527        904.60410318123752     
   12013.681728862644       -12.090937530856991        905.30305832844783     
   11954.477129977116       -9.8434532914175179        906.15407811129990     
   11895.659710464864       -7.4332903074214300        907.10898702804229     
   11837.149657376491       -5.1264917433859409        908.11960957689837     
   11778.867157762603       -3.1891007640297175        909.13777025618947     
   11720.732398673752       -1.8871605342301336        910.11529356411404     
   11586.238193483954       -16.371945423647048        961.55309538062352     
   11528.808981821239       -16.019296142562780        962.06187204121102     
   11471.874267400035       -14.706929889977800        962.74734405680647     
   11415.351141470672       -12.711209164614047        963.55746187471834     
   11359.156695283447       -10.308496465653207        964.44017594234970     
   11303.208020088667       -7.7751542918431369        965.34343670699218     
   11247.422207136742       -5.3875451420040008        966.21519461606158     
   11191.716347677966       -3.4220315151137584        967.00340011691333     
   11136.007532962771       -2.1549759098056711        967.65600365691273     
   10978.043051470726       -16.748702353932913        1016.6676626470315     
   10924.077920513128       -16.140510504792019        1017.4342579777314     
   10870.432112149936       -14.713650650282943        1018.2818685597149     
   10817.031390219023       -12.715576664098080        1019.1614986163556     
   10763.801518558130       -10.393742420339549        1020.0241523709174     
   10710.668261005158       -7.9956017928043366        1020.8208340467836     
   10657.557381397950       -5.7686086552816960        1021.5025478672967     
   10604.394643574300       -3.9602168818628343        1022.0202980557763     
   10551.105811372112       -2.8178803462315045        1022.3250888355690     
   10369.906990236241       -16.304451417335713        1069.2476440425689     
   10319.366569481286       -15.400929147132047        1070.2156723773985     
   10268.947036797796       -13.953807398715981        1071.1588058260140     
   10218.594596998813       -12.142403461930371        1072.0380302146007     
   10168.255454897322       -10.146034626773599        1072.8143313692901     
   10117.875815306541       -8.1440181826637854        1073.4486951163319     
   10067.401883039416       -6.3156714195965833        1073.9021072818741     
   10016.779862909121       -4.8403116271911131        1074.1355536921212     
   9965.9559597286843       -3.8972560952179265        1074.1100201732581     
   9761.9056948030320       -15.016487107192461        1119.3418930098219     
   9714.6629655801553       -13.804141012889886        1120.3992416367469     
   9667.3392238208289       -12.451345391989435        1121.3292849917561     
   9619.9128837011631       -11.030052990850891        1122.1099183307799     
   9572.3623593971661       -9.6122165560213944        1122.7190369097382     
   9524.6660650849080       -8.2697888339489509        1123.1345359845097     
   9476.8024149404519       -7.0747225710956627        1123.3343108110412     
   9428.7498231399204       -6.0989705138795216        1123.2962566452943     
   9380.4867038592965       -5.4144854087794556        1122.9982687430913     
   14059.288786185716       -4.3391445987681436        651.48678258982056     
   13990.536025563944       -3.6839181758405175        652.71246199000097     
   13921.418439591613       -2.8513059605447779        653.63767520883334     
   13851.893680151648       -1.9824683432752863        654.25425892625560     
   13781.919399126919       -1.2185657143863864        654.55404982204789     
   13711.453248400208      -0.70075846435065614        654.52888457610732     
   13640.452879854669      -0.57020698335782072        654.17059986837546     
   13568.875945372854      -0.96807166216058249        653.47103237859335     
   13496.680096837741       -2.0355128907995095        652.42201878657283     
   13474.558602261228       -3.2404262514000948        720.38870307013622     
   13408.645155573686       -2.6099833815178499        721.71166456932929     
   13342.259920007949       -2.1902285190544717        722.65206755740769     
   13275.414140763869       -1.9436776642514815        723.22443583068673     
   13208.119063041568       -1.8328468169620464        723.44329318552116     
   13140.385932040983       -1.8202519773876702        723.32316341824549     
   13072.225992962107       -1.8684091456207170        722.87857032519514     
   13003.650491004899       -1.9398343216926150        722.12403770276808     
   12934.670671369106       -1.9970435057866780        721.07408934708928     
   12889.936659149846       -2.4512679568870226        786.46911434387027     
   12826.677611931465       -1.8788148639723659        787.72578634027502     
   12762.924274096900       -1.7964060911999695        788.58853383891017     
   12698.728474860854       -2.0312775896327366        789.08907547633692     
   12634.142043437865       -2.4106653109192848        789.25912988901666     
   12569.216809042544       -2.7618052062998686        789.13041571343524     
   12504.004600889519       -2.9119332271138774        788.73465158617580     
   12438.557248193278       -2.6882853246606828        788.10355614356581     
   12372.926580168449       -1.9180974505502491        787.26884802216512     
   12305.351682678400       -1.9930519672179798        849.71548748415205     
   12244.615079619849       -1.4959071284715719        850.78195596274350     
   12183.430453779009       -1.6641531005975594        851.49868278065060     
   12121.877209082628       -2.2331101275804031        851.90908913816327     
   12060.034749457478       -2.9380984536792312        852.05659623571330     
   11997.982478830243       -3.5144383232777727        851.98462527349875     
   11935.799801127758       -3.6974499805019150        851.73659745198540     
   11873.566120276468       -3.2224536696858195        851.35593397126445     
   11811.360840203419       -1.8247696349421858        850.88605603200608     
   11720.732398673752       -1.8871605342301336        910.11529356411404     
   11662.439243621468       -1.4667546803152618        910.90730209672358     
   11603.797410974563       -1.7877839712291461        911.43412310983365     
   11544.900870069258       -2.5370172858415572        911.74538809115325     
   11485.843590241962       -3.4012235030245392        911.89072852859465     
   11426.719540829317       -4.0671715008702449        911.91977591009561     
   11367.622691167424       -4.2216301587836824        911.88216172339571     
   11308.647010592829       -3.5513683549856978        911.82751745634414     
   11249.886468441717       -1.7431549684843048        911.80547459671016     
   11136.007532962771       -2.1549759098056711        967.65600365691273     
   11080.131788919056       -1.7968520244176034        968.12895340222667     
   11024.044097603843       -2.1616131271534869        968.44646355366717     
   10967.839984460767       -2.9308410726594047        968.65888361026043     
   10911.614974933280       -3.7861177157601560        968.81656307098763     
   10855.464594464946       -4.4090249116038649        968.96985143490929     
   10799.484368499456       -4.4811445144587196        969.16909820112198     
   10743.769822480230       -3.6840583794505619        969.46465286859473     
   10688.416481850987       -1.6993483610499425        969.90686493648604     
   10551.105811372112       -2.8178803462315045        1022.3250888355690     
   10497.674400495051       -2.4916936663116758        1022.4740385391501     
   10444.189465587317       -2.7799549920296158        1022.5873128394209     
   10390.735078897065       -3.4024234959160822        1022.7104869702638     
   10337.395312672781       -4.0788583502180700        1022.8891361657899     
   10284.254239162494       -4.5290187276177676        1023.1688356596678     
   10231.395930614635       -4.4726638004294728        1023.5951606860225     
   10178.904459277319       -3.6295527411716648        1024.2136864786066     
   10126.863897398898       -1.7194447222368581        1025.0699882714848     
   9965.9559597286843       -3.8972560952179265        1074.1100201732581     
   9915.0487633321482       -3.5567741111012765        1073.9696861674122     
   9864.2524668452897       -3.6371239898339809        1073.9082796943314     
   9813.6266800184330       -3.9396065634523438        1073.9611094463819     
   9763.2310126022621       -4.2655226634019527        1074.1634841161685     
   9713.1250743471664       -4.4161731215549480        1074.5507123961481     
   9663.3684750036464       -4.1928587695010719        1075.1581029787521     
   9614.0208243221332       -3.3968804389851357        1076.0209645565242     
   9565.1417320532237       -1.8295389616951070        1077.1746058218703     
   9380.4867038592965       -5.4144854087794556        1122.9982687430913     
   9332.2365624129561       -4.9975878638774702        1122.6430249470443     
   9284.2520532980179       -4.7274345445857762        1122.4609728455448     
   9236.5553144647911       -4.5302322834254483        1122.4716623134357     
   9189.1684838634355       -4.3321879129730405        1122.6946432253312     
   9142.1136994442459       -4.0595082657441708        1123.1494654560179     
   9095.4130991573256       -3.6384001743667795        1123.8556788801422     
   9049.0888209530312       -2.9950704713546656        1124.8328333725460     
   9003.1630027815918       -2.0557259892411821        1126.1004788078394     
   10551.733181871317        3165.5199545613955        246.84862475438453     
   10732.781768985204        2953.3307261019308        435.47004922721453     
   10890.170542238975        2733.9698001159354        606.94108678834823     
   11024.745227397272        2510.2562624858983        759.96880067602137     
   11137.351550224943        2285.0091990943238        893.26025412842182     
   11228.835236486644        2061.0476958236968        1005.5225103837613     
   11300.042011947191        1841.1908385565330        1095.4626326802570     
   11351.817602371239        1628.2577131753096        1161.7876842560984     
   11385.007733523638        1425.0674055625350        1203.2047283495071     
   9806.0460452863717        2941.8138135859108        150.64879779958633     
   9998.3515944362371        2761.2340698344969        351.35724707111558     
   10163.478721582145        2568.2980275338746        530.93899966764911     
   10302.503501501975        2366.5926026100642        689.14253986224617     
   10416.502008973484        2159.7047109890482        825.71635192797009     
   10506.550318774507        1951.2212685968648        940.40892013791472     
   10573.724505682803        1744.7291913594831        1032.9687287651241     
   10619.100644476172        1543.8153952029024        1103.1442620826688     
   10643.754809932470        1352.0667960531623        1150.6840043636396     
   9103.1096438475543        2730.9328931542664        65.666557259738568     
   9291.4889302502652        2575.2426758030401        274.64410637235278     
   9452.1756404523821        2403.8919643695235        459.76372700420990     
   9586.4033548323223        2220.9926934482291        621.60966108596836     
   9695.4056537682973        2030.6567976336091        760.76615054826993     
   9780.4161176387934        1836.9962115202120        877.81743732179757     
   9842.6683268220786        1644.1228697025156        973.34776333719640     
   9883.3958616965374        1456.1487067750065        1047.9413705251175     
   9903.8323026404669        1277.1856573321679        1102.1825008162086     
   8434.6869250959080        2530.4060775287721       -9.1473962149408425     
   8607.1614700302416        2393.8468520884358        204.70038488924087     
   8753.8461288649669        2240.0270596274663        393.11909968322061     
   8876.0591441665601        2073.3408420338628        557.32308437796826     
   8975.1187585013613        1898.1823411955902        698.52667518445514     
   9052.3432144357612        1718.9456990006345        817.94420831365198     
   9109.0507545361979        1540.0250573369742        916.79001997652881     
   9146.5596213690224        1365.8145580925791        996.27844638404804     
   9166.1880575006762        1200.7083431554356        1057.6238237471932     
   7792.5408365728163        2337.7622509718449       -74.842361974219273     
   7940.3369073791482        2215.5369067715792        140.89584038011873     
   8066.0750168351487        2075.9787623122811        330.70894858987236     
   8171.0852262830203        1923.5213554004686        496.23572976904461     
   8256.6975970645562        1762.5982238425599        639.11495103165464     
   8324.2421905216888        1597.6429054449991        760.98537949170213     
   8375.0490679963841        1433.0889380142371        863.48578226320080     
   8410.4482908305399        1273.3698593567192        948.25492646015300     
   8431.7699203661159        1122.9192072789258        1016.9315791965806     
   7168.4343258192603        2150.5302977457782       -132.46763936786880     
   7285.9829358997240        2038.8031479332979        82.600230603333657     
   7386.4471343782861        1911.0225214285711        272.23710460935797     
   7471.0959579600149        1771.4185405815351        438.30051728998740     
   7541.1984433498847        1624.2213277421108        582.64800328500871     
   7598.0236272527854        1473.6610052601607        707.13709723416514     
   7642.8405463737818        1323.9676954856509        813.62533377726652     
   7676.9182374177999        1179.3715207684356        903.97024755405835     
   7701.5257370898207        1044.1026034584643        980.02937320433398     
   6554.1303403765760        1966.2391021129722       -183.07252774566084     
   6639.0672491949899        1862.1358836544925        29.183313317205965     
   6712.5473115095601        1744.4337859808929        217.40739862686047     
   6775.7056959758220        1616.9167046105467        383.47036697158575     
   6829.6775712492381        1483.3685350618116        529.24285713964514     
   6875.5981059853566        1347.5731728530336        656.59550791929360     
   6914.6024688396574        1213.3145135025663        767.39895809879999     
   6947.8258284676431        1084.3764525287963        863.52384646643566     
   6976.4033535248409        964.54288545005238        946.84081181046133     
   5941.3918277858493        1782.4175483357546       -227.70632645737473     
   5994.5575408678378        1684.0254220160325       -19.985153719921968     
   6041.9603782442728        1575.4880049738456        165.92366152758433     
   6084.5287971086682        1459.9001545209842        331.69819884463072     
   6123.1912546545955        1340.3567279692529        479.01653779070426     
   6158.8762080755823        1219.9525826304571        609.55675792529348     
   6192.5121145651583        1101.7825758163744        724.99693880787186     
   6225.0274313168693        988.94156483882023        827.01515999792912     
   6257.3506155242503        884.52440700958255        917.28950105494721     
   5321.9817355883279        1596.5945206764984       -267.41833485277499     
   5347.4215045211631        1502.9620710987861       -65.535412749716386     
   5372.2711645976769        1403.4606274119938        117.48972419670152     
   5397.1796181368818        1300.2531973463290        282.93693293990492     
   5422.7957674578956        1195.5027886320304        432.08607043333012     
   5449.7685148797464        1091.3724089993148        566.21699363039920     
   5478.7467627215165        990.02506617841073        686.60955948454523     
   5510.3794133022420        893.62376789953748        794.54362494918223     
   5545.3153689410328        804.33152189291309        891.29904697774930     
   11385.007733523638        1425.0674055625350        1203.2047283495071     
   11405.730600086279        1235.5618628301308        1226.6090423546796     
   11419.499280988497        1061.6659795812011        1240.6718084995443     
   11426.251828366034        903.17326293506767        1246.7639472729070     
   11425.926294354704        759.87722001104385        1246.2563791635857     
   11418.460731090303        631.57135792845111        1240.5200246603890     
   11403.793190708644        518.04918380657182        1230.9258042521321     
   11381.861725345500        419.10420476478566        1218.8446384276344     
   11352.604387136673        334.52992792235773        1205.6474476757019     
   10643.754809932470        1352.0667960531623        1150.6840043636396     
   10656.650639905041        1174.7678701988962        1182.6145979665612     
   10665.869958761457        1014.2637156428473        1206.7244672370632     
   10671.166121050950        869.73218088236536        1223.9047694289541     
   10672.292481322678        740.35111441465824        1235.0466617959755     
   10669.002394125782        625.29836473686464        1241.0413015918527     
   10661.049214009483        523.75178034638930        1242.7798460703964     
   10648.186295522901        434.88920974035318        1241.1534524853218     
   10630.166993215253        357.88850141604007        1237.0532780904130     
   9903.8323026404669        1277.1856573321679        1102.1825008162086     
   9913.7694065518972        1113.0969069476566        1142.8659047450208     
   9921.9226200297398        966.15794019838495        1176.7282087984552     
   9927.9110580037595        835.09914018369136        1204.2664688357031     
   9931.3538354038774        718.65089000310127        1225.9777407160527     
   9931.8700671598617        615.54357275600478        1242.3590802987039     
   9929.0788682015609        524.50757154179109        1253.9075434428967     
   9922.5993534587960        444.27326945984760        1261.1201860078459     
   9912.0506378613773        373.57104960967854        1264.4940638527905     
   9166.1880575006762        1200.7083431554356        1057.6238237471932     
   9176.9547936293839        1050.5093411571861        1107.0976797930018     
   9186.6899542609954        917.05846008799585        1150.2877289780129     
   9194.9288726732339        798.80681087367702        1187.3825876074379     
   9201.2068821439207        694.20550444013315        1218.5708719865431     
   9205.0593159507571        601.70565171317685        1244.0411984205177     
   9206.0215073715299        519.75836361872234        1263.9821832146242     
   9203.6287896839658        446.81475108251152        1278.5824426740587     
   9197.4164961658207        381.32592503046817        1288.0305931040566     
   8431.7699203661159        1122.9192072789258        1016.9315791965806     
   8446.0746947399875        986.96554090822087        1075.0446402134276     
   8459.2046509229931        866.67508215201065        1127.0077235701185     
   8470.6617985081612        760.38786298691343        1172.7866678584426     
   8479.9481470883838        666.44391538935270        1212.3473116701093     
   8486.5657062566788        583.18327133593539        1245.6554935969052     
   8490.0164856059710        508.94596280316409        1272.6770522305599     
   8489.8024947292070        442.07202176756937        1293.3778261628231     
   8485.4257432193663        380.90148020564311        1307.7236539854473     
   7701.5257370898207        1044.1026034584643        980.02937320433398     
   7720.9970034861753        922.42587428144293        1046.4415031092110     
   7738.4993994835122        814.71761323081000        1106.4928883691625     
   7753.5520689573013        719.37496655802920        1160.0122517030024     
   7765.6741557829218        634.79508051450011        1206.8283158294985     
   7774.3848038358465        559.37510135171760        1246.7698034674638     
   7779.2031569915043        491.51217532113355        1279.6654373357051     
   7779.6483591253564        429.60344867426056        1305.3439401530275     
   7775.2395541127871        372.04606766243433        1323.6340346381949     
   6976.4033535248409        964.54288545005238        946.84081181046133     
   7001.5896134705208        856.85070935774729        1021.0229855833303     
   7023.6068894103146        760.89586016472686        1088.3479191695158     
   7042.0419174694380        675.30079162168659        1148.5928812554118     
   7056.4814337731032        598.68795747923241        1201.5351405273861     
   7066.5121744464841        529.67981148801096        1246.9519656718128     
   7071.7208756147802        466.89880739865680        1284.6206253750620     
   7071.6942734032082        408.96739896184977        1314.3183883235276     
   7066.0191039369065        354.50803992817850        1335.8225232035488     
   6257.3506155242503        884.52440700958255        917.28950105494721     
   6287.7204182954547        790.20041421777660        998.52380473867595     
   6313.5598101710884        704.91962979405594        1072.1775117655222     
   6334.5735774933919        627.69800821253170        1138.0620986299753     
   6350.4665066045727        557.55150394725138        1195.9890418264984     
   6360.9433838468294        493.49607147224106        1245.7698178495534     
   6365.7089955624297        434.54766526168260        1287.2159031936339     
   6364.4681280935602        379.72223978954685        1320.1387743531927     
   6356.9255677824676        328.03574952998792        1344.3499078227212     
   5545.3153689410328        804.33152189291309        891.29904697774930     
   5579.2573115635159        722.43535694230877        978.67867767819530     
   5607.3908512336402        646.49872895914109        1057.5863619515706     
   5629.5892824779230        576.09928636518498        1127.9534459409806     
   5645.7258998228899        510.81467758219469        1189.7112757895161     
   5655.6739977950801        450.22255103193925        1242.7911976402786     
   5659.3068709210302        393.90055513615289        1287.1245576363785     
   5656.4978137272565        341.42633831665080        1322.6427019209084     
   5647.1201207402837        292.37754899514744        1349.2769766369643     
   11352.604387136673        334.52992792235773        1205.6474476757019     
   11319.156419584348        264.78823832400303        1193.7532647408384     
   11284.269620716594        209.06286943404712        1184.3001147414057     
   11247.306874458038        165.23010100124839        1176.7374067270255     
   11207.631064733303        131.16621277438844        1170.5145497473350     
   11164.605075467020        104.74748450219658        1165.0809528519346     
   11117.591790583832        83.850195933478062        1159.8860250904736     
   11065.954094008366        66.350626816966269        1154.3791755125651     
   11009.054869665273        50.125056901447806        1148.0098131678419     
   10630.166993215253        357.88850141604007        1237.0532780904130     
   10607.829136423637        292.17662465496096        1232.3389240376305     
   10581.910042416474        236.84550850960932        1228.0981200726476     
   10552.012297639874        190.57044113375969        1224.0642163398286     
   10517.738488539966        152.02671068108793        1219.9705629835044     
   10478.691201562850        119.88960530528539        1215.5505101479973     
   10434.473023154642        92.834413160092481        1210.5374079776627     
   10384.686539761451        69.536422399180083        1204.6646066168259     
   10328.934337829416        48.670921176332740        1197.6654562098408     
   9912.0506378613773        373.57104960967854        1264.4940638527905     
   9897.0018356328674        311.20492932862635        1265.6114123852512     
   9877.1389415900394        256.36852793150001        1265.7017772386935     
   9852.2563915525261        208.37663148380898        1264.7331796112530     
   9822.1486213400003        166.54402605113137        1262.6736407010867     
   9786.6100667721312        130.18549769899528        1259.4911817063526     
   9745.4351636685824        98.615832492921072        1255.1538238252076     
   9698.4183478490158        71.149816498451855        1249.6295882557893     
   9645.3540551330752        47.102235781117543        1242.8864961962518     
   9197.4164961658207        381.32592503046817        1288.0305931040566     
   9186.5209651479581        321.82708672569470        1293.8562218652366     
   9170.3472674728964        267.74921247025986        1297.5654535887488     
   9148.8338351858729        218.88707574832142        1299.3117104856490     
   9121.9191003321830        175.03545004416128        1299.2484147670023     
   9089.5414949570877        135.98910884202269        1297.5289886438693     
   9051.6394511058716        101.54282562611888        1294.3068543273184     
   9008.1514008237555        71.491373880619449        1289.7354340283860     
   8959.0157761560604        45.629527089826297        1283.9681499581509     
   8485.4257432193663        380.90148020564311        1307.7236539854473     
   8476.2329729048506        323.99703122696928        1317.3588445591283     
   8461.9259693006843        271.10484689656823        1324.1435164720838     
   8442.5393075298452        222.34017762422582        1328.3672229073954     
   8418.1075627152677        177.81827381976564        1330.3195170481451     
   8388.6653099798641        137.65438589296036        1330.2899520773628     
   8354.2471244466105        101.96376425364087        1328.5680811781547     
   8314.8875812383758        70.861659311507083        1325.4434575335379     
   8270.6212554781468        44.463321476396231        1321.2056343266127     
   7775.2395541127871        372.04606766243433        1323.6340346381949     
   7765.9843068394584        317.66869721322473        1336.4047725484745     
   7752.2659963091064        266.55271598118816        1345.8903332379894     
   7734.1674875744102        218.97434080858466        1352.4671308209117     
   7711.7716456880507        175.20978853765155        1356.5115794114320     
   7685.1613357026490        135.53527601051383        1358.4000931236853     
   7654.4194226709160        100.22702006948703        1358.5090860718667     
   7619.6287716455035        69.561237556804826        1357.2149723701455     
   7580.8722476790899        43.814145314682264        1354.8941661326910     
   7066.0191039369065        354.50803992817850        1335.8225232035488     
   7055.6214148877652        302.79601906534958        1351.2794979148334     
   7041.7582977338088        254.21010449486312        1363.2602712357091     
   7024.5130543094892        209.02796899838404        1372.1788481705642     
   7003.9689864492748        167.52728535736014        1378.4492337237627     
   6980.2093959876138        129.98572635333812        1382.4854328996705     
   6953.3175847590192        96.680964767911973        1384.7014507026806     
   6923.3768545978710        67.890673382475143        1385.5112921371476     
   6890.4705073386858        43.892524978708934        1385.3289622074465     
   6356.9255677824676        328.03574952998792        1344.3499078227212     
   6344.9907449856619        279.33293116394134        1362.2685127397219     
   6330.7938228104049        234.19429720822723        1376.7076978145003     
   6314.3706867249903        192.73946589055481        1388.0697889007195     
   6295.7572221977471        155.08805543858739        1396.7571118520577     
   6274.9893146969644        121.35968408003100        1403.1719925221696     
   6252.1028496910021        91.673970042721294        1407.7167567647441     
   6227.1337126481467        66.150531554249483        1410.7937304334578     
   6200.1177890366998        44.908986842342074        1412.8052393819551     
   5647.1201207402837        292.37754899514744        1349.2769766369643     
   5633.9387450691293        247.23336788994493        1369.6573091047178     
   5619.7635207745789        206.62257889199941        1386.6869803236305     
   5604.5350638108594        170.34723518206170        1400.7073669557758     
   5588.1939901322157        138.20938994092694        1412.0598456632163     
   5570.6809156928566        110.01109634932345        1421.0857931080131     
   5551.9364564470416        85.554407588066852        1428.1265859522480     
   5531.9012283489828        64.641376837890220        1433.5236008579766     
   5510.5158473529291        47.074057279584167        1437.6182144872871     
   11009.054869665273        50.125056901447806        1148.0098131678419     
   10949.838875875412        34.465213498932826        1141.1981853117729     
   10891.700389963313        20.161220600052729        1134.8365910469308     
   10834.676574358964        7.3369529714950659        1129.0825171935055     
   10778.804591492351       -3.8837146200671668        1124.0934505716889     
   10724.121603793517       -13.376907407953240        1120.0268780017275     
   10670.664773692451       -21.018750625520170        1117.0402863037884     
   10618.471263619147       -26.685369506045390        1115.2911622980992     
   10567.578236003625       -30.252889282890919        1114.9369928048552     
   10328.934337829416        48.670921176332740        1197.6654562098408     
   10271.056173089795        30.337039879188978        1190.4584199247647     
   10215.093152634630        15.305080097881728        1184.1675461161572     
   10160.949889950982        3.2570867893341529        1178.8345627079784     
   10108.530998525970       -6.1248950893964320        1174.5011976242315     
   10057.741091846679       -13.158820581408236        1171.2091787888887     
   10008.484783400250       -18.162644729519343        1169.0002341259724     
   9960.6666866737814       -21.454322576798859        1167.9160915594578     
   9914.1914151543569       -23.351809166206749        1167.9984790133235     
   9645.3540551330752        47.102235781117543        1242.8864961962518     
   9590.4236518351445        27.108641941242695        1236.1101798374748     
   9537.8146841198195        11.825186079771356        1230.4741260190915     
   9487.3308575820101       0.59755351315106964        1225.9281379123042     
   9438.7758778166244       -7.2285704421783521        1222.4220186883426     
   9391.9534504186540       -12.307500469712977        1219.9055715184588     
   9346.6672809829997       -15.293551253083933        1218.3285995738645     
   9302.7210751046168       -16.841037475806843        1217.6409060258043     
   9259.9185383783879       -17.604273821531024        1217.7922940454832     
   8959.0157761560604        45.629527089826297        1283.9681499581509     
   8908.3066017219717        24.889606568161980        1278.2731280564094     
   8859.9619066128416        9.7506152038995424        1273.7373544968432     
   8813.7161295821752      -0.67265115799546038        1270.2425418413889     
   8769.3037093834591       -7.2653966725338250        1267.6704026519642     
   8726.4590847701947       -10.912825494765457        1265.9026494905136     
   8684.9166944958342       -12.500141779721162        1264.8209949189204     
   8644.4109773138862       -12.912549682466306        1264.3071514991150     
   8604.6763719778428       -13.035253358028058        1264.2428317930360     
   8270.6212554781468        44.463321476396231        1321.2056343266127     
   8225.0703123607836        23.789520643118522        1317.0669275880580     
   8181.6317423077153        9.1104441284696804        1313.9382552905581     
   8140.0023582817175      -0.58453152504534955        1311.6570735301827     
   8099.8789732455452       -6.3060297748511402        1310.0608384029997     
   8060.9584001620224       -9.0646740783058704        1308.9870060051098     
   8022.9374519938656       -9.8710878929059618        1308.2730324325312     
   7985.5129417038597       -9.7358946760136860        1307.7563737813589     
   7948.3816822548015       -9.6697178851009085        1307.2744861476826     
   7580.8722476790899        43.814145314682264        1354.8941661326910     
   7541.0800733621036        23.917971049311745        1352.6112414389418     
   7502.9211133984027        9.9337495116378705        1351.0578521413563     
   7466.0861960107995       0.83090811105103057        1350.0510320136243     
   7430.2661494220101       -4.4211257433621540        1349.4078148293852     
   7395.1518018549050       -6.8529246421458083        1348.9452343623507     
   7360.4339815322146       -7.4950611761055370        1348.4803243861645     
   7325.8035166767386       -7.3781079359300747        1347.8301186745164     
   7290.9512355112593       -7.5326375123399885        1346.8116510010727     
   6890.4705073386858        43.892524978708934        1385.3289622074465     
   6856.7011743364501        25.384544669882416        1385.0257326155595     
   6823.9269420789115        12.249608011689816        1385.0771687903743     
   6791.8642950995772        3.5426634493037454        1385.3037163266245     
   6760.2297179319658       -1.6813405722941752        1385.5258208190321     
   6728.7396951095952       -4.3674556080304683        1385.5639278623137     
   6697.1107111660749       -5.4607332126479378        1385.2384830512681     
   6665.0592506348094       -5.9062249413286736        1384.3699319805521     
   6632.3017980493732       -6.6489823488436741        1382.7787202449217     
   6200.1177890366998        44.908986842342074        1412.8052393819551     
   6172.2989048943464        28.298828387933781        1414.4300641244199     
   6144.7461505432229        16.087096286791166        1415.9772289787395     
   6117.2333078782603        7.5197301888129005        1417.2944255041211     
   6089.5341587945177        1.8426697440413591        1418.2293452598544     
   6061.4224851869376       -1.6981453976054581        1418.6296798051469     
   6032.6720689505319       -3.8567755861686237        1418.3431206992645     
   6003.0566919802886       -5.3872811716655633        1417.2173595014444     
   5972.3501361712133       -7.0437225040268459        1415.1000877709216     
   5510.5158473529291        47.074057279584167        1437.6182144872871     
   5488.2385546463256        32.770409086747577        1440.9438989720306     
   5465.4756609853066        21.475290995117803        1443.7390564475591     
   5442.0898866770585        12.731104028678146        1445.9024585810685     
   5417.9439520287460        6.0802492113703011        1447.3328770397586     
   5392.9005773475756        1.0651275671455096        1447.9290834908666     
   5366.8224829407336       -2.7718598800640848        1447.5898496015886     
   5339.5723891154012       -5.8883121062647206        1446.2139470391394     
   5311.0130161787674       -8.7418280875374421        1443.7001474707329     
   10567.578236003625       -30.252889282890919        1114.9369928048552     
   10517.405801780300       -31.853662697660639        1115.4863476997743     
   10467.280297739047       -31.932622973821708        1116.2656742068571     
   10417.098225093108       -30.834766067364399        1117.1592751688404     
   10366.756085055593       -28.905087934462244        1118.0514534283498     
   10316.150378839697       -26.488584531126435        1118.8265118280517     
   10265.177607658625       -23.930251813482755        1119.3687532106683     
   10213.734272725524       -21.575085737556037        1119.5624804188258     
   10161.716875253600       -19.768082259437961        1119.2919962952108     
   9914.1914151543569       -23.351809166206749        1167.9984790133235     
   9868.1248415960617       -24.389796788845615        1168.6519032378771     
   9821.5788409138022       -24.949637199648350        1169.2194360875380     
   9774.5270298359119       -25.119274637546823        1169.6506531425509     
   9726.9430250905771       -24.986653341872170        1169.8951299830458     
   9678.8004434060695       -24.639717551757712        1169.9024421891818     
   9630.0729015107700       -24.166411505939323        1169.6221653412065     
   9580.7340161328211       -23.654679443911391        1169.0038750192364     
   9530.7574040005384       -23.192465604618519        1167.9971468034721     
   9259.9185383783879       -17.604273821531024        1217.7922940454832     
   9217.2273247261528       -18.372718849564990        1218.2087515378314     
   9173.7676220820267       -19.427384411677849        1218.3513205394588     
   9129.5719370594197       -20.659915129770980        1218.2223854190188     
   9084.6727762718001       -21.961955625608880        1217.8243305452365     
   9039.1026463326289       -23.225150520966963        1217.1595402868131     
   8992.8940538553361       -24.341144437857565        1216.2303990124847     
   8946.0795054533919       -25.201581998047004        1215.0392910909366     
   8898.6915077402136       -25.698107823330247        1213.5886008908712     
   8604.6763719778428       -13.035253358028058        1264.2428317930360     
   8564.7864785074362       -13.780460678788586        1264.1719602432145     
   8524.0407183324915       -15.307641483486350        1263.7458057230328     
   8482.5122623216685       -17.372892876595870        1263.0070974407336     
   8440.2742813437471       -19.732311962172844        1261.9985646045925     
   8397.3999462673946       -22.141995844677240        1260.7629364228592     
   8353.9624279612963       -24.358041628460342        1259.3429421037836     
   8310.0348972941974       -26.136546417734280        1257.7813108556174     
   8265.6905251347634       -27.233607316940379        1256.1207718866119     
   7948.3816822548015       -9.6697178851009085        1307.2744861476826     
   7910.8755302767722       -10.591054075468946        1306.5565969975230     
   7872.5922067540796       -12.532185288438541        1305.4873697987682     
   7833.6273211807875       -15.174413210512284        1304.1374146502719     
   7794.0764830508870       -18.199039528311459        1302.5773416508021     
   7754.0353018584356       -21.287365928325926        1300.8777608992016     
   7713.5993870975180       -24.120694097041451        1299.1092824943100     
   7672.8643482621264       -26.380325721002919        1297.3425165349449     
   7631.9257948462946       -27.747562486802508        1295.6480731198842     
   7290.9512355112593       -7.5326375123399885        1346.8116510010727     
   7255.5677073710322       -8.7825308385231438        1345.3777294443180     
   7219.6161644357144       -11.042792699722213        1343.6604909271964     
   7183.1964291947734       -13.980681464289319        1341.7459624901194     
   7146.4083241376666       -17.263455500723921        1339.7201711735063     
   7109.3516717538860       -20.558373177424528        1337.6691440177706     
   7072.1262945328490       -23.532692863051579        1335.6789080633121     
   7034.8320149640567       -25.853672925789397        1333.8354903505535     
   6997.5686555369193       -27.188571734315701        1332.2249179198698     
   6632.3017980493732       -6.6489823488436741        1382.7787202449217     
   6598.9362371271127       -8.3329227668164094        1380.6504252271411     
   6565.3066684662563       -10.781240590651578        1378.3496472687823     
   6531.4989019217473       -13.707902970357281        1375.9653664028590     
   6497.5987473486184       -16.826877055956629        1373.5865626624347     
   6463.6920146017665       -19.852129997696466        1371.3022160804624     
   6429.8645135362422       -22.497628945623092        1369.2013066900408     
   6396.2020540069298       -24.477341049929237        1367.3728145241462     
   6362.7904458688226       -25.505233460643467        1365.9057196158076     
   5972.3501361712133       -7.0437225040268459        1415.1000877709216     
   5941.0543468818450       -9.2202616594327083        1412.3897519895133     
   5909.8577959345121       -11.689305834724564        1409.6393169839998     
   5878.8140549197924       -14.272283061230155        1406.9282518310038     
   5847.9766954281758       -16.790621370736289        1404.3360256072046     
   5817.3992890502195       -19.065748794641195        1401.9421073892217     
   5787.1354073765615       -20.919093364253513        1399.8259662537405     
   5757.2386219976343       -22.172083111402571        1398.0670712773949     
   5727.7625045040504       -22.646146067352220        1396.7448915368211     
   5311.0130161787674       -8.7418280875374421        1443.7001474707329     
   5281.9952639721214       -11.422579315229768        1440.6107773750134     
   5253.4636239294123       -13.708765305124871        1437.6139782333539     
   5225.4212037469315       -15.590027069714779        1434.7672442171008     
   5197.8711111208268       -17.056005621725944        1432.1280694975269     
   5170.8164537473149       -18.096341973736116        1429.7539482459181     
   5144.2603393226736       -18.700677138346009        1427.7023746336463     
   5118.2058755430580       -18.858652128184985        1426.0308428319443     
   5092.6561701047240       -18.559907955830795        1424.7968470121580     
   10161.716875253600       -19.768082259437961        1119.2919962952108     
   10109.629026704475       -18.600610698095807        1118.7580144974095     
   10058.068615765136       -17.849782954612238        1118.2733803291478     
   10007.073559486795       -17.389208858254733        1117.8905941023770     
   9956.6817749206712       -17.092498238272583        1117.6621561290654     
   9906.9311791180207       -16.833260923928719        1117.6405667212048     
   9857.8596891300313       -16.485106744482891        1117.8783261907261     
   9809.5052220079669       -15.921645529133457        1118.4279348496113     
   9761.9056948030320       -15.016487107192461        1119.3418930098219     
   9530.7574040005384       -23.192465604618519        1167.9971468034721     
   9480.8674046923497       -22.635306429156572        1166.8948211778879     
   9431.7978403488487       -21.807129818011163        1166.0336156666142     
   9383.5365515415306       -20.748467199439347        1165.4289214101020     
   9336.0713788419216       -19.499850001794130        1165.0961295487700     
   9289.3901628215481       -18.101809653344844        1165.0506312230680     
   9243.4807440519071       -16.594877582313529        1165.3078175734033     
   9198.3309631045249       -15.019585217093208        1165.8830797402427     
   9153.9286605509114       -13.416463985866812        1166.7918088639881     
   8898.6915077402136       -25.698107823330247        1213.5886008908712     
   8851.5297528611281       -25.533960019704409        1212.1887766982179     
   8805.3388791456728       -24.595889412427368        1211.1389982532817     
   8760.0688124835506       -23.050809702398055        1210.4247471062070     
   8715.6694787644938       -21.065634590407171        1210.0315048071834     
   8672.0908038783564       -18.807277777164018        1209.9447529064646     
   8629.2827137147724       -16.442652963757155        1210.1499729541924     
   8587.1951341635686       -14.138673850881332        1210.6326465006114     
   8545.7779911144426       -12.062254139406832        1211.3782550958636     
   8265.6905251347634       -27.233607316940379        1256.1207718866119     
   8221.6870714028737       -27.275271412247548        1254.6325882598339     
   8178.6829641098029       -26.218692151820960        1253.5347179269470     
   8136.6023762615087       -24.316626182509935        1252.7899324292282     
   8095.3694808638593       -21.821830151339782        1252.3610033079044     
   8054.9084509228433       -18.987060705129807        1252.2107021042448     
   8015.1434594443144       -16.065074490938059        1252.3018003594684     
   7975.9986794341712       -13.308628155750739        1252.5970696148111     
   7937.3982838983866       -10.970478346441723        1253.0592814115398     
   7631.9257948462946       -27.747562486802508        1295.6480731198842     
   7591.4103605096197       -27.837940549181440        1294.2189630640637     
   7551.8213271955365       -26.678168449811437        1293.1659645254854     
   7513.0692768240997       -24.566306455294580        1292.4363386177422     
   7475.0647913153753       -21.800414832100159        1291.9773464544580     
   7437.7184525893190       -18.678553846959403        1291.7362491491674     
   7400.9408425659985       -15.498783766407087        1291.6603078154608     
   7364.6425431653761       -12.559164857072119        1291.6967835669134     
   7328.7341363075184       -10.157757385546574        1291.7929375171193     
   6997.5686555369193       -27.188571734315701        1332.2249179198698     
   6960.7706203734369       -27.200667372806947        1330.9406083123436     
   6924.7452003571334       -25.976948720139262        1329.9779278867679     
   6889.4015481201241       -23.820240335924609        1329.2758269103902     
   6854.6488162944843       -21.033366779982771        1328.7732556504336     
   6820.3961575122448       -17.919152612178550        1328.4091643740644     
   6786.5527244054638       -14.780422392327182        1328.1225033485102     
   6753.0276696062665       -11.920000680011071        1327.8522228410161     
   6719.7301457466483       -9.6407120351905178        1327.5372731187217     
   6362.7904458688226       -25.505233460643467        1365.9057196158076     
   6329.8388511864105       -25.342151825430847        1364.7902312060510     
   6297.4458155488610       -24.117663376437122        1363.9157978486428     
   6265.5312240982312       -22.098817639875961        1363.2202585456971     
   6234.0149619765607       -19.552664142459889        1362.6414522993475     
   6202.8169143259065       -16.746252410653369        1362.1172181117183     
   6171.8569662883456       -13.946631970945191        1361.5853949849609     
   6141.0550030058548       -11.420852349943743        1360.9838219211583     
   6110.3309096205303       -9.4359630740216289        1360.2503379224534     
   5727.7625045040504       -22.646146067352220        1396.7448915368211     
   5698.6860531405573       -22.241093849672779        1395.7605389465755     
   5669.9144047249401       -21.102942832483905        1394.9247642489443     
   5641.3903387071450       -19.422428182504518        1394.1814947622481     
   5613.0566345370744       -17.390285066844626        1393.4746578048148     
   5584.8560716647489       -15.197248652031021        1392.7481806949802     
   5556.7314295401766       -13.034054104779216        1391.9459907510861     
   5528.6254876132389       -11.091436592063474        1391.0120152914524     
   5500.4810253339629       -9.5601312805258658        1389.8901816344137     
   5092.6561701047240       -18.559907955830795        1424.7968470121580     
   5067.3832264280036       -17.876193387673311        1423.8442387353430     
   5042.1421998396672       -16.935417501997563        1422.9500169255530     
   5016.9109258955323       -15.811461779409683        1422.0713967986239     
   4991.6672401514079       -14.578207700510575        1421.1655935703529     
   4966.3889781631333       -13.309536745875221        1420.1898224566175     
   4941.0539754865367       -12.079330396114301        1419.1012986732119     
   4915.6400676774447       -10.961470131753003        1417.8572374359549     
   4890.1250902916754       -10.029837433448165        1416.4148539606995     
   9761.9056948030320       -15.016487107192461        1119.3418930098219     
   9714.6629655801553       -13.804141012889886        1120.3992416367469     
   9667.3392238208289       -12.451345391989435        1121.3292849917561     
   9619.9128837011631       -11.030052990850891        1122.1099183307799     
   9572.3623593971661       -9.6122165560213944        1122.7190369097382     
   9524.6660650849080       -8.2697888339489509        1123.1345359845097     
   9476.8024149404519       -7.0747225710956627        1123.3343108110412     
   9428.7498231399204       -6.0989705138795216        1123.2962566452943     
   9380.4867038592965       -5.4144854087794556        1122.9982687430913     
   9153.9286605509114       -13.416463985866812        1166.7918088639881     
   9109.7740146092783       -11.960004552313421        1167.7759623384677     
   9065.3834753270821       -10.770458149273963        1168.5647863387887     
   9020.7692910198839       -9.8069970582519090        1169.1546051773514     
   8975.9437100030937       -9.0287935611495413        1169.5417431665126     
   8930.9189805922870       -8.3950199394757874        1169.7225246186492     
   8885.7073511028448       -7.8648484751051910        1169.6932738461071     
   8840.3210698503153       -7.3974514497263044        1169.4503151613353     
   8794.7723851502178       -6.9520011449194499        1168.9899728766761     
   8545.7779911144426       -12.062254139406832        1211.3782550958636     
   8504.5099181798578       -10.477389471940569        1212.1399401276199     
   8462.9279741257997       -9.4533249793917093        1212.6877651470452     
   8421.0697225723052       -8.8648485948451707        1213.0325949495659     
   8378.9727271394368       -8.5867482514236144        1213.1852943305923     
   8336.6745514472223       -8.4938118824688900        1213.1567280855725     
   8294.2127591157387       -8.4608274210195304        1212.9577610099634     
   8251.6249137650211       -8.3625828002927847        1212.5992578991952     
   8208.9485790151539       -8.0738659534113140        1212.0920835486688     
   7937.3982838983866       -10.970478346441723        1253.0592814115398     
   7898.8636568636593       -9.3584016002000681        1253.4889649941158     
   7860.0029737459190       -8.4908698236631608        1253.7258130495413     
   7820.8705946349291       -8.1866827175563230        1253.7913422829286     
   7781.5208796204188       -8.2646399827785899        1253.7070693993364     
   7742.0081887921224       -8.5435413202358177        1253.4945111038401     
   7702.3868822398426       -8.8421864305842064        1253.1751841015644     
   7662.7113200532331       -8.9793750149165135        1252.7706050975178     
   7623.0358623221091       -8.7739067739776146        1252.3022907968207     
   7328.7341363075184       -10.157757385546574        1291.7929375171193     
   7292.8282112324414       -8.6051467656434397        1291.8208269278434     
   7256.6387277164713       -7.8740166234833850        1291.7065216793505     
   7220.2283234842644       -7.7555745435743120        1291.4783018129831     
   7183.6596362603887       -8.0410281107351693        1291.1644473700674     
   7146.9953037693358       -8.5215849098794934        1290.7932383918715     
   7110.2979637357239       -8.9884525256888992        1290.3929549197128     
   7073.6302538841364       -9.2328385428122601        1289.9918769949261     
   7037.0548119391215       -9.0459505461631124        1289.6182846588731     
   6719.7301457466483       -9.6407120351905178        1327.5372731187217     
   6686.3965618579550       -8.2197307966662265        1327.1333159187900     
   6652.8654895665113       -7.5936893199345832        1326.6574826695924     
   6619.1993253968949       -7.5545991896965461        1326.1409281753029     
   6585.4604658735761       -7.8944719911419270        1325.6148072400638     
   6551.7113075211000       -8.4053193089789602        1325.1102746680244     
   6518.0142468640233       -8.8791527280818627        1324.6584852632889     
   6484.4316804269238       -9.1079838332675536        1324.2905938301155     
   6451.0260047343318       -8.8838242093170265        1324.0377551725755     
   6110.3309096205303       -9.4359630740216289        1360.2503379224534     
   6079.5616893120168       -8.2042595216453265        1359.4242219568423     
   6048.7135128250657       -7.6408118543363344        1358.6062876533174     
   6017.8400166492738       -7.5668317732670403        1357.8266760054196     
   5986.9948372743538       -7.8035309795698140        1357.1155280067353     
   5956.2316111898654       -8.1721211745723394        1356.5029846508367     
   5925.6039748854791       -8.4938140594308607        1356.0191869313028     
   5895.1655648508713       -8.5898213353516439        1355.6942758417358     
   5864.9700175756179       -8.2813547034879775        1355.5583923756519     
   5500.4810253339629       -9.5601312805258658        1389.8901816344137     
   5472.3165741663279       -8.5608387692243468        1388.6913350319419     
   5444.2130510210281       -8.0063081681771564        1387.5805282635527     
   5416.2068135179370       -7.7753474111198102        1386.5829999388247     
   5388.3342192769433       -7.7467644318542170        1385.7239886673624     
   5360.6316259178693       -7.7993671641747824        1385.0287330587278     
   5333.1353910606476       -7.8119635417319842        1384.5224717225492     
   5305.8818723251143       -7.6633614984057203        1384.2304432684152     
   5278.9074273311799       -7.2323689678025858        1384.1778863058828     
   4890.1250902916754       -10.029837433448165        1416.4148539606995     
   4864.6541969926766       -9.2915743677433511        1414.9324451340049     
   4839.3943576834899       -8.6811022025806324        1413.6077961334031     
   4814.3561322794285       -8.1632212203496692        1412.4573546111001     
   4789.5500806956688       -7.7027317036872773        1411.4975682192801     
   4764.9867628474822       -7.2644339349942584        1410.7448846101404     
   4740.6767386501224       -6.8131281968894655        1410.2157514359126     
   4716.6305680188880       -6.3136147717389122        1409.9266163488128     
   4692.8588108689337       -5.7306939421655443        1409.8939270009728     
   9380.4867038592965       -5.4144854087794556        1122.9982687430913     
   9332.2365624129561       -4.9975878638774702        1122.6430249470443     
   9284.2520532980179       -4.7274345445857762        1122.4609728455448     
   9236.5553144647911       -4.5302322834254483        1122.4716623134357     
   9189.1684838634355       -4.3321879129730405        1122.6946432253312     
   9142.1136994442459       -4.0595082657441708        1123.1494654560179     
   9095.4130991573256       -3.6384001743667795        1123.8556788801422     
   9049.0888209530312       -2.9950704713546656        1124.8328333725460     
   9003.1630027815918       -2.0557259892411821        1126.1004788078394     
   8794.7723851502178       -6.9520011449194499        1168.9899728766761     
   8749.3399784105350       -6.4224319733170887        1168.5308557846040     
   8704.2831568962738       -5.7672588245450243        1168.2958545190370     
   8659.5851077081024       -5.0425246958861862        1168.2877161542822     
   8615.2290179468582       -4.3042725849959425        1168.5091877648119     
   8571.1980747133348       -3.6085454891231166        1168.9630164249731     
   8527.4754651082276       -3.0113864058757827        1169.6519492091702     
   8484.0443762323157       -2.5688383324454662        1170.5787331917556     
   8440.8879951864546       -2.3369442664493363        1171.7461154471980     
   8208.9485790151539       -8.0738659534113140        1212.0920835486688     
   8166.4670665186904       -7.4378411316265556        1211.6310629593402     
   8124.4081704852815       -6.4827307295736318        1211.3966769920962     
   8082.7261783702397       -5.3609098960441770        1211.3782742321328     
   8041.3753776289977       -4.2247537798311896        1211.5652032646426     
   8000.3100557168300       -3.2266375297149352        1211.9468126748443     
   7959.4845000892501       -2.5189362943951892        1212.5124510480266     
   7918.8529982014652       -2.2540252226162920        1213.2514669692919     
   7878.3698375089989       -2.5842794632226287        1214.1532090239132     
   7623.0358623221091       -8.7739067739776146        1252.3022907968207     
   7583.6083235011101       -8.0466663096394768        1251.9124001901519     
   7544.5972373277582       -6.8828072809346850        1251.7149840695588     
   7505.9380428160948       -5.4975329744083865        1251.6893968422828     
   7467.5661789801725       -4.1060466765193269        1251.8149929155131     
   7429.4170848340536       -2.9235516737739999        1252.0711266964768     
   7391.4261993918144       -2.1652512527693943        1252.4371525923241     
   7353.5289616673417       -2.0463486999974521        1252.8924250102614     
   7315.6608106748372       -2.7820473019955898        1253.4162983575536     
   7037.0548119391215       -9.0459505461631124        1289.6182846588731     
   7000.7542461213661       -8.2517584784095561        1289.3436211958290     
   6964.8205006862299       -6.9764454999522059        1289.2023195561294     
   6929.1802174104787       -5.4645390215232510        1289.1671442801426     
   6893.7600380708791       -3.9605664538344172        1289.2108599081705     
   6858.4866044442979       -2.7090552074996594        1289.3062309806148     
   6823.2865583074563       -1.9545326934717195        1289.4260220378424     
   6788.0865414369673       -1.9415263223877446        1289.5429976199168     
   6752.8131956099505       -2.9145635049058001        1289.6299222675859     
   6451.0260047343318       -8.8838242093170265        1324.0377551725755     
   6417.8953311431915       -8.0559686087703994        1323.8934796952865     
   6385.0481038232720       -6.7726024078497176        1323.8102272565266     
   6352.4122185182205       -5.2740731279336615        1323.7575768410159     
   6319.9155709714969       -3.8007282906132787        1323.7051074332705     
   6287.4860569267448       -2.5929154171781192        1323.6223980180441     
   6255.0515721275660       -1.8909820289909476        1323.4790275799674     
   6222.5400123174240       -1.9352756476459945        1323.2445751035727     
   6189.8792732400825       -2.9661437942363591        1322.8886195737537     
   5864.9700175756179       -8.2813547034879775        1355.5583923756519     
   5835.0220753302356       -7.4621476715201425        1355.5307294073873     
   5805.2501900015623       -6.2802350256961290        1355.4902509755091     
   5775.5935625041493       -4.9382803842502199        1355.4067548201785     
   5745.9913937524170       -3.6389473658457518        1355.2500386815213     
   5716.3828846607666       -2.5848995888993613        1354.9899002996060     
   5686.7072361437386       -1.9788006720023077        1354.5961374145606     
   5656.9036491155703       -2.0233142336162473        1354.0385477664145     
   5626.9113244909622       -2.9211038922549051        1353.2869290954227     
   5278.9074273311799       -7.2323689678025858        1384.1778863058828     
   5252.1249754461496       -6.4731466377475044        1384.2241240509959     
   5225.3969024837115       -5.5083003746992745        1384.1939345178455     
   5198.6837657332062       -4.4693058808356909        1384.0607385131284     
   5171.9461224840734       -3.4876388582451909        1383.7979568436385     
   5145.1445300256946       -2.6947750088329485        1383.3790103161202     
   5118.2395456473714       -2.2221900348645249        1382.7773197372287     
   5091.1917266384980       -2.2013596382946616        1381.9663059136826     
   5063.9616302884797       -2.7637595213036548        1380.9193896522536     
   4692.8588108689337       -5.7306939421655443        1409.8939270009728     
   4669.1945282545857       -5.0918164782119675        1409.9424173449838     
   4645.4583845321786       -4.4657554763082317        1409.8728216881550     
   4621.6423445701603       -3.8792947084480147        1409.6655882151204     
   4597.7383732368598       -3.3592179468053018        1409.3011651103200     
   4573.7384354006772       -2.9323089633844575        1408.7600005582972     
   4549.6344959299149       -2.6253515303399126        1408.0225427434837     
   4525.4185196930130       -2.4651294197346942        1407.0692398504884     
   4501.0824715583440       -2.4784264035713477        1405.8805400637439     
   5321.9817355883279        1596.5945206764984       -267.41833485277499     
   5347.4215045211631        1502.9620710987861       -65.535412749716386     
   5372.2711645976769        1403.4606274119938        117.48972419670152     
   5397.1796181368818        1300.2531973463290        282.93693293990492     
   5422.7957674578956        1195.5027886320304        432.08607043333012     
   5449.7685148797464        1091.3724089993148        566.21699363039920     
   5478.7467627215165        990.02506617841073        686.60955948454523     
   5510.3794133022420        893.62376789953748        794.54362494918223     
   5545.3153689410328        804.33152189291309        891.29904697774930     
   4689.3464519453446        1406.8039355836040       -303.04848479505739     
   4693.9944294722745        1319.0117992519267       -106.61507978473105     
   4701.9795008013525        1229.4300170147258        73.922918978935968     
   4713.6639496911876        1139.2662014005014        239.37563034890130     
   4729.4100599003241        1049.7279649377365        390.55317317813837     
   4749.5801151873093        962.02292015492685        528.26566631962021     
   4774.5363993106484        877.35867958052950        653.32322862629667     
   4804.6411960289042        796.94285574304183        766.53597895114024     
   4840.2567891006383        721.98306117093773        868.71403614711937     
   4043.6661274991420        1213.0998382497426       -334.59923820110504     
   4034.5452210114049        1133.4206596165063       -141.99692364837736     
   4031.2297261059603        1054.9678902071528        37.055126669885169     
   4033.8540240212651        978.18946748311282        202.95992589466812     
   4042.5524959956856        903.53332890578054        356.12048716692345     
   4057.4595232676907        831.44741193658274        496.93982362762659     
   4078.7094870756964        762.37965403694784        625.82094841775040     
   4106.4367686581081        696.77799266826537        743.16687467824943     
   4140.7757492533619        635.09036529195657        849.38061555009438     
   3386.8043535120491        1016.0413060536150       -361.86368950122409     
   3369.9419967011067        946.44908746128817       -171.74891579863990     
   3360.0734340554295        880.08972505245833        6.6120008310571983     
   3357.1638603337378        816.84720135614793        173.27760020530249     
   3361.1784702947184        756.60549890137509        328.30642214152675     
   3372.0824586970689        699.24860021715222        471.75700645715773     
   3389.8410202995301        644.66048783251836        603.68789296964133     
   3414.4193498607697        592.72514427646809        724.15762149639079     
   3445.7826421395193        543.32655207804260        833.22473185485444     
   2720.6247212464627        816.18741637393919       -384.63493312571961     
   2701.0528741038820        758.35751805502400       -195.93902769347707     
   2688.5622181936769        704.81099961380664       -17.680804976055459     
   2683.0074778353355        655.06360878162036        149.91643390892119     
   2684.2433773481935        608.63109328974474        306.62938784380418     
   2692.1246410516387        565.02920086947893        452.23475571095122     
   2706.5059932650684        523.77367925212616        586.50923639272344     
   2727.2421583078708        484.38027616897631        709.22952877147964     
   2754.1878604994463        446.36473935134057        820.17233172958572     
   2046.9908219647234        614.09724658941730       -402.70606350489163     
   2028.7459707821452        569.40638666643781       -214.63523079086428     
   2016.7476720646600        529.14719195439272       -36.097637189936513     
   2010.7988957327527        492.66289552154007        132.46420763364102     
   2010.7026117068940        459.29673043613332        290.60779401561604     
   2016.2617899075567        428.39192976640459        437.89061229173308     
   2027.2794002552200        399.29172658062896        573.87015279775005     
   2043.5584126703661        371.33935394702479        698.10390586941685     
   2064.9017970734590        343.87804493388484        810.14936184247688     
   1367.7662469292661        410.32987407877840       -415.87017506905613     
   1353.8894042984678        379.85612856430146       -227.90549654876108     
   1344.6813892122764        353.11378013738602       -48.912842249087362     
   1339.9521332326651        329.46926733791793        120.50870200757308     
   1339.5115679215846        308.28902870576388        279.76005039881409     
   1343.1696248410128        288.93950278080422        428.24211710225097     
   1350.7362355528928        270.78712810289892        565.35581629547414     
   1362.0213316192016        253.19834321195592        690.50206215609046     
   1376.8348446018986        235.53958664782581        803.08176886170406     
   684.81458740241715        205.44437622072513       -423.92036224851091     
   677.35129221529382        189.96717901734775       -235.81779642514300     
   672.41496318045733        176.72624222596406       -56.400766592004942     
   669.88120954175395        165.30692999274893        113.63769765882259     
   669.62564054303800        155.29460646386616        273.60456673525937     
   671.52386542817021        146.27463578552107        422.80681104522688     
   675.45149344098411        137.83238210383593        560.55140099663868     
   681.28413382534609        129.55320956502629        686.14530699741647     
   688.89739582509969        121.02248231524841        798.89549945547310     
  -5.6535343908210715E-004  -1.6960603172463213E-004  -426.64971947356167     
  -2.4790487288572471E-004  -2.6705671990480062E-005  -238.44010187797605     
  -1.2486868319509040E-005   5.6283303880808181E-005  -58.835756657185783     
   1.4386671802062568E-004   8.9248045987552061E-005   111.43897521550642     
   2.2412202766942816E-004   8.2075690566205621E-005   271.65975276680393     
   2.3124520633050098E-004   4.4653388162992994E-005   421.10223502339983     
   1.6820239721908748E-004  -1.3131717936416771E-005   559.04208101199617     
   3.7959739460659162E-005  -8.1392480666775516E-005   684.75494975927552     
  -1.5651662236332916E-004  -1.5024177284721170E-004   797.51650029195457     
   5545.3153689410328        804.33152189291309        891.29904697774930     
   5579.2573115635159        722.43535694230877        978.67867767819530     
   5607.3908512336402        646.49872895914109        1057.5863619515706     
   5629.5892824779230        576.09928636518498        1127.9534459409806     
   5645.7258998228899        510.81467758219469        1189.7112757895161     
   5655.6739977950801        450.22255103193925        1242.7911976402786     
   5659.3068709210302        393.90055513615289        1287.1245576363785     
   5656.4978137272565        341.42633831665080        1322.6427019209084     
   5647.1201207402837        292.37754899514744        1349.2769766369643     
   4840.2567891006383        721.98306117093773        868.71403614711937     
   4875.4035066525030        651.62381313204162        960.98042200484906     
   4903.8900171569003        584.30409671336793        1043.9739975010248     
   4925.7611148910910        520.17322617239665        1117.7786402678082     
   4941.0615941322731        459.38051576648763        1182.4782279373244     
   4949.8362491576390        402.07527975293578        1238.1566381416860     
   4952.1298742444551        348.40683238928818        1284.8977485130608     
   4947.9872636698938        298.52448793281451        1322.7854366835577     
   4937.4532117111985        252.57756064095179        1351.9035802853214     
   4140.7757492533619        635.09036529195657        849.38061555009438     
   4174.9356126295434        575.70607709446699        945.19130481335571     
   4202.1505011913796        517.09762871774024        1031.2034481284256     
   4222.5922341322057        459.83775080634439        1107.6331164567250     
   4236.4326306455014        404.49917400503193        1174.6963807597647     
   4243.8435099246044        351.65462895842711        1232.6093119989730     
   4244.9966911629372        301.87684631115212        1281.5879811358175     
   4240.0639935538848        255.73855670782746        1321.8484591317563     
   4229.2172362908332        213.81249079318286        1353.6068169482382     
   3445.7826421395193        543.32655207804260        833.22473185485444     
   3477.0816166311479        494.45054497055071        931.45021744430244     
   3501.6597758419175        444.72556672360292        1019.5746625397636     
   3519.7714890468787        394.99951492069818        1097.9259932723021     
   3531.6711255211271        346.12028714546511        1166.8321357730206     
   3537.6130545397068        298.93578098138278        1226.6210161729737     
   3537.8516453776911        254.29389401206436        1277.6205606032440     
   3532.6412673101286        213.04252382096081        1320.1586951949023     
   3522.2362896120831        176.02956799167953        1354.5633460790179     
   2754.1878604994463        446.36473935134057        820.17233172958572     
   2781.0695057937910        407.62561290122704        919.89605123825004     
   2801.9053136134553        367.03415248244107        1009.3875894410888     
   2816.9877284806862        325.56517316913005        1089.0663894790966     
   2826.6091949176775        284.19349003527429        1159.3518944932478     
   2831.0621574466772        243.89391815501028        1220.6635476245319     
   2830.6390605898941        205.64127260238297        1273.4207920139270     
   2825.6323488695421        170.41036845147539        1318.0430708024046     
   2816.3344668078444        139.17602077630886        1354.9498271309540     
   2064.9017970734590        343.87804493388484        810.14936184247688     
   2086.1272672539553        314.99967702738223        910.66769753576978     
   2102.3745870109228        283.86962774577529        1000.9421775384473     
   2113.9298012792283        251.44138020527788        1081.4634238416820     
   2121.0789549937140        218.66841752207011        1152.7220584366362     
   2124.1080930892722        186.50422281240867        1215.2087033145008     
   2123.3032605007602        155.90227919250549        1269.4139804664533     
   2118.9505021630648        127.81606977864453        1315.8285118836832     
   2111.3358630110147        103.19907768693724        1354.9429195573387     
   1376.8348446018986        235.53958664782581        803.08176886170406     
   1391.4828881481774        216.34113349008982        903.90404767746679     
   1402.5550685392391        195.07823426508500        994.53837553788196     
   1410.2865562881022        172.53479068286072        1075.5262151246141     
   1414.9125219077650        149.49470445339693        1147.4090291193440     
   1416.6681359112331        126.74187728671478        1210.7282802037284     
   1415.7885688115089        105.06021089282149        1266.0254310594330     
   1412.5089911216126        85.233606981765774        1313.8419443681414     
   1407.0645733545232        68.045967263525313        1354.7192828114887     
   688.89739582509969        121.02248231524841        798.89549945547310     
   696.36435561291728        111.41837843021642        899.74399300388745     
   701.93423070331005        100.50621379183005        990.47613214540775     
   705.74684235292284        88.752059255564035        1071.6638820924807     
   707.94201181838218        76.621985676829013        1143.8792080575543     
   708.65956035630018        64.582063911013080        1207.6940752530704     
   708.03930922333939        53.098364813654285        1263.6804488914624     
   706.22107967610009        42.636959240091187        1312.4102941851877     
   703.34469297123792        33.663918045834464        1354.4555763466917     
  -1.5651662236332916E-004  -1.5024177284721170E-004   797.51650029195457     
  -3.4321532241939377E-004  -1.9201128053873890E-004   898.32642485561803     
  -4.5399193462057966E-004  -1.9192250525292443E-004   989.05539606708123     
  -4.9168071574114515E-004  -1.5942294214959225E-004   1070.2855435098468     
  -4.5911591381132252E-004  -1.0396010801002244E-004   1142.5989967674323     
  -3.5913177530092107E-004  -3.4981498987167133E-005   1206.5778854233465     
  -1.9456257185665159E-004   3.8065329782511800E-005   1262.8043390611183     
   3.1757465798953358E-005   1.0573294023725654E-004   1311.8604872642463     
   3.1699407085369430E-004   1.5857377330814540E-004   1354.3284596162505     
   5647.1201207402837        292.37754899514744        1349.2769766369643     
   5633.9387450691293        247.23336788994493        1369.6573091047178     
   5619.7635207745789        206.62257889199941        1386.6869803236305     
   5604.5350638108594        170.34723518206170        1400.7073669557758     
   5588.1939901322157        138.20938994092694        1412.0598456632163     
   5570.6809156928566        110.01109634932345        1421.0857931080131     
   5551.9364564470416        85.554407588066852        1428.1265859522480     
   5531.9012283489828        64.641376837890220        1433.5236008579766     
   5510.5158473529291        47.074057279584167        1437.6182144872871     
   4937.4532117111985        252.57756064095179        1351.9035802853214     
   4923.8341612327959        211.58893283062253        1374.9512438933043     
   4910.2981904618237        176.12027136112670        1394.7456682802997     
   4896.6825467195831        145.62906730346845        1411.5479953752363     
   4882.8244773273445        119.57281172853595        1425.6193671070257     
   4868.5612296063809        97.408995707247641        1437.2209254045756     
   4853.7300508779845        78.595110310572863        1446.6138121968143     
   4838.1681884634299        62.588646609410262        1454.0591694126442     
   4821.7128896840068        48.847095674749880        1459.8181389809956     
   4229.2172362908332        213.81249079318286        1353.6068169482382     
   4215.9622116450491        177.46617119556004        1379.4779557266556     
   4203.5338548245581        147.16426366589576        1402.0604667364457     
   4191.6976994278757        122.12521353263219        1421.5459561311702     
   4180.2192790535428        101.56746612427855        1438.1260300644096     
   4168.8641273001213        84.709466769313622        1451.9922946897507     
   4157.3977777661521        70.769660796179778        1463.3363561607523     
   4145.5857640501808        58.966493533369203        1472.3498206310003     
   4133.1936197507257        48.518410309331557        1479.2242942540533     
   3522.2362896120831        176.02956799167953        1354.5633460790179     
   3510.0440523523353        144.78142979861491        1383.2563592927822     
   3499.1192992736082        119.64919142940971        1408.5294763433444     
   3489.1875051618990        99.717768837365156        1430.5154665667337     
   3479.9741448032228        84.072077975897855        1449.3470992990030     
   3471.2046929836060        71.797034798405775        1465.1571438761891     
   3462.6046244890526        61.977555258228222        1478.0783696343337     
   3453.8994141055559        53.698555308695859        1488.2435459094693     
   3444.8145366191429        46.044950903225526        1495.7854420376486     
   2816.3344668078444        139.17602077630886        1354.9498271309540     
   2805.8008394010913        113.45105545373781        1386.3053692797000     
   2796.7033092198621        93.469690274925483        1414.0507977523000     
   2788.7589471478577        78.288828185484590        1438.2707440250911     
   2781.6848240687673        66.965372131070126        1459.0498395743978     
   2775.1980108662765        58.556225057316624        1476.4727158765158     
   2769.0155784240919        52.118289909875671        1490.6240044077847     
   2762.8545976258615        46.708469634294488        1501.5883366444814     
   2756.4321393552955        41.383667176250356        1509.4503440629562     
   2111.3358630110147        103.19907768693724        1354.9429195573387     
   2102.9537288377660        83.391394974863715        1388.6439003754069     
   2095.9346700742267        68.520395825764922        1418.5225316146373     
   2090.0190086119715        57.720486544911410        1444.6260058494377     
   2084.9470663425905        50.126073437582363        1467.0015156542211     
   2080.4591651576320        44.871562808938506        1485.6962536033777     
   2076.2956269486949        41.091360964305750        1500.7574122713145     
   2072.1967736073593        37.919874208959641        1512.2321842324275     
   2067.9029270251940        34.491508848139574        1520.1677620611374     
   1407.0645733545232        68.045967263525313        1354.7192828114887     
   1401.2238767088456        54.518795176032029        1390.2908672679334     
   1396.4621672475807        44.695943705237369        1421.8427785816546     
   1392.5746727804417        37.894838883536011        1449.3954693829346     
   1389.3566211170746        33.432906743074113        1472.9693923020891     
   1386.6032400671581        30.627573316116695        1492.5849999694112     
   1384.1097574403861        28.796264634955151        1508.2627450152056     
   1381.6714010463929        27.256406731716538        1520.0230800697639     
   1379.0833986948885        25.325425638782178        1527.8864577633715     
   703.34469297123792        33.663918045834464        1354.4555763466917     
   700.33243906072346        26.749602870989634        1391.2651846452795     
   697.93458615079965        21.890969536560846        1423.9096393046323     
   696.03292287944851        18.693980169158579        1452.3933519687448     
   694.50923788463137        16.764596895315862        1476.7207342816218     
   693.24531980432710        15.708781841640985        1496.8961978872740     
   692.12295727654782        15.132497134837251        1512.9241544296840     
   691.02393893924852        14.641704901394519        1524.8090155528837     
   689.83005343040020        13.842367267931706        1532.5551929008445     
   3.1699407085369430E-004   1.5857377330814540E-004   1354.3284596162505     
   5.7193990075009261E-004   1.6487383558316438E-004   1391.5857671954680     
   7.1219477938238511E-004   1.0894301687511019E-004   1424.6212144348933     
   7.4213519115791306E-004   5.3696185595582247E-006   1453.4338709500453     
   6.6613764924979186E-004  -1.3125800585985739E-004   1478.0228063564357     
   4.8857863149166314E-004  -2.8635157241175949E-004   1498.3870902695751     
   2.1383465372839009E-004  -4.4532271873838636E-004   1514.5257923049926     
  -1.5371779911533943E-004  -5.9358315382943580E-004   1526.4379820781905     
  -6.0970222618179643E-004  -7.1654454759552009E-004   1534.1227292047120     
   5510.5158473529291        47.074057279584167        1437.6182144872871     
   5488.2385546463256        32.770409086747577        1440.9438989720306     
   5465.4756609853066        21.475290995117803        1443.7390564475591     
   5442.0898866770585        12.731104028678146        1445.9024585810685     
   5417.9439520287460        6.0802492113703011        1447.3328770397586     
   5392.9005773475756        1.0651275671455096        1447.9290834908666     
   5366.8224829407336       -2.7718598800640848        1447.5898496015886     
   5339.5723891154012       -5.8883121062647206        1446.2139470391394     
   5311.0130161787674       -8.7418280875374421        1443.7001474707329     
   4821.7128896840068        48.847095674749880        1459.8181389809956     
   4804.2213040645211        36.894222878071787        1464.3818482911483     
   4785.6301024128679        26.518864534458544        1468.0392172534098     
   4765.8958139747665        17.576118129688894        1470.7480765781513     
   4744.9749679960032        9.9210811496991482        1472.4662569757309     
   4722.8240937223118        3.4088510802610017        1473.1515891565512     
   4699.3997203995159       -2.1054745925669067        1472.7619038309915     
   4674.6583772733620       -6.7667983829569494        1471.2550317094340     
   4648.5565935895984       -10.720022805030794        1468.5888035022415     
   4133.1936197507257        48.518410309331557        1479.2242942540533     
   4119.6858549091612        38.686462260354574        1484.5155628311445     
   4104.7022492921315        29.315932940167386        1488.6576837148036     
   4088.2712410859972        20.501616303416085        1491.6596703855016     
   4070.4212684771301        12.338306304736989        1493.5305363237280     
   4051.1807696519718        4.9207968988291668        1494.2792950100231     
   4030.5781827969008       -1.6561179597356386        1493.9149599248465     
   4008.6419460983225       -7.2976443162799569        1492.4465445487222     
   3985.4004977425707       -11.908988216255011        1489.8830623621177     
   3444.8145366191429        46.044950903225526        1495.7854420376486     
   3434.6037787228061        38.138598696254348        1501.4002650234390     
   3422.7562420048926        29.885738326781620        1505.7305889657528     
   3409.3503735944810        21.547860225024806        1508.8287338421492     
   3394.4646206206098        13.386454821179768        1510.7470196302074     
   3378.1774302123781        5.6630125454862537        1511.5377663075003     
   3360.5672494988212       -1.3609761718571463        1511.2532938515453     
   3341.7125256090053       -7.4240209006641180        1509.9459222399441     
   3321.6917056719890       -12.264631210743801        1507.6679714502609     
   2756.4321393552955        41.383667176250356        1509.4503440629562     
   2748.9466470480002        35.242103648572311        1515.0911772994350     
   2739.8562209329784        28.247522808845474        1519.3940661403108     
   2729.2674170840055        20.755111569599535        1522.4467607871698     
   2717.2867915748416        13.120056843430120        1524.3370114415773     
   2704.0209004793110        5.6975455430056172        1525.1525683051682     
   2689.5762998711502       -1.1572354191705472        1524.9811815794640     
   2674.0595458241551       -7.0890991304227100        1523.9106014660556     
   2657.5771944120925       -11.742858678231187        1522.0285781665539     
   2067.9029270251940        34.491508848139574        1520.1677620611374     
   2062.6860314273181        29.988448580098634        1525.6435220905350     
   2056.0663264581776        24.420528500853152        1529.7842483724996     
   2048.1565771383348        18.163632012302514        1532.7052450595772     
   2039.0695484882754        11.593642516063596        1534.5218163043080     
   2028.9180055285976        5.0864434140958110        1535.3492662592689     
   2017.8147132798053      -0.98208189190006578        1535.3028990769710     
   2005.8724367624563       -6.2360500000648926        1534.4980189099845     
   1993.2039409970748       -10.299577508633206        1533.0499299108540     
   1379.0833986948885        25.325425638782178        1527.8864577633715     
   1375.7935034033362        22.369104953616954        1533.1125218281659     
   1371.4506989623208        18.423997517452563        1537.0372687963702     
   1366.1520593412226        13.813683228219702        1539.7956804984328     
   1359.9946585093542        8.8617419836327826        1541.5227387648315     
   1353.0755704360622        3.8917536815163203        1542.3534254260226     
   1345.4918690907516      -0.77270178014481417        1542.4227223125024     
   1337.3406284426781       -4.8080445038025346        1541.8656112546912     
   1328.7189224612446       -7.8906945914456514        1540.8170740830708     
   689.83005343040020        13.842367267931706        1532.5551929008445     
   688.24063451858831        12.375544231817344        1537.5533989437340     
   686.07347882721001        10.277171973145499        1541.2892605459460     
   683.38806927644418        7.7455268925198482        1543.9095609427752     
   680.24388878650404        4.9788853906461270        1545.5610833695778     
   676.70042027757336        2.1755238681536468        1546.3906110616865     
   672.81714666984578      -0.46628127432103383        1546.5449272544167     
   668.65355088353670       -2.7482536360877532        1546.1708151831158     
   664.26911583885396       -4.4721168163932532        1545.4150580830883     
  -6.0970222618179643E-004  -7.1654454759552009E-004   1534.1227292047120     
  -1.0036843100200022E-003  -7.6212238291947657E-004   1539.0213758686446     
  -1.1935653399599742E-003  -7.0601752873017149E-004   1542.6763567552480     
  -1.1874722203525753E-003  -5.7531963741126279E-004   1545.2383802316517     
  -9.9353184550524153E-004  -3.9711838957599203E-004   1546.8581546649839     
  -6.1987112962819265E-004  -1.9850346410324837E-004   1547.6863884224217     
  -7.4616976703127831E-005  -6.5645756115773473E-006   1547.8737898711004     
   6.3410372446869338E-004   1.5160865811616900E-004   1547.5710673781557     
   1.4981640554196562E-003   2.4892649929550220E-004   1546.9289293107597     
   5311.0130161787674       -8.7418280875374421        1443.7001474707329     
   5281.9952639721214       -11.422579315229768        1440.6107773750134     
   5253.4636239294123       -13.708765305124871        1437.6139782333539     
   5225.4212037469315       -15.590027069714779        1434.7672442171008     
   5197.8711111208268       -17.056005621725944        1432.1280694975269     
   5170.8164537473149       -18.096341973736116        1429.7539482459181     
   5144.2603393226736       -18.700677138346009        1427.7023746336463     
   5118.2058755430580       -18.858652128184985        1426.0308428319443     
   5092.6561701047240       -18.559907955830795        1424.7968470121580     
   4648.5565935895984       -10.720022805030794        1468.5888035022415     
   4622.1790631337490       -13.774431865685528        1465.4078836996221     
   4596.6067466962850       -15.751752888591682        1462.4057507531638     
   4571.7905740304186       -16.815553363089293        1459.6134563153519     
   4547.6814748891784       -17.129400779015214        1457.0620520385855     
   4524.2303790257010       -16.856862625924805        1454.7825895753222     
   4501.3882161932479       -16.161506393028731        1452.8061205780418     
   4479.1059161448238       -15.206899570227961        1451.1636966991539     
   4457.3344086336019       -14.156609646949846        1449.8863695911014     
   3985.4004977425707       -11.908988216255011        1489.8830623621177     
   3962.0425430529995       -15.105358257112130        1486.8710848583248     
   3939.6801947903114       -16.757271578542486        1484.0565997806634     
   3918.2270022969151       -17.152897039077061        1481.4477449846561     
   3897.5965149153240       -16.580403496975805        1479.0526583258456     
   3877.7022819880194       -15.327959810650327        1476.8794776598058     
   3858.4578528574943       -13.683734838582950        1474.9363408420816     
   3839.7767768662025       -11.935897439219843        1473.2313857282224     
   3821.5726033566352       -10.372616470829598        1471.7727501737540     
   3321.6917056719890       -12.264631210743801        1507.6679714502609     
   3301.6840169923848       -15.385864510761849        1505.0088958630633     
   3282.7436997648674       -16.707401909204236        1502.5157717276104     
   3264.7617204536327       -16.592688525419362        1500.1773518244845     
   3247.6290455229864       -15.405169478338848        1497.9823889343359     
   3231.2366414371445       -13.508289887310184        1495.9196358377551     
   3215.4754746603435       -11.265494871516239        1493.9778453153476     
   3200.2365116568353       -9.0402295501116896        1492.1457701477311     
   3185.4107188908492       -7.1959390423362493        1490.4121631155174     
   2657.5771944120925       -11.742858678231187        1522.0285781665539     
   2641.2017982143716       -14.586456647916862        1519.8298317257465     
   2625.8569931734592       -15.584224414536152        1517.7325130058073     
   2611.4259604078284       -15.125558249918868        1515.7095184343791     
   2597.7918810358424       -13.599854426112529        1513.7337444390596     
   2584.8379361759717       -11.396509214928187        1511.7780874475191     
   2572.4473069466480       -8.9049188882836461        1509.8154438873826     
   2560.5031744662756       -6.5144797181169452        1507.8187101862584     
   2548.8887198532730       -4.6145879763404309        1505.7607827717709     
   1993.2039409970748       -10.299577508633206        1533.0499299108540     
   1980.6941999814467       -12.677640689832629        1531.3424074583033     
   1969.0798065696279       -13.369819628323739        1529.6560700270775     
   1958.2509540666590       -12.742136640584931        1527.9514864137921     
   1948.0978357775825       -11.160614043163378        1526.1892254150507     
   1938.5106450074486       -8.9912741525814681        1524.3298558274921     
   1929.3795750612389       -6.6001392855745280        1522.3339464477049     
   1920.5948192440699       -4.3532317583847089        1520.1620660723027     
   1912.0465708608940       -2.6165738878266893        1517.7747834978888     
   1328.7189224612446       -7.8906945914456514        1540.8170740830708     
   1320.2595355561573       -9.6299226576381329        1539.5551380726749     
   1312.4718715068361       -10.046268084536052        1538.2356892032242     
   1305.2679333373962       -9.4330541250865281        1536.8104973622535     
   1298.5597240719253       -8.0836040323398493        1535.2313324373540     
   1292.2592467344450       -6.2912410595375263        1533.4499643160377     
   1286.2785043490640       -4.3492884596946055        1531.4181628859105     
   1280.5294999398225       -2.5510694859847831        1529.0876980344908     
   1274.9242365308094       -1.1899073914345308        1526.4103396493160     
   664.26911583885396       -4.4721168163932532        1545.4150580830883     
   659.99611820093321       -5.4138085727636565        1544.4765385807693     
   656.09291953854733       -5.5956503172334919        1543.4206169460172     
   652.50813012727008       -5.1889411312199343        1542.1937928792577     
   649.19036024254194       -4.3649800965864074        1540.7425660809586     
   646.08822015990643       -3.2950662948325373        1539.0134362515703     
   643.15032015495535       -2.1504988073353672        1536.9529030915428     
   640.32527050310875       -1.1025767160639646        1534.5074663013404     
   637.56168147996038      -0.32259910229373645        1531.6236255813862     
   1.4981640554196562E-003   2.4892649929550220E-004   1546.9289293107597     
   2.2611783085769487E-003   1.9554362889918214E-004   1546.1151239945414     
   2.6822182981013931E-003  -4.6860247300189138E-005   1545.1600996672694     
   2.7763434439198667E-003  -4.2808701953542022E-004   1544.0086145643047     
   2.5586131340809806E-003  -8.9793877446290129E-004   1542.6054269209137     
   2.0440867649233292E-003  -1.4062174813566392E-003   1540.8952949724053     
   1.2478237436974759E-003  -1.9027251549669400E-003   1538.8229769541538     
   1.8488347523660977E-004  -2.3372637646661520E-003   1536.3332311014008     
  -1.1296746411867101E-003  -2.6596353280578435E-003   1533.3708156495152     
   5092.6561701047240       -18.559907955830795        1424.7968470121580     
   5067.3832264280036       -17.876193387673311        1423.8442387353430     
   5042.1421998396672       -16.935417501997563        1422.9500169255530     
   5016.9109258955323       -15.811461779409683        1422.0713967986239     
   4991.6672401514079       -14.578207700510575        1421.1655935703529     
   4966.3889781631333       -13.309536745875221        1420.1898224566175     
   4941.0539754865367       -12.079330396114301        1419.1012986732119     
   4915.6400676774447       -10.961470131753003        1417.8572374359549     
   4890.1250902916754       -10.029837433448165        1416.4148539606995     
   4457.3344086336019       -14.156609646949846        1449.8863695911014     
   4435.6958830728963       -13.240851570996711        1448.8108551770420     
   4413.8546932414456       -12.549292405414008        1447.7351982812449     
   4391.8250154404441       -12.034677812839163        1446.6324439078639     
   4369.6210259710442       -11.649753456114013        1445.4756370610662     
   4347.2569011344931       -11.347264997743878        1444.2378227450247     
   4324.7468172319805       -11.079958100457361        1442.8920459638816     
   4302.1049505647034       -10.800578426942820        1441.4113517218282     
   4279.3454774338561       -10.461871639812216        1439.7687850230025     
   3821.5726033566352       -10.372616470829598        1471.7727501737540     
   3803.3847974680921       -9.3298908203457813        1470.4371245688992     
   3784.8377411300867       -8.8606634074731119        1469.0869467287960     
   3765.9723588702232       -8.8285191400361782        1467.7089756462676     
   3746.8295752162048       -9.0970429256440184        1466.2899703142402     
   3727.4503146957554       -9.5298196719791122        1464.8166897256795     
   3707.8755018365341       -9.9904342869272114        1463.2758928734102     
   3688.1460611662369       -10.342471678120319        1461.6543387503787     
   3668.3029172125043       -10.449516753331864        1459.9387863494601     
   3185.4107188908492       -7.1959390423362493        1490.4121631155174     
   3170.5138633585402       -6.1241430124130147        1488.7265716510417     
   3155.1731212366958       -5.8449971891152472        1487.0449461209280     
   3139.4465727605921       -6.1649007881974285        1485.3656437072023     
   3123.3922981654514       -6.8902530255134025        1483.6870215919218     
   3107.0683776866172       -7.8274531166889574        1482.0074369571214     
   3090.5328915592886       -8.7829002776645666        1480.3252469848146     
   3073.8439200187186       -9.5629937242784990        1478.6388088570443     
   3057.0595433001827       -9.9741326722870554        1476.9464797558658     
   2548.8887198532730       -4.6145879763404309        1505.7607827717709     
   2537.1469744892020       -3.6044400236619367        1503.6827211635627     
   2524.9426112925485       -3.4777604308276295        1501.6488803104746     
   2512.3412736872679       -4.0157377847419866        1499.6670997840956     
   2499.4086050973197       -4.9995606721546437        1497.7452191560221     
   2486.2102489466206       -6.2104176800330606        1495.8910779978153     
   2472.8118486591379       -7.4294973951743941        1494.1125158810296     
   2459.2790476587720       -8.4379884045237077        1492.4173723772342     
   2445.6774893694942       -9.0170792948539429        1490.8134870580072     
   1912.0465708608940       -2.6165738878266893        1517.7747834978888     
   1903.3480246050526       -1.7516137305534585        1515.3090978465552     
   1894.2279890288592       -1.7344198132459496        1512.9384331502063     
   1884.7500782260436       -2.3529451567687829        1510.6779955703641     
   1874.9779062903476       -3.3951427819962419        1508.5429912685654     
   1864.9750873154669       -4.6489657099724582        1506.5486264062854     
   1854.8052353951143       -5.9023669616357211        1504.7101071450215     
   1844.5319646230930       -6.9432995576729581        1503.0426396463322     
   1834.2188890930456       -7.5597165191973090        1501.5614300716638     
   1274.9242365308094       -1.1899073914345308        1526.4103396493160     
   1269.1809074511202      -0.54649600948454236        1523.6092264401568     
   1263.1110321768217      -0.59044201700214671        1520.9532884929160     
   1256.7666029526163       -1.1484379316428317        1518.4629827593994     
   1250.1996120230435       -2.0471762715956743        1516.1587661914944     
   1243.4620516327193       -3.1133495548185124        1514.0610957410261     
   1236.6059140262830       -4.1736502991990960        1512.1904283598546     
   1229.6831914482980       -5.0547710228544247        1510.5672209997788     
   1222.7458761433998       -5.5834042436308664        1509.2119306126640     
   637.56168147996038      -0.32259910229373645        1531.6236255813862     
   634.70951677227924        3.0081262743294701E-002   1528.5866316844476     
   631.67351846767247       -2.1293722692348638E-002   1525.7331301913423     
   628.48446444274634      -0.37413113657106578        1523.0867130446036     
   625.17313257398087      -0.92583805728145308        1520.6709721868206     
   621.77030073805281       -1.5738215625582370        1518.5094995605887     
   618.30674681156734       -2.2154887303888984        1516.6258871084565     
   614.81324867106150       -2.7482466390283378        1515.0437267729833     
   611.32058419316070       -3.0695023663146515        1513.7866104967752     
  -1.1296746411867101E-003  -2.6596353280578435E-003   1533.3708156495152     
  -2.2536863936028469E-003  -2.7137900795666794E-003   1530.2448383195767     
  -2.7743673696952217E-003  -2.4416109764924944E-003   1527.3176420983020     
  -2.7207279008263996E-003  -1.9397990757315658E-003   1524.6138381193821     
  -2.1217783081928046E-003  -1.3050555056758474E-003   1522.1580375165013     
  -1.0065289146924882E-003  -6.3408127680860370E-004   1519.9748514234120     
   5.9600995365411671E-004  -2.3577538523539884E-005   1518.0888909737873     
   2.6568279976004719E-003   4.2975473345607205E-004   1516.5247673013218     
   5.1469148824746652E-003   6.2921441244195289E-004   1515.3070915397625     
   4890.1250902916754       -10.029837433448165        1416.4148539606995     
   4864.6541969926766       -9.2915743677433511        1414.9324451340049     
   4839.3943576834899       -8.6811022025806324        1413.6077961334031     
   4814.3561322794285       -8.1632212203496692        1412.4573546111001     
   4789.5500806956688       -7.7027317036872773        1411.4975682192801     
   4764.9867628474822       -7.2644339349942584        1410.7448846101404     
   4740.6767386501224       -6.8131281968894655        1410.2157514359126     
   4716.6305680188880       -6.3136147717389122        1409.9266163488128     
   4692.8588108689337       -5.7306939421655443        1409.8939270009728     
   4279.3454774338561       -10.461871639812216        1439.7687850230025     
   4256.7051380993125       -9.9650213216148131        1438.1341134713120     
   4234.4006194923577       -9.2780554834339455        1436.6993342731732     
   4212.4160179214168       -8.4539864304877028        1435.4708368365602     
   4190.7354296948160       -7.5458264683616108        1434.4550105694248     
   4169.3429511210179       -6.6065879022346508        1433.6582448797253     
   4148.2226785083631       -5.6892830375500125        1433.0869291754123     
   4127.3587081652513       -4.8469241797308769        1432.7474528644602     
   4106.7351364000997       -4.1325236340435367        1432.6462053548332     
   3668.3029172125043       -10.449516753331864        1459.9387863494601     
   3648.6330964286412       -10.139799044900883        1458.2771946552150     
   3629.3728887374673       -9.4106698535433679        1456.8248067658942     
   3610.4871138708936       -8.3793967393498860        1455.5793078448755     
   3591.9405915608604       -7.1632472626040453        1454.5383830556079     
   3573.6981415393175       -5.8794889835287449        1453.6997175615188     
   3555.7245835382087       -4.6453894622891312        1453.0609965260292     
   3537.9847372894819       -3.5782162591231099        1452.6199051125448     
   3520.4434225250384       -2.7952369341887788        1452.3741284845005     
   3057.0595433001827       -9.9741326722870554        1476.9464797558658     
   3040.4807305036306       -9.8031099807201372        1475.3509187802667     
   3024.3382173626974       -9.0708297297356921        1473.9494368536189     
   3008.5847340632909       -7.9348579662381553        1472.7323688945198     
   2993.1730107913268       -6.5527607372434886        1471.6900498215316     
   2978.0557777326389       -5.0821040898720184        1470.8128145532498     
   2963.1857650732022       -3.6804540709989624        1470.0909980082658     
   2948.5157029988486       -2.5053767277807992        1469.5149351051364     
   2933.9983216954543       -1.7144381072358783        1469.0749607624514     
   2445.6774893694942       -9.0170792948539429        1490.8134870580072     
   2432.2906988472055       -8.9421565722698233        1489.3445159410289     
   2419.3236573119339       -8.2504195290071038        1488.0384477785237     
   2406.7241924340360       -7.1157759305864374        1486.8796212439800     
   2394.4401318837372       -5.7121335429625333        1485.8523750108513     
   2382.4193033312263       -4.2134001320653169        1484.9410477525489     
   2370.6095344468035       -2.7934834636715777        1484.1299781425334     
   2358.9586529006956       -1.6262913035213842        1483.4035048542316     
   2347.4144863631755      -0.88573141755614415        1482.7459665611548     
   1834.2188890930456       -7.5597165191973090        1501.5614300716638     
   1824.1056599823169       -7.5441412625773410        1500.2472162320314     
   1814.3562605291738       -6.9413236678641397        1499.0570627827265     
   1804.9208029186191       -5.9175564515704764        1497.9706661517773     
   1795.7493993356341       -4.6391323305276728        1496.9677227672184     
   1786.7921619652309       -3.2723440212383821        1496.0279290570545     
   1777.9992029924790       -1.9834842402573258        1495.1309814492706     
   1769.3206346023849      -0.93884570417878876        1494.2565763719640     
   1760.7065689800115      -0.30472112948700669        1493.3844102531164     
   1222.7458761433998       -5.5834042436308664        1509.2119306126640     
   1215.9682724320000       -5.5962664946847553        1508.0482497478456     
   1209.4630789582716       -5.1354265632899683        1506.9705051083333     
   1203.1898794523902       -4.3356053488329849        1505.9551048764079     
   1197.1082576445765       -3.3315237506261610        1504.9784572343440     
   1191.1777972649766       -2.2579026680686525        1504.0169703644476     
   1185.3580820438249       -1.2494630005359681        1503.0470524490515     
   1179.6086957112991      -0.44092564735780115        1502.0451116703780     
   1173.8892219975924        3.2988492112281165E-002   1500.9875562107723     
   611.32058419316070       -3.0695023663146515        1513.7866104967752     
   607.92119471913475       -3.0857347118157179        1512.7368465830109     
   604.67116454308371       -2.8246126322291900        1511.7439979974620     
   601.54673597082376       -2.3653284415794644        1510.7825386763261     
   598.52415130808379       -1.7870744540224166        1509.8269425558985     
   595.57965286064382       -1.1690429837028375        1508.8516835724465     
   592.68948293426388      -0.59042634464481125        1507.8312356622419     
   589.82988383471866      -0.13041685101120493        1506.7400727615436     
   586.97709786783662       0.13179318323716416        1505.5526688066320     
   5.1469148824746652E-003   6.2921441244195289E-004   1515.3070915397625     
   7.0853667049925288E-003   2.5164298360999928E-004   1514.3022368321022     
   7.5692275868491903E-003  -7.6629133712348939E-004   1513.3427646922046     
   6.6864093582461922E-003  -2.1315491842439317E-003   1512.4025688100496     
   4.5248237043866747E-003  -3.5510915107903624E-003   1511.4555428755461     
   1.1723824376977956E-003  -4.7318790192642651E-003   1510.4755805786424     
  -3.2830027266819994E-003  -5.3808726129647572E-003   1509.4365756093164     
  -8.7534199765157625E-003  -5.2050329477539682E-003   1508.3124216575147     
  -1.5150957587162239E-002  -3.9113209235032195E-003   1507.0770124131484     
   4692.8588108689337       -5.7306939421655443        1409.8939270009728     
   4669.1945282545857       -5.0918164782119675        1409.9424173449838     
   4645.4583845321786       -4.4657554763082317        1409.8728216881550     
   4621.6423445701603       -3.8792947084480147        1409.6655882151204     
   4597.7383732368598       -3.3592179468053018        1409.3011651103200     
   4573.7384354006772       -2.9323089633844575        1408.7600005582972     
   4549.6344959299149       -2.6253515303399126        1408.0225427434837     
   4525.4185196930130       -2.4651294197346942        1407.0692398504884     
   4501.0824715583440       -2.4784264035713477        1405.8805400637439     
   4106.7351364000997       -4.1325236340435367        1432.6462053548332     
   4086.1301901994834       -3.6406998356542317        1432.6078848358850     
   4065.3486741327142       -3.3774792772055662        1432.4453408846755     
   4044.4145508821566       -3.2629863509098413        1432.1471899909031     
   4023.3517831301865       -3.2173454488531661        1431.7020486440738     
   4002.1843335592339       -3.1606809629031432        1431.0985333339022     
   3980.9361648516292       -3.0131172852793497        1430.3252605499024     
   3959.6312396897797       -2.6947788078448411        1429.3708467816925     
   3938.2935207561291       -2.1257899227648522        1428.2239085189478     
   3520.4434225250384       -2.7952369341887788        1452.3741284845005     
   3502.8528119304719       -2.4359210907286979        1452.1786893059098     
   3485.0199248783028       -2.4569160421667675        1451.8872616907076     
   3466.9918511309083       -2.7012559139232053        1451.4955079770323     
   3448.8156804506502       -3.0119748314098160        1450.9990905030259     
   3430.5385025998103       -3.2321069202655508        1450.3936716068281     
   3412.2074073408749       -3.2046863058610597        1449.6749136266865     
   3393.8694844360234       -2.7727471136945496        1448.8384789006188     
   3375.5718236477346       -1.7793234694283910        1447.8800297668533     
   2933.9983216954543       -1.7144381072358783        1469.0749607624514     
   2919.3849815196500       -1.4707038221270068        1468.6774153275869     
   2904.4994534428274       -1.6958707690178016        1468.2361396889478     
   2889.4030835733342       -2.1854519202130405        1467.7527195767664     
   2874.1572180193862       -2.7349602481906459        1467.2287407211184     
   2858.8232028892721       -3.1399087253593052        1466.6657888521972     
   2843.4623842913106       -3.1958103241604476        1466.0654497002311     
   2828.1361083336906       -2.6981780169202239        1465.4293089952846     
   2812.9057211247509       -1.4425247761422497        1464.7589524675948     
   2347.4144863631755      -0.88573141755614415        1482.7459665611548     
   2335.7492870391702      -0.73827160804387404        1482.1266474732956     
   2323.8145765001500       -1.0861484555499601        1481.5295304621202     
   2311.6770864662080       -1.7069228929242399        1480.9610021932647     
   2299.4035486575444       -2.3781558529354925        1480.4274493323612     
   2287.0606947943384       -2.8774082682862172        1479.9352585450954     
   2274.7152565967658       -2.9822410719415302        1479.4908164971384     
   2262.4339657847881       -2.4702151966747579        1479.1005098538958     
   2250.2835540788201       -1.1188915753789388        1478.7707252812897     
   1760.7065689800115      -0.30472112948700669        1493.3844102531164     
   1751.9683165611930      -0.23184802689104345        1492.5489703154569     
   1742.9926107239869      -0.61955409982226683        1491.8049895927934     
   1733.8426980663667       -1.2570173549567016        1491.1625332297224     
   1724.5818251863120       -1.9334157990657559        1490.6316663707837     
   1715.2732386817668       -2.4379274389675629        1490.2224541605519     
   1705.9801851508339       -2.5597302812102498        1489.9449617436167     
   1696.7659111913397       -2.0880023326183164        1489.8092542645034     
   1687.6936634014255      -0.81192159971249112        1489.8253968679192     
   1173.8892219975924        3.2988492112281165E-002   1500.9875562107723     
   1168.0646581578596        5.5343343062133954E-002   1499.9669684265039     
   1162.0608727882714      -0.28789269944434182        1499.1000726636955     
   1155.9287566306491      -0.82708382928984747        1498.3994900893060     
   1149.7192004267965       -1.3925942404920306        1497.8778418703512     
   1143.4830949184066       -1.8147881273230837        1497.5477491736890     
   1137.2713308473537       -1.9240296837740516        1497.4218331663856     
   1131.1347989553010       -1.5506831038857740        1497.5127150152691     
   1125.1243899841838      -0.52511258158733654        1497.8330158874587     
   586.97709786783662       0.13179318323716416        1505.5526688066320     
   584.06089990131375       0.13007892333118320        1504.4032263789120     
   581.04667936689646       -8.2969252258294546E-002   1503.4523352575384     
   577.96410041596380      -0.40847083872037615        1502.7140501753152     
   574.84282720018439      -0.74754533077032193        1502.2024258650642     
   571.71252387102982       -1.0013122233808360        1501.9315170596010     
   568.60285458003318       -1.0708910114422281        1501.9153784917487     
   565.54348347869063      -0.85740118993857095        1502.1680648942627     
   562.56407471851912      -0.26196225377691462        1502.7036309999287     
  -1.5150957587162239E-002  -3.9113209235032195E-003   1507.0770124131484     
  -2.0370136283352144E-002  -8.6486426998246164E-004   1505.8803287450914     
  -2.2652866478786650E-002   3.4112436494145035E-003   1504.8993329569266     
  -2.2432320891731194E-002   7.4730936930700684E-003   1504.1483908908599     
  -2.0141672359827008E-002   9.8767765021035500E-003   1503.6418683889581     
  -1.6214093577254927E-002   9.1783829883786573E-003   1503.3941312933534     
  -1.1082757429266343E-002   3.9340037523528694E-003   1503.4195454461424     
  -5.1808366020609370E-003  -7.3002703700146034E-003   1503.7324766894747     
   1.0584961215369081E-003  -2.5968348564828461E-002   1504.3472908654612     
  -5.6535343908210715E-004  -1.6960603172463213E-004  -426.64971947356167     
  -2.4790487288572471E-004  -2.6705671990480062E-005  -238.44010187797605     
  -1.2486868319509040E-005   5.6283303880808181E-005  -58.835756657185783     
   1.4386671802062568E-004   8.9248045987552061E-005   111.43897521550642     
   2.2412202766942816E-004   8.2075690566205621E-005   271.65975276680393     
   2.3124520633050098E-004   4.4653388162992994E-005   421.10223502339983     
   1.6820239721908748E-004  -1.3131717936416771E-005   559.04208101199617     
   3.7959739460659162E-005  -8.1392480666775516E-005   684.75494975927552     
  -1.5651662236332916E-004  -1.5024177284721170E-004   797.51650029195457     
  -684.81562833692169       -205.44468850107575       -423.92031022286500     
  -677.35175292186341       -189.96722474621848       -235.81773339512094     
  -672.41499443174848       -176.72613511262182       -56.400717378869132     
  -669.88095636011985       -165.30676457875310        113.63771663743265     
  -669.62524220051739       -155.29445812308421        273.60454746532241     
  -671.52345544647778       -146.27456072406454        422.80675391634247     
  -675.45119959154351       -137.83241736017902        560.55131480202783     
  -681.28407812925605       -129.55337300988896        686.14520893391978     
  -688.89769455315150       -121.02277265164810        798.89541512355868     
  -1367.7670515906527       -410.33011547719582       -415.87007416850184     
  -1353.8897728790494       -379.85615520081444       -227.90538372202332     
  -1344.6814372760925       -353.11368877780734       -48.912758358961128     
  -1339.9519711393639       -329.46913740009120        120.50873046073511     
  -1339.5113008264225       -308.28892225957645        279.76001127710094     
  -1343.1693526948534       -288.93946454817166        428.24201263019086     
  -1350.7360531022214       -270.78718545778020        565.35566306004546     
  -1362.0213284061119       -253.19850618034226        690.50189110671090     
  -1376.8351049640853       -235.53984790774183        803.08162531022504     
  -2046.9912934182325       -614.09738802546940       -402.70592003089490     
  -2028.7462099892555       -569.40638873330738       -214.63508270302361     
  -2016.7477444457575       -529.14712574000941       -36.097533037457950     
  -2010.7988624137083       -492.66281779877363        132.46423717801483     
  -2010.7025295190610       -459.29668366279748        290.60773615560754     
  -2016.2617113877693       -428.39194208526493        437.89047210752665     
  -2027.2793736458048       -399.29181181938270        573.86995324599798     
  -2043.5584819191145       -371.33951161834210        698.10368778322595     
  -2064.9020018336687       -343.87826023534620        810.14918393143682     
  -2720.6248121233207       -816.18744363699591       -384.63475653048272     
  -2701.0529664653345       -758.35749600755321       -195.93886018246019     
  -2688.5623193665883       -704.81096702697732       -17.680694854359587     
  -2683.0075921258594       -655.06359435761408        149.91645728188251     
  -2684.2435060417943       -608.63111566175451        306.62931405429947     
  -2692.1247824130915       -565.02926860171669        452.23459329093976     
  -2706.5061425384533       -523.77379083982282        586.50901281985227     
  -2727.2423077165618       -484.38042003838041        709.22929046907439     
  -2754.1879992461104       -446.36489385967764        820.17214406665164     
  -3386.8040660094766       -1016.0412198028426       -361.86349238768474     
  -3369.9419445200597       -946.44904768738331       -171.74874600468283     
  -3360.0735654644691       -880.08973366648297        6.6121027503477707     
  -3357.1641222185276       -816.84725565942620        173.27761126494659     
  -3361.1788081580107       -756.60559158546948        328.30633692665396     
  -3372.0828166586734       -699.24871936389241        471.75683712300599     
  -3389.8413410963190       -644.66061691394680        603.68766924155022     
  -3414.4195748467341       -592.72526215493701        724.15739066982792     
  -3445.7827112856789       -543.32663300609454        833.22455879537222     
  -4043.6655133803738       -1213.0996540141134       -334.59903632293901     
  -4034.5450463662924       -1133.4206144366567       -141.99677001402495     
  -4031.2298861652348       -1054.9679466862744        37.055206336661641     
  -4033.8544146344257       -978.18959028702420        202.95991961981508     
  -4042.5530136310622       -903.53348476294809        356.12039672612843     
  -4057.4600650123834       -831.44756963813370        496.93966454631669     
  -4078.7099506356012       -762.37978443663712        625.82074997107281     
  -4106.4370523579128       -696.77806868248308        743.16667989108100     
  -4140.7757520365658       -635.09036189977530        849.38048119705911     
  -4689.3456125395787       -1406.8036837618736       -303.04829705666384     
  -4693.9941742168512       -1319.0117669192189       -106.61496205483063     
  -4701.9796848947390       -1229.4301271141010        73.922962464578944     
  -4713.6644313162224       -1139.2663868231991        239.37560283907976     
  -4729.4107002243309       -1049.7281685232088        390.55308540619694     
  -4749.5807783620639       -962.02309469080558        528.26553650344601     
  -4774.5369524724201       -877.35878780268888        653.32308246835282     
  -4804.6415092984080       -796.94287033552905        766.53584963843025     
  -4840.2567355830315       -721.98296476602263        868.71396435120221     
  -5321.9808217907448       -1596.5942465372234       -267.41818330929743     
  -5347.4212302845563       -1502.9620757989162       -65.535351971440335     
  -5372.2713650788273       -1403.4607959777243        117.48971769411115     
  -5397.1801342066392       -1300.2534338507808        282.93688141535989     
  -5422.7964457011867       -1195.5030161952500        432.08599492031772     
  -5449.7692075955765       -1091.3725697882678        566.21691393698222     
  -5478.7473279229698       -990.02512140698991        686.60949419336407     
  -5510.3797147164842       -893.62369782855478        794.54359141745442     
  -5545.3152760093080       -804.33132583014276        891.29906133728127     
  -1.5651662236332916E-004  -1.5024177284721170E-004   797.51650029195457     
  -3.4321532241939377E-004  -1.9201128053873890E-004   898.32642485561803     
  -4.5399193462057966E-004  -1.9192250525292443E-004   989.05539606708123     
  -4.9168071574114515E-004  -1.5942294214959225E-004   1070.2855435098468     
  -4.5911591381132252E-004  -1.0396010801002244E-004   1142.5989967674323     
  -3.5913177530092107E-004  -3.4981498987167133E-005   1206.5778854233465     
  -1.9456257185665159E-004   3.8065329782511800E-005   1262.8043390611183     
   3.1757465798953358E-005   1.0573294023725654E-004   1311.8604872642463     
   3.1699407085369430E-004   1.5857377330814540E-004   1354.3284596162505     
  -688.89769455315150       -121.02277265164810        798.89541512355868     
  -696.36499358713968       -111.41874316995232        899.74394693843055     
  -701.93506879502968       -100.50657424893973        990.47613673222168     
  -705.74774693016650       -88.752355066421956        1071.6639414958081     
  -707.94285474591857       -76.622174800305487        1143.8793182200616     
  -708.66021899568307       -64.582122628568897        1207.6942238958463     
  -708.03966643278022       -53.098287728952670        1263.6806155140284     
  -706.22102381060699       -42.636759279449308        1312.4104500654760     
  -703.34411788252203       -33.663626457912585        1354.4556845410632     
  -1376.8351049640853       -235.53984790774183        803.08162531022504     
  -1391.4833980900155       -216.34144558242753        903.90397357860058     
  -1402.5557225223333       -195.07853222870528        994.53839054679304     
  -1410.2872537554779       -172.53502616139281        1075.5263248453086     
  -1414.9131672838578       -149.49484569517301        1147.4092251046609     
  -1416.6686386019041       -126.74190914481386        1210.7285399553327     
  -1415.7888432040563       -105.06013482511480        1266.0257180278543     
  -1412.5089565847443       -85.233441050850956        1313.8422079527202     
  -1407.0641542383753       -68.045746136704224        1354.7194583604087     
  -2064.9020018336687       -343.87826023534620        810.14918393143682     
  -2086.1275955927836       -314.99991090934532        910.66761204749162     
  -2102.3749810207864       -283.86983561597913        1000.9422066817583     
  -2113.9302071751235       -251.44153121339605        1081.4635723366434     
  -2121.0793231132375       -218.66849455969827        1152.7223135145882     
  -2124.1083778925486       -186.50422251301546        1215.2090347179899     
  -2123.3034205704898       -155.90221193141883        1269.4143404492781     
  -2118.9505002045257       -127.81595967313342        1315.8288352108714     
  -2111.3356658520715       -103.19896259621237        1354.9431235051784     
  -2754.1879992461104       -446.36489385967764        820.17214406665164     
  -2781.0696249642606       -407.62575081135793        919.89596961646259     
  -2801.9054101372922       -367.03425416483367        1009.3876343080786     
  -2816.9878022076009       -325.56522872802634        1089.0665627481212     
  -2826.6092486175908       -284.19349930900387        1159.3521795432018     
  -2831.0621968096398       -243.89389071569155        1220.6639092999490     
  -2830.6390942261573       -205.64122775609371        1273.4211766249546     
  -2825.6323883095329       -170.41033523818726        1318.0434061248457     
  -2816.3345265021771       -139.17603797000709        1354.9500224062438     
  -3445.7827112856789       -543.32663300609454        833.22455879537222     
  -3477.0815250733021       -494.45057694917898        931.45015355687849     
  -3501.6595757187642       -444.72555762930313        1019.5747225967318     
  -3519.7712338713745       -394.99947721082003        1097.9261748580443     
  -3531.6708701804346       -346.12023785811016        1166.8324192838859     
  -3537.6128552952482       -298.93574173549450        1226.6213648173573     
  -3537.8515598651261       -254.29389100732578        1277.6209204015561     
  -3532.6413545393561       -213.04258783789851        1320.1589949795657     
  -3522.2366099672599       -176.02973439165930        1354.5634974944767     
  -4140.7757520365658       -635.09036189977530        849.38048119705911     
  -4174.9353347887036       -575.70600098333102        945.19127114009405     
  -4202.1500436120996       -517.09751576345229        1031.2035207186923     
  -4222.5916971849074       -459.83763516729391        1107.6332874447010     
  -4236.4321141853025       -404.49908812208832        1174.6966288299818     
  -4243.8431132914357       -351.65460355502694        1232.6096023863779     
  -4244.9965131814661       -301.87691039330912        1281.5882656257395     
  -4240.0641325335591       -255.73873756410876        1321.8486760599224     
  -4229.2177900258612       -213.81281399464956        1353.6068912007543     
  -4840.2567355830315       -721.98296476602263        868.71396435120221     
  -4875.4030929793116       -651.62363457454944        960.98042963746320     
  -4903.8893796642069       -584.30389832136632        1043.9740778449057     
  -4925.7603871666897       -520.17306110298932        1117.7787792864112     
  -4941.0609070157170       -459.38042801598453        1182.4784042748720     
  -4949.8357307402666       -402.07530415694305        1238.1568231231759     
  -4952.1296498692755       -348.40699462230896        1284.8979061441937     
  -4947.9874559317341       -298.52480450872804        1322.7855236508287     
  -4937.4539404565794       -252.57803891266212        1351.9035459559595     
  -5545.3152760093080       -804.33132583014276        891.29906133728127     
  -5579.2568385139502       -722.43508938346554        978.67873632035980     
  -5607.3901497220068       -646.49847505711341        1057.5864431463574     
  -5629.5884988351891       -576.09911352345875        1127.9535291614745     
  -5645.7251750552023       -510.81463545488896        1189.7113417119101     
  -5655.6734675837661       -450.22267152378413        1242.7912281438694     
  -5659.3066656226238       -393.90085240257827        1287.1245358035762     
  -5656.4980583734505       -341.42680876357690        1322.6426120372034     
  -5647.1209350379868       -292.37817127922904        1349.2768041909724     
   3.1699407085369430E-004   1.5857377330814540E-004   1354.3284596162505     
   5.7193990075009261E-004   1.6487383558316438E-004   1391.5857671954680     
   7.1219477938238511E-004   1.0894301687511019E-004   1424.6212144348933     
   7.4213519115791306E-004   5.3696185595582247E-006   1453.4338709500453     
   6.6613764924979186E-004  -1.3125800585985739E-004   1478.0228063564357     
   4.8857863149166314E-004  -2.8635157241175949E-004   1498.3870902695751     
   2.1383465372839009E-004  -4.4532271873838636E-004   1514.5257923049926     
  -1.5371779911533943E-004  -5.9358315382943580E-004   1526.4379820781905     
  -6.0970222618179643E-004  -7.1654454759552009E-004   1534.1227292047120     
  -703.34411788252203       -33.663626457912585        1354.4556845410632     
  -700.33140102188759       -26.749309238234645        1391.2652118515655     
  -697.93329453832848       -21.890790715174091        1423.9095700098849     
  -696.03157858958184       -18.694004747865563        1452.3931836600882     
  -694.50803333342219       -16.764885195537175        1476.7204774462543     
  -693.24443892760257       -15.709365917391239        1496.8958760124360     
  -692.12257552988183       -15.133380772595103        1512.9238040027092     
  -691.02422329801698       -14.642863620373191        1524.8086860611463     
  -689.83116238975992       -13.843748319864233        1532.5549468318170     
  -1407.0641542383753       -68.045746136704224        1354.7194583604087     
  -1401.2231177035555       -54.518598341024813        1390.2908982534288     
  -1396.4612249544073       -44.695867373953604        1421.8426407664947     
  -1392.5736961387151       -37.894953728042992        1449.3951607284971     
  -1389.3557514042091       -33.433257895764882        1472.9689329683174     
  -1386.6026108986518       -30.628180369652682        1492.5844323148585     
  -1384.1094947698130       -28.797121642253558        1508.2621335970218     
  -1381.6716231654336       -27.257482206064992        1520.0225116436932     
  -1379.0842162332838       -25.326662553635742        1527.8860412837494     
  -2111.3356658520715       -103.19896259621237        1354.9431235051784     
  -2102.9533643247455       -83.391338300509460        1388.6439151492618     
  -2095.9342201248537       -68.520463354875574        1418.5223304051892     
  -2090.0185488459188       -57.720723071062139        1444.6255894429478     
  -2084.9466660814537       -50.126502760707353        1467.0009124325447     
  -2080.4588874249207       -44.872187735448165        1485.6955195439311     
  -2076.2955284698564       -41.092163307017472        1500.7566309471219     
  -2072.1969048097708       -37.920814787117934        1512.2314668120966     
  -2067.9033320381554       -34.492527487393886        1520.1672473088279     
  -2816.3345265021771       -139.17603797000709        1354.9500224062438     
  -2805.8009271050814       -113.45116498255277        1386.3053512872430     
  -2796.7034211209939       -93.469920979350945        1414.0505426264281     
  -2788.7590750449322       -78.289194277089905        1438.2702570911692     
  -2781.6849553718821       -66.965873192396884        1459.0491553488127     
  -2775.1981285968322       -58.556846041956305        1476.4718980667001     
  -2769.0156612147875       -52.119001142384377        1490.6231459121930     
  -2762.8546197207588       -46.709226810427140        1501.5875595526127     
  -2756.4320706097478       -41.384411362722858        1509.4497996553564     
  -3522.2366099672599       -176.02973439165930        1354.5634974944767     
  -3510.0445922641902       -144.78171425304197        1383.2562954155667     
  -3499.1199690141707       -119.64958256872956        1408.5291811306965     
  -3489.1882130694330       -99.718248846166034        1430.5149509608505     
  -3479.9747972822129       -84.072622592810603        1449.3464012270344     
  -3471.2051945047797       -71.797613316228080        1465.1563282502125     
  -3462.6048775893560       -61.978130523816162        1478.0775283513813     
  -3453.8993193881679       -53.699083723023932        1488.2427978515236     
  -3444.8139927534730       -46.045382421345039        1495.7849330716344     
  -4229.2177900258612       -213.81281399464956        1353.6068912007543     
  -4215.9631460216706       -177.46662197776959        1379.4778362824147     
  -4203.5350048756945       -147.16479044435937        1402.0601496184433     
  -4191.6989012531258       -122.12576827838734        1421.5454583396945     
  -4180.2203698192052       -101.56800436403955        1438.1253895770994     
  -4168.8649452391719       -84.709947585404507        1451.9915704615253     
  -4157.3981621782423       -70.770046826544103        1463.3356281238846     
  -4145.5855553016900       -58.966750971675765        1472.3491896950727     
  -4133.1926592746713       -48.518508904755436        1479.2238823059622     
  -4937.4539404565794       -252.57803891266212        1351.9035459559595     
  -4923.8353745972045       -211.58952402279965        1374.9510626359934     
  -4910.2996697769249       -176.12088692769703        1394.7453517901199     
  -4896.6840779297218       -145.62963407391021        1411.5475665153947     
  -4882.8258509895768       -119.57327190804722        1425.6188599089078     
  -4868.5622408904437       -97.409306876668097        1437.2203850677217     
  -4853.7304995662689       -78.595245426218526        1446.6132950888943     
  -4838.1678789510534       -62.588594003367916        1454.0587430695239     
  -4821.7116309787580       -48.846859054655852        1459.8178821066588     
  -5647.1209350379868       -292.37817127922904        1349.2768041909724     
  -5633.9400642103637       -247.23405625386840        1369.6570632244870     
  -5619.7651047892014       -206.62321434013234        1386.6866913462102     
  -5604.5366814329545       -170.34772773287273        1400.7070627756661     
  -5588.1954188000582       -138.20967862689463        1412.0595517323650     
  -5570.6819415489763       -110.01114921705812        1421.0855324358331     
  -5551.9368743381501       -85.554221698161655        1428.1263791055794     
  -5531.9008418260382       -64.640978265064632        1433.5234659611328     
  -5510.5144686710883       -47.073501112582790        1437.6181672220173     
  -6.0970222618179643E-004  -7.1654454759552009E-004   1534.1227292047120     
  -1.0036843100200022E-003  -7.6212238291947657E-004   1539.0213758686446     
  -1.1935653399599742E-003  -7.0601752873017149E-004   1542.6763567552480     
  -1.1874722203525753E-003  -5.7531963741126279E-004   1545.2383802316517     
  -9.9353184550524153E-004  -3.9711838957599203E-004   1546.8581546649839     
  -6.1987112962819265E-004  -1.9850346410324837E-004   1547.6863884224217     
  -7.4616976703127831E-005  -6.5645756115773473E-006   1547.8737898711004     
   6.3410372446869338E-004   1.5160865811616900E-004   1547.5710673781557     
   1.4981640554196562E-003   2.4892649929550220E-004   1546.9289293107597     
  -689.83116238975992       -13.843748319864233        1532.5549468318170     
  -688.24245258803830       -12.376999199778993        1537.5532913987963     
  -686.07563268477759       -10.278510618789767        1541.2893154419432     
  -683.39020135134297       -7.7466114814662319        1543.9097794989541     
  -680.24565725908519       -4.9796306922860936        1545.5614441075527     
  -676.70149907937287       -2.1758971558458313        1546.3910698054369     
  -672.81722548351809       0.46626022352657515        1546.5454171303238     
  -668.65233514288752        2.7485125412270577        1546.1712466199374     
  -664.26632672882101        4.4725308928288996        1545.4153188119590     
  -1379.0842162332838       -25.326662553635742        1527.8860412837494     
  -1375.7948237253754       -22.370373135950615        1533.1123503178292     
  -1371.4522407702086       -18.425142325716934        1537.0373786998534     
  -1366.1535555803387       -13.814597498016440        1539.7960694886290     
  -1359.9958563682660       -8.8623660279185970        1541.5233657429578     
  -1353.0762313465098       -3.8920752904660390        1542.3542105216945     
  -1345.4917687276252       0.77264733917417061        1542.4235468836607     
  -1337.3395567241143        4.8081744859586593        1541.8663178876811     
  -1328.7166835485357        7.8908787747273550        1540.8174665925612     
  -2067.9033320381554       -34.492527487393886        1520.1672473088279     
  -2062.6866507790464       -29.989444035800943        1525.6433240388494     
  -2056.0670090944182       -24.421398520147136        1529.7844057772998     
  -2048.1571837347083       -18.164313441880154        1532.7057484546708     
  -2039.0699514503706       -11.594111302434726        1534.5226080014722     
  -2028.9180889918066       -5.0867146032393293        1535.3502403481746     
  -2017.8143731094444       0.98195415428313026        1535.3039014252374     
  -2005.8715805537556        6.2359724686210711        1534.4988471631864     
  -1993.2024880751501        10.299417838372051        1533.0503334924788     
  -2756.4320706097478       -41.384411362722858        1509.4497996553564     
  -2748.9464674317583       -35.242772004113476        1515.0909839748897     
  -2739.8559289301479       -28.248076583912621        1519.3942559225964     
  -2729.2670193900212       -20.755539385770248        1522.4473146511848     
  -2717.2863030964331       -13.120374693252643        1524.3378593133314     
  -2704.0203443344335       -5.6977967898347970        1525.1535890617802     
  -2689.5757073891227        1.1569800408012725        1524.9822030491637     
  -2674.0589565455421        7.0887415151992172        1523.9114004281896     
  -2657.5766560887969        11.742273349698849        1522.0288803516105     
  -3444.8139927534730       -46.045382421345039        1495.7849330716344     
  -3434.6028073662269       -38.138917145680580        1501.4001015390409     
  -3422.7549915501932       -29.885973898888778        1505.7307883840747     
  -3409.3489961217838       -21.548055402343607        1508.8292663321818     
  -3394.4632718974663       -13.386664377647094        1510.7478081088259     
  -3378.1762696936439       -5.6633035461118197        1511.5386864394645     
  -3360.5664403267856        1.3605243707065711        1511.2541740495365     
  -3341.7122346133092        7.4233166513961351        1509.9465436645187     
  -3321.6921033696590        12.263570574477626        1507.6680680098614     
  -4133.1926592746713       -48.518508904755436        1479.2238823059622     
  -4119.6842042651579       -38.686439565310366        1484.5154481443765     
  -4104.7001882272752       -29.315887846808664        1488.6578624100518     
  -4088.2690475055342       -20.501641564259216        1491.6601017517207     
  -4070.4192184444660       -12.338488532879637        1493.5311428181869     
  -4051.1791373886431       -4.9212165677895428        1494.2799622581790     
  -4030.5772406825381        1.6553865160515215        1493.9155367205005     
  -4008.6419646707582        7.2965329032745103        1492.4468428538946     
  -3985.4017456977808        11.907434778938978        1489.8828573071239     
  -4821.7116309787580       -48.846859054655852        1459.8178821066588     
  -4804.2191918112967       -36.893899367889162        1464.3817952039653     
  -4785.6275102341779       -26.518615809520497        1468.0393372488270     
  -4765.8931071167872       -17.576077944163671        1470.7483191638462     
  -4744.9725033284676       -9.9213553362849325        1472.4665518716608     
  -4722.8222197385967       -3.4095175505042334        1473.1518462948909     
  -4699.3987772165528        2.1043658486339609        1472.7620133561659     
  -4674.6586966316718        6.7652252966222477        1471.2548639781085     
  -4648.5584988533028        10.717991228991878        1468.5882090833188     
  -5510.5144686710883       -47.073501112582790        1437.6181672220173     
  -5488.2363036872866       -32.769856658073650        1440.9439141308694     
  -5465.4729488436478       -21.474955168874430        1443.7390721487266     
  -5442.0871085310773       -12.731144614673667        1445.9024168226049     
  -5417.9414871404733       -6.0807729652133276        1447.3327236995124     
  -5392.8987890627941       -1.0661881902444748        1447.9287683265250     
  -5366.8217186889506        2.7702617404838747        1447.5893262506461     
  -5339.5729804098510        5.8862288572734087        1446.2131730189049     
  -5311.0152786164263        8.7393651903475984        1443.6990841783456     
   1.4981640554196562E-003   2.4892649929550220E-004   1546.9289293107597     
   2.2611783085769487E-003   1.9554362889918214E-004   1546.1151239945414     
   2.6822182981013931E-003  -4.6860247300189138E-005   1545.1600996672694     
   2.7763434439198667E-003  -4.2808701953542022E-004   1544.0086145643047     
   2.5586131340809806E-003  -8.9793877446290129E-004   1542.6054269209137     
   2.0440867649233292E-003  -1.4062174813566392E-003   1540.8952949724053     
   1.2478237436974759E-003  -1.9027251549669400E-003   1538.8229769541538     
   1.8488347523660977E-004  -2.3372637646661520E-003   1536.3332311014008     
  -1.1296746411867101E-003  -2.6596353280578435E-003   1533.3708156495152     
  -664.26632672882101        4.4725308928288996        1545.4153188119590     
  -659.99194250520395        5.4140882845987051        1544.4765308386691     
  -656.08797969581894        5.5954411898395620        1543.4202992202145     
  -652.50301941190980        5.1879859043882561        1542.1931635761675     
  -649.18564276488451        4.3631187235791629        1540.7416635261038     
  -646.08443086603199        3.2922359430692154        1539.0123386895568     
  -643.14796482658130        2.1467338588232394        1536.9517286861194     
  -640.32482575792562        1.0980087661361893        1534.5063731353391     
  -637.56359477136471       0.31745696072110263        1531.6228116567784     
  -1328.7166835485357        7.8908787747273550        1540.8174665925612     
  -1320.2562751848996        9.6299056406902537        1539.5550511470242     
  -1312.4680499579699        10.045759383095458        1538.2350596476683     
  -1305.2639845914241        9.4318509231599137        1536.8093300751107     
  -1298.5560558088312        8.0815911822321027        1535.2297004099667     
  -1292.2562403337829        6.2883910816925663        1533.4480086328754     
  -1286.2765148899600        4.3456615426298413        1531.4160927245148     
  -1280.5288562009457        2.5468134863859291        1529.0857906654826     
  -1274.9252409903413        1.1852578343459754        1526.4089404363908     
  -1993.2024880751501        10.299417838372051        1533.0503334924788     
  -1980.6922366109966        12.677197686826275        1531.3421831953226     
  -1969.0775637834031        13.368897154755587        1529.6551506458984     
  -1958.2486413699312        12.740610316937250        1527.9498891627170     
  -1948.0956411480670        11.158431248550642        1526.1870520643417     
  -1938.5087348953223        8.9884540244004256        1524.3272926692482     
  -1929.3780943892305        6.5967727194357622        1522.3312642959811     
  -1920.5938914073001        4.3494814086662927        1520.1596202630622     
  -1912.0462977270713        2.6126741669173725        1517.7730138889890     
  -2657.5766560887969        11.742273349698849        1522.0288803516105     
  -2641.2013265337459        14.585514497918552        1519.8294252591945     
  -2625.8565563872553        15.582843940225985        1517.7313419111435     
  -2611.4255119223308        15.123707433291656        1515.7076159406977     
  -2597.7913594120146        13.597550733587696        1513.7312329810420     
  -2584.8372651292943        11.393819597788479        1511.7751786654469     
  -2572.4463953472159        8.9019597824991479        1509.8124386271274     
  -2560.5019163387951        6.5114170443077910        1507.8159984992872     
  -2548.8869943770551        4.6116371397837383        1505.7588439151768     
  -3321.6921033696590        12.263570574477626        1507.6680680098614     
  -3301.6850447034058        15.384406148882817        1505.0082756143570     
  -3282.7450629846589        16.705589175138130        1502.5144031397072     
  -3264.7631184235102        16.590585619588410        1500.1752855106402     
  -3247.6301712300606        15.402861448525528        1497.9797576519240     
  -3231.2371816144391        13.505882628224754        1495.9166544883001     
  -3215.4751097868179        11.263115124782644        1493.9748109445416     
  -3200.2349159572082        9.0380249047989309        1492.1430619453790     
  -3185.4075603358187        7.1940779342480710        1490.4102424155649     
  -3985.4017456977808        11.907434778938978        1489.8828573071239     
  -3962.0448908701701        15.103422714765202        1486.8702325364836     
  -3939.6831187907537        16.755122294939156        1484.0551040278326     
  -3918.2299830483089        17.150688223550560        1481.4456729742235     
  -3897.5990372316064        16.578275204607280        1479.0501405688140     
  -3877.7038349295012        15.326037941990535        1476.8767080046357     
  -3858.4579297307896        13.682131139705689        1474.9335764748560     
  -3839.7748752243083        11.934709501635098        1473.2289471725455     
  -3821.5682249988013        10.371927731874166        1471.7710212907898     
  -4648.5584988533028        10.717991228991878        1468.5882090833188     
  -4622.1823647843430        13.772114270312613        1465.4067943012406     
  -4596.6107590207503        15.749432734945913        1462.4042142717565     
  -4571.7946279715961        16.813458592699362        1459.6115534330743     
  -4547.6849180460458        17.127703812982645        1457.0598962235074     
  -4524.2325756531709        16.855680365526723        1454.7803270812947     
  -4501.3885472020402        16.160900220195799        1452.8039304447016     
  -4479.1037791018207        15.206875346322704        1451.1617907520106     
  -4457.3292177615658        14.157117713798471        1449.8849924414424     
  -5311.0152786164263        8.7393651903475984        1443.6990841783456     
  -5281.9989661961181        11.420030890556063        1440.6094591843439     
  -5253.4680188897464        13.706509930763104        1437.6125035677542     
  -5225.4255753683019        15.588340074424423        1434.7657019888586     
  -5197.8747743027789        17.055059084804270        1432.1265391078857     
  -5170.8187543641461        18.096204725349253        1429.7524995850679     
  -5144.2606542234407        18.701314759347270        1427.7010680806945     
  -5118.2036125516061        18.859926950221507        1426.0297292549722     
  -5092.6507680196428        18.561579061335124        1424.7959677681713     
  -1.1296746411867101E-003  -2.6596353280578435E-003   1533.3708156495152     
  -2.2536863936028469E-003  -2.7137900795666794E-003   1530.2448383195767     
  -2.7743673696952217E-003  -2.4416109764924944E-003   1527.3176420983020     
  -2.7207279008263996E-003  -1.9397990757315658E-003   1524.6138381193821     
  -2.1217783081928046E-003  -1.3050555056758474E-003   1522.1580375165013     
  -1.0065289146924882E-003  -6.3408127680860370E-004   1519.9748514234120     
   5.9600995365411671E-004  -2.3577538523539884E-005   1518.0888909737873     
   2.6568279976004719E-003   4.2975473345607205E-004   1516.5247673013218     
   5.1469148824746652E-003   6.2921441244195289E-004   1515.3070915397625     
  -637.56359477136471       0.31745696072110263        1531.6228116567784     
  -634.71343221026200       -3.5282418718622921E-002   1528.5862661572737     
  -631.67833365400929        1.6645646461967090E-002   1525.7332817253500     
  -628.48913306795168       0.37046127174224353        1523.0873827530861     
  -625.17666441749600       0.92338457247831229        1520.6720936326240     
  -621.77176166795800        1.5726356642353778        1518.5109387560472     
  -618.30525878473543        2.2154346624063805        1516.6274425154515     
  -614.80798973317053        2.7490016824581573        1515.0451293029723     
  -611.31078847861625        3.0705568399355627        1513.7875235106931     
  -1274.9252409903413        1.1852578343459754        1526.4089404363908     
  -1269.1832722188606       0.54190658610036735        1523.6086199240626     
  -1263.1139300565826       0.58641437657388451        1520.9535760846636     
  -1256.7692570413153        1.1453060799145760        1518.4641505028035     
  -1250.2012957107436        2.0451065703829272        1516.1606847631290     
  -1243.4620886026275        3.1123407221674597        1514.0635204503244     
  -1236.6036782547644        4.1735334092730341        1512.1929991490224     
  -1229.6781072048464        5.0552095060274951        1510.5694624439097     
  -1222.7374179906633        5.5838938865119871        1509.2132519195791     
  -1912.0462977270713        2.6126741669173725        1517.7730138889890     
  -1903.3482176686500        1.7479200372704327        1515.3083517322968     
  -1894.2282108521345        1.7312703960843692        1512.9388132799882     
  -1884.7499320050217        2.3505428183869981        1510.6794612434189     
  -1874.9770358548396        3.3935548791981773        1508.5453583339595     
  -1864.9731771289896        4.6481241537036340        1506.5515672629163     
  -1854.8020105550311        5.9020682167472387        1504.7131507416268     
  -1844.5271908604436        6.9432046434394579        1503.0451714814485     
  -1834.2123727727121        7.5593510088117455        1501.5626921937010     
  -2548.8869943770551        4.6116371397837383        1505.7588439151768     
  -2537.1447125160535        3.6018247479170213        1503.6819136942038     
  -2524.9398233175689        3.4756195219588335        1501.6492814150531     
  -2512.3379973162082        4.0141196799095269        1499.6686348499152     
  -2499.4049050465323        4.9984234399081515        1497.7476617709704     
  -2486.2062170431091        6.2096290199704072        1495.8940499503785     
  -2472.8076038405352        7.4288346381991914        1494.1154871602926     
  -2459.2747359733967        8.4371385126175937        1492.4196611728714     
  -2445.6732839762772        9.0156388613020226        1490.8142597603496     
  -3185.4075603358187        7.1940779342480710        1490.4102424155649     
  -3170.5092007175012        6.1226875311765525        1488.7257579221298     
  -3155.1674147298622        5.8438675711151973        1487.0452685936334     
  -3139.4402923318894        6.1639848574561711        1485.3669911972215     
  -3123.3859234825791        6.8894061934886395        1483.6891425000854     
  -3107.0623981410076        7.8264983823232797        1482.0099392693155     
  -3090.5278062661996        8.7816282271994623        1480.3275982720661     
  -3073.8402378171122        9.5611625316241771        1478.6403362755202     
  -3057.0577827528232        9.9714680986323856        1476.9463700467829     
  -3821.5682249988013        10.371927731874166        1471.7710212907898     
  -3803.3781262294046        9.3295752001617984        1470.4363365283523     
  -3784.8296323659270        8.8604203605511884        1469.0870629194460     
  -3765.9636564091102        8.8280865439614900        1467.7098501602695     
  -3746.8211113597836        9.0961970808118622        1466.2913479471531     
  -3727.4429102187964        9.5283753017545223        1464.8182059763237     
  -3707.8699659869308        9.9882445374078088        1463.2770739440793     
  -3688.1431916650236        10.339428118370279        1461.6546015466527     
  -3668.3035002538613        10.445549375275050        1459.9374384803070     
  -4457.3292177615658        14.157117713798471        1449.8849924414424     
  -4435.6879330082811        13.241554567708363        1448.8101016251769     
  -4413.8451235027433        12.549683707158010        1447.7349524961960     
  -4391.8149289049516        12.034372932269207        1446.6325316139796     
  -4369.6114888748998        11.648490042944559        1445.4758255380968     
  -4347.2489430725036        11.344902839508677        1444.2378208280559     
  -4324.7414311577104        11.076479122170440        1442.8915040433742     
  -4302.1030927905122        10.796086690867014        1441.4098617435714     
  -4279.3480676308600        10.456593345857982        1439.7658804881899     
  -5092.6507680196428        18.561579061335124        1424.7959677681713     
  -5067.3750650104621        17.877692447152867        1423.8435053249293     
  -5042.1325354172714        16.936063427798672        1422.9492254276747     
  -5016.9009491765282        15.810792215084120        1422.0703554333247     
  -4991.6580762246685        14.575979020836030        1421.1641226987917     
  -4966.3816864981827        13.305724056854388        1420.1877545810651     
  -4941.0495499335002        12.074127534959871        1419.0984784370053     
  -4915.6394364670687        10.955289667006582        1417.8535216235737     
  -4890.1291160353558        10.023310664780183        1416.4101114977016     
   5.1469148824746652E-003   6.2921441244195289E-004   1515.3070915397625     
   7.0853667049925288E-003   2.5164298360999928E-004   1514.3022368321022     
   7.5692275868491903E-003  -7.6629133712348939E-004   1513.3427646922046     
   6.6864093582461922E-003  -2.1315491842439317E-003   1512.4025688100496     
   4.5248237043866747E-003  -3.5510915107903624E-003   1511.4555428755461     
   1.1723824376977956E-003  -4.7318790192642651E-003   1510.4755805786424     
  -3.2830027266819994E-003  -5.3808726129647572E-003   1509.4365756093164     
  -8.7534199765157625E-003  -5.2050329477539682E-003   1508.3124216575147     
  -1.5150957587162239E-002  -3.9113209235032195E-003   1507.0770124131484     
  -611.31078847861625        3.0705568399355627        1513.7875235106931     
  -607.90788039312781        3.0859881068741117        1512.7370402722163     
  -604.65698278897787        2.8228769879617630        1511.7435069679425     
  -601.53416754183729        2.3609838975821162        1510.7815663602557     
  -598.51550652747574        1.7800692499107242        1509.8258612115353     
  -595.57707162152542        1.1598934593896786        1508.8510342841200     
  -592.69493469976294       0.58021694026368209        1507.8317283403696     
  -589.84516763789566       0.12080010673273023        1506.7425861426989     
  -587.00384231155647      -0.13859662671396222        1505.5582504534602     
  -1222.7374179906633        5.5838938865119871        1509.2132519195791     
  -1215.9572314375494        5.5958589842895776        1508.0482734577113     
  -1209.4514263327335        5.1331840266424251        1506.9693361985628     
  -1203.1794321566754        4.3311040787521620        1505.9531366146678     
  -1197.1006783899174        3.3248542055351891        1504.9763711786104     
  -1191.1745945129103        2.2496694719528136        1504.0157363629696     
  -1185.3606100061613        1.2407849431691034        1503.0479286403397     
  -1179.6181543501652       0.43343568411791011        1502.0496444832777     
  -1173.9066570253847       -3.7143240079672069E-002   1500.9975803643645     
  -1834.2123727727121        7.5593510088117455        1501.5626921937010     
  -1824.0978654076405        7.5427949829376075        1500.2467616489766     
  -1814.3481979978653        6.9384238465373755        1499.0550900239491     
  -1804.9133554459163        5.9129545910793695        1497.9677321391835     
  -1795.7433226544199        4.6331042079411873        1496.9647428152487     
  -1786.7880845260054        3.2655896883225068        1496.0261768726891     
  -1777.9976259631530        1.9771280238563804        1495.1320891320743     
  -1769.3219318685849       0.93443620564084995        1494.2625344139560     
  -1760.7109871448226       0.30423122511274414        1493.3975675388879     
  -2445.6732839762772        9.0156388613020226        1490.8142597603496     
  -2432.2866799445319        8.9397268103698480        1489.3433301063678     
  -2419.3197343785673        8.2468654691964502        1488.0356060840729     
  -2406.7201854202990        7.1112610313589357        1486.8758054998066     
  -2394.4357712117740        5.7071196900293444        1485.8486461598923     
  -2382.4142298950483        4.2086476383981335        1484.9388458706314     
  -2370.6032996120844        2.7900510698436847        1484.1311224383664     
  -2358.9507185049342        1.6255361777218695        1483.4101936693955     
  -2347.4042247155680       0.88930915524065313        1482.7607773700952     
  -3057.0577827528232        9.9714680986323856        1476.9463700467829     
  -3040.4805726892855        9.7995851743687581        1475.3488040902671     
  -3024.3384720689482        9.0667779166334412        1473.9457220188765     
  -3008.5841700904939        7.9307489965032119        1472.7278092624633     
  -2993.1703559527450        6.5492010844963033        1471.6857512509505     
  -2978.0497188544236        5.0798368516509527        1470.8102334141652     
  -2963.1749479942564        3.6803589688146303        1470.0919411819671     
  -2948.4987325709844        2.5084701068409458        1469.5215599843239     
  -2933.9737617833121        1.7218729367210699        1469.0897752510305     
  -3668.3035002538613        10.445549375275050        1459.9374384803070     
  -3648.6364412829812        10.135300782638296        1458.2740088610797     
  -3629.3768476632008        9.4064302105209663        1456.8202754682902     
  -3610.4895574673160        8.3761440830546690        1455.5741959931720     
  -3591.9394087680917        7.1616488241957086        1454.5337281269306     
  -3573.6912396383445        5.8801508580081645        1453.6968295607282     
  -3555.7098881508855        4.6488566084353806        1453.0614579858534     
  -3537.9601923784653        3.5849724995694032        1452.6255710934665     
  -3520.4069903938675        2.8057049554799960        1452.3871265747689     
  -4279.3480676308600        10.456593345857982        1439.7658804881899     
  -4256.7111833667295        9.9598043427622542        1438.1297696791366     
  -4234.4072977555588        9.2740913725065184        1436.6941040722611     
  -4212.4205955614570        8.4521718879429955        1435.4654182578367     
  -4190.7352615486034        7.5467633418595597        1434.4502468262301     
  -4169.3354804811588        6.6105831870004295        1433.6551243677491     
  -4148.2054371232753        5.6963488762737597        1433.0865854727288     
  -4127.3293162391583        4.8567778623305458        1432.7511647314989     
  -4106.6913025928861        4.1445875981653444        1432.6553967343509     
  -4890.1291160353558        10.023310664780183        1416.4101114977016     
  -4864.6616965816320        9.2860265624558451        1414.9269118048467     
  -4839.4022589401375        8.6780304244239233        1413.6020454706775     
  -4814.3615323836575        8.1635580079423562        1412.4519286224358     
  -4789.5502461850529        7.7068450701765414        1411.4929773873369     
  -4764.9791296171761        7.2721273683980598        1410.7416078925714     
  -4740.6589119528535        6.8236406597100085        1410.2142362654299     
  -4716.6003224648593        6.3256207014778738        1409.9272786331273     
  -4692.8140904261245        5.7423032508347660        1409.8971511228174     
  -1.5150957587162239E-002  -3.9113209235032195E-003   1507.0770124131484     
  -2.0370136283352144E-002  -8.6486426998246164E-004   1505.8803287450914     
  -2.2652866478786650E-002   3.4112436494145035E-003   1504.8993329569266     
  -2.2432320891731194E-002   7.4730936930700684E-003   1504.1483908908599     
  -2.0141672359827008E-002   9.8767765021035500E-003   1503.6418683889581     
  -1.6214093577254927E-002   9.1783829883786573E-003   1503.3941312933534     
  -1.1082757429266343E-002   3.9340037523528694E-003   1503.4195454461424     
  -5.1808366020609370E-003  -7.3002703700146034E-003   1503.7324766894747     
   1.0584961215369081E-003  -2.5968348564828461E-002   1504.3472908654612     
  -587.00384231155647      -0.13859662671396222        1505.5582504534602     
  -584.09697406155283      -0.13071113678333290        1504.4123916522417     
  -581.08686207655808        9.0772539805101360E-002   1503.4646651882094     
  -578.00400400431397       0.42419557750281456        1502.7286914278257     
  -574.87889749259034       0.76789915025031519        1502.2180907377617     
  -571.74204018903959        1.0202244324834737        1501.9464834845669     
  -568.62392974142995        1.0795125983921139        1501.9274900348109     
  -565.55506379758890       0.84410482223123040        1502.1747307550056     
  -562.56594000512337       0.21234227816583484        1502.7018260118296     
  -1173.9066570253847       -3.7143240079672069E-002   1500.9975803643645     
  -1168.0885375731586       -5.3224088682441106E-002   1499.9832796751223     
  -1162.0876796743835       0.29804041377633439        1499.1217442773934     
  -1155.9557090190708       0.84456463404779925        1498.4248583489680     
  -1149.7442512970736        1.4142629390586308        1497.9045060677545     
  -1143.5049321984943        1.8350496953074753        1497.5725716115326     
  -1137.2893774131901        1.9348392697326062        1497.4409391582424     
  -1131.1492126312614        1.5415460291466729        1497.5214928855946     
  -1125.1360635425808       0.48308434018889557        1497.8261169715520     
  -1760.7109871448226       0.30423122511274414        1493.3975675388879     
  -1751.9751779870746       0.23756108526686148        1492.5702000574536     
  -1743.0007788552098       0.63251290689458983        1491.8328451571188     
  -1733.8516070487019        1.2763623584339712        1491.1946601138793     
  -1724.5914798669996        1.9563851083653390        1490.6648022036725     
  -1715.2842146095891        2.4598568250149810        1490.2524287024269     
  -1705.9936285759632        2.5740531766529102        1489.9666968860854     
  -1696.7835390656840        2.0862498318024336        1489.8167640305669     
  -1687.7177633781371       0.78372245884827407        1489.8117874119635     
  -2347.4042247155680       0.88930915524065313        1482.7607773700952     
  -2335.7370126192891       0.74760919019627181        1482.1503600428875     
  -2323.8018328143285        1.1014880605930557        1481.5602427599592     
  -2311.6657577769442        1.7273708455140877        1480.9958651821573     
  -2299.3958599834627        2.4016826239202373        1480.4626669703036     
  -2287.0592119100179        2.9008484752630466        1479.9660877853535     
  -2274.7228860330611        3.0012934782079128        1479.5115672881798     
  -2262.4539548288526        2.4794427119616103        1479.1045451393854     
  -2250.3194907735174        1.1117212556807772        1478.7504610002068     
  -2933.9737617833121        1.7218729367210699        1469.0897752510305     
  -2919.3541587857399        1.4828850313330122        1468.7009668752269     
  -2904.4665147470128        1.7122639162017776        1468.2662120184275     
  -2889.3722208874733        2.2053721900562095        1467.7862420133222     
  -2874.1326684275205        2.7575724516368609        1467.2617881924104     
  -2858.8092485875277        3.1642272997561349        1466.6935818884072     
  -2843.4633525877689        3.2206993333890068        1466.0823544339059     
  -2828.1563716486858        2.7223511511556353        1465.4288371614145     
  -2812.9496969905604        1.4645453520917044        1464.7337614036978     
  -3520.4069903938675        2.8057049554799960        1452.3871265747689     
  -3502.8067338023616        2.4493534140299289        1452.1992277981283     
  -3484.9704978484988        2.4721385152590756        1451.9130278651057     
  -3466.9450560639807        2.7181484869804535        1451.5235590669131     
  -3448.7771819804539        3.0314715567815256        1451.0258536947690     
  -3430.5136491296798        3.2561959523870883        1450.4149440397589     
  -3412.2012310433420        3.2364099012643237        1449.6858623931437     
  -3393.8867012532369        2.8162016311252955        1448.8336410459326     
  -3375.6168332909974        1.8396593696163563        1447.8533122895217     
  -4106.6913025928861        4.1445875981653444        1432.6553967343509     
  -4086.0748549851596        3.6529791433038099        1432.6223500553485     
  -4065.2894553140532        3.3884098992361942        1432.4629652325834     
  -4044.3583229899873        3.2734818314472705        1432.1655848026255     
  -4023.3046774232389        3.2307969053697434        1431.7185513020916     
  -4002.1517380241371        3.1829570867328130        1431.1102072675585     
  -3980.9227242030752        3.0525643408827818        1430.3288952354637     
  -3959.6408553704750        2.7622206333883241        1429.3629577424817     
  -3938.3293509365731        2.2345279296257559        1428.2007373251072     
  -4692.8140904261245        5.7423032508347660        1409.8971511228174     
  -4669.1386396500575        5.0997270244947686        1409.9475408905566     
  -4645.3990603390312        4.4683761093649537        1409.8782990533182     
  -4621.5860813492682        3.8791543180491317        1409.6700876799696     
  -4597.6904315370557        3.3629654628755361        1409.3035688392008     
  -4573.7028397586764        2.9507133564120522        1408.7594045998469     
  -4549.6140348703948        2.6733018110689954        1408.0182570305537     
  -4525.4147457284707        2.5616346393319418        1407.0607882002439     
  -4501.0957011890860        2.6466156536987455        1405.8676601775915     
  -5321.9808217907448       -1596.5942465372234       -267.41818330929743     
  -5347.4212302845563       -1502.9620757989162       -65.535351971440335     
  -5372.2713650788273       -1403.4607959777243        117.48971769411115     
  -5397.1801342066392       -1300.2534338507808        282.93688141535989     
  -5422.7964457011867       -1195.5030161952500        432.08599492031772     
  -5449.7692075955765       -1091.3725697882678        566.21691393698222     
  -5478.7473279229698       -990.02512140698991        686.60949419336407     
  -5510.3797147164842       -893.62369782855478        794.54359141745442     
  -5545.3152760093080       -804.33132583014276        891.29906133728127     
  -5941.3910229714584       -1782.4173068914372       -227.70623415883389     
  -5994.5573183715824       -1684.0254789658159       -19.985159007147590     
  -6041.9605806265436       -1575.4882201304829        165.92360644882089     
  -6084.5292749887622       -1459.9004145599486        331.69813191516789     
  -6123.1918667105847       -1340.3569464286945        479.01648709797627     
  -6158.8768210443432       -1219.9526999111858        609.55674170332395     
  -6192.5126032423568       -1101.7825591819148        724.99696543729738     
  -6225.0276785569877       -988.94140841535830        827.01522800597411     
  -6257.3505122405932       -884.52413178601682        917.28959911544848     
  -6554.1297920555198       -1966.2389376166559       -183.07251011356576     
  -6639.0671309455875       -1862.1359909096243        29.183248351114262     
  -6712.5474985699984       -1744.4340203626323        217.40731127910968     
  -6775.7060728541110       -1616.9169523934081        383.47030158610380     
  -6829.6780317231578       -1483.3687134196398        529.24284218777109     
  -6875.5985531025190       -1347.5732298590656        656.59555599980831     
  -6914.6028149174799       -1213.3144281293789        767.39906593789181     
  -6947.8259950933571       -1084.3762346483127        863.52399491770962     
  -6976.4032715554667       -964.54257583358640        946.84096585495024     
  -7168.4341285506171       -2150.5302385651853       -132.46770203934128     
  -7285.9829532179392       -2038.8032971937585        82.600116393612311     
  -7386.4472920196849       -1911.0227486073211        272.23700093525139     
  -7471.0961910079359       -1771.4187463127350        438.30046694239269     
  -7541.1986962347055       -1624.2214438168335        582.64802977183774     
  -7598.0238537520408       -1473.6609946264698        707.13720478039465     
  -7642.8407096120482       -1323.9675522485015        813.62550732488273     
  -7676.9183098667299       -1179.3712701897769        903.97045276210201     
  -7701.5257005681769       -1044.1023019571458        980.02955644886833     
  -7792.5410319645425       -2337.7623095893628       -74.842500802020524     
  -7940.3370703999908       -2215.5370833816191        140.89569141057510     
  -8066.0751340860634       -2075.9789567976891        330.70884416751801     
  -8171.0852926556081       -1923.5214952795488        496.23570449828719     
  -8256.6976157410299       -1762.5982642690262        639.11501943231929     
  -8324.2421729748930       -1597.6428292080091        760.98553599907143     
  -8375.0490339897879       -1433.0887555383911        863.48600122800929     
  -8410.4482684182803       -1273.3696087020674        948.25516214858908     
  -8431.7699458929401       -1122.9189541409139        1016.9317657902704     
  -8434.6875018049250       -2530.4062505414777       -9.1475972674583144     
  -8607.1617677028225       -2393.8470350365369        204.70021969224976     
  -8753.8461978797168       -2240.0271968669144        393.11900972619497     
  -8876.0590410024888       -2073.3408982554552        557.32309076802699     
  -8975.1185457379652       -1898.1823014249558        698.52678075135009     
  -9052.3429607530088       -1718.9455685982716        817.94439760981322     
  -9109.0505347144644       -1540.0248619981958        916.79025927702821     
  -9146.5595162892278       -1365.8143438476052        996.27868368665281     
  -9166.1881541440671       -1200.7081763692634        1057.6239887722786     
  -9103.1105375797506       -2730.9331612739247        65.666317698485031     
  -9291.4893303379777       -2575.2428377219635        274.64394752886074     
  -9452.1756565110300       -2403.8920207481115        459.76366636154398     
  -9586.4030992538665       -2220.9926542020298        621.60970226583584     
  -9695.4052417213170       -2030.6566819333736        760.76628331107145     
  -9780.4156670683660       -1836.9960477918280        877.81763756658427     
  -9842.6679584498470       -1644.1226956270455        973.34799310168728     
  -9883.3956990206643       -1456.1485692886552        1047.9415779856881     
  -9903.8324719357242       -1277.1856126263510        1102.1826202879270     
  -9806.0471387965790       -2941.8141416389740        150.64855322996752     
  -9998.3520435165774       -2761.2341770012458        351.35712121066649     
  -10163.478683090520       -2568.2979803744183        530.93898282381656     
  -10302.503130615039       -2366.5924620808746        689.14261550595813     
  -10416.501459186929       -2159.7045324430292        825.71649669362603     
  -10506.549741902872       -1951.2211017832553        940.40910382334960     
  -10573.724051859606       -1744.7290804240035        1032.9689143316978     
  -10619.100462153820       -1543.8153786876228        1103.1444056551793     
  -10643.755045882259       -1352.0669068965371        1150.6840552303461     
  -10551.734304963207       -3165.5202914889624        246.84841846112036     
  -10732.782192449962       -2953.3307384377863        435.46998702790842     
  -10890.170450728643       -2733.9696276789978        606.94112786331561     
  -11024.744798291365       -2510.2560208535933        759.96890700263225     
  -11137.350953630579       -2285.0089796026487        893.26039048113989     
  -11228.834635238502       -2061.0475655671762        1005.5226443341069     
  -11300.041561607504       -1841.1908403882369        1095.4627345968254     
  -11351.817451229817       -1628.2578657068427        1161.7877273045540     
  -11385.008022597855       -1425.0677031640907        1203.2046884926081     
  -5545.3152760093080       -804.33132583014276        891.29906133728127     
  -5579.2568385139502       -722.43508938346554        978.67873632035980     
  -5607.3901497220068       -646.49847505711341        1057.5864431463574     
  -5629.5884988351891       -576.09911352345875        1127.9535291614745     
  -5645.7251750552023       -510.81463545488896        1189.7113417119101     
  -5655.6734675837661       -450.22267152378413        1242.7912281438694     
  -5659.3066656226238       -393.90085240257827        1287.1245358035762     
  -5656.4980583734505       -341.42680876357690        1322.6426120372034     
  -5647.1209350379868       -292.37817127922904        1349.2768041909724     
  -6257.3505122405932       -884.52413178601682        917.28959911544848     
  -6287.7199854967530       -790.20009677242706        998.52390387770288     
  -6313.5591885647054       -704.91936763872104        1072.1775783606283     
  -6334.5729002502922       -627.69787373760437        1138.0621087041736     
  -6350.4658993593275       -557.55154442186540        1195.9889810482764     
  -6360.9429646976769       -493.49630904437481        1245.7696815328995     
  -6365.7088750711346       -434.54809695775748        1287.2156962979700     
  -6364.4684092855605       -379.72283751490522        1320.1385114834500     
  -6356.9263461467744       -328.03646006853751        1344.3496132292789     
  -6976.4032715554667       -964.54257583358640        946.84096585495024     
  -7001.5893077012224       -856.85039600459913        1021.0230984096705     
  -7023.6064666116426       -760.89563842611688        1088.3479531129879     
  -7042.0414757374310       -675.30072793394652        1148.5928141871434     
  -7056.4810625293485       -598.68808936378537        1201.5349658544146     
  -7066.5119544380750       -529.68014755138711        1246.9516923370345     
  -7071.7208789143888       -466.89932733255819        1284.6202778572872     
  -7071.6945634090116       -408.96805354307730        1314.3180066374248     
  -7066.0197353726226       -354.50875101861152        1335.8221628996796     
  -7701.5257005681769       -1044.1023019571458        980.02955644886833     
  -7720.9968835002883       -922.42561059184982        1046.4416073045031     
  -7738.4992531698927       -814.71746821152078        1106.4928784059002     
  -7753.5519447134147       -719.37499193753933        1160.0121113462051     
  -7765.6740932672446       -634.79529889117089        1206.8280477185488     
  -7774.3848339677743       -559.37550619380295        1246.7694291160674     
  -7779.2033019513974       -491.51273096670980        1279.6649971318939     
  -7779.6486323545550       -429.60409033132464        1305.3434933591777     
  -7775.2399603136000       -372.04670140891221        1323.6336593910378     
  -8431.7699458929401       -1122.9189541409139        1016.9317657902704     
  -8446.0747912668376       -986.96536404605035        1075.0447179504260     
  -8459.2048175465825       -866.67503778707169        1127.0076652418645     
  -8470.6620265950241       -760.38798157341944        1172.7864659171623     
  -8479.9484202750373       -666.44420161469543        1212.3469782289212     
  -8486.5660004494566       -583.18370412034665        1245.6550604297167     
  -8490.0167689811606       -508.94649529991511        1272.6765707721436     
  -8489.8027277329620       -442.07258136289192        1293.3773675087691     
  -8485.4258785677521       -380.90196851884230        1307.7233088921998     
  -9166.1881541440671       -1200.7081763692634        1057.6239887722786     
  -9176.9551093738100       -1050.5092798791468        1107.0977177357006     
  -9186.6904290487892       -917.05852794485713        1150.2876246233568     
  -9194.9294407990747       -798.80701266667484        1187.3823436358505     
  -9201.2074722547532       -694.20582614492787        1218.5705089737819     
  -9205.0598510459004       -601.70606047988258        1244.0407548377618     
  -9206.0219048026356       -519.75880777183602        1263.9817154283949     
  -9203.6289611550037       -446.81516012101747        1278.5820249462774     
  -9197.4163477331240       -381.32620962783312        1288.0303175920239     
  -9903.8324719357242       -1277.1856126263510        1102.1826202879270     
  -9913.7699161941182       -1113.0969816028928        1142.8658940485341     
  -9921.9233569836160       -966.15811947699240        1176.7280675528436     
  -9927.9119067423253       -835.09940104228963        1204.2662102380480     
  -9931.3546779083699       -718.65120109247573        1225.9773915413523     
  -9931.8707829198247       -615.54389442119964        1242.3586808999389     
  -9929.0793342148118       -524.50785582213484        1253.9071477510063     
  -9922.5994442314295       -444.27346008890663        1261.1198615317487     
  -9912.0502254077401       -373.57108201519486        1264.4938916793351     
  -10643.755045882259       -1352.0669068965371        1150.6840552303461     
  -10656.651290100643       -1174.7680927292263        1182.6145342771702     
  -10665.870870658122       -1014.2639931756171        1206.7243050328048     
  -10671.167143841581       -869.73246252530544        1223.9045314595894     
  -10672.293465937917       -740.35135506793813        1235.0463775198789     
  -10669.003193234013       -625.29852509318562        1241.0410071760355     
  -10661.049682016735       -523.75182689056373        1242.7795843903648     
  -10648.186288572999       -434.88911474980887        1241.1532731252526     
  -10630.166369189670       -357.88824296045277        1237.0532373430144     
  -11385.008022597855       -1425.0677031640907        1203.2046884926081     
  -11405.731309466328       -1235.5622367700244        1226.6089258098557     
  -11419.500239379444       -1061.6663298328681        1240.6716480657310     
  -11426.252871513649       -903.17351294077389        1246.7637730362883     
  -11425.927265045402       -759.87731668194920        1246.2562184976105     
  -11418.461479151136       -631.57127164455915        1240.5199022257541     
  -11403.793573007366       -518.04890841684664        1230.9257419968235     
  -11381.861605790491       -419.10375758690952        1218.8446555868461     
  -11352.603636676988       -334.52934974300251        1205.6475607719162     
  -5647.1209350379868       -292.37817127922904        1349.2768041909724     
  -5633.9400642103637       -247.23405625386840        1369.6570632244870     
  -5619.7651047892014       -206.62321434013234        1386.6866913462102     
  -5604.5366814329545       -170.34772773287273        1400.7070627756661     
  -5588.1954188000582       -138.20967862689463        1412.0595517323650     
  -5570.6819415489763       -110.01114921705812        1421.0855324358331     
  -5551.9368743381501       -85.554221698161655        1428.1263791055794     
  -5531.9008418260382       -64.640978265064632        1433.5234659611328     
  -5510.5144686710883       -47.073501112582790        1437.6181672220173     
  -6356.9263461467744       -328.03646006853751        1344.3496132292789     
  -6344.9919518853912       -279.33363918080863        1362.2682291175686     
  -6330.7952386422312       -234.19486911460149        1376.7074692656754     
  -6314.3721040884429       -192.73980877376198        1388.0696436164314     
  -6295.7584458952342       -155.08811706224492        1396.7570621126717     
  -6274.9901617337509       -121.35945288395123        1403.1720346972195     
  -6252.1031492751845       -91.673475142787311        1407.7168713129122     
  -6227.1333061906953       -66.149842742680448        1410.7938819025815     
  -6200.1165301514620       -44.908214587486555        1412.8053764090516     
  -7066.0197353726226       -354.50875101861152        1335.8221628996796     
  -7055.6223259054677       -302.79665869096107        1351.2792238350705     
  -7041.7593250103309       -254.21054516718823        1363.2601302941619     
  -7024.5140484918393       -209.02812979605324        1372.1788619885340     
  -7003.9698121546035       -167.52713192626607        1378.4493986297916     
  -6980.2099318032597       -129.98527090658445        1382.4857199295577     
  -6953.3177232424350       -96.680266085771109        1384.7018055994208     
  -6923.3765022767448       -67.889836812559679        1385.5116353509968     
  -6890.4695847108105       -43.891702435711977        1385.3291888958772     
  -7775.2399603136000       -372.04670140891221        1323.6336593910378     
  -7765.9847993787807       -317.66919871686014        1336.4045448004433     
  -7752.2664923819239       -266.55298104454687        1345.8902937821420     
  -7734.1679183818360       -218.97431192138492        1352.4672898619783     
  -7711.7719564373256       -175.20945487670224        1356.5119165657829     
  -7685.1614856071774       -135.53467343980174        1358.4005574193807     
  -7654.4193849502335       -100.22623114011321        1358.5095959486375     
  -7619.6285335252896       -69.560391507004169        1357.2154156793620     
  -7580.8718103911442       -43.813418069797535        1354.8944001374132     
  -8485.4258785677521       -380.90196851884230        1307.7233088921998     
  -8476.2329854134896       -323.99734319093022        1317.3586894371069     
  -8461.9258692453641       -271.10491529320325        1324.1435790801208     
  -8442.5391174971410       -222.33997627142480        1328.3674992067997     
  -8418.1073176025311       -177.81781757130511        1330.3199712026767     
  -8388.6650569952180       -137.65373063858260        1330.2905164532447     
  -8354.2469231089672       -101.96300691899387        1328.5686563440750     
  -8314.8875033774802       -70.860937858339639        1325.4439122606716     
  -8270.6213852344936       -44.462814902328773        1321.2058055885736     
  -9197.4163477331240       -381.32620962783312        1288.0303175920239     
  -9186.5204971177154       -321.82717604561640        1293.8561551684854     
  -9170.3465840890367       -267.74908645962023        1297.5656055386032     
  -9148.8330495764440       -218.88674396770784        1299.3120619930471     
  -9121.9183345093224       -175.03495166775883        1299.2489178225055     
  -9089.5408798170538       -135.98851265778012        1297.5295663176889     
  -9051.6391264289905       -101.54223003556763        1294.3074007692639     
  -9008.1515152744778       -71.490906899004585        1289.7358144678951     
  -8959.0164872829155       -45.629346346015154        1283.9682007043136     
  -9912.0502254077401       -373.57108201519486        1264.4938916793351     
  -9897.0009475995867       -311.20478121325414        1265.6114394179945     
  -9877.1377654012485       -256.36823309023657        1265.7019925080240     
  -9852.2551183584183       -208.37623613181586        1264.7335501906987     
  -9822.1474460168720       -166.54358882389988        1262.6741117073359     
  -9786.6091879223532       -130.18508965228239        1259.4916762992270     
  -9745.4347836205980       -98.615537102747112        1255.1542432076928     
  -9698.4186726573807       -71.149729661203764        1249.6298116740315     
  -9645.3552945783977       -47.102465813352865        1242.8863809395223     
  -10630.166369189670       -357.88824296045277        1237.0532373430144     
  -10607.827949967321       -292.17624262648542        1232.3390396090981     
  -10581.908541670397       -236.84509373163155        1228.0983593388944     
  -10552.010727581765       -190.57007388541660        1224.0645357698004     
  -10517.737090984316       -152.02646069740194        1219.9709081392039     
  -10478.690215160859       -119.88953177707526        1215.5508156844587     
  -10434.472683394230       -92.834564733847856        1210.5375976429391     
  -10384.687078967348       -69.536837177347024        1204.6645932520560     
  -10328.935985163012       -48.671626717036816        1197.6651417491544     
  -11352.603636676988       -334.52934974300251        1205.6475607719162     
  -11319.155117329008       -264.78764421757569        1193.7534531651877     
  -11284.268041384859       -209.06240693030122        1184.3003253817103     
  -11247.305280985205       -165.22987835014101        1176.7375907003905     
  -11207.629708270757       -131.16629894603602        1170.5146624001436     
  -11164.604195382210       -104.74790918698591        1165.0809537598773     
  -11117.591614460218       -83.850949541903901        1159.8858780585115     
  -11065.954837645506       -66.351660479795100        1154.3788485749471     
  -11009.056737078770       -50.126282469595026        1148.0092785881272     
  -5510.5144686710883       -47.073501112582790        1437.6181672220173     
  -5488.2363036872866       -32.769856658073650        1440.9439141308694     
  -5465.4729488436478       -21.474955168874430        1443.7390721487266     
  -5442.0871085310773       -12.731144614673667        1445.9024168226049     
  -5417.9414871404733       -6.0807729652133276        1447.3327236995124     
  -5392.8987890627941       -1.0661881902444748        1447.9287683265250     
  -5366.8217186889506        2.7702617404838747        1447.5893262506461     
  -5339.5729804098510        5.8862288572734087        1446.2131730189049     
  -5311.0152786164263        8.7393651903475984        1443.6990841783456     
  -6200.1165301514620       -44.908214587486555        1412.8053764090516     
  -6172.2969199512718       -28.298184531524612        1414.4301046362539     
  -6144.7438156324861       -16.086817257555822        1415.9770889972897     
  -6117.2309767391989       -7.5199779126023714        1417.2940483487666     
  -6089.5321628154834       -1.8435316435679852        1418.2287015472707     
  -6061.4211334054498        1.6966564025087791        1418.6287674494195     
  -6032.6716480531422        3.8547210788428856        1418.3419649118089     
  -6003.0574663026619        5.3847972384123750        1417.2160127910367     
  -5972.3523476980736        7.0410197343312575        1415.0986299436922     
  -6890.4695847108105       -43.891702435711977        1385.3291888958772     
  -6856.6997941916670       -25.383968142684353        1385.0257239743278     
  -6823.9253831390915       -12.249501696718653        1385.0768379762249     
  -6791.8628105167736       -3.5431663101771846        1385.3030200874612     
  -6760.2285352884192        1.6801748045786553        1385.5247594939945     
  -6728.7390164177659        4.3656584351656420        1385.5625453818075     
  -6697.1107128685217        5.4584213691450714        1385.2368669368161     
  -6665.0600836044050        5.9036003941687341        1384.3682133450054     
  -6632.3035875891401        6.6463322977706412        1382.7770737922972     
  -7580.8718103911442       -43.813418069797535        1354.8944001374132     
  -7541.0795203868129       -23.917585685159793        1352.6111298727903     
  -7502.9205840786562       -9.9338883009140773        1351.0573207749974     
  -7466.0858041164902      -0.83166808312989815        1350.0500593791235     
  -7430.2659831501423        4.4197328020995883        1349.4064322202385     
  -7395.1519238294504        6.8509721887003252        1348.9435258334402     
  -7360.4344288041930        7.4927079106228121        1348.4784267537636     
  -7325.8043007242431        7.3755978017211419        1347.8282215163147     
  -7290.9523422394141        7.5302996959253505        1346.8099966561838     
  -8270.6213852344936       -44.462814902328773        1321.2058055885736     
  -8225.0706925150043       -23.789415352409833        1317.0666800592717     
  -8181.6323511663923       -9.1108568847139395        1313.9375390831667     
  -8140.0031517911248       0.58355849262443371        1311.6558935642774     
  -8099.8798849915656        6.3045287716136045        1310.0592544065739     
  -8060.9593413701423        9.0627519442919038        1308.9851325140576     
  -8022.9383115292585        9.8689260025312251        1308.2710387906932     
  -7985.5135860713081        9.7337489384140099        1307.7544841404567     
  -7948.3819555987302        9.6679187438271583        1307.2729794673651     
  -8959.0164872829155       -45.629346346015154        1283.9682007043136     
  -8908.3079045545001       -24.889835337876320        1278.2727322614437     
  -8859.9636171175025       -9.7512872627316938        1273.7364945902643     
  -8813.7180477933489       0.67155514133082761        1270.2412499834143     
  -8769.3056194035562        7.2639491359109343        1267.6687607335728     
  -8726.4607547695687        10.911151982936644        1265.9007891334536     
  -8684.9178767128251        12.498420944150439        1264.8190974756785     
  -8644.4114080548152        12.911013281351643        1264.3054480529306     
  -8604.6757716169886        13.034186256323665        1264.2416031579112     
  -9645.3552945783977       -47.102465813352865        1242.8863809395223     
  -9590.4257504836205       -27.109223835072498        1236.1096442069820     
  -9537.8173146471363       -11.826059249397531        1230.4731889857601     
  -9487.3336863759287      -0.59863641288575309        1225.9268559769887     
  -9438.7785649770030        7.2273803177358786        1222.4204858818096     
  -9391.9556497573649        12.306326585805436        1219.9039194013617     
  -9346.6686400239505        15.292538034861991        1218.3269972367887     
  -9302.7212350838417        16.840350307980771        1217.6395600892267     
  -9259.9171342439640        17.604099048712214        1217.7914486598077     
  -10328.935985163012       -48.671626717036816        1197.6651417491544     
  -10271.058824280686       -30.337959037540713        1190.4577736235551     
  -10215.096376470538       -15.306052659326269        1184.1666239592057     
  -10160.953261791565       -3.2579744457984816        1178.8334388855033     
  -10108.534100302802        6.1242087397904470        1174.4999645318410     
  -10057.743512063202        13.158430034094636        1171.2079470275712     
  -10008.486117131803        18.162622573750923        1168.9991325021156     
  -9960.6665355675868        21.454719495467998        1167.9152670848443     
  -9914.1893874295001        23.352653936029583        1167.9980969051026     
  -11009.056737078770       -50.126282469595026        1148.0092785881272     
  -10949.841719923927       -34.466419138619131        1141.1974782387936     
  -10891.703735302855       -20.162147307086798        1134.8358012001088     
  -10834.679968292985       -7.3374172331950831        1129.0817260494539     
  -10778.807603971802        3.8838208248134833        1124.0927313642133     
  -10724.123827416812        13.377616608681819        1120.0262957218399     
  -10670.665823705442        21.020019860155116        1117.0398976997244     
  -10618.470777915178        26.687080321034955        1115.2910158752543     
  -10567.575875123519        30.254847733035149        1114.9371288258615     
  -5311.0152786164263        8.7393651903475984        1443.6990841783456     
  -5281.9989661961181        11.420030890556063        1440.6094591843439     
  -5253.4680188897464        13.706509930763104        1437.6125035677542     
  -5225.4255753683019        15.588340074424423        1434.7657019888586     
  -5197.8747743027789        17.055059084804270        1432.1265391078857     
  -5170.8187543641461        18.096204725349253        1429.7524995850679     
  -5144.2606542234407        18.701314759347270        1427.7010680806945     
  -5118.2036125516061        18.859926950221507        1426.0297292549722     
  -5092.6507680196428        18.561579061335124        1424.7959677681713     
  -5972.3523476980736        7.0410197343312575        1415.0986299436922     
  -5941.0577553743251        9.2177299947197753        1412.3883151435737     
  -5909.8617225948992        11.687369019299695        1409.6380331242517     
  -5878.8178640967262        14.271221018278084        1406.9272016820075     
  -5847.9797946168956        16.790570201389301        1404.3352386131239     
  -5817.4011288923612        19.066700778689437        1401.9415617138607     
  -5787.1354816600633        20.920896960529717        1399.8255887805176     
  -5757.2364676570651        22.174442956553321        1398.0667376093559     
  -5727.7577016203340        22.648622976960951        1396.7444259966583     
  -6632.3035875891401        6.6463322977706412        1382.7770737922972     
  -6598.9387715850689        8.3306753029105494        1380.6490453591953     
  -6565.3094490252070        10.779798730263337        1378.3486655246761     
  -6531.5014788791641        13.707506014413866        1375.9648340722754     
  -6497.6007201165730        16.827600589972462        1373.5864507855792     
  -6463.6930317070137        19.853885891619029        1371.3024154481934     
  -6429.8642726201751        22.500165353788361        1369.2016278436906     
  -6396.2003018256473        24.480242411111703        1367.3729877556757     
  -6362.7869782930338        25.507920498266685        1365.9053949676925     
  -7290.9523422394141        7.5302996959253505        1346.8099966561838     
  -7255.5689830745232        8.7807763412333770        1345.3765409404734     
  -7219.6173654338727        11.041948887506805        1343.6598725277297     
  -7183.1973606863603        13.980912771658041        1341.7459220401111     
  -7146.4088402007883        17.264763431000574        1339.7206200997693     
  -7109.3516753461154        20.560596302401791        1337.6698973288792     
  -7072.1257374912011        23.535506822957814        1335.6796843496027     
  -7034.8308980049360        25.856590429748394        1333.8359117840823     
  -6997.5670282562023        27.190942559750511        1332.2245102545105     
  -7948.3819555987302        9.6679187438271583        1307.2729794673651     
  -7910.8753580888715        10.589942635818261        1306.5556929966349     
  -7872.5916390740394        12.531969315015886        1305.4871258921787     
  -7833.6264504890269        15.175158998853476        1304.1377884660396     
  -7794.0754442685793        18.200671904662158        1302.5781910302101     
  -7754.0342723474969        21.289668249870374        1300.8788438966885     
  -7713.5985866605824        24.123308251876097        1299.1102573775588     
  -7672.8640391425924        26.382752128090033        1297.3429417847685     
  -7631.9262817283061        27.749160095876050        1295.6474074303344     
  -8604.6757716169886        13.034186256323665        1264.2416031579112     
  -8564.7848648742583        13.780083712843862        1264.1713926369516     
  -8524.0384371988184        15.308009837027839        1263.7458973768100     
  -8482.5096892579422        17.373962404626127        1263.0077562305808     
  -8440.2718217189213        19.733939191284662        1261.9996080514020     
  -8397.3980352490962        22.143937972639833        1260.7640916924636     
  -8353.9615305158077        24.359956524168410        1259.3438460069137     
  -8310.0355081862563        26.137992621838748        1257.7815098478234     
  -8265.6931689278426        27.234044041005745        1256.1197220684126     
  -9259.9171342439640        17.604099048712214        1217.7914486598077     
  -9217.2244716768237        18.373109098548866        1218.2085309706890     
  -9173.7639270612963        19.428220277634409        1218.3516587403021     
  -9129.5680179638166        20.661040697891622        1218.2231482141933     
  -9084.6692619508412        21.963178471184165        1217.8253156379110     
  -9039.1001765888250        23.226241709213809        1217.1604772569763     
  -8992.8932794442371        24.341838523835122        1216.2309493169907     
  -8946.0810880835652        25.201577026751238        1215.0390480634740     
  -8898.6961200732148        25.697065329902216        1213.5870897419616     
  -9914.1893874295001        23.352653936029583        1167.9980969051026     
  -9868.1211467427875        24.390928318909573        1168.6519991070847     
  -9821.5742759146779        24.950750460726795        1169.2198817414417     
  -9774.5223775774066        25.120111587446900        1169.6512872973924     
  -9726.9390543633108        24.987002924659919        1169.8957582642097     
  -9678.7979089045639        24.639415698331504        1169.9028371310537     
  -9630.0725438333975        24.165341134445953        1169.6220663871866     
  -9580.7365617821342        23.652770458560099        1169.0029885218541     
  -9530.7635653829511        23.189694896741003        1167.9951460242185     
  -10567.575875123519        30.254847733035149        1114.9371288258615     
  -10517.401858318270        31.855450900197866        1115.4866881554099     
  -10467.275651012043        31.933750210520884        1116.2660381389624     
  -10417.093709069497        30.834892781893814        1117.1594963607145     
  -10366.752488355349        28.904025731994352        1118.0513804048319     
  -10316.148444734201        26.486296178677094        1118.8260078554586     
  -10265.178034070757        23.926851239694770        1119.3676962968539     
  -10213.737712229646        21.570838032873780        1119.5607633131103     
  -10161.723935075561        19.763403675980499        1119.2895264884571     
  -5092.6507680196428        18.561579061335124        1424.7959677681713     
  -5067.3750650104621        17.877692447152867        1423.8435053249293     
  -5042.1325354172714        16.936063427798672        1422.9492254276747     
  -5016.9009491765282        15.810792215084120        1422.0703554333247     
  -4991.6580762246685        14.575979020836030        1421.1641226987917     
  -4966.3816864981827        13.305724056854388        1420.1877545810651     
  -4941.0495499335002        12.074127534959871        1419.0984784370053     
  -4915.6394364670687        10.955289667006582        1417.8535216235737     
  -4890.1291160353558        10.023310664780183        1416.4101114977016     
  -5727.7577016203340        22.648622976960951        1396.7444259966583     
  -5698.6790141050469        22.242935444869545        1395.7596808038702     
  -5669.9062853912601        21.103379700548658        1394.9232565718601     
  -5641.3822048032962        19.420991329521712        1394.1791626160004     
  -5613.0494616655578        17.386805917168203        1393.4714082516946     
  -5584.8507453023440        15.191859049101140        1392.7440027943287     
  -5556.7287450380372        13.027186310764819        1391.9409555592958     
  -5528.6261501969875        11.083823287601717        1391.0062758619795     
  -5500.4856501035347        9.5528055652271178        1389.8839730177726     
  -6362.7869782930338        25.507920498266685        1365.9053949676925     
  -6329.8340495265293        25.343796957883114        1364.7890414562967     
  -6297.4405459290392        24.117526136911238        1363.9134991169385     
  -6265.5262508182395        22.096496976373601        1363.2167376113480     
  -6234.0109475118315        19.548098417315941        1362.6367266013858     
  -6202.8144193274866        16.739719400859258        1362.1114357489400     
  -6171.8564495829396        13.938748867819186        1361.5788347157709     
  -6141.0568215958374        11.412575759345600        1360.9768931637689     
  -6110.3353186839031        9.4285890164255761        1360.2435807547213     
  -6997.5670282562023        27.190942559750511        1332.2245102545105     
  -6960.7687812796157        27.201693984614394        1330.9389597215038     
  -6924.7435971416135        25.976018703380305        1329.9748586617686     
  -6889.4005277586239        23.817076994482250        1329.2713154715536     
  -6854.6486250471635        21.028029136202804        1328.7674385471080     
  -6820.3969409236934        17.912035407091480        1328.4023362846801     
  -6786.5545273047255        14.772256085347180        1328.1151170805119     
  -6753.0304361067683        11.911851449342976        1327.8448893308316     
  -6719.7337192462983        9.6339817774346557        1327.5307614319370     
  -7631.9262817283061        27.749160095876050        1295.6474074303344     
  -7591.4118193689928        27.838043523702254        1294.2168080387080     
  -7551.8237191398521        26.676373366793996        1293.1622408053242     
  -7513.0724761616775        24.562499222586212        1292.4311312488746     
  -7475.0685855551619        21.794770688751214        1291.9709048880125     
  -7437.7225424410308        18.671537362790332        1291.7289872413075     
  -7400.9448419400742        15.491148842191251        1291.6528038274666     
  -7364.6459791730103        12.551954724511688        1291.6897801650853     
  -7328.7364492605566        10.152304607324822        1291.7873417728094     
  -8265.6931689278426        27.234044041005745        1256.1197220684126     
  -8221.6917737992626        27.274262573803298        1254.6299588471800     
  -8178.6891920347171        26.216106093805138        1253.5305511465870     
  -8136.6095365646252        24.312531499643683        1252.7844199956053     
  -8095.3769203194388        21.816495689906787        1252.3544864232761     
  -8054.9154562296062        18.980955562996314        1252.2036714586395     
  -8015.1492572255720        16.058868017446912        1252.2948961306549     
  -7976.0024362377208        13.303189952066077        1252.5910814683587     
  -7937.3991061965235        10.966878265149262        1253.0551485007727     
  -8898.6961200732148        25.697065329902216        1213.5870897419616     
  -8851.5372545750615        25.531768133640981        1212.1857845861841     
  -8805.3482959370467        24.592732851288474        1211.1346952843846     
  -8760.0791495046924        23.046941664482347        1210.4194167639082     
  -8715.6797206236606        21.061376754417324        1210.0255439521336     
  -8672.0999146394988        18.803020302552341        1209.9386717764057     
  -8629.2896368977672        16.438854490294943        1210.1443951641168     
  -8587.1987927441023        14.135861498921258        1210.6283090425934     
  -8545.7772875240389        12.061023509966617        1211.3760083392040     
  -9530.7635653829511        23.189694896741003        1167.9951460242185     
  -9480.8768717011535        22.631977201495374        1166.8916576949880     
  -9431.8093109578222        21.803769605862726        1166.0295788177034     
  -9383.5487555191557        20.745497555898055        1165.4243566060470     
  -9336.0830777514475        19.497586497347129        1165.0914382737594     
  -9289.4001500207833        18.100461876501868        1165.0462710344598     
  -9243.4878446933290        16.594549139527771        1165.3043021018689     
  -9198.3340341353396        15.020273732213354        1165.8809786896531     
  -9153.9265907129484        13.418061100812793        1166.7917480115148     
  -10161.723935075561        19.763403675980499        1119.2895264884571     
  -10109.639235182110        18.596306776307756        1118.7549506128460     
  -10058.080517207949        17.846732324293953        1118.2701073454775     
  -10007.085795145291        17.387967012542504        1117.8874745743028     
  -9956.6930829863959        17.093297533564055        1117.6595301873140     
  -9906.9403947235460        16.836010579895628        1117.6387520725345     
  -9857.8657443488664        16.489392844138365        1117.8776181179160     
  -9809.5071458546299        15.926731018909322        1118.4286062114295     
  -9761.9026132331346        15.021311796610462        1119.3441942411150     
  -4890.1291160353558        10.023310664780183        1416.4101114977016     
  -4864.6616965816320        9.2860265624558451        1414.9269118048467     
  -4839.4022589401375        8.6780304244239233        1413.6020454706775     
  -4814.3615323836575        8.1635580079423562        1412.4519286224358     
  -4789.5502461850529        7.7068450701765414        1411.4929773873369     
  -4764.9791296171761        7.2721273683980598        1410.7416078925714     
  -4740.6589119528535        6.8236406597100085        1410.2142362654299     
  -4716.6003224648593        6.3256207014778738        1409.9272786331273     
  -4692.8140904261245        5.7423032508347660        1409.8971511228174     
  -5500.4856501035347        9.5528055652271178        1389.8839730177726     
  -5472.3239676409048        8.5554836100450302        1388.6851215395150     
  -5444.2204301557740        8.0045263438562415        1387.5748111600326     
  -5416.2116336674444        7.7779470354716977        1386.5780740246560     
  -5388.3341741954064        7.7537589533849314        1385.7199422787430     
  -5360.6246477590339        7.8099753663125284        1385.0254480676226     
  -5333.1196503777210        7.8246095429524303        1384.5196235366288     
  -5305.8557780709261        7.6756747517745225        1384.2275008311301     
  -5278.8696268579715        7.2411842616384092        1384.1741120964612     
  -6110.3353186839031        9.4285890164255761        1360.2435807547213     
  -6079.5676742922396        8.1995843434458493        1359.4182185049115     
  -6048.7190392704842        7.6402994297291116        1358.6013559815112     
  -6017.8433230430128        7.5710361939163704        1357.8228056726045     
  -5986.9944350342912        7.8120965545683703        1357.1123800663343     
  -5956.2262846688163        8.1837824300641842        1356.4998916508134     
  -5925.5927813709104        8.5063957391196254        1356.0151529141879     
  -5895.1478345650994        8.6002384001706105        1355.6879763445816     
  -5864.9453536757601        8.2856123318235859        1355.5481744300696     
  -6719.7337192462983        9.6339817774346557        1327.5307614319370     
  -6686.4002507283376        8.2160985048731163        1327.1282279419779     
  -6652.8683162722964        7.5942806855978233        1326.6538825920491     
  -6619.2005853660567        7.5596300266424805        1326.1384825377143     
  -6585.4597274975513        7.9032482348411577        1325.6127849345241     
  -6551.7084121547587        8.4162370170429313        1325.1075469380492     
  -6518.0093088255362        8.8896980803592669        1324.6535257038661     
  -6484.4250869978896        9.1147331314141411        1324.2814783874987     
  -6451.0184161596890        8.8824438772494432        1324.0221621445046     
  -7328.7364492605566        10.152304607324822        1291.7873417728094     
  -7292.8291311419471        8.6027958364261394        1291.8171750916640     
  -7256.6384911492751        7.8754011149162579        1291.7045936486550     
  -7220.2274054922827        7.7605330767942178        1291.4774635914478     
  -7183.6587503809224        8.0486043556120421        1291.1636510677408     
  -7146.9954020251735        8.5300275849649552        1290.7910222251230     
  -7110.3002366347700        8.9952153986896519        1290.3874432112691     
  -7073.6361304197153        9.2345804304432022        1289.9807801738618     
  -7037.0659595898378        9.0385353139404288        1289.5988992605551     
  -7937.3991061965235        10.966878265149262        1253.0551485007727     
  -7898.8617497258147        9.3574460803783950        1253.4870851949656     
  -7859.9997938893375        8.4925917215846312        1253.7256918083697     
  -7820.8677682773387        8.1905498879245897        1253.7921078053619     
  -7781.5202024802402        8.2695552780496655        1253.7074726503818     
  -7742.0116260883033        8.5478425911619524        1253.4929258078421     
  -7702.3965686917991        8.8436465261456760        1253.1696067421385     
  -7662.7295598810433        8.9752017820565015        1252.7586549177238     
  -7623.0651292463399        8.7607430579819265        1252.2812097990286     
  -8545.7772875240389        12.061023509966617        1211.3760083392040     
  -8504.5055406726151        10.477818978933101        1212.1399834928568     
  -8462.9224544805438        9.4547835090347689        1212.6893797281348     
  -8421.0656585770212        8.8664850030213529        1213.0347741508774     
  -8378.9727825912414        8.5874913635398116        1213.1867438669101     
  -8336.6814561524043        8.4923704932966757        1213.1558659820639     
  -8294.2293088897095        8.4556902949789219        1212.9527176022216     
  -8251.6539704323295        8.3520186712426039        1212.5878758331771     
  -8208.9930704094222        8.0559235249561425        1212.0719177807960     
  -9153.9265907129484        13.418061100812793        1166.7917480115148     
  -9109.7679381751204        11.961684274190702        1167.7778952262856     
  -9065.3767029109549        10.770907480803544        1168.5678600649792     
  -9020.7650612469806        9.8051429655592983        1169.1578215994730     
  -8975.9451895097736        9.0238029732363430        1169.5439589017553     
  -8930.9292640258536        8.3862997487390203        1169.7224510436679     
  -8885.7294611217094        7.8520455370398849        1169.6894770971599     
  -8840.3579571239716        7.3804525828354599        1169.4412161341857     
  -8794.8269283590689        6.9309331312424547        1168.9738472266006     
  -9761.9026132331346        15.021311796610462        1119.3441942411150     
  -9714.6563764260318        13.806811708418991        1120.4028456362164     
  -9667.3327691685317        12.449894640620641        1121.3333354758438     
  -9619.9099611429192        11.023328318798576        1122.1136091226649     
  -9572.3661220315753        9.5998804684300012        1122.7216119393102     
  -9524.6794215168466        8.2523188150903479        1123.1352892884220     
  -9476.8280292810359        7.0534110842663722        1123.3325865327038     
  -9428.7901150064863        6.0759250015817088        1123.2914490348116     
  -9380.5438483755606        5.3926282925203850        1122.9898221573426     
  -4692.8140904261245        5.7423032508347660        1409.8971511228174     
  -4669.1386396500575        5.0997270244947686        1409.9475408905566     
  -4645.3990603390312        4.4683761093649537        1409.8782990533182     
  -4621.5860813492682        3.8791543180491317        1409.6700876799696     
  -4597.6904315370557        3.3629654628755361        1409.3035688392008     
  -4573.7028397586764        2.9507133564120522        1408.7594045998469     
  -4549.6140348703948        2.6733018110689954        1408.0182570305537     
  -4525.4147457284707        2.5616346393319418        1407.0607882002439     
  -4501.0957011890860        2.6466156536987455        1405.8676601775915     
  -5278.8696268579715        7.2411842616384092        1384.1741120964612     
  -5252.0786270259205        6.4741729166062214        1384.2186394180587     
  -5225.3484217989244        5.5002991036508320        1384.1863191935113     
  -5198.6379266023578        4.4565114048100440        1384.0512650364415     
  -5171.9060568615487        3.4797584022669525        1383.7875905603814     
  -5145.1117280017597        2.7069886785807284        1383.3694093789311     
  -5118.2138554484036        2.2751508156936779        1382.7708351056597     
  -5091.1713546268156        2.3211933961156319        1381.9659813541195     
  -5063.9431409620893        2.9820650019948971        1380.9289617379050     
  -5864.9453536757601        8.2856123318235859        1355.5481744300696     
  -5834.9929617441139        7.4556110583703230        1355.5159208434004     
  -5805.2206039772409        6.2622542174869977        1355.4720608630903     
  -5775.5656730485716        4.9142328978673504        1355.3874143857929     
  -5745.9655616314685        3.6202381882474128        1355.2328013083381     
  -5716.3576623994450        2.5889611770578540        1354.9790415273731     
  -5686.6793680257351        2.0290929531277015        1354.5969549397385     
  -5656.8680711839424        2.1493246050920334        1354.0573614420121     
  -5626.8611645472420        3.1583472214272206        1353.3310809310649     
  -6451.0184161596890        8.8824438772494432        1324.0221621445046     
  -6417.8881692245232        8.0420838234822440        1323.8712465474148     
  -6385.0422131810219        6.7462595588094700        1323.7844170105382     
  -6352.4067086296409        5.2411024149105288        1323.7324544521348     
  -6319.9078161709531        3.7727437233438650        1323.6861397904202     
  -6287.4716964054896        2.5873148157866126        1323.6162539437075     
  -6255.0245099336744        1.9309470238049471        1323.4935778302529     
  -6222.4924173561358        2.0497716791355742        1323.2888923682121     
  -6189.8015792732213        3.1899201132962389        1322.9729784760079     
  -7037.0659595898378        9.0385353139404288        1289.5988992605551     
  -7000.7707748869143        8.2316335861419248        1289.3164779107981     
  -6964.8398557172086        6.9443332354926497        1289.1722805843754     
  -6929.1984212873667        5.4259035731829499        1289.1403039594256     
  -6893.7716908040375        3.9256139103840724        1289.1945447140308     
  -6858.4848834738168        2.6927335585114633        1289.3089995264384     
  -6823.2632185034290        1.9765318284544264        1289.4576650747761     
  -6788.0319150994392        2.0262780316625140        1289.6145380369803     
  -6752.7161924684924        3.0912414791155243        1289.7536150915096     
  -7623.0651292463399        8.7607430579819265        1252.2812097990286     
  -7583.6473041510908        8.0223027203492165        1251.8834763142886     
  -7544.6401378928786        6.8484933553190785        1251.6845445330109     
  -7505.9781989634776        5.4574199902181135        1251.6648816316499     
  -7467.5960558546767        4.0671876523706487        1251.8049547865296     
  -7429.4282770583768        2.8959013689691346        1252.0852311740555     
  -7391.4094310661985        2.1616661676748663        1252.4861779706639     
  -7353.4740863700790        2.0825870756239055        1252.9882623526187     
  -7315.5568114617727        2.8767691202874630        1253.5719514964683     
  -8208.9930704094222        8.0559235249561425        1212.0719177807960     
  -8166.5242824367733        7.4121336003308897        1211.6041031385805     
  -8124.4696660149484        6.4507580263925774        1211.3701018049483     
  -8082.7834295997027        5.3244352835304198        1211.3601061928196     
  -8041.4197816470096        4.1858038518325884        1211.5643087152553     
  -8000.3329306129372        3.1875022112558327        1211.9729017851471     
  -7959.4770849532861        2.4821688420875034        1212.5760778155357     
  -7918.8064531242808        2.2224422242907167        1213.3640292193315     
  -7878.2752435816537        2.5609608381869293        1214.3269484096481     
  -8794.8269283590689        6.9309331312424547        1168.9738472266006     
  -8749.4082351639281        6.3991685999289984        1168.5102197645319     
  -8704.3550463903957        5.7431453566318851        1168.2778453486947     
  -8659.6515011377523        5.0157330706542780        1168.2798963670471     
  -8615.2817385049912        4.2698014116722334        1168.5195452075891     
  -8571.2298975913891        3.5582200490330251        1168.9999642581936     
  -8527.4801174960448        2.9338586523049344        1169.7243259068487     
  -8484.0165373181480        2.4495868908747980        1170.6958025414438     
  -8440.8232961568829        2.1582744341526450        1171.9175665499049     
  -9380.5438483755606        5.3926282925203850        1122.9898221573426     
  -9332.3056877522031        4.9814500933653107        1122.6336875727823     
  -9284.3228853263590        4.7176734537097218        1122.4566681126657     
  -9236.6198015194077        4.5200969690222337        1122.4781708782987     
  -9189.2207967527029        4.3075192347087068        1122.7176029708698     
  -9142.1502314476365        3.9987388462195668        1123.1943714916781     
  -9095.4324660255861        3.5125543989161088        1123.9278835419816     
  -9049.0918609079345        2.7677644882351160        1124.9375462230626     
  -9003.1527765160426        1.6831677097002284        1126.2427666361248     
  -10551.734304963207       -3165.5202914889624        246.84841846112036     
  -10732.782192449962       -2953.3307384377863        435.46998702790842     
  -10890.170450728643       -2733.9696276789978        606.94112786331561     
  -11024.744798291365       -2510.2560208535933        759.96890700263225     
  -11137.350953630579       -2285.0089796026487        893.26039048113989     
  -11228.834635238502       -2061.0475655671762        1005.5226443341069     
  -11300.041561607504       -1841.1908403882369        1095.4627345968254     
  -11351.817451229817       -1628.2578657068427        1161.7877273045540     
  -11385.008022597855       -1425.0677031640907        1203.2046884926081     
  -11343.739939072022       -3403.1219817216074        355.41055075626463     
  -11497.007409697451       -3150.8896049583818        531.50439819849396     
  -11632.987052348191       -2897.6024084424066        693.52955713663573     
  -11752.336272294158       -2645.4517430732772        839.40927041552641     
  -11855.712474805212       -2396.6289597505684        967.06678087997193     
  -11943.773065151208       -2153.3254093738087        1074.4253313747529     
  -12017.175448602045       -1917.7324428426155        1159.4081647447088     
  -12076.577030427548       -1692.0414110565303        1219.9385238346272     
  -12122.635215897642       -1478.4436649151448        1253.9396514893299     
  -12166.955558054467       -3650.0866674163403        477.86090040040153     
  -12283.765781176040       -3350.4209954971316        644.91593730820409     
  -12390.597115632643       -3055.2715288734144        797.77116067160944     
  -12488.075580781930       -2766.7249987371852        934.28682733502069     
  -12576.827195981372       -2486.8681362803527        1052.3231941427866     
  -12657.477980588686       -2217.7876726949671        1149.7405179393468     
  -12730.653953961357       -1961.5703391729062        1224.3990555690229     
  -12796.981135456999       -1720.3028669061941        1274.1590638762352     
  -12857.085544433256       -1496.0719870867974        1296.8807997053700     
  -13001.603582326401       -3900.4810746979206        615.82074590871298     
  -13083.855272133920       -3549.1642996285009        777.73544469913895     
  -13162.314615833557       -3206.7711815474986        921.92325877537417     
  -13237.733174180896       -2875.8069229731800        1046.9022961714288     
  -13310.862507931339       -2558.7767264237455        1151.1906649212904     
  -13382.454177840344       -2258.1857944174485        1233.3064730589872     
  -13453.259744663454       -1976.5393294725263        1291.7678286185269     
  -13524.030769156068       -1716.3425341072093        1325.0928396339175     
  -13595.518812073757       -1480.1006108397924        1331.7996141392011     
  -13827.906432304080       -4148.3719296912241        770.91136579638066     
  -13888.073847819247       -3744.3589069269360        931.99376071337520     
  -13947.453528202488       -3351.8955590401083        1068.2431717550362     
  -14007.079502917324       -2974.4286509091198        1179.5563953350443     
  -14067.985801427249       -2615.4049474123158        1265.8302278670649     
  -14131.206453195749       -2278.2712134281178        1326.9614657648217     
  -14197.775487686395       -1966.4742138348847        1362.8469054419802     
  -14268.726934362659       -1683.4607135109668        1373.3833433122156     
  -14345.094822688083       -1432.6774773348052        1358.4675757892485     
  -14626.086528403321       -4387.8259585209971        944.75403857857827     
  -14687.219473480234       -3933.2442069669005        1109.7217256929987     
  -14745.327827990937       -3490.4388539267252        1238.9882199177478     
  -14801.885017417484       -3064.3213176729250        1334.5498432362256     
  -14858.364467241401       -2659.8030164778447        1398.4029176318445     
  -14916.239602944364       -2281.7953686138535        1432.5437650879999     
  -14976.983850008233       -1935.2097923534079        1438.9687075881477     
  -15042.070633914605       -1624.9577059688399        1419.6740671156606     
  -15112.973380145251       -1355.9505277325311        1376.6561656539516     
  -15376.366291040256       -4612.9098873120729        1138.9700427704790     
  -15472.090114364853       -4113.0595893227965        1312.9501799800876     
  -15555.251490450528       -3622.1952587827836        1436.4157235705886     
  -15627.920168107616       -3147.2160583924342        1514.1833582852585     
  -15692.165896145925       -2695.0211508518892        1551.0697688672019     
  -15750.058423375716       -2272.5096988614719        1551.8916400596368     
  -15803.667498606945       -1886.5808651214393        1521.4656566057456     
  -15855.062870649779       -1544.1338123321002        1464.6085032487322     
  -15906.314288314301       -1252.0677031937030        1386.1368647317743     
  -16058.968140630866       -4817.6904421892605        1355.1806568872828     
  -16233.483735721349       -4281.0444435690770        1543.7099639166981     
  -16376.538490832776       -3746.9589661837999        1662.7830030207410     
  -16490.955405413853       -3224.8440081954986        1720.7576588924517     
  -16579.557478913131       -2724.1095677661847        1725.9918162248362     
  -16645.167710779184       -2254.1656430578105        1686.8433597108592     
  -16690.609100460686       -1824.4222322325163        1611.6701740436092     
  -16718.704647406146       -1444.2893334522296        1508.8301439160343     
  -16732.277351064287       -1123.1769448790164        1386.6811540211697     
  -16654.114497591087       -4996.2343492773316        1595.0071594441463     
  -16962.198302797726       -4434.4381592801474        1804.0319178449047     
  -17208.502804389140       -3864.5241687051803        1920.3473785752856     
  -17396.761179762598       -3298.9363022100306        1956.5734634681360     
  -17530.706606315176       -2750.1184844523300        1925.3300943563520     
  -17614.072261444380       -2230.5146400897570        1839.2371930728241     
  -17650.591322547411       -1752.5686937799514        1710.9146814504375     
  -17643.996967021540       -1328.7245701804923        1552.9824813220282     
  -17598.022372264157       -971.42619394916073        1378.0605145205682     
  -11385.008022597855       -1425.0677031640907        1203.2046884926081     
  -11405.731309466328       -1235.5622367700244        1226.6089258098557     
  -11419.500239379444       -1061.6663298328681        1240.6716480657310     
  -11426.252871513649       -903.17351294077389        1246.7637730362883     
  -11425.927265045402       -759.87731668194920        1246.2562184976105     
  -11418.461479151136       -631.57127164455915        1240.5199022257541     
  -11403.793573007366       -518.04890841684664        1230.9257419968235     
  -11381.861605790491       -419.10375758690952        1218.8446555868461     
  -11352.603636676988       -334.52934974300251        1205.6475607719162     
  -12122.635215897642       -1478.4436649151448        1253.9396514893299     
  -12156.577739910559       -1278.9986430458289        1268.1390577729683     
  -12179.232762207623       -1094.4338668862865        1271.8115577706487     
  -12190.658325323308       -924.94281155137014        1266.7013518585156     
  -12190.912471792102       -770.71895215603126        1254.5526404127590     
  -12180.053244148477       -631.95576381522687        1237.1096238095538     
  -12158.138684926887       -508.84672164378708        1216.1165024250499     
  -12125.226836661819       -401.58530075667841        1193.3174766354316     
  -12081.375741887769       -310.36497626885557        1170.4567468168823     
  -12857.085544433256       -1496.0719870867974        1296.8807997053700     
  -12906.480569047810       -1289.1132074757093        1299.5933073154297     
  -12940.261003079018       -1098.2667212362389        1291.9647139094736     
  -12958.424974315509       -923.52628766378939        1275.8139007479617     
  -12960.970610545926       -764.88566605379674        1252.9597490913716     
  -12947.896039558836       -622.33861570154340        1225.2211402001169     
  -12919.199389142912       -495.87889590252689        1194.4169553347042     
  -12874.878787086762       -385.50026595209829        1162.3660757555647     
  -12814.932361178957       -291.19648514561868        1130.8873827231375     
  -13595.518812073757       -1480.1006108397924        1331.7996141392011     
  -13658.155208243608       -1266.7205534693162        1319.8845438592625     
  -13701.709128615121       -1072.9021428692440        1299.3952554490231     
  -13725.938888127184       -897.83976216917927        1271.9267093374074     
  -13730.602801718727       -740.72779449873087        1239.0738659533513     
  -13715.459184328567       -600.76062298751185        1202.4316857257659     
  -13680.266350895616       -477.13263076508701        1163.5951290835790     
  -13624.782616358763       -369.03820096114669        1124.1591564557411     
  -13548.766295656864       -275.67171670523658        1085.7187282711459     
  -14345.094822688083       -1432.6774773348052        1358.4675757892485     
  -14414.317068863442       -1212.6353044363323        1327.9256368265101     
  -14462.701305437422       -1018.0773817717618        1292.3673213561178     
  -14489.586136395290       -846.79905595855234        1252.8650672595993     
  -14494.310165722361       -696.59567361441623        1210.4913124186121     
  -14476.211997403889       -565.26258135694661        1166.3184947147306     
  -14434.630235425124       -450.59512580355931        1121.4190520294894     
  -14368.903483771302       -350.38865357189661        1076.8654222444848     
  -14278.370346427761       -262.43851127958533        1033.7300432413267     
  -15112.973380145251       -1355.9505277325311        1376.6561656539516     
  -15177.681562272828       -1127.6720837863795        1322.6294556391867     
  -15222.361700167417       -933.52968793013724        1269.1450505975092     
  -15245.752788756803       -769.31998992306490        1216.4542641473397     
  -15246.593822968754       -630.83963952451631        1164.8084099071241     
  -15223.623797731056       -513.88528649362615        1114.4588014952437     
  -15175.581707971522       -414.25358058991151        1065.6567525302012     
  -15101.206548617871       -327.74117157240380        1018.6535766303326     
  -14999.237314597938       -250.14470920048370        973.70058741410844     
  -15906.314288314301       -1252.0677031937030        1386.1368647317743     
  -15950.964099837358       -1012.6455149291241        1302.9088697193306     
  -15979.814479426666       -818.99631133088405        1227.9925821400379     
  -15990.824914848639       -664.31838495375996        1160.5195896333651     
  -15981.954893869759       -541.81002835246545        1099.6214798387634     
  -15951.163904256391       -444.66953408168865        1044.4298403956625     
  -15896.411433774998       -366.09519469621409        994.07625894353578     
  -15815.656970191967       -299.28530275072171        947.69232312180873     
  -15706.860001273699       -237.43815079995329        904.40962056994704     
  -16732.277351064287       -1123.1769448790164        1386.6811540211697     
  -16736.880092922474       -868.37022127422460        1267.6767484889760     
  -16734.183809836592       -674.21450196049318        1167.1740549505228     
  -16721.188584307820       -530.71006194175061        1082.8863333504733     
  -16694.894498837260       -427.85717622187803        1012.5268436334683     
  -16652.301635926182       -355.65611980485210        953.80884574420065     
  -16590.410078075714       -304.10716769452665        904.44559962729386     
  -16506.219907787046       -263.21059489486106        862.15036522742707     
  -16396.731207561326       -222.96667640976830        824.63640248926106     
  -17598.022372264157       -971.42619394916073        1378.0605145205682     
  -17538.144952893734       -695.66082623133116        1215.8459613701441     
  -17484.593858018725       -498.92150980534734        1084.9536079957361     
  -17433.229866771184       -367.41084177804169        981.37978493138439     
  -17379.913758283117       -287.33141925631844        901.12082271116287     
  -17320.506311686651       -244.88583934698545        840.17305186910926     
  -17250.868306113774       -226.27669915687056        794.53280293926684     
  -17166.860520696584       -217.70659579285348        760.19640645569814     
  -17064.343734567141       -205.37812636187573        733.16019295249623     
  -11352.603636676988       -334.52934974300251        1205.6475607719162     
  -11319.155117329008       -264.78764421757569        1193.7534531651877     
  -11284.268041384859       -209.06240693030122        1184.3003253817103     
  -11247.305280985205       -165.22987835014101        1176.7375907003905     
  -11207.629708270757       -131.16629894603602        1170.5146624001436     
  -11164.604195382210       -104.74790918698591        1165.0809537598773     
  -11117.591614460218       -83.850949541903901        1159.8858780585115     
  -11065.954837645506       -66.351660479795100        1154.3788485749471     
  -11009.056737078770       -50.126282469595026        1148.0092785881272     
  -12081.375741887769       -310.36497626885557        1170.4567468168823     
  -12033.026176160984       -236.83731550970924        1150.6679793061107     
  -11986.016636762533       -180.64629155813782        1135.3878300621536     
  -11939.501748814137       -138.97398815320912        1123.8149838946338     
  -11892.636137437530       -109.00248903398051        1115.1481256131815     
  -11844.574427754440       -87.913877939578470        1108.5859400274376     
  -11794.471244886570       -72.890238609022617        1103.3271119470278     
  -11741.481213955652       -61.113654781401237        1098.5703261815843     
  -11684.758960083431       -49.766210195811709        1093.5142675407362     
  -12814.932361178957       -291.19648514561868        1130.8873827231375     
  -12749.570302130516       -215.54922078311756        1103.7063410513529     
  -12688.375489612255       -159.04910336415787        1082.7115728959570     
  -12630.405084852589       -118.55333698347931        1066.9666955302057     
  -12574.716249079918       -90.919125735690159        1055.5353262273231     
  -12520.366143522644       -73.003673715530567        1047.4810822605689     
  -12466.411929409214       -61.664185017769341        1041.8675809032161     
  -12411.910767968033       -53.757863737063872        1037.7584394285082     
  -12355.919820427520       -46.141913968202971        1034.2172751096969     
  -13548.766295656864       -275.67171670523658        1085.7187282711459     
  -13466.069282132332       -200.10789610631218        1052.2986715239119     
  -13390.084912808843       -143.89293621089291        1026.2233133687162     
  -13319.883668147129       -103.92843855485717        1006.5368644753165     
  -13254.536028607987       -77.116004674076066        992.28353551349824     
  -13193.112474652135       -60.357236104397998        982.50753715302551     
  -13134.683486740380       -50.553734381751383        976.25308006369130     
  -13078.319545333488       -44.607101042058275        972.56437491527424     
  -13023.091130892202       -39.418937621161604        970.48563237754718     
  -14278.370346427761       -262.43851127958533        1033.7300432413267     
  -14179.804903061136       -189.69787754769277        995.87510384676932     
  -14089.885219227092       -134.79988396083718        965.87481096602016     
  -14007.805877744391       -95.059806581422890        942.86962959824734     
  -13932.761461431854       -67.792921472225316        926.00002474270741     
  -13863.946553108248       -50.314504695865253        914.40646139859655     
  -13800.555735592308       -39.939832314744308        907.22940456509593     
  -13741.783591702844       -33.984180391597874        903.60931924142540     
  -13686.824704258635       -29.762824989017645        902.68667042680522     
  -14999.237314597938       -250.14470920048370        973.70058741410844     
  -14888.058951811576       -183.50370117562034        933.86577114287627     
  -14786.516721741784       -131.39204047627209        901.61782517342112     
  -14694.040092690981       -91.907954777134364        876.30912976724528     
  -14610.058532961648       -63.149671753240909        857.29206518592787     
  -14534.001510856202       -43.215419079278035        843.91901169099071     
  -14465.298494677179       -30.203424430298583        835.54234954401818     
  -14403.378952726936       -22.211915480918833        831.51445900649821     
  -14347.672353307937       -17.339119906023370        831.18772034000062     
  -15706.860001273699       -237.43815079995329        904.40962056994704     
  -15588.113215278376       -180.70990305853138        865.70080653522655     
  -15478.719733227710       -133.29149961963776        833.40411547650353     
  -15378.454692033476       -94.433396855996762        807.19950385055188     
  -15287.093228607448       -63.386051140059863        786.76692811412704     
  -15204.410479861439       -39.399918844599597        771.78634472406475     
  -15130.181582707244       -21.725456342149300        761.93771013711887     
  -15064.181674056614       -9.6131200053150678        756.90098081005260     
  -15006.185890821322       -2.3133662066911711        756.35611319966574     
  -16396.731207561326       -222.96667640976830        824.63640248926106     
  -16277.249480356197       -180.50101926479965        790.81034314678209     
  -16165.234566559649       -140.12035525352803        761.18544136084859     
  -16060.918054818447       -102.59664653188429        735.88489071638401     
  -15964.531533779391       -68.701855255792907        715.03188479831033     
  -15876.306592089195       -39.207943581164727        698.74961719152611     
  -15796.474818394725       -14.886873663922415        687.16128148100563     
  -15725.267801342714        3.4893923400040876        680.39007125163232     
  -15662.917129579919        15.148892274709397        678.55918008833669     
  -17064.343734567141       -205.37812636187573        733.16019295249623     
  -16952.749533939739       -182.06158586282709        708.62451410051256     
  -16844.801534612408       -151.50070124027843        684.91356231204645     
  -16741.298560092528       -116.35821751886760        662.70942923301050     
  -16643.039433887519       -79.296879723439815        642.69420650940094     
  -16550.822979504814       -42.979432878621083        625.54998578716345     
  -16465.448020451819       -10.068622009252067        611.95885871228438     
  -16387.713380236048        16.772807859820205        602.60291693074419     
  -16318.417882364864        34.882111703873306        598.16425208852286     
  -11009.056737078770       -50.126282469595026        1148.0092785881272     
  -10949.841719923927       -34.466419138619131        1141.1974782387936     
  -10891.703735302855       -20.162147307086798        1134.8358012001088     
  -10834.679968292985       -7.3374172331950831        1129.0817260494539     
  -10778.807603971802        3.8838208248134833        1124.0927313642133     
  -10724.123827416812        13.377616608681819        1120.0262957218399     
  -10670.665823705442        21.020019860155116        1117.0398976997244     
  -10618.470777915178        26.687080321034955        1115.2910158752543     
  -10567.575875123519        30.254847733035149        1114.9371288258615     
  -11684.758960083431       -49.766210195811709        1093.5142675407362     
  -11625.811651077498       -37.243335567579834        1087.8899988928476     
  -11566.815796508819       -24.171600823142398        1082.1366136146598     
  -11507.930034144098       -11.079798518223924        1076.5148422783307     
  -11449.313001750052        1.5032787915120025        1071.2854154560330     
  -11391.123337093381        13.048838550384971        1066.7090637199390     
  -11333.519677940789        23.028088202680919        1063.0465176422315     
  -11276.660662058983        30.912235192738990        1060.5585077950700     
  -11220.704927214674        36.172486964874224        1059.5057647506001     
  -12355.919820427520       -46.141913968202971        1034.2172751096969     
  -12298.204133449828       -36.476930366689430        1030.2298550174125     
  -12239.308127232185       -25.021419371684260        1025.6163311339112     
  -12179.458023305542       -12.529452753001351        1020.6918980997925     
  -12118.880043200870       0.24489771941171057        1015.7717505556719     
  -12057.800408449237        12.547560275500018        1011.1710831422510     
  -11996.445340581486        23.624463145557911        1007.2050905000938     
  -11935.041061128702        32.721534559433167        1004.1889672698951     
  -11873.813791621835        39.084702747299616        1002.4379080922473     
  -13023.091130892202       -39.418937621161604        970.48563237754718     
  -12966.951214085842       -32.146817649555487        968.29732222762800     
  -12908.632402856696       -22.547105567783547        965.13102098464697     
  -12848.374633575077       -11.419589276825718        961.30759943140265     
  -12786.417842611276       0.43594332233351452        957.14792835070841     
  -12723.001966335592        12.219704328729676        952.97287852537295     
  -12658.366941118245        23.131905841489242        949.10332073812503     
  -12592.752703329619        32.372759959488576        945.86012577184397     
  -12526.399189339969        39.142478781787759        943.56416440930923     
  -13686.824704258635       -29.762824989017645        902.68667042680522     
  -13631.984940030407       -24.232611529534552        902.17267613856222     
  -13574.240298766194       -16.584162026729246        900.53675039370682     
  -13513.790562750524       -7.4834174290599549        898.05665219083210     
  -13450.835514268143        2.4036813142893152        895.01014052868652     
  -13385.574935603689        12.411193254657519        891.67497440588625     
  -13318.208609041740        21.873177443312670        888.32891282111723     
  -13248.936316866990        30.123692931304504        885.24971477302938     
  -13177.957841364054        36.496798769934685        882.71513926030195     
  -14347.672353307937       -17.339119906023370        831.18772034000062     
  -14293.237358328441       -12.713926120147335        831.93619236534846     
  -14235.583490344343       -6.9680913633892487        831.68958658783197     
  -14174.816508629674      -0.45414654908836383        830.63376229568973     
  -14111.042172458479        6.4753774091541345        828.95457877714648     
  -14044.366241104775        13.467949597987172        826.83789532045228     
  -13974.894473842636        20.171039103843214        824.46957121383605     
  -13902.732629946080        26.232115013392104        822.03546574553889     
  -13827.986468689056        31.298646413263668        819.72143820374822     
  -15006.185890821322       -2.3133662066911711        756.35611319966574     
  -14950.640516024831        2.4296244651332017        757.66814652307767     
  -14892.113652975020        6.4656038069470014        758.44559679389647     
  -14830.563169010320        9.9350140237811502        758.73363566359433     
  -14765.946931469200        12.978297320826641        758.57743478367934     
  -14698.222807690141        15.735895903155324        758.02216580568665     
  -14627.348665011647        18.348251975845415        757.11300038111131     
  -14553.282370772100        20.955807744137019        755.89511016143331     
  -14475.981792310007        23.699005413079249        754.41366679817770     
  -15662.917129579919        15.148892274709397        678.55918008833669     
  -15604.126460164487        21.218426112839552        679.44881422686524     
  -15543.282462041938        23.881420869115573        680.66084823863798     
  -15480.141241690219        23.950854950261601        682.05097821213883     
  -15414.458905587288        22.239706763223694        683.47490023584623     
  -15345.991560211001        19.560954714977015        684.78831039819215     
  -15274.495312039398        16.727577212220240        685.84690478772575     
  -15199.726267550375        14.552552661961272        686.50637949287011     
  -15121.440533221807        13.848859471162541        686.62243060208198     
  -16318.417882364864        34.882111703873306        598.16425208852286     
  -16253.627237792234        43.672864709633359        597.35847109177507     
  -16188.541592928868        45.443857208070767        598.19140814888226     
  -16122.661424467191        41.860166891001427        600.28049585896599     
  -16055.487209099640        34.586871450293074        603.24316682116080     
  -15986.519423518626        25.289048577940775        606.69685363460110     
  -15915.258544416631        15.631775965658562        610.25898889848031     
  -15841.205048486143        7.2801313052741534        613.54700521190455     
  -15763.859412419495        1.8991922888035333        616.17833517400732     
  -10567.575875123519        30.254847733035149        1114.9371288258615     
  -10517.401858318270        31.855450900197866        1115.4866881554099     
  -10467.275651012043        31.933750210520884        1116.2660381389624     
  -10417.093709069497        30.834892781893814        1117.1594963607145     
  -10366.752488355349        28.904025731994352        1118.0513804048319     
  -10316.148444734201        26.486296178677094        1118.8260078554586     
  -10265.178034070757        23.926851239694770        1119.3676962968539     
  -10213.737712229646        21.570838032873780        1119.5607633131103     
  -10161.723935075561        19.763403675980499        1119.2895264884571     
  -11220.704927214674        36.172486964874224        1059.5057647506001     
  -11165.676887904196        38.488547979906343        1059.6154304987829     
  -11111.379116818905        38.279595381943182        1060.3253130038704     
  -11057.637489018056        36.126045640206939        1061.4621417995622     
  -11004.277879560896        32.608315223860700        1062.8526464195563     
  -10951.126163506706        28.306820601891559        1064.3235563975325     
  -10898.008215914675        23.801978243720896        1065.7016012672123     
  -10844.749911844088        19.674204618389922        1066.8135105622550     
  -10791.177126354240        16.503916194962130        1067.4860138163865     
  -11873.813791621835        39.084702747299616        1002.4379080922473     
  -11813.527074092379        42.020923568325998        1001.9488695536070     
  -11754.651408225598        41.813960702617806        1002.3732560407600     
  -11696.973452033026        39.174954111676016        1003.5079338947405     
  -11640.279863526213        34.815043757066633        1005.1497694566033     
  -11584.357300716696        29.445369600252434        1007.0956290674285     
  -11528.992421616051        23.777071602704837        1009.1423790682929     
  -11473.971884235814        18.521289725928455        1011.0868858002774     
  -11419.082346587511        14.389163931510666        1012.7260156043837     
  -12526.399189339969        39.142478781787759        943.56416440930923     
  -12460.835220765295        42.487736500665051        942.48361297908446     
  -12397.282198122490        42.479944305414392        942.53588595878375     
  -12335.518926133094        39.856419790712607        943.51571135468805     
  -12275.324209518685        35.354480551524375        945.21781717309091     
  -12216.476853000795        29.711444182615196        947.43693142028928     
  -12158.755661300989        23.664628278757391        949.96778210259083     
  -12101.939439140851        17.951350434761935        952.60509722626796     
  -12045.806991241901        13.308928245472089        955.14360479764457     
  -13177.957841364054        36.496798769934685        882.71513926030195     
  -13107.484131805411        39.924145612221764        881.21626843435627     
  -13039.461159399983        40.220644323004308        880.93922146711611     
  -12973.691239336975        38.045244271665069        881.70431288792224     
  -12909.976686805725        34.056894827028373        883.33185722617998     
  -12848.119816995533        28.914545358020405        885.64216901126258     
  -12787.922945095634        23.277145234048476        888.45556277257504     
  -12729.188386295313        17.803643824003302        891.59235303944524     
  -12671.718455783848        13.152990496950224        894.87285434127250     
  -13827.986468689056        31.298646413263668        819.72143820374822     
  -13753.356611095196        34.365309738234828        818.14344357860250     
  -13681.377964948388        34.979158888704660        817.70928127487900     
  -13611.907719663348        33.616229148961793        818.29257720289911     
  -13544.803064654789        30.752555803180257        819.76695727298363     
  -13479.921189337430        26.864174135863323        822.00604739546293     
  -13417.119283126052        22.427119430824860        824.88347348066759     
  -13356.254535435246        17.917426972900103        828.27286143888330     
  -13297.184135679745        13.811132046207604        832.04783718043939     
  -14475.981792310007        23.699005413079249        754.41366679817770     
  -14398.335462517118        25.846387714022967        753.26174607097903     
  -14323.222287658140        26.698586135161349        752.97208409127870     
  -14250.585695130922        26.444176016910205        753.49934300813732     
  -14180.369112333308        25.271732699930908        754.79818497068220     
  -14112.515966663173        23.369831524491929        756.82327212807184     
  -14046.969685518379        20.927047831183700        759.52926662939547     
  -13983.673696296759        18.131956960525713        762.87083062377121     
  -13922.571426396169        15.173134252959244        766.80262626031481     
  -15121.440533221807        13.848859471162541        686.62243060208198     
  -15042.303489953660        14.402538374753931        686.56778357066082     
  -14965.183800419603        15.322024195178528        686.85364862540780     
  -14890.142493758369        16.403886470053294        687.54344901206252     
  -14817.240599108656        17.444694736977908        688.70060797640542     
  -14746.539145609233        18.241018533490205        690.38854876420874     
  -14678.099162398741        18.589427397375403        692.67069462123584     
  -14611.981678615932        18.286490866155873        695.61046879326364     
  -14548.247723399470        17.128778477576816        699.27129452602833     
  -15763.859412419495        1.8991922888035333        616.17833517400732     
  -15685.143497287294        6.8920555750082713E-002   618.05816373684479     
  -15607.452176123168       0.79257120173861040        619.47999358648985     
  -15530.995443564419        3.3701621026102657        620.64373392321636     
  -15455.983294248301        7.1017111340879637        621.74929394725166     
  -15382.625722812185        11.287236171689074        622.99658285900568     
  -15311.132723893232        15.226755091500308        624.58550985864315     
  -15241.714292128820        18.220285768964459        626.71598414646280     
  -15174.580422156199        19.567846079889023        629.58791492277544     
  -10161.723935075561        19.763403675980499        1119.2895264884571     
  -10109.639235182110        18.596306776307756        1118.7549506128460     
  -10058.080517207949        17.846732324293953        1118.2701073454775     
  -10007.085795145291        17.387967012542504        1117.8874745743028     
  -9956.6930829863959        17.093297533564055        1117.6595301873140     
  -9906.9403947235460        16.836010579895628        1117.6387520725345     
  -9857.8657443488664        16.489392844138365        1117.8776181179160     
  -9809.5071458546299        15.926731018909322        1118.4286062114295     
  -9761.9026132331346        15.021311796610462        1119.3441942411150     
  -10791.177126354240        16.503916194962130        1067.4860138163865     
  -10737.430918916027        14.645935796667345        1067.7584398855199     
  -10683.825146788504        13.879093619457763        1067.8432453168136     
  -10630.444881713069        13.919817192067512        1067.8268511807710     
  -10577.375195431090        14.484534043327585        1067.7956785479553     
  -10524.701159683962        15.289671701855241        1067.8361484888837     
  -10472.507846213053        16.051657696403709        1068.0346820741067     
  -10420.880326759723        16.486919555784880        1068.4777003741503     
  -10369.903673065422        16.311884808644209        1069.2516244595345     
  -11419.082346587511        14.389163931510666        1012.7260156043837     
  -11364.025057132443        11.952075102113668        1013.9042150161554     
  -11308.719350411611        11.054450521092804        1014.6726935980590     
  -11253.279013556359        11.316999750768446        1015.1384622316750     
  -11197.817833697856        12.360432353912984        1015.4085317985778     
  -11142.449597967447        13.805457892740378        1015.5899131804097     
  -11087.288093496360        15.272785929769725        1015.7896172587307     
  -11032.447107415839        16.383126027413255        1016.1146549151639     
  -10978.040426857213        16.757187748105025        1016.6720370312731     
  -12045.806991241901        13.308928245472089        955.14360479764457     
  -11989.600100333410        10.461189541828844        957.22861788018486     
  -11932.790786104872        9.3645056207133166        958.71846241401454     
  -11875.503208718133        9.6050092758882784        959.72738572026003     
  -11817.861528335161        10.768833300863662        960.36963512013915     
  -11759.989905117774        12.442110489529568        960.75945793480525     
  -11702.012499227869        14.210973635553273        961.01110148540340     
  -11644.053470827406        15.661555532436978        961.23881309315163     
  -11586.236980078254        16.379988973951640        961.55684007921320     
  -12671.718455783848        13.152990496950224        894.87285434127250     
  -12614.334499020992        10.119743965258749        897.76799035299371     
  -12556.067111895800        8.8009615100882002        899.94056198943849     
  -12497.032485241474        8.8093403542034139        901.49869963986589     
  -12437.346809891380        9.7575777197071147        902.55053369356233     
  -12377.126276678737        11.258370829061278        903.20419453976695     
  -12316.487076436797        12.924416904917052        903.56781256775423     
  -12255.545399998864        14.368413169528139        903.74951816680812     
  -12194.417438198219        15.203056845311949        903.85744172618934     
  -13297.184135679745        13.811132046207604        832.04783718043939     
  -13238.406703697110        10.874203221927019        835.55867430996159     
  -13178.575985811865        9.3555207812423760        838.29900254911433     
  -13117.781861169344        8.9554875730236745        840.35748198375609     
  -13056.114208914994        9.3745064457125409        841.82277269976566     
  -12993.662908194116        10.312980248397253        842.78353478300494     
  -12930.517838152306        11.471311829127444        843.32842831942321     
  -12866.768877934672        12.549904037347915        843.54611339479118     
  -12802.505906686756        13.249159721412980        843.52525009507281     
  -13922.571426396169        15.173134252959244        766.80262626031481     
  -13861.995164863902        12.671032161029871        770.63701162652239     
  -13800.345065880640        11.019886025797859        773.75379431783847     
  -13737.666354544750        10.068945519356930        776.20881074521822     
  -13674.004255954418        9.6674603145174842        778.05789731970185     
  -13609.403995207900        9.6646800837479532        779.35689045229685     
  -13543.910797403463        9.9098544995522388        780.16162655399694     
  -13477.569887639274        10.252233234540654        780.52794203578355     
  -13410.426491013644        10.541065961139793        780.51167330869725     
  -14548.247723399470        17.128778477576816        699.27129452602833     
  -14485.278333023241        15.456695632199626        703.03934417803225     
  -14421.402010129685        13.785759835203862        706.26494752034068     
  -14356.600983410692        12.175208780378853        708.95776391755089     
  -14290.857481558089        10.684280161583047        711.12745273432836     
  -14224.153733263727        9.3722116726466993        712.78367333530696     
  -14156.471967219450        8.2982410074519066        713.93608508513944     
  -14087.794412117077        7.5216058598816744        714.59434734845206     
  -14018.103296648507        7.1015439237062310        714.76811948993384     
  -15174.580422156199        19.567846079889023        629.58791492277544     
  -15108.434658677224        19.177658484722997        632.80201383993619     
  -15041.774476586503        17.644844801540785        635.79247238144592     
  -14974.500765810169        15.299771943185078        638.50941949403511     
  -14906.514416274425        12.472806822284838        640.90298412452273     
  -14837.716317905481        9.4943163516709319        642.92329521974602     
  -14768.007360629430        6.6946674440014249        644.52048172646801     
  -14697.288434372573        4.4042270119216482        645.64467259150183     
  -14625.460429061091        2.9533619681187702        646.24599676164644     
  -9761.9026132331346        15.021311796610462        1119.3441942411150     
  -9714.6563764260318        13.806811708418991        1120.4028456362164     
  -9667.3327691685317        12.449894640620641        1121.3333354758438     
  -9619.9099611429192        11.023328318798576        1122.1136091226649     
  -9572.3661220315753        9.5998804684300012        1122.7216119393102     
  -9524.6794215168466        8.2523188150903479        1123.1352892884220     
  -9476.8280292810359        7.0534110842663722        1123.3325865327038     
  -9428.7901150064863        6.0759250015817088        1123.2914490348116     
  -9380.5438483755606        5.3926282925203850        1122.9898221573426     
  -10369.903673065422        16.311884808644209        1069.2516244595345     
  -10319.361004537410        15.403972602615340        1070.2199582238163     
  -10268.942597613708        13.950078649944771        1071.1627436293056     
  -10218.594259581450        12.130845326755662        1072.0412088496264     
  -10168.261797727777        10.126915009318964        1072.8165820583997     
  -10117.891019339801        8.1189300738096790        1073.4500914292200     
  -10067.427731704733        6.2875328963637003        1073.9029651357389     
  -10016.817742109675        4.8133658531182846        1074.1364313515815     
  -9966.0068578417977        3.8770713202461593        1074.1117182503583     
  -10978.040426857213        16.757187748105025        1016.6720370312731     
  -10924.074676645352        16.143126770612071        1017.4378496341748     
  -10870.430814672092        14.707988550539085        1018.2844246301740     
  -10817.034127668834        12.700817316583198        1019.1631417196249     
  -10763.809902367218        10.370657296777154        1020.0253806029368     
  -10710.683425498637        7.9665527195861614        1020.8225209804460     
  -10657.579983794656        5.7375478131552882        1021.5059425526072     
  -10604.424863986749        3.9326868059670232        1022.0270250197677     
  -10551.143352806499        2.8010139260964024        1022.3371480823623     
  -11586.236980078254        16.379988973951640        961.55684007921320     
  -11528.808884478607        16.020826693672007        962.06378482416517     
  -11471.876673429155        14.699848417074008        962.74768478983685     
  -11415.356954945228        12.695027426259458        963.55693991911778     
  -11359.166337042263        10.284337003124165        964.43995015495693     
  -11303.221427735727        7.7457504295566650        965.34511544034649     
  -11247.438835040910        5.3572409877633618        966.22083571817041     
  -11191.735166973354        3.3967819593631248        967.01551093141325     
  -11136.027031548405        2.1423466264568560        967.67754102301740     
  -12194.417438198219        15.203056845311949        903.85744172618934     
  -12133.575119766017        15.033624853211677        904.10502875065447     
  -12073.359426970601        13.901882323521477        904.60183041967468     
  -12013.690130950714        12.075258793725880        905.30013563455350     
  -11954.487002845399        9.8211838004808669        906.15223329657454     
  -11895.669813793387        7.4070868812536901        907.11041230705962     
  -11837.158334933622        5.1003975729518061        908.12696156726020     
  -11778.872337404971        3.1685454126941295        909.15416997849638     
  -11720.731592346217        1.8789599377546438        910.14432644208296     
  -12802.505906686756        13.249159721412980        843.52525009507281     
  -12738.384874236270        13.178073730726283        843.56884637050325     
  -12674.958328381907        12.290314344553735        843.89616783116514     
  -12612.161045225486        10.803294556981200        844.47026105245641     
  -12549.927800868958        8.9344273614196936        845.25417260984636     
  -12488.193371414141        6.9011257517322520        846.21094907880024     
  -12426.892532962931        4.9208027218192001        847.30363703472358     
  -12365.960061617183        3.2108712653380280        848.49528305308615     
  -12305.330733478802        1.9887443759780581        849.74893370934819     
  -13410.426491013644        10.541065961139793        780.51167330869725     
  -13343.249639618225        10.450725807396338        780.46250264059142     
  -13276.752630748737        9.8413685543446263        780.68000333566329     
  -13210.897087309666        8.8409178538213382        781.14484835927522     
  -13145.644632205400        7.5772973578441452        781.83771067685757     
  -13080.956888340341        6.1784307183879719        782.73926325375487     
  -13016.795478618960        4.7722415872112833        783.83017905541158     
  -12953.122025945613        3.4866536165300204        785.09113104719233     
  -12889.898153224753        2.4495904580562637        786.50279219451738     
  -14018.103296648507        7.1015439237062310        714.76811948993384     
  -13948.180907640597        6.8481335647302330        714.79326251776195     
  -13878.821587156724        6.5312690270438907        715.00264324459931     
  -13810.025646743394        6.1499118223600817        715.40142974151195     
  -13741.793397947102        5.7030234623016440        715.99479007964419     
  -13674.125152314396        5.1895654584177464        716.78789233016960     
  -13607.021221391793        4.6084993223475976        717.78590456420750     
  -13540.481916725788        3.9587865656249051        718.99399485287722     
  -13474.507549862910        3.2393887000098402        720.41733126734232     
  -14625.460429061091        2.9533619681187702        646.24599676164644     
  -14553.190170032220        2.3668494840003405        646.56839095892019     
  -14481.244450691345        2.3362398373510587        646.91339386936090     
  -14409.674113066769        2.6920596005884363        647.31753738562372     
  -14338.529999186483        3.2648353468985079        647.81735340033310     
  -14267.862951078665        3.8850936491944594        648.44937380620479     
  -14197.723810771544        4.3833610799538292        649.25013049594577     
  -14128.163420293258        4.5901642121216355        650.25615536215287     
  -14059.232621671910        4.3360296185182960        651.50398029753183     
  -9380.5438483755606        5.3926282925203850        1122.9898221573426     
  -9332.3056877522031        4.9814500933653107        1122.6336875727823     
  -9284.3228853263590        4.7176734537097218        1122.4566681126657     
  -9236.6198015194077        4.5200969690222337        1122.4781708782987     
  -9189.2207967527029        4.3075192347087068        1122.7176029708698     
  -9142.1502314476365        3.9987388462195668        1123.1943714916781     
  -9095.4324660255861        3.5125543989161088        1123.9278835419816     
  -9049.0918609079345        2.7677644882351160        1124.9375462230626     
  -9003.1527765160426        1.6831677097002284        1126.2427666361248     
  -9966.0068578417977        3.8770713202461593        1074.1117182503583     
  -9915.1075190524189        3.5500867839041348        1073.9745385099902     
  -9864.3102516476429        3.6435638809198281        1073.9195215999268     
  -9813.6779915468815        3.9477162132229751        1073.9812708811751     
  -9763.2736746695100        4.2527573827951528        1074.1943897146650     
  -9713.1602369349675        4.3489009916906980        1074.5934814613563     
  -9663.4006142626367        4.0263606419289317        1075.2131494822215     
  -9614.0577425719493        3.0753499355491840        1076.0879971382039     
  -9565.1945577822025        1.2860824744775528        1077.2526277902396     
  -10551.143352806499        2.8010139260964024        1022.3371480823623     
  -10497.714600573705        2.4931895776649071        1022.4926256901882     
  -10444.226185847298        2.7984467009937362        1022.6118306430942     
  -10390.766037717280        3.4236883294420295        1022.7392309159683     
  -10337.422085273622        4.0758174963521014        1022.9192944840482     
  -10284.282257606445        4.4617372347584023        1023.1964893221933     
  -10231.434483805664        4.2883505781442182        1023.6152834055831     
  -10178.966692961447        3.2625605597231697        1024.2201447090522     
  -10126.966814163672        1.0912702127602643        1025.0555412078595     
  -11136.027031548405        2.1423466264568560        967.67754102301740     
  -11080.148446723444        1.8043041522037129        968.15954224544146     
  -11024.055251734464        2.1869527711542105        968.48119818504870     
  -10967.846786514738        2.9591593724285303        968.69150978532025     
  -10911.622390997369        3.7897908453883247        968.83947798969677     
  -10855.481405115734        4.3477140791251259        968.97410374174774     
  -10799.523168802945        4.3017959629446523        969.14438798500385     
  -10743.847021992380        3.3209033859166084        969.39933166292019     
  -10688.552304617209        1.0739032373621740        969.78793571912229     
  -11720.731592346217        1.8789599377546438        910.14432644208296     
  -11662.430571909059        1.4769761853572163        910.94688130779650     
  -11603.782013118369        1.8137129485589867        911.47522716884225     
  -11544.883084423400        2.5652753969466175        911.77756629160160     
  -11485.830954272995        3.4077687004642030        911.90210094236159     
  -11426.722791116321        4.0172980289635234        911.89703338758920     
  -11367.655763402456        4.0699685520330604        911.81056589362504     
  -11308.727039580419        3.2418854395873495        911.69090072689039     
  -11250.033788099252        1.2091538615113677        911.58624015359419     
  -12305.330733478802        1.9887443759780581        849.74893370934819     
  -12244.582490537825        1.5047513549379801        850.82623600926070     
  -12183.391033808181        1.6833580905777126        851.54152053733958     
  -12121.837777927407        2.2531824576735744        851.93685923733517     
  -12060.004137532762        2.9428423318800014        852.05432405273257     
  -11997.971527261960        3.4809555878382525        851.93598692718751     
  -11935.821361752289        3.5961401009121801        851.62391980439725     
  -11873.635055641373        3.0170137458289901        851.16019462783493     
  -11811.494023566638        1.4721943980084689        850.58688334129283     
  -12889.898153224753        2.4495904580562637        786.50279219451738     
  -12826.625717017138        1.8811753388526995        787.76919948184820     
  -12762.866877612994        1.8005190543644858        788.62768123362696     
  -12698.673713510765        2.0340266097609856        789.10884742507255     
  -12634.098303209003        2.4081030098950578        789.24330803153782     
  -12569.192725206121        2.7491532600370192        789.06167302818733     
  -12504.009058000564        2.8835823651479586        788.59455239031229     
  -12438.599380091095        2.6377953299806904        787.87255609314423     
  -12373.015769975869        1.8381971600297220        786.92629411203029     
  -13474.507549862910        3.2393887000098402        720.41733126734232     
  -13408.581765754396        2.5997938146438173        721.74736485759752     
  -13342.194108342010        2.1698266972161946        722.68131220050009     
  -13275.353737657861        1.9189539073904598        723.23298965738331     
  -13208.069813733951        1.8166420049019507        723.41621358943416     
  -13140.351496602498        1.8323575492777309        723.24480035800502     
  -13072.207946295519        1.9355671002431336        722.73256632441587     
  -13003.648322845214        2.0957372173916156        721.89332784979865     
  -12934.681786283603        2.2823344603993974        720.74090129557237     
  -14059.232621671910        4.3360296185182960        651.50398029753183     
  -13990.472151156959        3.6541524603189828        652.73232526850632     
  -13921.357289804406        2.7959118764483719        653.65001638099989     
  -13851.840696852589        1.9191104058154451        654.24874473669740     
  -13781.875031539916        1.1815505870799825        654.52020143715970     
  -13711.412953104598       0.74103495958388521        654.45607758423364     
  -13640.407120785030       0.75536606195146305        654.04806427965309     
  -13568.810193819578        1.3823464332554067        653.28785262496774     
  -13496.574831446560        2.7797786122500838        652.16713372192828     
  -16654.114497591087       -4996.2343492773316        1595.0071594441463     
  -16962.198302797726       -4434.4381592801474        1804.0319178449047     
  -17208.502804389140       -3864.5241687051803        1920.3473785752856     
  -17396.761179762598       -3298.9363022100306        1956.5734634681360     
  -17530.706606315176       -2750.1184844523300        1925.3300943563520     
  -17614.072261444380       -2230.5146400897570        1839.2371930728241     
  -17650.591322547411       -1752.5686937799514        1710.9146814504375     
  -17643.996967021540       -1328.7245701804923        1552.9824813220282     
  -17598.022372264157       -971.42619394916073        1378.0605145205682     
  -17181.821725313195       -5154.5465175939516        1866.7322289075007     
  -17660.197141004210       -4533.8129108718585        2066.1860725761271     
  -18042.544198740034       -3913.3218542458812        2160.5663614917544     
  -18332.259038364729       -3304.3938138623762        2164.7341312850085     
  -18532.737799721956       -2718.3492558676153        2093.5504175864821     
  -18647.376622655844       -2166.5086464080296        1961.8762560268531     
  -18679.571647010176       -1660.1924516298022        1784.5726822366394     
  -18632.719012628848       -1210.7211376793921        1576.5007318465478     
  -18510.214859355743       -829.41517070307873        1352.5214404871660     
  -17821.281959093940       -5346.3845877281819        2205.2841435489258     
  -18426.874453593751       -4568.9701361129119        2317.2037917392026     
  -18916.193227315172       -3845.6222464476605        2339.9587510098904     
  -19289.646024234386       -3177.7000653198115        2285.8884869151179     
  -19547.640588327482       -2566.5627393164900        2167.3324650087984     
  -19690.584663570658       -2013.5694150250256        1996.6301508450108     
  -19718.885993940214       -1520.0792390326869        1786.1210099777716     
  -19632.952323412163       -1087.4513579266941        1548.1445079610794     
  -19433.191395962785       -717.04491829438393        1295.0401103490062     
  -18791.481277205992       -5637.4443831618000        2652.2525815911672     
  -19399.174522579517       -4580.9931196072039        2581.2579149023531     
  -19897.960044080450       -3681.9783915003568        2468.3737994102221     
  -20282.605831502478       -2922.9601648216044        2318.6554467178262     
  -20547.879874639944       -2286.4984055513605        2137.1580684282267     
  -20688.550163286967       -1755.1530796702446        1928.9368761446542     
  -20699.384687237743       -1311.4841531585707        1699.0470814701066     
  -20575.151436286265       -938.05159199682021        1452.5438960077092     
  -20310.618400226795       -617.41536216553868        1194.4825313606284     
  -20311.405757922446       -6093.4217273767372        3249.2272212570515     
  -20714.041629975010       -4610.9651459587967        2882.5212816339140     
  -21056.354803001566       -3442.9433355935985        2555.6607589731148     
  -21324.822154299956       -2544.2792206070053        2261.6539270524809     
  -21505.920561167772       -1869.8957253248500        1993.5090596498333     
  -21586.126900902818       -1374.7157740730681        1744.2344305430609     
  -21551.918050802964       -1013.6622911775630        1506.8383135100160     
  -21389.770888165920       -741.65820096420339        1274.3289823285463     
  -21086.162290289452       -513.62642775890981        1039.7147107765256     
  -22600.041479515963       -6780.0124438547755        4037.7977407693415     
  -22508.420057793024       -4699.9694997715742        3245.1667315021396     
  -22459.887658044616       -3149.0701249172334        2611.6688819790925     
  -22429.978686757651       -2045.7623409152839        2113.5028442784524     
  -22394.227550419222       -1308.4941693893688        1726.8672704785392     
  -22328.168655516423       -855.71363196298353        1427.9608126575672     
  -22207.336408536266       -605.86875025975405        1192.9821228938551     
  -22007.265215965934       -477.40754590325650        998.12985326567718     
  -21703.489484292430       -388.77804051710064        819.60265585132129     
  -25876.374520259484       -7762.9123560778080        5059.5538183508561     
  -24919.254088046986       -4889.0894656495057        3693.3671040752961     
  -24177.068763175332       -2820.9118056609495        2646.2474207085793     
  -23611.759123006577       -1431.5146339858602        1872.8211147552104     
  -23185.265744902688       -594.03320849737702        1327.7145327192964     
  -22859.529206225779       -181.60278706939971        965.55402110548096     
  -22596.490084337889       -67.358627575214086        740.96592641797565     
  -22358.088956601106       -124.43598788849249        608.57659516125534     
  -22106.266400377466       -225.97012588261077        523.01237383958551     
  -30359.390958425807       -9107.8172875276487        6356.0851322243634     
  -28083.488002749888       -5219.4083281965050        4251.2952389216489     
  -26276.408272359600       -2479.0214240146906        2669.2456274421666     
  -24883.847157177508       -705.64120805772745        1538.2276548419286     
  -23851.500047126428        281.74768659843630        786.53267817723031     
  -23125.062332129015        664.16062687830527        342.45205450406451     
  -22650.229402108034        622.61297970598298        134.27714087871621     
  -22372.696646986129        338.12011200576308        90.299294357313372     
  -22238.159456686153       -8.3026092978716406        138.80987199584146     
  -36268.076872288104       -10880.423061686430        7968.9813606128309     
  -32138.066083915091       -5732.0093720166569        4943.1239756095456     
  -28826.416339563282       -2143.9520261679972        2690.5127544601664     
  -26259.926483401527        127.75282862954737        1108.3413808981693     
  -24365.395359598879        1327.1090451457494        93.803538657186863     
  -23069.621812324309        1698.1204761505242       -455.90708852922540     
  -22299.404685747024        1484.7909744136123       -643.59681692745414     
  -21981.542824035907        931.12439270499272       -572.07196280398671     
  -22042.835071360118        281.12458379443251       -344.13884242519788     
  -17598.022372264157       -971.42619394916073        1378.0605145205682     
  -17538.144952893734       -695.66082623133116        1215.8459613701441     
  -17484.593858018725       -498.92150980534734        1084.9536079957361     
  -17433.229866771184       -367.41084177804169        981.37978493138439     
  -17379.913758283117       -287.33141925631844        901.12082271116287     
  -17320.506311686651       -244.88583934698545        840.17305186910926     
  -17250.868306113774       -226.27669915687056        794.53280293926684     
  -17166.860520696584       -217.70659579285348        760.19640645569814     
  -17064.343734567141       -205.37812636187573        733.16019295249623     
  -18510.214859355743       -829.41517070307873        1352.5214404871660     
  -18364.118069913879       -537.97624995497426        1148.8759897497007     
  -18240.925870204959       -339.56721861873211        988.33765007852116     
  -18135.691914841318       -217.70025873525719        865.56559038412649     
  -18043.469858435146       -155.88755234533255        775.21897957695217     
  -17959.313355598835       -137.64128149007956        711.95698656760601     
  -17878.276060944485       -146.47362821006845        670.43878026642210     
  -17795.411629084429       -165.89677454635876        645.32352958396655     
  -17705.773714630988       -179.42290253989995        631.27040343076544     
  -19433.191395962785       -717.04491829438393        1295.0401103490062     
  -19197.128899085219       -430.66643208153710        1065.0551162657564     
  -18998.745881551808       -238.30694883114484        884.46394418396676     
  -18833.133129257647       -123.60242152673709        747.64673868054501     
  -18695.381428097677       -70.188803151518186        648.98364433221809     
  -18580.581563966945       -61.702046688911651        582.85480571583446     
  -18483.824322760360       -81.778105122118177        543.64036740811139     
  -18400.200490373001       -114.05293143459949        525.72047398593020     
  -18324.800852699831       -142.16247860958811        523.47527002602430     
  -20310.618400226795       -617.41536216553868        1194.4825313606284     
  -19999.347949182586       -362.38252524345171        958.53941221719958     
  -19735.705242067736       -188.43610544529838        771.79366055247556     
  -19515.662451862536       -82.150012705381414        629.40453389948721     
  -19335.191751547278       -30.098156957901665        526.53128979123119     
  -19190.265314102158       -18.854448136987230        458.33318576064408     
  -19076.855312507461       -34.992796176907177        419.96947934075973     
  -18990.933919743482       -65.087111011895104        406.59942806456741     
  -18928.473308790410       -95.711302576063645        413.38228946502210     
  -21086.162290289452       -513.62642775890981        1039.7147107765256     
  -20732.945728980878       -321.77568207315471        823.48494890292682     
  -20429.455301761176       -183.25009346359639        648.78796942427175     
  -20173.388824498372       -90.375714823811904        512.62028011966356     
  -19962.444113060446       -35.478599047246462        411.97838876812131     
  -19794.318983315559       -10.884799027455301        343.85880314873776     
  -19666.711251131728       -8.9203676580491447        305.25803104062902     
  -19577.318732377029       -21.911357832467729        293.17258022282056     
  -19523.839242919516       -42.183822444336329        304.59895847442812     
  -21703.489484292430       -388.77804051710064        819.60265585132129     
  -21360.092747255076       -297.49705520317730        654.04779762188343     
  -21057.647410640595       -216.04431788866896        513.90804103973255     
  -20796.421189007357       -145.31221043468850        399.07528141979458     
  -20576.681796913781       -86.193114702646199        309.44141407719866     
  -20398.696948918277       -39.579412553832299        244.89833432698271     
  -20262.734359579175       -6.3634858494688160        205.33793748416301     
  -20169.061743454909        12.562283549113999        190.65211886378884     
  -20117.946815103860        16.305513780635010        200.73277378091819     
  -22106.266400377466       -225.97012588261077        523.01237383958551     
  -21842.959512779955       -278.19779726594061        444.38402967295707     
  -21597.932918714370       -280.11418372288335        365.61504563904577     
  -21374.868487231917       -243.99218209079118        290.55084187867271     
  -21177.448087383840       -182.10468920706080        223.03683853268333     
  -21009.353588221438       -106.72460190937909        166.91845574211607     
  -20874.266858795843       -30.124817034944499        126.04111364770094     
  -20775.869768158365        35.421768578612500        104.25023239042893     
  -20717.844185360271        77.642258093711462        105.39123211122865     
  -22238.159456686153       -8.3026092978716406        138.80987199584146     
  -22143.716534330462       -252.52906089396947        188.64971635509798     
  -22027.963175991026       -368.75509596893153        202.37015346261759     
  -21898.839661014405       -383.44831234472713        188.82826557498626     
  -21764.286268747237       -323.07630784357116        156.88113494888813     
  -21632.243278536098       -214.10668028735563        115.38584384089218     
  -21510.650969727689       -83.007027498342723        73.199474507654017     
  -21407.449621668617        43.755052701452769        39.179109205826222     
  -21330.579513705459        139.71196248999968        22.181830191988741     
  -22042.835071360118        281.12458379443251       -344.13884242519788     
  -22224.534320681450       -209.14199871973233       -118.99907103277764     
  -22325.389532478952       -475.26245962929443        22.634534750737153     
  -22358.443652197057       -560.71328374925724        95.688856587525279     
  -22336.739625280403       -508.97095589485980        115.09077613991572     
  -22273.320397173477       -363.51196088126017        95.767175070154821     
  -22181.228913320745       -167.81278352338632        52.644935040388781     
  -22073.508119166807        34.650091363564570       0.65093771289454350     
  -21963.200960156228        200.40017896436893       -45.287935250058730     
  -17064.343734567141       -205.37812636187573        733.16019295249623     
  -16952.749533939739       -182.06158586282709        708.62451410051256     
  -16844.801534612408       -151.50070124027843        684.91356231204645     
  -16741.298560092528       -116.35821751886760        662.70942923301050     
  -16643.039433887519       -79.296879723439815        642.69420650940094     
  -16550.822979504814       -42.979432878621083        625.54998578716345     
  -16465.448020451819       -10.068622009252067        611.95885871228438     
  -16387.713380236048        16.772807859820205        602.60291693074419     
  -16318.417882364864        34.882111703873306        598.16425208852286     
  -17705.773714630988       -179.42290253989995        631.27040343076544     
  -17610.045901990699       -175.39044657851173        619.13900762720323     
  -17513.048839406067       -155.92805383669838        604.12660377071597     
  -17416.041777243190       -125.23322553465187        587.39884443711162     
  -17320.283965868126       -87.503462892640528        570.12138220218458     
  -17227.034655646967       -46.936267131027307        553.45986964173153     
  -17137.553096945787       -7.7291394699614102        538.57995933155723     
  -17053.098540130675        25.920418870236972        526.64730384749407     
  -16974.930235567739        49.814906669204902        518.82755576533953     
  -18324.800852699831       -142.16247860958811        523.47527002602430     
  -18248.555491876188       -151.68175955926381        523.86246009194599     
  -18166.597484837534       -142.19576986256016        518.50823790288996     
  -18080.322109678909       -118.35543650322506        508.79548176922111     
  -17991.124644495394       -84.811686464633567        496.10707000118498     
  -17900.400367382081       -46.215446730596341        481.82588090916914     
  -17809.544556434012       -7.2176442845357087        467.33479280342146     
  -17719.952489746338        27.530793889847700        454.01668399431480     
  -17633.019445414036        53.378940809070627        443.25443279211265     
  -18928.473308790410       -95.711302576063645        413.38228946502210     
  -18871.536662599228       -111.91303250603232        424.49442681934909     
  -18805.676986596904       -110.37270402518971        428.22854428232273     
  -18732.101187477776       -95.113339448005718        425.91841070337784     
  -18652.016171936426       -70.157961089625132        418.89779493216736     
  -18566.628846667154       -39.529591264613373        408.50046581811375     
  -18477.146118364388       -7.2512522875422292        396.06019221070045     
  -18384.774893722504        22.654033526833700        382.91074295943929     
  -18290.722079435982        46.163243863743446        370.38588691385479     
  -19523.839242919516       -42.183822444336329        304.59895847442812     
  -19482.247773162682       -57.061773119598001        322.73446313387183     
  -19430.516860374155       -60.527711031180843        333.45760248251628     
  -19369.340640717961       -54.895423392583325        337.78670071365906     
  -19299.413250358197       -42.478697417626790        336.74008202075316     
  -19221.428825458981       -25.591320319845181        331.33607059707407     
  -19136.081502184450       -6.5470793129416052        322.59299063606193     
  -19044.065416698639        12.340238389394472        311.52916633105838     
  -18946.074705165705        28.756845573519968        299.16292187545025     
  -20117.946815103860        16.305513780635010        200.73277378091819     
  -20083.947182569536        11.894510899078341        220.28212436009875     
  -20041.346621859386        7.2703544121904997        234.36549207720020     
  -19990.002099477420        2.9098226397509279        243.41942127406298     
  -19929.770581927783      -0.71030609869285399        247.88045629258747     
  -19860.509035714684       -3.1132534836742707        248.18514147476782     
  -19782.074427342166       -3.8222411955284770        244.77002116242852     
  -19694.323723314330       -2.3604909144642079        238.07163969747461     
  -19597.113890135362        1.7487756788659681        228.52654142183889     
  -20717.844185360271        77.642258093711462        105.39123211122865     
  -20679.893249822697        93.978311849178681        118.83696582253532     
  -20638.395786742549        92.952637598069487        131.12229263997875     
  -20592.047193834245        78.913909625664928        141.83564185855741     
  -20539.542868812237        56.210802216930460        150.56544277342738     
  -20479.578209391053        29.191989656905207        156.90012467970158     
  -20410.848613285132        2.2061462308256523        160.42811687243560     
  -20332.049478208959       -20.398053776423694        160.73784864681357     
  -20241.876201877123       -34.271936079956504        157.41774929799553     
  -21330.579513705459        139.71196248999968        22.181830191988741     
  -21273.344333925212        188.21212202961578        20.098542845828721     
  -21221.893870713848        196.45028381922475        23.898083744600893     
  -21173.437553866603        173.72834854147368        32.054431941311563     
  -21125.184813178588        129.34821687912154        43.041566488946792     
  -21074.345078445003        72.611789514960037        55.333466440467980     
  -21018.127779461123        12.820967131464386        67.404110848976998     
  -20953.742346022111       -40.722349588554607        77.727478767399646     
  -20878.398207923135       -78.716259962521690        84.777549248820605     
  -21963.200960156228        200.40017896436893       -45.287935250058730     
  -21867.558793879885        293.61843373976899       -74.233589245589869     
  -21792.070389463224        317.69443836875325       -87.137055035350471     
  -21732.134809652467        287.96465036397421       -86.905139003754272     
  -21683.151117193782        219.76552723808709       -76.444647535311816     
  -21640.518374833580        128.43352650315228       -58.662387014280199     
  -21599.635645317940        29.305105672226091       -36.465163825280960     
  -21555.901991393202       -62.283277742611972       -12.759784352585591     
  -21504.716475805555       -130.99516622846477        9.5469450192337675     
  -16318.417882364864        34.882111703873306        598.16425208852286     
  -16253.627237792234        43.672864709633359        597.35847109177507     
  -16188.541592928868        45.443857208070767        598.19140814888226     
  -16122.661424467191        41.860166891001427        600.28049585896599     
  -16055.487209099640        34.586871450293074        603.24316682116080     
  -15986.519423518626        25.289048577940775        606.69685363460110     
  -15915.258544416631        15.631775965658562        610.25898889848031     
  -15841.205048486143        7.2801313052741534        613.54700521190455     
  -15763.859412419495        1.8991922888035333        616.17833517400732     
  -16974.930235567739        49.814906669204902        518.82755576533953     
  -16901.519236209569        61.586545077150731        515.18084550788399     
  -16830.026797453225        63.233547095977883        514.60161480344345     
  -16759.747473331438        57.107399283324412        516.50698318606408     
  -16689.975817876948        45.559588196775621        520.31407018974073     
  -16620.006385122473        30.941600393919543        525.43999534850673     
  -16549.133729100678        15.604922432359672        531.30187819641901     
  -16476.652403844364        1.9010408696804006        537.31683826749713     
  -16401.856963386217       -7.8185577365429708        542.90199509576587     
  -17633.019445414036        53.378940809070627        443.25443279211265     
  -17550.074692990667        66.784316955505346        436.50090848240592     
  -17471.011926332656        68.989695135242982        433.84805830622963     
  -17395.073059989503        62.522026849871509        434.63737750724965     
  -17321.500008510680        49.908263601126237        438.21036132908364     
  -17249.534686445706        33.675356890625153        443.90850501537761     
  -17178.419008344099        16.350258220077194        451.07330380978556     
  -17107.394888755338       0.45991909109034168        459.04625295596043     
  -17035.704242228898       -11.468708994550070        467.16884769748509     
  -18290.722079435982        46.163243863743446        370.38588691385479     
  -18199.069430589876        59.333433608387168        361.10079955637656     
  -18112.655803301499        62.364654205311126        356.37518362174927     
  -18030.823755813552        57.448378178874918        355.59959883789833     
  -17952.915846368938        46.776078052772391        358.16460493290708     
  -17878.274633210331        32.539226351286743        363.46076163465216     
  -17806.242674580513        16.929295598537465        370.87862867115734     
  -17736.162528722260        2.1377583185994808        379.80876577040857     
  -17667.376753878383       -9.6439129645659705        389.64173266038279     
  -18946.074705165705        28.756845573519968        299.16292187545025     
  -18848.279271461426        39.301148299489796        288.76265827078561     
  -18756.117252093962        43.010777186286759        282.62743571440865     
  -18669.185132175888        41.230781858685987        280.32156719340225     
  -18587.079396819729        35.306211941505353        281.40936569482022     
  -18509.396531137994        26.582117059741904        285.45514420564825     
  -18435.733020243373        16.403546837982503        292.02321571302684     
  -18365.685349248310        6.1155509012669427        300.67789320394155     
  -18298.850003265372       -2.9368211257205985        310.98348966545507     
  -19597.113890135362        1.7487756788659681        228.52654142183889     
  -19497.480038059541        6.7547142925895969        219.26862416658045     
  -19402.555096444397        10.580416957442139        213.04925954873897     
  -19312.342760448661        13.213566477573295        209.73120258911320     
  -19226.846725231182        14.641845656836267        209.17720830852977     
  -19146.070685950828        14.852937298982397        211.25003172789323     
  -19070.018337766433        13.834524208047696        215.81242786800334     
  -18998.693375836738        11.574289188049079        222.72715174970907     
  -18932.099495320632        8.0599150427988207        231.85695839383294     
  -20241.876201877123       -34.271936079956504        157.41774929799553     
  -20146.447552838501       -38.238615148597091        152.40083678480548     
  -20053.128160086970       -35.274073601111922        148.08510008916556     
  -19962.482212004066       -27.258939375916270        144.75642504033596     
  -19875.073896971386       -16.073840411738274        142.70069746774459     
  -19791.467403370574       -3.5994046473615526        142.20380320073357     
  -19712.226919583140        8.2837399788795665        143.55162806856211     
  -19637.916633990750        17.694965528090506        147.03005790078285     
  -19569.100734974989        22.753644061516752        152.92497852666742     
  -20878.398207923135       -78.716259962521690        84.777549248820605     
  -20794.957638252570       -95.611586760469436        87.941435666447276     
  -20708.995266756057       -94.900341609929455        88.179402300187277     
  -20621.789058214403       -80.842407113695117        86.325154562531907     
  -20534.616977408456       -57.697665874791710        83.212397866114756     
  -20448.756989119032       -29.726000495761582        79.674837623534657     
  -20365.487058127121       -1.1872935797946411        76.546179247410379     
  -20286.085149213515        23.658572270305740        74.660128150324795     
  -20211.829227159174        40.551714451379667        74.850389745012919     
  -21504.716475805555       -130.99516622846477        9.5469450192337675     
  -21442.786116756070       -165.29694727929927        25.672560352601991     
  -21371.315240185879       -168.64603418915431        33.776611146231645     
  -21292.448870451830       -148.19250814739189        35.365311171037924     
  -21208.332031910326       -111.08645034219535        31.944874197280495     
  -21121.109748918181       -64.477941962857585        25.021513995767442     
  -21032.927045831988       -15.517064197978470        16.101444336971412     
  -20945.928947008324        28.646101763678416        6.6908789915328288     
  -20862.260476803895        60.861474733299474       -1.7039682700777339     
  -15763.859412419495        1.8991922888035333        616.17833517400732     
  -15685.143497287294        6.8920555750082713E-002   618.05816373684479     
  -15607.452176123168       0.79257120173861040        619.47999358648985     
  -15530.995443564419        3.3701621026102657        620.64373392321636     
  -15455.983294248301        7.1017111340879637        621.74929394725166     
  -15382.625722812185        11.287236171689074        622.99658285900568     
  -15311.132723893232        15.226755091500308        624.58550985864315     
  -15241.714292128820        18.220285768964459        626.71598414646280     
  -15174.580422156199        19.567846079889023        629.58791492277544     
  -16401.856963386217       -7.8185577365429708        542.90199509576587     
  -16325.434228466203       -12.145672240192653        547.29445605330022     
  -16248.764125845521       -11.982454899083677        550.33482209141857     
  -16172.180868588617       -8.4429492614090123        552.34545311297779     
  -16096.018669759924       -2.6411988752097386        553.64870902078030     
  -16020.611742423884        4.3087527111974850        554.56694971761590     
  -15946.294299644909        11.292861949916187        555.42253510635953     
  -15873.400554487494        17.197085292579686        556.53782508980089     
  -15802.264720016037        20.907379191158725        558.23517957078639     
  -17035.704242228898       -11.468708994550070        467.16884769748509     
  -16962.580934981674       -17.480398773139314        473.98043475871691     
  -16888.015939258315       -18.143609739998283        478.71870753052809     
  -16812.386828649847       -14.716920532046970        481.77268125652654     
  -16736.071176747377       -8.4589097862899507        483.53137118028508     
  -16659.446557142037      -0.62815613983275398        484.38379254546032     
  -16582.890543424877        7.5167617706101737        484.71896059556292     
  -16506.780709187002        14.717265307906928        484.92589057423925     
  -16431.494628019485        19.714775835161163        485.39359772506407     
  -17667.376753878383       -9.6439129645659705        389.64173266038279     
  -17597.706182030695       -16.272028602229511        398.32601464454552     
  -17525.636657143990       -17.819605555680937        404.48297402277728     
  -17451.508255435452       -15.420231215522108        408.51248601766440     
  -17375.661053122411       -10.207492972725049        410.81442585186915     
  -17298.435126422068       -3.3149782180826151        411.78866874788946     
  -17220.170551551517        4.1237256580361645        411.83508992833782     
  -17141.207404728091        10.975031264655627        411.35356461584308     
  -17061.885762168946        16.105351211102970        410.74396803294343     
  -18298.850003265372       -2.9368211257205985        310.98348966545507     
  -18231.932534810105       -8.8573312863927640        320.54111050217949     
  -18162.055320285042       -11.139154580756440        327.47894568721046     
  -18089.440080632958       -10.521360818085668        332.15193506036633     
  -18014.308536796714       -7.7430198079619004        334.91501846149157     
  -17936.882409719128       -3.5432013598083358        336.12313573034220     
  -17857.383420343107        1.3390247169108989        336.13122670676677     
  -17776.033289611394        6.1645886127535050        335.29423123056978     
  -17693.053738466875        10.194420518314473        333.96708914154738     
  -18932.099495320632        8.0599150427988207        231.85695839383294     
  -18866.382558516969        4.4269236151185396        240.83563712303337     
  -18797.700969464029        1.7690309499348587        247.55794664281783     
  -18726.077235929726        1.1211154088414332E-002   252.27809604847610     
  -18651.533865681999      -0.92156166551103524        255.25029443519222     
  -18574.093366488825       -1.1043134020565049        256.72875089830529     
  -18493.778246118080      -0.61206994856820529        256.96767453299788     
  -18410.611012337689       0.48014280188635894        256.22127443454531     
  -18324.614172915652        2.0972989560978021        254.74375969817956     
  -19569.100734974989        22.753644061516752        152.92497852666742     
  -19502.178818348166        23.243966543420356        159.41950929852808     
  -19433.002645463475        20.776238801534419        164.57130100867198     
  -19361.314653013214        16.209005194772544        168.47803664582744     
  -19286.857277689975        10.400810081139753        171.23739919897938     
  -19209.372956186344        4.2101978187629356        172.94707165709528     
  -19128.604125194717       -1.5042872336352957        173.70473700900800     
  -19044.293221407683       -5.8841007181290479        173.60807824368479     
  -18956.182681517777       -8.0706982764450004        172.75477835012003     
  -20211.829227159174        40.551714451379667        74.850389745012919     
  -20140.443879500795        47.257027938949250        76.502641820181552     
  -20068.389389065836        45.753756739439268        78.370332903736127     
  -19995.047263570857        38.103541797612706        80.338824516362124     
  -19919.799010732477        26.368024058081573        82.293478178923948     
  -19842.026138267036        12.608844466204573        84.119655412202562     
  -19761.110153891426       -1.1123560340447511        85.702717737025807     
  -19676.432565322066       -12.733936497610557        86.928026674196872     
  -19587.374880275602       -20.194255979840818        87.680943744513030     
  -20862.260476803895        60.861474733299474       -1.7039682700777339     
  -20782.300307171747        76.129338242940321       -7.7050505205610076     
  -20704.290241053703        76.572872528759945       -11.193633552924103     
  -20627.169999290098        65.726341456450427       -12.552472675990034     
  -20549.879302720914        47.124008892616075       -12.164323199020879     
  -20471.357872186385        24.300138703196353       -10.411940430942579     
  -20390.545428526555       0.78899475472280756       -7.6780796809334113     
  -20306.381692581585       -19.875159086738677       -4.3454962580103871     
  -20217.806385191609       -34.158058954872104      -0.79694547133348470     
  -15174.580422156199        19.567846079889023        629.58791492277544     
  -15108.434658677224        19.177658484722997        632.80201383993619     
  -15041.774476586503        17.644844801540785        635.79247238144592     
  -14974.500765810169        15.299771943185078        638.50941949403511     
  -14906.514416274425        12.472806822284838        640.90298412452273     
  -14837.716317905481        9.4943163516709319        642.92329521974602     
  -14768.007360629430        6.6946674440014249        644.52048172646801     
  -14697.288434372573        4.4042270119216482        645.64467259150183     
  -14625.460429061091        2.9533619681187702        646.24599676164644     
  -15802.264720016037        20.907379191158725        558.23517957078639     
  -15732.175295944964        21.877537166164075        560.45090272231664     
  -15662.085674652099        20.678377193276901        562.83632986306827     
  -15591.827408196965        17.871392407450003        565.28636761435962     
  -15521.232048639102        14.018075943575241        567.69592259741228     
  -15450.131148038050        9.6799209364389753        569.95990143343511     
  -15378.356258453263        5.4184205211213339        571.97321074376873     
  -15305.738931944443        1.7950678322713429        573.63075714966817     
  -15232.110720570989      -0.62864399514728575        574.82744727238696     
  -16431.494628019485        19.714775835161163        485.39359772506407     
  -16357.043702666646        21.650257007875553        486.42811810414264     
  -16283.057325712194        20.938039683711395        487.98391350629987     
  -16209.340055506309        18.229596028715605        489.92263778342112     
  -16135.696450399117        14.176398208997853        492.10594478730013     
  -16061.931068740845        9.4299183905868631        494.39548836979822     
  -15987.848468881606        4.6416287397796623        496.65292238272718     
  -15913.253209171597       0.46300142252312071        498.73990067792096     
  -15837.949847960970       -2.4544913949384863        500.51807710721232     
  -17061.885762168946        16.105351211102970        410.74396803294343     
  -16982.966784925986        18.517746184729731        410.64433961411703     
  -16904.864855771499        18.371204471190140        411.32638240438735     
  -16827.399883503549        16.266030077064897        412.64046704228565     
  -16750.391776920307        12.802527008513607        414.43696416634282     
  -16673.660444819798        8.5809992719150614        416.56624441500907     
  -16597.025796000038        4.2017508740636913        418.87867842679611     
  -16520.307739259180       0.26508582106544054        421.22463684026638     
  -16443.326183395202       -2.6286918804516972        423.45449029386600     
  -17693.053738466875        10.194420518314473        333.96708914154738     
  -17609.871448806585        12.501932871711688        333.01024688089711     
  -17527.683690834558        12.925243754703843        332.95489565061149     
  -17446.368067954027        11.872341823117495        333.66209243204065     
  -17365.802183568238        9.7512157326209490        334.99289420651138     
  -17285.863641080465        6.9698541392535844        336.80835795520403     
  -17206.430043894019        3.9362456985672907        338.96954065949808     
  -17127.378995412048        1.0583790666159985        341.33749930062459     
  -17048.588099037912       -1.2557571009547246        343.77329085988794     
  -18324.614172915652        2.0972989560978021        254.74375969817956     
  -18237.684600392196        3.6247452436555250        253.43651953308435     
  -18151.689256906062        4.5475297325738211        252.96061233821410     
  -18066.605784622967        4.9401785371774167        253.20975099374522     
  -17982.411825708627        4.8772177717046361        254.07764837981910     
  -17899.085022328811        4.4331735503055825        255.45801737666829     
  -17816.603016649162        3.6825719874195784        257.24457086432824     
  -17734.943450835381        2.6999391974104583        259.33102172306616     
  -17654.083967053281        1.5598012943873982        261.61108283299166     
  -18956.182681517777       -8.0706982764450004        172.75477835012003     
  -18866.333145766414       -8.0918885243745535        171.83383719940781     
  -18777.056979990619       -6.8145653964284065        171.43469156052186     
  -18688.474209275711       -4.6388125102193953        171.50567976842984     
  -18600.704858707126       -1.9647134840342915        171.99514015832906     
  -18513.868953370398       0.80764806372280873        172.85141106539723     
  -18428.086518350920        3.2781885152180621        174.02283082472019     
  -18343.477578734110        5.0468242522356377        175.45773777145467     
  -18260.162159605567        5.7134716561167807        177.10447024083132     
  -19587.374880275602       -20.194255979840818        87.680943744513030     
  -19495.743991013085       -22.626040258034664        88.112879508596166     
  -19403.962286092981       -21.213669434006079        88.468292410813362     
  -19312.334517677606       -16.972984048851686        88.772115797200726     
  -19221.165437929532       -10.919824644694927        89.049283014086683     
  -19130.759799011114       -4.0700317624123272        89.324727407746153     
  -19041.422353084912        2.5605540559508881        89.623382324252802     
  -18953.457852313357        7.9560922690225198        89.970181109923033     
  -18867.171048858967        11.100742335034738        90.390057110997674     
  -20217.806385191609       -34.158058954872104      -0.79694547133348470     
  -20125.844042215838       -39.955781782003214        2.1843260893718810     
  -20032.580601217622       -38.702410181058440        4.1525739823366408     
  -19938.547885593907       -32.170688808249906        5.2312961211504643     
  -19844.277718741283       -22.133362319079424        5.5439904191397185     
  -19750.301924056654       -10.363175369776400        5.2141547897158365     
  -19657.152324936615        1.3671273841246148        4.3652871463064429     
  -19565.360744778063        11.284801286660695        3.1208854023724628     
  -19475.459006977653        17.617101681959866        1.6044474712006853     
  -14625.460429061091        2.9533619681187702        646.24599676164644     
  -14553.190170032220        2.3668494840003405        646.56839095892019     
  -14481.244450691345        2.3362398373510587        646.91339386936090     
  -14409.674113066769        2.6920596005884363        647.31753738562372     
  -14338.529999186483        3.2648353468985079        647.81735340033310     
  -14267.862951078665        3.8850936491944594        648.44937380620479     
  -14197.723810771544        4.3833610799538292        649.25013049594577     
  -14128.163420293258        4.5901642121216355        650.25615536215287     
  -14059.232621671910        4.3360296185182960        651.50398029753183     
  -15232.110720570989      -0.62864399514728575        574.82744727238696     
  -15157.899838532259       -1.6031081896426258        575.64249528914991     
  -15083.709736583136       -1.4628398317545361        576.26956957240748     
  -15009.634821616779      -0.52252856536142644        576.77525803627805     
  -14935.769500526196       0.90313596617670555        577.22614859478711     
  -14862.208180204523        2.4994641190523907        577.68882916199698     
  -14789.045267544878        3.9517662497373749        578.22988765206856     
  -14716.375169440145        4.9453527148270950        578.91591197900266     
  -14644.292292783604        5.1655338705759277        579.81349005692766     
  -15837.949847960970       -2.4544913949384863        500.51807710721232     
  -15762.059620438102       -3.7099098783646696        501.87267814588694     
  -15685.908855347905       -3.5859593820423470        502.83926744753592     
  -15609.609751375479       -2.4566355227198073        503.50500463157948     
  -15533.274507205713      -0.69593391700163920        503.95704931741432     
  -15457.015321523695        1.3221498184875600        504.28256112455296     
  -15380.944393014419        3.2236200668839956        504.56869967230529     
  -15305.173920362853        4.6344812116794856        504.90262458010324     
  -15229.816102253943        5.1807376363121875        505.37149546741000     
  -16443.326183395202       -2.6286918804516972        423.45449029386600     
  -16365.871950816001       -4.0142861023914520        425.26994745467459     
  -16287.925402999828       -4.0581976179846606        426.53796790317500     
  -16209.590757350714       -3.1078177739500461        427.35679864818337     
  -16130.972231272626       -1.5105379168826403        427.82468669831769     
  -16052.174042169379       0.38625060717731685        428.03987906222414     
  -15973.300407444949        2.2351564516438884        428.10062274867062     
  -15894.455544503271        3.6887882699511465        428.10516476635195     
  -15815.743670748236        4.3997547159297028        428.15175212394894     
  -17048.588099037912       -1.2557571009547246        343.77329085988794     
  -16969.539264732135       -2.5769673811573739        345.84531114095665     
  -16889.842975552983       -2.9046333436454006        347.28115134793939     
  -16809.569694550457       -2.4736318214845596        348.18066156274409     
  -16728.789884774375       -1.5188396474404726        348.64369186732506     
  -16647.574009274518      -0.27513365419963520        348.77009234353244     
  -16565.992531100899        1.0226093249357291        348.65971307333996     
  -16484.115913303238        2.1395124573982685        348.41240413864938     
  -16402.014618931506        2.8406989102340958        348.12801562132995     
  -17654.083967053281        1.5598012943873982        261.61108283299166     
  -17573.263997252699       0.54131576517556823        263.60977713025090     
  -17491.745169021473      -0.15034536341136118        264.98429819020794     
  -17409.538417982443      -0.55163416744562710        265.82661485193302     
  -17326.654679758525      -0.69900272309769207        266.22869595450936     
  -17243.104889972350      -0.62890310615966882        266.28251033698240     
  -17158.899984246873      -0.37778739278201101        266.08002683840476     
  -17074.050898204780        1.7892341224069241E-002   265.71321429790697     
  -16988.568567468908       0.52168401959170296        265.27404155447317     
  -18260.162159605567        5.7134716561167807        177.10447024083132     
  -18177.248583443838        5.2798328169556044        178.57435334800795     
  -18093.715579419259        4.1795875186908233        179.56288883847620     
  -18009.488782654695        2.6606186854833140        180.14467999237704     
  -17924.493828272582       0.97080924196961860        180.39433008978008     
  -17838.656351395955      -0.64195788830056699        180.38644241092086     
  -17751.901987147405       -1.9297997806206695        180.19562023593852     
  -17664.156370649762       -2.6448335111263077        179.89646684498476     
  -17575.345137025681       -2.5391761554337791        179.56358551819858     
  -18867.171048858967        11.100742335034738        90.390057110997674     
  -18781.695458371931        11.577853253933426        90.750047719830235     
  -18695.837802760569        10.060086498403507        90.932403701235714     
  -18609.412643574862        7.1655702352627486        90.984878460660283     
  -18522.234542364131        3.5124326333216231        90.955225403096151     
  -18434.118060678422      -0.28119814061119541        90.891197933954544     
  -18344.877760067200       -3.5971939183573340        90.840549458060892     
  -18254.328202080145       -5.8174265323859800        90.851033380863498     
  -18162.283948267039       -6.3237678147697807        90.970403107500445     
  -19475.459006977653        17.617101681959866        1.6044474712006853     
  -19386.807057103084        19.374646556539119       0.14786817103611533     
  -19298.195435059599        17.466072770905157      -0.99167681288145682     
  -19209.301855750979        12.965663979394776       -1.8027682663868088     
  -19119.804034080902        6.9477038364257169       -2.2739869753778015     
  -19029.379684952899       0.48647599677497055       -2.3939137257082534     
  -18937.706523270670       -5.3437358852361285       -2.1511293031308960     
  -18844.462263937876       -9.4686481549415475       -1.5342144936240740     
  -18749.324621858173       -10.813977158010857      -0.53175008293234205     
  -14059.232621671910        4.3360296185182960        651.50398029753183     
  -13990.472151156959        3.6541524603189828        652.73232526850632     
  -13921.357289804406        2.7959118764483719        653.65001638099989     
  -13851.840696852589        1.9191104058154451        654.24874473669740     
  -13781.875031539916        1.1815505870799825        654.52020143715970     
  -13711.412953104598       0.74103495958388521        654.45607758423364     
  -13640.407120785030       0.75536606195146305        654.04806427965309     
  -13568.810193819578        1.3823464332554067        653.28785262496774     
  -13496.574831446560        2.7797786122500838        652.16713372192828     
  -14644.292292783604        5.1655338705759277        579.81349005692766     
  -14572.468882085897        4.5206466149938933        580.76950296960888     
  -14500.450090217577        3.3426666470377313        581.56578909815005     
  -14428.139686611737        1.9523625230131074        582.17137230232902     
  -14355.441440700963       0.67050280055264011        582.55527644194103     
  -14282.259121918545      -0.18214396393705101        582.68652537676735     
  -14208.496499697205      -0.28480921335540188        582.53414296663595     
  -14134.057343469876       0.68327560927900777        582.06715307141383     
  -14058.845422669583        3.0428790607229530        581.25457955077854     
  -15229.816102253943        5.1807376363121875        505.37149546741000     
  -15154.723524994683        4.6818043401935938        505.96117237489068     
  -15079.596431722937        3.4649068863236607        506.56647846290383     
  -15004.318506370455        1.9177655023459010        507.13801803039991     
  -14928.773432868882       0.42810041580196412        507.62639537611432     
  -14852.844895150087      -0.61636814581106592        507.98221479913207     
  -14776.416577145625      -0.82791995477509772        508.15608059828321     
  -14699.372162787275       0.18116521667525376        508.09859707246142     
  -14621.595336006756        2.7986075959570371        507.76036852051089     
  -15815.743670748236        4.3997547159297028        428.15175212394894     
  -15737.226930678991        4.1403703971400319        428.36420485502236     
  -15658.826259015223        3.1536491862689218        428.75846660017885     
  -15580.434058491417        1.7982486346691076        429.27096977830081     
  -15501.942731842379       0.43282629315945087        429.83814680847905     
  -15423.244681802904      -0.58396028737115557        430.39643010962448     
  -15344.232311107435      -0.89345355539899174        430.88225210076467     
  -15264.798022490866      -0.13699596031074179        431.23204520094157     
  -15184.834218687760        2.0440700490962627        431.38224182902098     
  -16402.014618931506        2.8406989102340958        348.12801562132995     
  -16319.969949934455        2.8990895471633849        348.03547178067976     
  -16238.169516788987        2.3999101384943060        348.24813563479745     
  -16156.543245336930        1.5767412114055332        348.69251540379628     
  -16075.021061420068       0.66316329322125966        349.29511930761424     
  -15993.532890880369      -0.10724308915996517        349.98245556644309     
  -15912.008659559575      -0.50089740835937846        350.68103240042626     
  -15830.378293299538      -0.28421913717465941        351.31735802950601     
  -15748.571717942208       0.77637225132275489        351.81794067379155     
  -16988.568567468908       0.52168401959170296        265.27404155447317     
  -16902.943433556720       0.96070655165567587        265.03184452247893     
  -16817.656149739116        1.1947063343686750        265.14186769167009     
  -16732.702969269332        1.2361725240889427        265.52494276421106     
  -16648.080145400625        1.0975942763043349        266.10190144224549     
  -16563.783931386144       0.79146074743948702        266.79357542793809     
  -16479.810580478988       0.33026109332968190        267.52079642346985     
  -16396.156345932493      -0.27351552985692251        268.20439613099200     
  -16312.817480999882       -1.0073799663432510        268.76520625256450     
  -17575.345137025681       -2.5391761554337791        179.56358551819858     
  -17486.138232341429       -1.6720338280902070        179.41019445101421     
  -17397.316102560355      -0.47094563436985482        179.54604489565713     
  -17308.970132651273       0.75947186346456874        179.89053971723581     
  -17221.191707582810        1.7146021028620453        180.36308178101370     
  -17134.072212323812        2.0898285212460905        180.88307395234119     
  -17047.703031842902        1.5805345564394884        181.36991909624314     
  -16962.175551108907      -0.11789635416607780        181.74302007804394     
  -16877.581155090404       -3.3100807727823849        181.92177976298998     
  -18162.283948267039       -6.3237678147697807        90.970403107500445     
  -18069.545197084328       -4.9963868309223471        91.227392937003074     
  -17977.179319947441       -2.6060291761623375        91.567049371640749     
  -17885.401637845011       0.12956852120350959        91.911594120423700     
  -17794.427471765372        2.4926696329739571        92.183248892729367     
  -17704.472142696985        3.7655375311524040        92.304235397807687     
  -17615.750971628193        3.2304355877922717        92.196775345042752     
  -17528.479279547591       0.16962717437490937        91.783090443576285     
  -17442.872387443469       -6.1346243368161595        90.985402402717767     
  -18749.324621858173       -10.813977158010857      -0.53175008293234205     
  -18653.155178581113       -9.0096076958743652       0.54031135121503715     
  -18557.275746595216       -5.2195276998927511        1.3112632444377894     
  -18462.054387213084      -0.67060821192808362        1.7103938312285913     
  -18367.859161746939        3.4102797271652889        1.6669913458749579     
  -18275.058131509082        5.7962650765020953        1.1103440226878483     
  -18184.019357811962        5.2604767942557373       -3.0259903982484390E-002
  -18095.110901967779       0.57604383993111696       -1.8255321997960692     
  -18008.700825289037       -9.4839048278909104       -4.3461846304499421     
 </DataArray>
 <DataArray  type="Float64" Name="VM" NumberOfComponents="1" format="ascii">
   35066.491919187800     
   30899.820619278798     
   28204.129593179307     
   26393.940812090008     
   25055.851011334817     
   23976.856712710665     
   23104.560430652647     
   22483.429879118699     
   22192.740243179112     
   29143.378573485097     
   26899.178954210594     
   25550.538557743581     
   24682.851831018022     
   24032.259421252038     
   23471.690536285034     
   22969.044851761410     
   22544.202181784858     
   22235.309635801153     
   24612.409570545089     
   23747.901160150588     
   23351.546085481532     
   23157.854797015174     
   23009.240310653677     
   22830.607747807673     
   22599.358091686507     
   22321.035266504812     
   22012.799836818136     
   21270.008140967158     
   21319.547341692822     
   21542.931323225803     
   21789.983953347135     
   21974.010362389217     
   22051.986664163818     
   22007.903260751136     
   21841.017110618366     
   21558.525290805836     
   18910.034860531348     
   19487.112919584441     
   20057.973915461189     
   20550.191235944709     
   20921.509866032782     
   21149.539756522448     
   21224.467886295981     
   21144.271587142739     
   20911.782829499592     
   17322.468739922038     
   18122.766265434977     
   18828.184668101389     
   19410.591351333165     
   19853.541430056146     
   20148.139255679533     
   20290.340194786626     
   20279.198844153321     
   20115.732564660309     
   16293.935038986421     
   17098.001429789601     
   17784.624598572504     
   18345.772871069094     
   18778.158942248941     
   19081.007138962144     
   19254.649517834830     
   19299.630648902777     
   19216.138904819087     
   15610.058426382044     
   16284.267687049032     
   16859.577486791994     
   17334.127085552198     
   17709.381705861430     
   17987.928901378251     
   18172.095316247975     
   18263.107551797351     
   18260.648204586207     
   15058.093846712445     
   15553.976878145830     
   15988.359701076637     
   16359.217897141447     
   16667.272946886620     
   16914.214837769767     
   17101.540187891398     
   17229.839958784720     
   17298.440248860672     
   22192.740243179112     
   22121.665120848586     
   22091.626984938495     
   22084.047262054919     
   22087.550945752828     
   22094.428359126741     
   22097.987066416808     
   22090.852695334124     
   22064.223326501546     
   22235.309635801153     
   22020.962038876827     
   21848.730641231996     
   21712.117265167133     
   21606.266782276114     
   21526.914470542433     
   21469.640754288474     
   21429.467524980701     
   21400.812795954178     
   22012.799836818136     
   21718.840099928158     
   21468.587544840830     
   21259.878214011162     
   21090.521942855707     
   20958.187620682707     
   20860.361951370891     
   20794.386967919447     
   20757.577906201059     
   21558.525290805836     
   21243.135585645308     
   20969.360013445013     
   20735.669696542314     
   20540.713070060112     
   20383.348752288148     
   20262.674035123317     
   20178.047998795329     
   20129.108442435725     
   20911.782829499592     
   20623.326110319740     
   20369.468950813902     
   20147.925327288765     
   19957.488065636968     
   19797.838451586475     
   19669.359555473089     
   19572.960389346477     
   19509.917111186995     
   20115.732564660309     
   19890.052893276858     
   19687.600801901091     
   19505.205582886469     
   19341.672040690399     
   19197.265693992133     
   19073.258752768150     
   18971.550304084689     
   18894.371495018582     
   19216.138904819087     
   19074.870763620464     
   18942.767124573340     
   18816.250521396225     
   18694.211554284619     
   18577.258163686925     
   18467.092862093697     
   18366.026957632363     
   18276.638923406124     
   18260.648204586207     
   18210.176918169094     
   18154.423815432267     
   18090.057851608632     
   18016.138901873441     
   17933.337721186268     
   17843.317840143918     
   17748.276877898614     
   17650.645969539568     
   17298.440248860672     
   17329.302539470238     
   17342.661116801308     
   17335.993652013214     
   17308.559848031819     
   17260.824226033234     
   17194.012039201683     
   17109.788369661299     
   17010.053723821082     
   22064.223326501546     
   22016.213728184743     
   21953.163746191076     
   21878.060678769016     
   21794.272103319774     
   21705.262961849021     
   21614.399631830103     
   21524.841836352643     
   21439.525198925778     
   21400.812795954178     
   21368.102751831313     
   21320.841588836814     
   21260.911061499461     
   21190.291021832440     
   21110.966807091605     
   21024.868974668880     
   20933.845599280517     
   20839.667962072879     
   20757.577906201059     
   20728.066609269925     
   20686.278967113027     
   20633.084028297326     
   20569.363420053793     
   20495.995416366492     
   20413.845898729644     
   20323.766274297323     
   20226.598524089721     
   20129.108442435725     
   20093.521961569288     
   20049.095624524296     
   19995.905926410174     
   19934.042959925853     
   19863.607499526792     
   19784.708480149802     
   19697.460854309982     
   19601.983816146283     
   19509.917111186995     
   19461.810839935068     
   19408.921424289740     
   19350.800343322189     
   19287.032234827311     
   19217.218932434909     
   19140.967019686723     
   19057.878912547883     
   18967.547500888079     
   18894.371495018582     
   18830.190557430582     
   18765.399604558497     
   18699.284926352990     
   18631.170430427730     
   18560.387634016057     
   18486.254564754920     
   18408.063745638494     
   18325.079447349810     
   18276.638923406124     
   18195.827062036107     
   18118.190753662813     
   18042.970362915799     
   17969.426070547674     
   17896.805949575031     
   17824.325742007386     
   17751.160679985082     
   17676.449653362135     
   17650.645969539568     
   17555.792134678755     
   17466.977716372781     
   17383.561785540202     
   17304.895314827078     
   17230.301379066219     
   17159.065134964214     
   17090.433908722152     
   17023.627651508439     
   17010.053723821082     
   16907.064897458782     
   16811.471716266427     
   16722.862953317715     
   16640.806508350444     
   16564.846896728959     
   16494.506921530134     
   16429.293641290315     
   16368.708710924146     
   21439.525198925778     
   21360.660157338771     
   21287.567387726369     
   21218.820800762227     
   21153.070477973281     
   21088.979949737146     
   21025.183788570943     
   20960.266063389194     
   20892.760051053163     
   20839.667962072879     
   20747.872227881759     
   20662.266633584411     
   20582.021999536028     
   20506.326853942177     
   20434.368083676349     
   20365.318875616602     
   20298.334183734667     
   20232.553906313580     
   20226.598524089721     
   20129.082495763869     
   20037.150340058855     
   19950.435309863475     
   19868.572048710597     
   19791.194160376432     
   19717.933192055683     
   19648.419076768285     
   19582.282072496873     
   19601.983816146283     
   19504.552890181578     
   19411.350665276161     
   19322.362638635404     
   19237.578461922636     
   19156.991451786678     
   19080.598104568911     
   19008.397617616738     
   18940.391419648826     
   18967.547500888079     
   18874.586084615425     
   18784.036253012873     
   18696.136784355655     
   18611.137983874902     
   18529.296790912733     
   18450.872782019695     
   18376.125110424775     
   18305.310421996986     
   18325.079447349810     
   18239.533957943520     
   18154.413653821131     
   18070.114720185906     
   17987.049256300492     
   17905.635602278599     
   17826.291045414549     
   17749.426993563142     
   17675.446707809155     
   17676.449653362135     
   17599.808133259969     
   17521.729667087249     
   17442.671457939789     
   17363.105662602055     
   17283.507971040719     
   17204.349431562543     
   17126.091623765522     
   17049.185295381314     
   17023.627651508439     
   16955.893162297281     
   16885.274913812169     
   16812.194725568184     
   16737.084295469598     
   16660.376023447960     
   16582.496728351831     
   16503.864336914477     
   16424.887641564750     
   16368.708710924146     
   16308.363098383899     
   16244.389055184331     
   16177.080729644975     
   16106.736134945324     
   16033.652851166693     
   15958.125207431554     
   15880.442980087553     
   15800.891653677976     
   20892.760051053163     
   20820.482791422241     
   20742.707062846777     
   20660.143020063715     
   20573.515099594821     
   20483.548955589806     
   20390.962866313406     
   20296.463713531051     
   20200.747674261082     
   20232.553906313580     
   20164.558372163418     
   20091.777977589532     
   20014.627551203535     
   19933.524836036271     
   19848.886571058963     
   19761.126103702598     
   19670.652569190170     
   19577.871683507648     
   19582.282072496873     
   19515.772691411064     
   19445.500189501647     
   19371.636464890791     
   19294.354461388029     
   19213.827452346428     
   19130.228611287694     
   19043.730875789126     
   18954.507112894946     
   18940.391419648826     
   18873.213109676326     
   18803.483817252534     
   18731.190384479669     
   18656.322631894607     
   18578.872626172877     
   18498.834042374448     
   18416.201621577260     
   18330.970725132633     
   18305.310421996986     
   18235.963017158032     
   18165.351445577839     
   18093.336364768871     
   18019.783657706070     
   17944.562519261039     
   17867.543943532175     
   17788.599621515736     
   17707.601259417748     
   17675.446707809155     
   17603.102968813088     
   17530.740221576176     
   17458.149736058673     
   17385.128861050522     
   17311.478143477063     
   17236.999219426198     
   17161.493499518358     
   17084.761671719458     
   17049.185295381314     
   16973.712257776846     
   16899.304421339435     
   16825.736609199812     
   16752.788827470002     
   16680.243346647509     
   16607.882701925646     
   16535.488642842538     
   16462.842062000291     
   16424.887641564750     
   16346.871033265226     
   16270.718616218419     
   16196.237210337893     
   16123.236759122472     
   16051.528367535726     
   15980.923069553295     
   15911.231351415759     
   15842.263455285789     
   15800.891653677976     
   15721.663105295291     
   15644.681609311436     
   15569.830262040590     
   15496.993196051619     
   15426.054998020081     
   15356.900430105521     
   15289.414465840980     
   15223.482650786547     
   20200.747674261082     
   20105.880568096738     
   20013.230533296894     
   19922.446479332240     
   19833.180074903947     
   19745.082706925677     
   19657.803570716089     
   19570.988929779942     
   19484.282581666321     
   19577.871683507648     
   19485.023760681994     
   19393.944894271786     
   19304.434367496578     
   19216.292032786427     
   19129.317402375797     
   19043.309117893376     
   18958.064811859444     
   18873.381373604472     
   18954.507112894946     
   18864.624036775684     
   18775.979179899146     
   18688.492019054473     
   18602.082113428503     
   18516.668957991846     
   18432.171901330647     
   18348.510130131715     
   18265.602722501157     
   18330.970725132633     
   18244.769532086622     
   18159.236257972439     
   18074.381823733303     
   17990.217379776328     
   17906.754177036910     
   17824.003455923925     
   17741.976353829185     
   17660.683831895236     
   17707.601259417748     
   17625.560411789269     
   17543.623498445937     
   17461.864918360679     
   17380.359470718675     
   17299.181970794310     
   17218.406961904140     
   17138.108526750984     
   17058.360201604220     
   17084.761671719458     
   17007.110702526854     
   16929.053830864759     
   16850.701437423479     
   16772.164247039331     
   16693.552735395282     
   16614.976723172549     
   16536.545163905022     
   16458.366132169267     
   16462.842062000291     
   16389.550541919656     
   16315.447060730241     
   16240.650940889638     
   16165.281581263545     
   16089.457864504167     
   16013.297783427566     
   15936.918293546671     
   15860.435399478303     
   15842.263455285789     
   15773.028954311290     
   15702.731515157568     
   15631.473066684648     
   15559.355326887995     
   15486.479428715491     
   15412.945710909788     
   15338.853679219446     
   15264.302143805649     
   15223.482650786547     
   15157.717294467744     
   15090.846110835804     
   15022.928470585242     
   14954.023513265725     
   14884.190061190195     
   14813.486591321265     
   14741.971267038372     
   14669.702031864394     
   19484.282581666321     
   19396.540075353791     
   19306.996001406889     
   19215.862757959520     
   19123.353119046897     
   19029.679393838775     
   18935.053003069672     
   18839.684486605536     
   18743.783957521340     
   18873.381373604472     
   18788.175747133544     
   18701.581818371811     
   18613.721982476985     
   18524.718701522124     
   18434.694234499424     
   18343.770513285901     
   18252.069169448292     
   18159.711717209510     
   18265.602722501157     
   18182.543689362512     
   18098.514293802975     
   18013.564634232567     
   17927.744938573484     
   17841.105491832688     
   17753.696595635643     
   17665.568560759017     
   17576.771733793754     
   17660.683831895236     
   17579.481510688413     
   17497.714617485926     
   17415.378629593484     
   17332.469318609390     
   17248.982675621210     
   17164.914850133653     
   17080.262103152323     
   16995.020774877430     
   17058.360201604220     
   16978.830986160541     
   16899.112992000104     
   16819.164433931772     
   16738.943943372182     
   16658.410422610898     
   16577.522938578430     
   16496.240657442679     
   16414.522821421171     
   16458.366132169267     
   16380.439051739411     
   16302.649886786676     
   16224.936443200424     
   16147.236969668389     
   16069.489960721408     
   15991.634029047727     
   15913.607849470221     
   15835.350177060016     
   15860.435399478303     
   15784.159019988081     
   15708.277571842505     
   15632.724698013906     
   15557.434420248226     
   15482.340954632009     
   15407.378604510859     
   15332.481733478729     
   15257.584821217835     
   15264.302143805649     
   15189.852076295623     
   15115.962005437010     
   15042.577017202586     
   14969.642458970404     
   14897.103830147387     
   14824.906728359327     
   14752.996853181212     
   14681.320069412615     
   14669.702031864394     
   14597.389133953007     
   14525.685173277145     
   14454.561664052631     
   14383.990253660910     
   14313.942703516459     
   14244.390887118821     
   14175.306805897106     
   14106.662623463073     
   18743.783957521340     
   18648.422996862158     
   18554.385238499559     
   18461.448967669163     
   18369.391927142115     
   18277.991206675957     
   18187.023649325052     
   18096.266792551029     
   18005.500362726838     
   18159.711717209510     
   18067.576620607149     
   17976.374931290993     
   17885.977057400025     
   17796.253144393810     
   17707.073047429509     
   17618.306490567349     
   17529.823419348224     
   17441.494553493281     
   17576.771733793754     
   17487.964201564369     
   17399.733721087188     
   17312.025166985706     
   17224.783322668329     
   17137.952863446852     
   17051.478382098918     
   16965.304458378654     
   16879.375774021006     
   16995.020774877430     
   16909.612712409627     
   16824.463351049752     
   16739.574450982836     
   16654.947723964575     
   16570.584798583073     
   16486.487197156839     
   16402.656324697960     
   16319.093470381205     
   16414.522821421171     
   16332.552160120738     
   16250.565959141228     
   16168.605334944752     
   16086.711308007641     
   16004.924751420820     
   15923.286373627401     
   15841.836736545483     
   15760.616310373967     
   15835.350177060016     
   15756.816376482999     
   15678.044630422224     
   15599.097965484352     
   15520.039239839411     
   15440.931092099105     
   15361.835954002314     
   15282.816129248511     
   15203.933940909577     
   15257.584821217835     
   15182.443988843090     
   15106.904095656353     
   15031.032795134268     
   14954.897539988635     
   14878.565550189096     
   14802.103852499569     
   14725.579394159508     
   14649.059233457423     
   14681.320069412615     
   14609.479618761674     
   14537.151615253933     
   14464.391338007274     
   14391.253915175155     
   14317.794319021283     
   14244.067409617292     
   14170.128028956498     
   14096.031147372079     
   14106.662623463073     
   14037.975371039842     
   13968.798099868161     
   13899.157143621718     
   13829.078819495058     
   13758.589436177052     
   13687.715313205352     
   13616.482812123135     
   13544.918379887031     
   15058.093846712445     
   15553.976878145830     
   15988.359701076637     
   16359.217897141447     
   16667.272946886620     
   16914.214837769767     
   17101.540187891398     
   17229.839958784720     
   17298.440248860672     
   14465.235115022750     
   14815.741683943397     
   15138.131978288940     
   15428.982015778669     
   15686.781138561488     
   15910.946465207535     
   16101.138606011726     
   16256.817392513331     
   16376.995514074963     
   13808.459831382206     
   14065.444387035031     
   14315.441307777253     
   14554.403627491200     
   14779.510642243984     
   14988.714915946312     
   15180.407244645719     
   15353.184090187437     
   15505.704007470109     
   13102.533895625880     
   13308.300307676003     
   13518.338148576140     
   13728.481333915533     
   13935.272198362873     
   14135.824268819779     
   14327.713229229392     
   14508.896293943375     
   14677.658983289783     
   12362.831550240659     
   12550.008946555967     
   12745.182877041554     
   12944.361796646886     
   13143.898410369451     
   13340.512533872157     
   13531.309853145052     
   13713.800161448640     
   13885.918111354345     
   11605.198856395436     
   11796.681708508560     
   11994.632295344945     
   12195.355486039132     
   12395.265101545094     
   12590.971123795338     
   12779.358571983663     
   12957.661353571997     
   13123.534821404155     
   10845.853546542106     
   11054.780895349391     
   11265.622898466132     
   11474.946969223512     
   11679.312641616913     
   11875.371577263615     
   12059.962756265608     
   12230.205789599628     
   12383.596160120951     
   10101.310682289899     
   10331.068068022034     
   10557.351302409234     
   10776.799803755133     
   10986.067013869444     
   11181.899432163946     
   11361.213273426771     
   11521.171966142731     
   11659.268377139602     
   9388.3262891922714     
   9632.5601578619862     
   9869.2522703038358     
   10094.756847838680     
   10305.661429148977     
   10498.796118524489     
   10671.247091453331     
   10820.376766003466     
   10943.853052039565     
   17298.440248860672     
   17329.302539470238     
   17342.661116801308     
   17335.993652013214     
   17308.559848031819     
   17260.824226033234     
   17194.012039201683     
   17109.788369661299     
   17010.053723821082     
   16376.995514074963     
   16467.071379867462     
   16531.544031222860     
   16568.755160218810     
   16578.153886830896     
   16559.964341861276     
   16514.932652132014     
   16444.144023359877     
   16348.903480159370     
   15505.704007470109     
   15633.258163076784     
   15730.916365525905     
   15797.633853791325     
   15833.027958780351     
   15837.199133880724     
   15810.594219366374     
   15753.905583362946     
   15668.001627143651     
   14677.658983289783     
   14824.515790106294     
   14940.329448836806     
   15024.488714876803     
   15076.762552530827     
   15097.207094129797     
   15086.093554608638     
   15043.853386684310     
   14971.037969920939     
   13885.918111354345     
   14037.587901724488     
   14159.544618150972     
   14251.470812675345     
   14313.261848849132     
   14344.973571381985     
   14346.781780992351     
   14318.951360033878     
   14261.813494957349     
   13123.534821404155     
   13269.325632473170     
   13388.526363083993     
   13480.994241925164     
   13546.711555607912     
   13585.747714971047     
   13598.231201394618     
   13584.329890517642     
   13544.238756958868     
   12383.596160120951     
   12516.707281323021     
   12627.438144523061     
   12715.711596400042     
   12781.543602219994     
   12825.007847293671     
   12846.210848434070     
   12845.276279415837     
   12822.337711559840     
   11659.268377139602     
   11776.862656646463     
   11876.642213156449     
   11958.494316823335     
   12022.407198666564     
   12068.434579412749     
   12096.670504142861     
   12107.233314432298     
   12100.258009979425     
   10943.853052039565     
   11047.104920285781     
   11136.705266793946     
   11212.418501903785     
   11274.146036517815     
   11321.891400864510     
   11355.733500979635     
   11375.807018408146     
   11382.289225828497     
   17010.053723821082     
   16907.064897458782     
   16811.471716266427     
   16722.862953317715     
   16640.806508350444     
   16564.846896728959     
   16494.506921530134     
   16429.293641290315     
   16368.708710924146     
   16348.903480159370     
   16245.599004384610     
   16149.536806329914     
   16060.521823826923     
   15978.359486052423     
   15902.858176318203     
   15833.832058318982     
   15771.104255562102     
   15714.510371016835     
   15668.001627143651     
   15570.911727195355     
   15479.955013956522     
   15395.071623997805     
   15316.240728895646     
   15243.475434221502     
   15176.817804779830     
   15116.334061912648     
   15062.109997080668     
   14971.037969920939     
   14885.303400002924     
   14803.858808475379     
   14726.727359991421     
   14654.010198696782     
   14585.868741697197     
   14522.508970919753     
   14464.167877030715     
   14411.102200738602     
   14261.813494957349     
   14191.133411586936     
   14122.409817960663     
   14055.713806795840     
   13991.223178261545     
   13929.192797138758     
   13869.929594983985     
   13813.772418184737     
   13761.076922669517     
   13544.238756958868     
   13490.826458086722     
   13436.805863216225     
   13382.269979133345     
   13327.431533326098     
   13272.586031812454     
   13218.081692024458     
   13164.296392855897     
   13111.621814729535     
   12822.337711559840     
   12786.882315643526     
   12748.290357790920     
   12706.655308249226     
   12662.186361829661     
   12615.170986524858     
   12565.945222845861     
   12514.871743453039     
   12462.325753614790     
   12100.258009979425     
   12081.890168964441     
   12058.164941466788     
   12029.158205401643     
   11995.042568739374     
   11956.056408266475     
   11912.479688180520     
   11864.616444927764     
   11812.783916980658     
   11382.289225828497     
   11378.548938496286     
   11367.806589459484     
   11350.108018729210     
   11325.566170003400     
   11294.341729805812     
   11256.627940954020     
   11212.639442543647     
   11162.605060479651     
   16368.708710924146     
   16308.363098383899     
   16244.389055184331     
   16177.080729644975     
   16106.736134945324     
   16033.652851166693     
   15958.125207431554     
   15880.442980087553     
   15800.891653677976     
   15714.510371016835     
   15659.032911370388     
   15599.851184571098     
   15537.108982618154     
   15470.950936497891     
   15401.521594324722     
   15328.964843731295     
   15253.423686378368     
   15175.040375072609     
   15062.109997080668     
   15009.337380219020     
   14953.165082198815     
   14893.626885535525     
   14830.756901334127     
   14764.589512330591     
   14695.159329419093     
   14622.501161842989     
   14546.650001325270     
   14411.102200738602     
   14359.368131291552     
   14304.818778263238     
   14247.416038352834     
   14187.122139905714     
   14123.899317249086     
   14057.709619399173     
   13988.514856355781     
   13916.276687104446     
   13761.076922669517     
   13709.231042205158     
   13655.330722649580     
   13599.300393800879     
   13541.064405470534     
   13480.546255615081     
   13417.668225863859     
   13352.351435419163     
   13284.516326658724     
   13111.621814729535     
   13059.050407919789     
   13005.254941840938     
   12950.152149090398     
   12893.657763029471     
   12835.685664582963     
   12776.147635145177     
   12714.953733445846     
   12652.013316936987     
   12462.325753614790     
   12408.974427381077     
   12355.187877580538     
   12300.899755480561     
   12246.041799926234     
   12190.543403164233     
   12134.331775051201     
   12077.332724432914     
   12019.472078240076     
   11812.783916980658     
   11759.182514523372     
   11705.777504718004     
   11652.538751366112     
   11599.434198418590     
   11546.430085083033     
   11493.491535854691     
   11440.583537397863     
   11387.672314683052     
   11162.605060479651     
   11109.895166850798     
   11057.735579692995     
   11006.146409222914     
   10955.147811081746     
   10904.760397123227     
   10855.005736800074     
   10805.906951506246     
   10757.489404108364     
   15800.891653677976     
   15721.663105295291     
   15644.681609311436     
   15569.830262040590     
   15496.993196051619     
   15426.054998020081     
   15356.900430105521     
   15289.414465840980     
   15223.482650786547     
   15175.040375072609     
   15096.415502346188     
   15020.034029651179     
   14945.864636773300     
   14873.876239772626     
   14804.038033940704     
   14736.319567119335     
   14670.690844221283     
   14607.122463706188     
   14546.650001325270     
   14470.210299552511     
   14395.784279206748     
   14323.404132994770     
   14253.102458871037     
   14184.912097481745     
   14118.865987649888     
   14054.997040970557     
   13993.338036566171     
   13916.276687104446     
   13843.288636850677     
   13771.919233565350     
   13702.243699204424     
   13634.338006119367     
   13568.278185202902     
   13504.139776516491     
   13441.997429022473     
   13381.924655878694     
   13284.516326658724     
   13215.923232334026     
   13148.450563253649     
   13082.197381974700     
   13017.263611940991     
   12953.748858217077     
   12891.751526151920     
   12831.368250673533     
   12772.693648769915     
   12652.013316936987     
   12588.426222865641     
   12525.421430647684     
   12463.103933644459     
   12401.579351265549     
   12340.952529521759     
   12281.326543514244     
   12222.802117802083     
   12165.477480734609     
   12019.472078240076     
   11961.159428263878     
   11902.915339038394     
   11844.834360371004     
   11787.011194809411     
   11729.539430654615     
   11672.510678225108     
   11616.014124288278     
   11560.136520092736     
   11387.672314683052     
   11334.547938522364     
   11281.067953842254     
   11227.302160227526     
   11173.320037205822     
   11119.189908263495     
   11064.978397627830     
   11010.750189956423     
   10956.568103716834     
   10757.489404108364     
   10709.098315345100     
   10660.083086233077     
   10610.477347376753     
   10560.314218095929     
   10509.626006476090     
   10458.444027472849     
   10406.798542947388     
   10354.718827852772     
   15223.482650786547     
   15157.717294467744     
   15090.846110835804     
   15022.928470585242     
   14954.023513265725     
   14884.190061190195     
   14813.486591321265     
   14741.971267038372     
   14669.702031864394     
   14607.122463706188     
   14544.084045093090     
   14480.071962063354     
   14415.097601054147     
   14349.172495001123     
   14282.308319109219     
   14214.516888689102     
   14145.810159119415     
   14076.200228001391     
   13993.338036566171     
   13932.425805321856     
   13870.759318008861     
   13808.314967734257     
   13745.069787919574     
   13681.001339670349     
   13616.087616169003     
   13550.306964555200     
   13483.638025796690     
   13381.924655878694     
   13322.688657699862     
   13262.976798573438     
   13202.742891410933     
   13141.941787850466     
   13080.529107280627     
   13018.461029764585     
   12955.694154849311     
   12892.185428371451     
   12772.693648769915     
   12714.840121372390     
   12656.819061202965     
   12598.573289784086     
   12540.046866758554     
   12481.184707089651     
   12421.932308715386     
   12362.235594293656     
   12302.040870847333     
   12165.477480734609     
   12108.874863864630     
   12052.412960585398     
   11996.034171968935     
   11939.682116982285     
   11883.301236501129     
   11826.836530583947     
   11770.233433595355     
   11713.437831901467     
   11560.136520092736     
   11504.822184004461     
   11449.925591778985     
   11395.398122940214     
   11341.192173133513     
   11287.260850730228     
   11233.557793825306     
   11180.037111916314     
   11126.653456600934     
   10956.568103716834     
   10902.755929954981     
   10849.574911180096     
   10796.993501058752     
   10744.980858971967     
   10693.506706119570     
   10642.541256626007     
   10592.055226356686     
   10542.019922144087     
   10354.718827852772     
   10302.807811423956     
   10251.643931359666     
   10201.219380196564     
   10151.526721235557     
   10102.558884415883     
   10054.309182388793     
   10006.771347478407     
   9959.9395902013875     
   14669.702031864394     
   14597.389133953007     
   14525.685173277145     
   14454.561664052631     
   14383.990253660910     
   14313.942703516459     
   14244.390887118821     
   14175.306805897106     
   14106.662623463073     
   14076.200228001391     
   14006.423883835147     
   13937.210519245875     
   13868.561276936180     
   13800.477341410109     
   13732.959941600364     
   13666.010353600999     
   13599.629903506529     
   13533.819970359011     
   13483.638025796690     
   13416.745400047203     
   13350.322979642124     
   13284.393540837627     
   13218.979830594257     
   13154.104531651925     
   13089.790236927631     
   13026.059433589089     
   12962.934497163789     
   12892.185428371451     
   12828.452087891688     
   12765.064399090650     
   12702.059080992032     
   12639.472738525794     
   12577.341776555553     
   12515.702343288640     
   12454.590304166441     
   12394.041247351166     
   12302.040870847333     
   12241.667399240687     
   12181.498936604203     
   12121.578792827866     
   12061.950062979206     
   12002.655507680336     
   11943.737481120555     
   11885.237908462477     
   11827.198314438139     
   11713.437831901467     
   11656.546045005276     
   11599.718914561872     
   11542.999398811571     
   11486.430145117474     
   11430.053369829460     
   11373.910793259653     
   11318.043631774217     
   11262.492649068832     
   11126.653456600934     
   11073.282102966268     
   11019.852468540772     
   10966.400733858838     
   10912.962712091679     
   10859.573761938036     
   10806.268748198352     
   10753.082051746303     
   10700.047630674588     
   10542.019922144087     
   10492.119717842199     
   10442.073664954394     
   10391.905402228460     
   10341.638225096694     
   10291.295050028824     
   10240.898406524044     
   10190.470457724325     
   10140.033050674700     
   9959.9395902013875     
   9913.3673919901648     
   9866.6160450412008     
   9819.6917317903699     
   9772.6004349804771     
   9725.3479411084791     
   9677.9398496272643     
   9630.3815881062837     
   9582.6784335653520     
   14106.662623463073     
   14037.975371039842     
   13968.798099868161     
   13899.157143621718     
   13829.078819495058     
   13758.589436177052     
   13687.715313205352     
   13616.482812123135     
   13544.918379887031     
   13533.819970359011     
   13468.087141144206     
   13401.932890466656     
   13335.351073982758     
   13268.335675477825     
   13200.880795082818     
   13132.980638489189     
   13064.629507191674     
   12995.821789790973     
   12962.934497163789     
   12899.972743626946     
   12836.696704192276     
   12773.076698822670     
   12709.083271242203     
   12644.687144714975     
   12579.859197015243     
   12514.570455272853     
   12448.792111424484     
   12394.041247351166     
   12333.710200201329     
   12273.198666418320     
   12212.462029995722     
   12151.455949373289     
   12090.136289063375     
   12028.459098354910     
   11966.380638790730     
   11903.857462223441     
   11827.198314438139     
   11769.403278795200     
   11711.575432726171     
   11653.663420031049     
   11595.616179027491     
   11537.382869082885     
   11478.912866656859     
   11420.155833363669     
   11361.061858709478     
   11262.492649068832     
   11207.187606932195     
   11151.997503372655     
   11096.871974068268     
   11041.760953456733     
   10986.614616613075     
   10931.383397309834     
   10876.018085009297     
   10820.470003667682     
   10700.047630674588     
   10647.238632369468     
   10594.677443651499     
   10542.321895956165     
   10490.130114226573     
   10438.060487781559     
   10386.071704300208     
   10334.122849184703     
   10282.173572653657     
   10140.033050674700     
   10089.782102655525     
   10039.880698853516     
   9990.3014647786913     
   9941.0172947792526     
   9892.0013523507751     
   9843.2271050816926     
   9794.6683954623986     
   9746.2995488151482     
   9582.6784335653520     
   9535.1080218996758     
   9487.9399839147027     
   9441.1676311426436     
   9394.7844670911836     
   9348.7842003420537     
   9303.1607637263714     
   9257.9083397797422     
   9213.0213926783290     
   9388.3262891922714     
   9632.5601578619862     
   9869.2522703038358     
   10094.756847838680     
   10305.661429148977     
   10498.796118524489     
   10671.247091453331     
   10820.376766003466     
   10943.853052039565     
   8719.7093428757034     
   8964.0400977933605     
   9199.7446047632075     
   9422.5932041510550     
   9628.9507508520219     
   9815.6694325763820     
   9980.0058742778783     
   10119.561018281678     
   10232.240939540286     
   8091.8202148018727     
   8322.3849178467844     
   8546.0201205260073     
   8757.8422987986542     
   8953.9215895448870     
   9131.0567581147607     
   9286.5990175446441     
   9418.3189615165447     
   9524.3101434109522     
   7496.9304657863668     
   7702.9352635667074     
   7905.8408123894078     
   8100.1172398442204     
   8281.5010438894442     
   8446.6741228405135     
   8593.0104292726137     
   8718.3834657129264     
   8821.0254513231739     
   6927.3747814208136     
   7101.0562193919213     
   7276.9745632816794     
   7449.0308731275827     
   7612.6191912225595     
   7764.2514555034559     
   7901.2545655386830     
   8021.5373907311878     
   8123.4195171388683     
   6375.5736264645484     
   6512.1462719314904     
   6657.1976568682585     
   6804.1959547721990     
   6948.2105338170777     
   7085.5386023253341     
   7213.3894004226877     
   7329.6342812522471     
   7432.6198994659781     
   5834.0620515190722     
   5931.6501605484482     
   6044.2984914435247     
   6165.2253932695485     
   6289.2164161942965     
   6412.3150421152113     
   6531.5369831984408     
   6644.6307353462389     
   6749.8910418615178     
   5295.5319492792896     
   5355.0791459435977     
   5436.0834750768136     
   5531.7326126882745     
   5636.5891490247150     
   5746.4059930986678     
   5857.9169393984639     
   5968.6385210382332     
   6076.7014815429793     
   4752.9037941720999     
   4778.0461179938866     
   4830.3871113240166     
   4903.3321401441817     
   4991.2992805276554     
   5089.7100762179161     
   5194.9029978317803     
   5304.0114459785145     
   5414.8353401999238     
   10943.853052039565     
   11047.104920285781     
   11136.705266793946     
   11212.418501903785     
   11274.146036517815     
   11321.891400864510     
   11355.733500979635     
   11375.807018408146     
   11382.289225828497     
   10232.240939540286     
   10325.740820692530     
   10408.653120679384     
   10480.600770967338     
   10541.381490015685     
   10590.932485723537     
   10629.301388244976     
   10656.622558931653     
   10673.098068817108     
   9524.3101434109522     
   9612.7649475372873     
   9692.5710290942188     
   9763.2367453163715     
   9824.4661989921133     
   9876.1230444350549     
   9918.1999728414994     
   9950.7931031443695     
   9974.0805956549848     
   8821.0254513231739     
   8908.2314880059166     
   8987.8263429202161     
   9059.2201493112880     
   9122.0253132455746     
   9176.0201610946497     
   9221.1185305840536     
   9257.3445653442704     
   9284.8120464589138     
   8123.4195171388683     
   8212.2747752237938     
   8293.8728206671422     
   8367.5323894652684     
   8432.7703773175381     
   8489.2667462967802     
   8536.8358858687297     
   8575.4036944225918     
   8604.9897281242938     
   7432.6198994659781     
   7525.1402823076751     
   7610.2841944578213     
   7687.2780644733757     
   7755.5368536764881     
   7814.6316050756959     
   7864.2637166369441     
   7904.2452110548829     
   7934.4843734183360     
   6749.8910418615178     
   6847.2328014986897     
   6936.8066443351963     
   7017.7407949904455     
   7089.3432079993072     
   7151.0722127481131     
   7202.5136618608703     
   7243.3638797389094     
   7273.4178200786046     
   6076.7014815429793     
   6179.1937046953208     
   6273.4432943332858     
   6358.4734018266727     
   6433.4862822612358     
   6497.8354743308382     
   6551.0039728361999     
   6592.5877006599549     
   6622.2836928019897     
   5414.8353401999238     
   5522.0293469583048     
   5620.5950259650199     
   5709.4483479235141     
   5787.7000332386833     
   5854.6243792832056     
   5909.6342246420663     
   5952.2611901523969     
   5982.1404387134453     
   11382.289225828497     
   11378.548938496286     
   11367.806589459484     
   11350.108018729210     
   11325.566170003400     
   11294.341729805812     
   11256.627940954020     
   11212.639442543647     
   11162.605060479651     
   10673.098068817108     
   10680.263298563892     
   10679.480935573351     
   10670.772165187385     
   10654.198344854376     
   10629.851635421013     
   10597.847411989342     
   10558.318347953742     
   10511.410100446217     
   9974.0805956549848     
   9988.6342823838895     
   9994.8693783197286     
   9992.7997514649705     
   9982.4623437906375     
   9963.9131003294206     
   9937.2234942364321     
   9902.4775881614860     
   9859.7695843194724     
   9284.8120464589138     
   9303.8411748091112     
   9314.6461933302817     
   9317.2497752338804     
   9311.6875804876472     
   9298.0064211476074     
   9276.2626823152350     
   9246.5209687913411     
   9208.8529529154821     
   8604.9897281242938     
   8626.2116913514510     
   8639.6578612942740     
   8645.3726270890675     
   8643.4085274638455     
   8633.8248714519486     
   8616.6867518906438     
   8592.0644323557499     
   8560.0330975622383     
   7934.4843734183360     
   7956.2773133045630     
   7970.9819494785561     
   7978.6724635332457     
   7979.4306501891369     
   7973.3441254593854     
   7960.5052173487657     
   7941.0105163043563     
   7914.9610789283115     
   7273.4178200786046     
   7294.8566639365363     
   7310.0158884659568     
   7319.0013676145163     
   7321.9299309209728     
   7318.9268222187393     
   7310.1240422970659     
   7295.6595397190231     
   7275.6772343189550     
   6622.2836928019897     
   6643.1841822869628     
   6658.6135074308886     
   6668.7038061429830     
   6673.6051613216241     
   6673.4820950864769     
   6668.5109636544730     
   6658.8781947385096     
   6644.7793296764221     
   5982.1404387134453     
   6003.1138506705138     
   6019.2995632638394     
   6030.8422125728848     
   6037.9145445901440     
   6040.7123822407948     
   6039.4504696285430     
   6034.3590992355803     
   6025.6814489346370     
   11162.605060479651     
   11109.895166850798     
   11057.735579692995     
   11006.146409222914     
   10955.147811081746     
   10904.760397123227     
   10855.005736800074     
   10805.906951506246     
   10757.489404108364     
   10511.410100446217     
   10461.142172570810     
   10411.473376779850     
   10362.469346529346     
   10314.199403930314     
   10266.736085879495     
   10220.154731547824     
   10174.533133167168     
   10129.951252114095     
   9859.7695843194724     
   9813.3013033024690     
   9767.2648205426849     
   9721.7527930095512     
   9676.8650892490277     
   9632.7068558721621     
   9589.3868739786558     
   9547.0162157646773     
   9505.7072121796846     
   9208.8529529154821     
   9167.2661315152345     
   9125.7794476185300     
   9084.4960986830956     
   9043.5290430597543     
   9002.9976189638728     
   8963.0247897384670     
   8923.7350355588078     
   8885.2529133444859     
   8560.0330975622383     
   8524.1230035601257     
   8487.8703974677519     
   8451.3744242061985     
   8414.7451195010253     
   8378.0990328227635     
   8341.5557841388654     
   8305.2355801745107     
   8269.2577191157980     
   7914.9610789283115     
   7885.2244685058822     
   7854.6459967213832     
   7823.3083482767306     
   7791.3047104269071     
   7758.7341292891342     
   7725.6979640146637     
   7692.2974628463189     
   7658.6324903226032     
   7275.6772343189550     
   7252.2982544865581     
   7227.5759991921968     
   7201.5672616123620     
   7174.3376220448508     
   7145.9573624328432     
   7116.4984224610325     
   7086.0324133370113     
   7054.6297120720101     
   6644.7793296764221     
   6627.6121632512923     
   6608.6524696990946     
   6587.9261085014632     
   6565.4651086938165     
   6541.3048476275671     
   6515.4819816091485     
   6488.0331346590419     
   6458.9943578961966     
   6025.6814489346370     
   6014.2283353536577     
   6000.6383075499534     
   5984.9078825320394     
   5967.0368323142038     
   5947.0269494123568     
   5924.8811333678141     
   5900.6027981381440     
   5874.1956034641680     
   10757.489404108364     
   10709.098315345100     
   10660.083086233077     
   10610.477347376753     
   10560.314218095929     
   10509.626006476090     
   10458.444027472849     
   10406.798542947388     
   10354.718827852772     
   10129.951252114095     
   10085.554329034707     
   10040.433283014494     
   9994.5878661931893     
   9948.0175183360861     
   9900.7213485101456     
   9852.6981298220853     
   9803.9463076438315     
   9754.4640217939850     
   9505.7072121796846     
   9464.6215098997036     
   9422.8314183213479     
   9380.3157787163473     
   9337.0534570611944     
   9293.0233303066343     
   9248.2042818432947     
   9202.5752064588123     
   9156.1150251164254     
   8885.2529133444859     
   8846.9303298943832     
   8808.0161123508769     
   8768.4800655107319     
   8728.2923051881116     
   8687.4231430177697     
   8645.8430279553231     
   8603.5225462565722     
   8560.4324819094290     
   8269.2577191157980     
   8233.2933119109111     
   8196.9151338696229     
   8160.0944330777938     
   8122.8029231069359     
   8085.0125817906546     
   8046.6955619873479     
   8007.8242178987066     
   7968.3712508447516     
   7658.6324903226032     
   7624.7744780346457     
   7590.7163544927453     
   7556.4395759245199     
   7521.9260881400060     
   7487.1581231243290     
   7452.1181368634961     
   7416.7888929863611     
   7381.1536971209589     
   7054.6297120720101     
   7022.7917607827412     
   6990.9722705270578     
   6959.1695649860285     
   6927.3824101170258     
   6895.6099022720673     
   6863.8514819641996     
   6832.1070773741958     
   6800.3773818365416     
   6458.9943578961966     
   6429.2708977002121     
   6399.7567887550686     
   6370.4712389306924     
   6341.4338706770104     
   6312.6647370120209     
   6284.1844073094962     
   6256.0141250224397     
   6228.1760394478997     
   5874.1956034641680     
   5846.8809368290240     
   5819.9044948599449     
   5793.3069484331781     
   5767.1294710950133     
   5741.4137802758651     
   5716.2021935353714     
   5691.5377000820117     
   5667.4640477575367     
   10354.718827852772     
   10302.807811423956     
   10251.643931359666     
   10201.219380196564     
   10151.526721235557     
   10102.558884415883     
   10054.309182388793     
   10006.771347478407     
   9959.9395902013875     
   9754.4640217939850     
   9704.9931485009165     
   9656.2865362744651     
   9608.3586749214755     
   9561.2241893882729     
   9514.8978431248179     
   9469.3945432691435     
   9424.7293476988852     
   9380.9174739926711     
   9156.1150251164254     
   9109.5801465699969     
   9063.7600307461053     
   9018.6832644057722     
   8974.3784219496720     
   8930.8739751674875     
   8888.1982249589782     
   8846.3792559394460     
   8805.4449148294607     
   8560.4324819094290     
   8517.2436727742843     
   8474.6695915077398     
   8432.7452285990876     
   8391.5054221287392     
   8350.9846499887426     
   8311.2168806001937     
   8272.2354844949386     
   8234.0732091003174     
   7968.3712508447516     
   7928.8475591318429     
   7889.8048441928131     
   7851.2774051223205     
   7813.2992261305099     
   7775.9036841433781     
   7739.1233483905944     
   7702.9898755656977     
   7667.5340041157506     
   7381.1536971209589     
   7345.5165795624753     
   7310.2105652779665     
   7275.2629483587352     
   7240.7005348061539     
   7206.5493327277727     
   7172.8343497935302     
   7139.5795019321258     
   7106.8076372470241     
   6800.3773818365416     
   6768.7421999535272     
   6737.2905570885578     
   6706.0375132978079     
   6674.9975008389856     
   6644.1840729280639     
   6613.6097482434288     
   6583.2859545114115     
   6553.2230745451407     
   6228.1760394478997     
   6200.5406906239523     
   6172.9629728677673     
   6145.4420348816502     
   6117.9763586776844     
   6090.5636215765471     
   6063.2006175128690     
   6035.8832395387744     
   6008.6065254673249     
   5667.4640477575367     
   5643.6933911082097     
   5619.8964231588807     
   5596.0549594180575     
   5572.1502900930282     
   5548.1631517301194     
   5524.0737151179528     
   5499.8615898777134     
   5475.5058461831168     
   9959.9395902013875     
   9913.3673919901648     
   9866.6160450412008     
   9819.6917317903699     
   9772.6004349804771     
   9725.3479411084791     
   9677.9398496272643     
   9630.3815881062837     
   9582.6784335653520     
   9380.9174739926711     
   9337.4611470298078     
   9293.8454296616783     
   9250.0599408501730     
   9206.0943192028135     
   9161.9382180291941     
   9117.5813016302563     
   9073.0132428611832     
   9028.2237220103416     
   8805.4449148294607     
   8764.9160572220098     
   8724.2808824694985     
   8683.5182728714335     
   8642.6073322201537     
   8601.5273415627344     
   8560.2577281183530     
   8518.7780477959423     
   8477.0679817774144     
   8234.0732091003174     
   8196.3259539731753     
   8158.5502601350036     
   8120.7197375530368     
   8082.8083745946087     
   8044.7904523603029     
   8006.6404899232557     
   7968.3332215219662     
   7929.8436067986022     
   7667.5340041157506     
   7632.4685633709969     
   7597.4682449584398     
   7562.5063850106289     
   7527.5567966837880     
   7492.5936610546569     
   7457.5914634279225     
   7422.5249765936696     
   7387.3692926275007     
   7106.8076372470241     
   7074.3745618113326     
   7042.1059995549122     
   7009.9794196066414     
   6977.9728041165927     
   6946.0645441965762     
   6914.2333858062211     
   6882.4584272720349     
   6850.7191701641277     
   6553.2230745451407     
   6523.4284384540115     
   6493.8928046822575     
   6464.6014225309063     
   6435.5400274882686     
   6406.6947701815998     
   6378.0521867091884     
   6349.5992117320757     
   6321.3232357124189     
   6008.6065254673249     
   5981.5182410254265     
   5954.7667511453665     
   5928.3477326831226     
   5902.2572584708150     
   5876.4917737878468     
   5851.0480949578787     
   5825.9234307744209     
   5801.1154274474820     
   5475.5058461831168     
   5451.2611897427996     
   5427.4013479380073     
   5403.9337150379197     
   5380.8659230729199     
   5358.2058510300803     
   5335.9616372541977     
   5314.1416951183355     
   5292.7547320223339     
   9582.6784335653520     
   9535.1080218996758     
   9487.9399839147027     
   9441.1676311426436     
   9394.7844670911836     
   9348.7842003420537     
   9303.1607637263714     
   9257.9083397797422     
   9213.0213926783290     
   9028.2237220103416     
   8983.5169298571564     
   8939.2127171026405     
   8895.3242998559617     
   8851.8649457718129     
   8808.8479733179156     
   8766.2867536391586     
   8724.1947151023542     
   8682.5853506079729     
   8477.0679817774144     
   8435.4092996633226     
   8394.1148564952691     
   8353.2109964053943     
   8312.7239439782406     
   8272.6797792327761     
   8233.1044338349384     
   8194.0237092929874     
   8155.4633178867189     
   7929.8436067986022     
   7891.3913026769769     
   7853.2346239851568     
   7815.4065349064958     
   7777.9397016062630     
   7740.8664483540215     
   7704.2187603797574     
   7668.0283351066701     
   7632.3266833919342     
   7387.3692926275007     
   7352.2525500600932     
   7317.3417871832189     
   7282.6704511393973     
   7248.2715365287404     
   7214.1775368304907     
   7180.4204621009058     
   7147.0319252395029     
   7114.0432991094003     
   6850.7191701641277     
   6819.0343583384984     
   6787.4552743874228     
   6756.0102326105289     
   6724.7269971340238     
   6693.6327443620630     
   6662.7540961102504     
   6632.1172258154938     
   6601.7480402301653     
   6321.3232357124189     
   6293.1288541340791     
   6264.9412612498027     
   6236.7787598475979     
   6208.6590904397417     
   6180.5994152071353     
   6152.6163582542149     
   6124.7261040279291     
   6096.9445557988702     
   5801.1154274474820     
   5776.4249939969523     
   5751.6575637500591     
   5726.8175946506590     
   5701.9090745000713     
   5676.9355256257440     
   5651.9000374750585     
   5626.8053280166469     
   5601.6538348709601     
   5292.7547320223339     
   5271.5264403778156     
   5250.1688683905913     
   5228.6702835937813     
   5207.0186825362889     
   5185.2017998942565     
   5163.2071207277713     
   5141.0218959632302     
   5118.6331611866017     
   4752.9037941720999     
   4778.0461179938866     
   4830.3871113240166     
   4903.3321401441817     
   4991.2992805276554     
   5089.7100762179161     
   5194.9029978317803     
   5304.0114459785145     
   5414.8353401999238     
   4200.9036608858250     
   4197.1469021346293     
   4225.6062818098617     
   4279.9929162141716     
   4354.5665296056759     
   4444.3209020276845     
   4545.0488284788844     
   4653.3216827760516     
   4766.4194256696865     
   3640.5145506720014     
   3612.4576129495172     
   3621.4736892811557     
   3661.4939022621602     
   3726.4577885011890     
   3810.7172457471211     
   3909.2869257208890     
   4017.9520589756194     
   4133.2722006568583     
   3074.8148782037542     
   3025.1098292367733     
   3017.8827772660447     
   3047.2239845284439     
   3106.4838317919434     
   3188.9855430091925     
   3288.5604659198862     
   3399.8504634628480     
   3518.4125565690515     
   2508.2370712692255     
   2436.7201948264401     
   2414.7743071227014     
   2436.7030406513109     
   2494.7835737021192     
   2580.5450720801232     
   2685.8697306028439     
   2803.6532070883359     
   2928.0484740158390     
   1948.5255827586639     
   1850.1507455729397     
   1812.1867106371683     
   1829.7604270320576     
   1893.0736947371447     
   1990.0566667402040     
   2108.9809421713594     
   2239.9146035601461     
   2375.0838119670602     
   1413.0689181581658     
   1272.3390884233206     
   1210.4582810664253     
   1227.2390605132964     
   1308.1183826392955     
   1431.6668070440055     
   1578.2691968701959     
   1733.4154890651978     
   1887.2400373143948     
   953.73608807198286     
   730.10128565567777     
   611.62391807171116     
   635.66641312811873     
   770.13248195252913     
   954.15431690879529     
   1150.9939255658096     
   1343.5236156806795     
   1523.3371417541534     
   738.97899116338829     
   412.99037101462108     
   101.90651983202434     
   193.01796701670699     
   470.52849416374528     
   729.37046624136985     
   968.28928788182952     
   1186.0303637173438     
   1381.3390983801930     
   5414.8353401999238     
   5522.0293469583048     
   5620.5950259650199     
   5709.4483479235141     
   5787.7000332386833     
   5854.6243792832056     
   5909.6342246420663     
   5952.2611901523969     
   5982.1404387134453     
   4766.4194256696865     
   4877.2629657819243     
   4979.3403853648506     
   5071.4633944877423     
   5152.6747413712974     
   5222.2056844953031     
   5279.4420540030424     
   5323.8973883477711     
   5355.1918383143411     
   4133.2722006568583     
   4247.1341939266886     
   4352.3187368233057     
   4447.5366192218671     
   4531.7857712887217     
   4604.2891577350629     
   4664.4467608462264     
   4711.7987095679100     
   4745.9971540476172     
   3518.4125565690515     
   3635.6748386808067     
   3744.4254385207855     
   3843.2840619967919     
   3931.2350307711813     
   4007.5362700147325     
   4071.6518108160740     
   4123.2021015968658     
   4161.9277662959212     
   2928.0484740158390     
   3050.4913226856243     
   3164.4245022718951     
   3268.4088252286310     
   3361.4687257651808     
   3442.9604746522309     
   3512.4793445993641     
   3569.7945913518897     
   3614.8043752809190     
   2375.0838119670602     
   2506.3857090021279     
   2628.5768595563513     
   2740.2704167376210     
   2840.6483878914296     
   2929.2764405253683     
   3005.9823686097507     
   3070.7761675392230     
   3123.7977220200260     
   1887.2400373143948     
   2033.0077990549012     
   2167.7010893551492     
   2290.3324752777153     
   2400.5096588713773     
   2498.2093261338096     
   2583.6433674442901     
   2657.1780418131984     
   2719.2846307471841     
   1523.3371417541534     
   1687.7106808813403     
   1837.2243511433567     
   1971.9811044951393     
   2092.4119637337380     
   2199.1310685471699     
   2292.8602663353436     
   2374.3877832260737     
   2444.5448253809527     
   1381.3390983801930     
   1555.9470096316643     
   1713.0941974883895     
   1853.7889399655758     
   1979.0395150784639     
   2089.8542008422837     
   2187.2412752723030     
   2272.2090163837406     
   2345.7657021918562     
   5982.1404387134453     
   6003.1138506705138     
   6019.2995632638394     
   6030.8422125728848     
   6037.9145445901440     
   6040.7123822407948     
   6039.4504696285430     
   6034.3590992355803     
   6025.6814489346370     
   5355.1918383143411     
   5377.5976678681063     
   5395.6640052016555     
   5409.5297121076492     
   5419.3718474905081     
   5425.3983507405464     
   5427.8419021108220     
   5426.9548149969187     
   5423.0048455774031     
   4745.9971540476172     
   4771.4273788185646     
   4792.7095553321687     
   4809.9595539610427     
   4823.3385042079472     
   4833.0431841550990     
   4839.2981795630585     
   4842.3496054336747     
   4842.4602309869597     
   4161.9277662959212     
   4192.0610899514104     
   4217.9794762267129     
   4239.7597322006086     
   4257.5275158097811     
   4271.4460080184808     
   4281.7070467022577     
   4288.5244367620780     
   4292.1292243864455     
   3614.8043752809190     
   3651.3827732005275     
   3683.4084713169577     
   3710.9089365285372     
   3733.9600379771409     
   3752.6740804244541     
   3767.1908633048138     
   3777.6713855126391     
   3784.2939235881372     
   3123.7977220200260     
   3168.4374558325458     
   3207.9029646702293     
   3242.1762887280897     
   3271.2821681602504     
   3295.2769860589628     
   3314.2408857562682     
   3328.2725972345629     
   3337.4866534725356     
   2719.2846307471841     
   2772.8565958199542     
   2820.3898274065095     
   2861.8473972643246     
   2897.2220904730143     
   2926.5283609795270     
   2949.7968368418096     
   2967.0709237116735     
   2978.4052120432525     
   2444.5448253809527     
   2505.8539250822550     
   2560.2479214018990     
   2607.7076169498569     
   2648.2245650576356     
   2681.7979941662529     
   2708.4327798491049     
   2728.1382473859071     
   2740.9276697237678     
   2345.7657021918562     
   2410.2972518723200     
   2467.5163249418010     
   2517.4213099270937     
   2560.0105953549901     
   2595.2825697522867     
   2623.2356216458206     
   2643.8681395623912     
   2657.1785120288760     
   6025.6814489346370     
   6014.2283353536577     
   6000.6383075499534     
   5984.9078825320394     
   5967.0368323142038     
   5947.0269494123568     
   5924.8811333678141     
   5900.6027981381440     
   5874.1956034641680     
   5423.0048455774031     
   5416.4469999599596     
   5407.5379500360878     
   5396.2584812113564     
   5382.5905683829815     
   5366.5171620334268     
   5348.0220182749417     
   5327.0895721314437     
   5303.7048538455138     
   4842.4602309869597     
   4839.9681283055988     
   4835.0193279073674     
   4827.5989482761106     
   4817.6923750970218     
   4805.2852817870362     
   4790.3636673788633     
   4772.9139124597377     
   4752.9228541511493     
   4292.1292243864455     
   4292.9680830129064     
   4291.3326218990915     
   4287.2325011718067     
   4280.6774093005806     
   4271.6768856575309     
   4260.2402863150974     
   4246.3768942240267     
   4230.0961772618730     
   3784.2939235881372     
   3787.8192721034252     
   3788.9168462112466     
   3787.6401066048829     
   3784.0426345041651     
   3778.1776400598201     
   3770.0977835453646     
   3759.8553093068190     
   3747.5024977545727     
   3337.4866534725356     
   3343.1243899672222     
   3346.4181469727314     
   3347.4810566053388     
   3346.4265129911373     
   3343.3675054720520     
   3338.4163635842197     
   3331.6849118439100     
   3323.2850393824124     
   2978.4052120432525     
   2985.6046096812743     
   2990.5517143334582     
   2993.4266131545919     
   2994.4096483729827     
   2993.6808572383152     
   2991.4197622094953     
   2987.8055084866401     
   2983.0173516995283     
   2740.9276697237678     
   2749.0948212990493     
   2755.0806335765424     
   2759.1223682285568     
   2761.4573812483131     
   2762.3228956317271     
   2761.9559171639257     
   2760.5932918001108     
   2758.4719053163421     
   2657.1785120288760     
   2665.6632169392046     
   2671.9938295355432     
   2676.4313843668538     
   2679.2369159821287     
   2680.6714589304706     
   2680.9960477609388     
   2680.4717170226254     
   2679.3595012647211     
   5874.1956034641680     
   5846.8809368290240     
   5819.9044948599449     
   5793.3069484331781     
   5767.1294710950133     
   5741.4137802758651     
   5716.2021935353714     
   5691.5377000820117     
   5667.4640477575367     
   5303.7048538455138     
   5279.2667780713973     
   5255.2200767047461     
   5231.6195704161546     
   5208.5207825727857     
   5185.9797680957399     
   5164.0529774173401     
   5142.7971567544819     
   5122.2692859174140     
   4752.9228541511493     
   4731.8299024601474     
   4711.1199420507355     
   4690.8494189338462     
   4671.0756281661888     
   4651.8562073027506     
   4633.2487511066183     
   4615.3105519879100     
   4598.0984705952696     
   4230.0961772618730     
   4212.7554718632055     
   4195.7350234317728     
   4179.0802629012087     
   4162.8374608063323     
   4147.0529124624873     
   4131.7723520137697     
   4117.0406030401437     
   4102.9014732027617     
   3747.5024977545727     
   3734.2112462134437     
   3721.1323148223883     
   3708.2879658275665     
   3695.7011177566924     
   3683.3943751836978     
   3671.3893695728834     
   3659.7064198183111     
   3648.3645208034627     
   3323.2850393824124     
   3314.1287652168826     
   3305.0451367987152     
   3296.0231638877735     
   3287.0522296503800     
   3278.1211955289614     
   3269.2178290767583     
   3260.3285610612406     
   3251.4385780751918     
   2983.0173516995283     
   2977.6806483151763     
   2972.2678028551209     
   2966.7297716139174     
   2961.0176420531116     
   2955.0820350880176     
   2948.8727460109330     
   2942.3386264578908     
   2935.4277101490429     
   2758.4719053163421     
   2755.9790660826097     
   2753.2893235848842     
   2750.3208350396239     
   2746.9917809643425     
   2743.2201552368374     
   2738.9236447775493     
   2734.0195990259353     
   2728.4250896634580     
   2679.3595012647211     
   2677.9499491100796     
   2676.2957984532686     
   2674.3013677511049     
   2671.8709754603074     
   2668.9089400377297     
   2665.3195799404029     
   2661.0072136251979     
   2655.8761595492974     
   5667.4640477575367     
   5643.6933911082097     
   5619.8964231588807     
   5596.0549594180575     
   5572.1502900930282     
   5548.1631517301194     
   5524.0737151179528     
   5499.8615898777134     
   5475.5058461831168     
   5122.2692859174140     
   5102.1039150823362     
   5081.8769272776781     
   5061.5572981139148     
   5041.1137744574198     
   5020.5148607385590     
   4999.7288107533577     
   4978.7236250574142     
   4957.4670540568368     
   4598.0984705952696     
   4581.2513728580334     
   4564.3466983196604     
   4547.3489662828533     
   4530.2227895014230     
   4512.9327935191404     
   4495.4435652597622     
   4477.7196316163254     
   4459.7254688245621     
   4102.9014732027617     
   4089.0748047226980     
   4075.2302489973295     
   4061.3360427805042     
   4047.3607970107191     
   4033.2733274956431     
   4019.0425533851308     
   4004.6374650867087     
   3990.0271633495149     
   3648.3645208034627     
   3637.2321803846844     
   3626.1517494246182     
   3615.1027559293461     
   3604.0652796975382     
   3593.0197226068371     
   3581.9466796458537     
   3570.8269129306013     
   3559.6414309816560     
   3251.4385780751918     
   3242.6155627058474     
   3233.9350916022395     
   3225.3941040117484     
   3216.9901092936116     
   3208.7209578896673     
   3200.5847215719327     
   3192.5796850954557     
   3184.7044512940060     
   2935.4277101490429     
   2928.4243718215248     
   2921.6591757743331     
   2915.1494681536501     
   2908.9130019152672     
   2902.9677751794861     
   2897.3319522405695     
   2892.0238685877011     
   2887.0621210935510     
   2728.4250896634580     
   2722.6032304424489     
   2717.0958096390159     
   2711.9379425027478     
   2707.1648876457139     
   2702.8119875543894     
   2698.9146406500226     
   2695.5083053383187     
   2692.6285363638162     
   2655.8761595492974     
   2650.4618079907227     
   2645.3917554118589     
   2640.7086295464760     
   2636.4550581285648     
   2632.6736688924525     
   2629.4070895725599     
   2626.6979479036199     
   2624.5888716207974     
   5475.5058461831168     
   5451.2611897427996     
   5427.4013479380073     
   5403.9337150379197     
   5380.8659230729199     
   5358.2058510300803     
   5335.9616372541977     
   5314.1416951183355     
   5292.7547320223339     
   4957.4670540568368     
   4936.2683554302193     
   4915.4691153399071     
   4895.0854390916747     
   4875.1334828460813     
   4855.6294454068684     
   4836.5895640496146     
   4818.0301145106341     
   4799.9674152495527     
   4459.7254688245621     
   4441.7721489986334     
   4424.2068790989424     
   4407.0482731580587     
   4390.3148187083270     
   4374.0248170993773     
   4358.1963468857211     
   4342.8472510121692     
   4327.9951484841140     
   3990.0271633495149     
   3975.4756119440481     
   3961.2773214167537     
   3947.4472317844607     
   3933.9999956810998     
   3920.9498643668953     
   3908.3106223100581     
   3896.0955717048691     
   3884.3175681909220     
   3559.6414309816560     
   3548.5643845944255     
   3537.7861339547121     
   3527.3121079663993     
   3517.1473350451406     
   3507.2962979101899     
   3497.7628568782825     
   3488.5502432246126     
   3479.6611240361540     
   3184.7044512940060     
   3177.0119315261572     
   3169.5499820298060     
   3162.3097876359666     
   3155.2821165277237     
   3148.4571825737758     
   3141.8245795267317     
   3135.3732882434820     
   3129.0917579642610     
   2887.0621210935510     
   2882.3677091870450     
   2877.8322971625025     
   2873.4306279563025     
   2869.1371428326925     
   2864.9258887065203     
   2860.7704784756238     
   2856.6441048229231     
   2852.5196079034708     
   2692.6285363638162     
   2690.0877095942024     
   2687.6482105960549     
   2685.2706685634457     
   2682.9156061937842     
   2680.5434070045826     
   2678.1143024496250     
   2675.5883788851938     
   2672.9256044384947     
   2624.5888716207974     
   2622.8484122176424     
   2621.1865577257977     
   2619.5580906888122     
   2617.9177936514329     
   2616.2204491599082     
   2614.4208397623374     
   2612.4737480091972     
   2610.3339564542334     
   5292.7547320223339     
   5271.5264403778156     
   5250.1688683905913     
   5228.6702835937813     
   5207.0186825362889     
   5185.2017998942565     
   5163.2071207277713     
   5141.0218959632302     
   5118.6331611866017     
   4799.9674152495527     
   4782.0963619053855     
   4764.0844707464021     
   4745.9070047084479     
   4727.5391804777346     
   4708.9561575635380     
   4690.1330373424080     
   4671.0448723385089     
   4651.6666860263358     
   4327.9951484841140     
   4313.3496572647300     
   4298.5883934816484     
   4283.6809701313587     
   4268.5971346174356     
   4253.3067300020566     
   4237.7796994030896     
   4221.9861346478865     
   4205.8963704016833     
   3884.3175681909220     
   3872.7437863642308     
   3861.1135301121594     
   3849.3978418131105     
   3837.5680361959794     
   3825.5956421049268     
   3813.4524277800497     
   3801.1105115596151     
   3788.5425600765866     
   3479.6611240361540     
   3470.9577772975545     
   3462.2866175665208     
   3453.6265273289805     
   3444.9567447824120     
   3436.2568031157966     
   3427.5065820387863     
   3418.6864736348257     
   3409.7776647215128     
   3129.0917579642610     
   3122.9643790402620     
   3116.9776842360452     
   3111.1233748627155     
   3105.3935077489323     
   3099.7804482212669     
   3094.2769366301109     
   3088.8762698741530     
   3083.5725992911180     
   2852.5196079034708     
   2848.5106851140681     
   2844.7536250737294     
   2841.2552015184128     
   2838.0224380691548     
   2835.0625821188009     
   2832.3831599885507     
   2829.9921138660270     
   2827.8980208099970     
   2672.9256044384947     
   2670.3442437855983     
   2668.1023654780834     
   2666.2196645216250     
   2664.7159212012775     
   2663.6109928303022     
   2662.9248350601652     
   2662.6775527769469     
   2662.8894804708179     
   2610.3339564542334     
   2608.2612395813321     
   2606.5621050733994     
   2605.2614352854080     
   2604.3841125722761     
   2603.9550192961956     
   2603.9990378397529     
   2604.5410506256758     
   2605.6059401424691     
   738.97899116338829     
   412.99037101462108     
   101.90651983202434     
   193.01796701670699     
   470.52849416374528     
   729.37046624136985     
   968.28928788182952     
   1186.0303637173438     
   1381.3390983801930     
   953.73660916512995     
   730.10158275091123     
   611.62396222952896     
   635.66623355998706     
   770.13218979853536     
   954.15399875506466     
   1150.9936386597960     
   1343.5234141986543     
   1523.3370897175446     
   1413.0694443749626     
   1272.3393587590292     
   1210.4583413733865     
   1227.2389497250986     
   1308.1181449214193     
   1431.6664956516934     
   1578.2688769992910     
   1733.4152421427320     
   1887.2399650625578     
   1948.5258850717194     
   1850.1509190253942     
   1812.1867919075050     
   1829.7604230980201     
   1893.0736042578887     
   1990.0564995110096     
   2108.9807313828942     
   2239.9144113029761     
   2375.0837306853950     
   2508.2370678991297     
   2436.7202477835676     
   2414.7744112123378     
   2436.7031595093476     
   2494.7836626852859     
   2580.5450981866147     
   2685.8696855426956     
   2803.6531135529808     
   2928.0483871372808     
   3074.8145584383315     
   3025.1097600605767     
   3017.8829028007667     
   3047.2242244794197     
   3106.4841016262358     
   3188.9857702592653     
   3288.5606007183283     
   3399.8504836640118     
   3518.4124688664338     
   3640.5139561283249     
   3612.4574382333076     
   3621.4738316007615     
   3661.4942445399302     
   3726.4582146125767     
   3810.7176516854856     
   3909.2872262689334     
   4017.9521905776446     
   4133.2721215812662     
   4200.9028800227870     
   4197.1466557189378     
   4225.6064329358906     
   4279.9933251749271     
   4354.5670627753379     
   4444.3214372042039     
   4545.0492572002713     
   4653.3219104679556     
   4766.4193704667487     
   4752.9029602575565     
   4778.0458505567076     
   4830.3872599349643     
   4903.3325633998438     
   4991.2998474557262     
   5089.7106654682811     
   5194.9034955718134     
   5304.0117432527368     
   5414.8353302918922     
   1381.3390983801930     
   1555.9470096316643     
   1713.0941974883895     
   1853.7889399655758     
   1979.0395150784639     
   2089.8542008422837     
   2187.2412752723030     
   2272.2090163837406     
   2345.7657021918562     
   1523.3370897175446     
   1687.7107982137206     
   1837.2246067015647     
   1971.9814651033009     
   2092.4123890970295     
   2199.1315082730330     
   2292.8606581185809     
   2374.3880517402486     
   2444.5448816512398     
   1887.2399650625578     
   2033.0079485195424     
   2167.7014341491399     
   2290.3329782897658     
   2400.5102673792771     
   2498.2099686849724     
   2583.6439518330449     
   2657.1784537766489     
   2719.2847331703701     
   2375.0837306853950     
   2506.3858005315565     
   2628.5771260284755     
   2740.2708426594327     
   2840.6489362904231     
   2929.2770505155281     
   3005.9829538501695     
   3070.7766152714303     
   3123.7978924977738     
   2928.0483871372808     
   3050.4913050914424     
   3164.4245918522038     
   3268.4090398971462     
   3361.4690604720558     
   3442.9608996468933     
   3512.4798044791805     
   3569.7950046124038     
   3614.8046341915360     
   3518.4124688664338     
   3635.6746972966425     
   3744.4253154879057     
   3843.2840104290512     
   3931.2350828700428     
   4007.5364360970730     
   4071.6520789996866     
   4123.2024379160011     
   4161.9281151048181     
   4133.2721215812662     
   4247.1339442497638     
   4352.3184149196486     
   4447.5363078795963     
   4531.7855369232375     
   4604.2890502838409     
   4664.4468141131802     
   4711.7989418742782     
   4745.9975691035061     
   4766.4193704667487     
   4877.2626498009940     
   4979.3399198828311     
   5071.4628801455801     
   5152.6742687554533     
   5222.2053349615671     
   5279.4419006526023     
   5323.8974971078942     
   5355.1922691042519     
   5414.8353302918922     
   5522.0290312917487     
   5620.5945097281210     
   5709.4477318723757     
   5787.6994157148965     
   5854.6238579687833     
   5909.6338980930541     
   5952.2611591568348     
   5982.1408075194331     
   2345.7657021918562     
   2410.2972518723200     
   2467.5163249418010     
   2517.4213099270937     
   2560.0105953549901     
   2595.2825697522867     
   2623.2356216458206     
   2643.8681395623912     
   2657.1785120288760     
   2444.5448816512398     
   2505.8537237261007     
   2560.2474820525799     
   2607.7069786307397     
   2648.2237873377212     
   2681.7971579874152     
   2708.4319881527404     
   2728.1376256417238     
   2740.9273664495831     
   2719.2847331703701     
   2772.8563122005949     
   2820.3891775716984     
   2861.8464331174350     
   2897.2208976909733     
   2926.5270601656980     
   2949.7955843020145     
   2967.0699119880146     
   2978.4046703178988     
   3123.7978924977738     
   3168.4372554363335     
   3207.9023879536858     
   3242.1753677956226     
   3271.2809743437947     
   3295.2756309759316     
   3314.2395218956226     
   3328.2714181865604     
   3337.4858938963130     
   3614.8046341915360     
   3651.3827800592717     
   3683.4081793047571     
   3710.9083352822295     
   3733.9591548789485     
   3752.6729813528414     
   3767.1896529522110     
   3777.6702073519209     
   3784.2929595533496     
   4161.9281151048181     
   4192.0613602037001     
   4217.9795754368324     
   4239.7595983311621     
   4257.5271179493247     
   4271.4453467150288     
   4281.7061540191171     
   4288.5233761063737     
   4292.1280901503933     
   4745.9975691035061     
   4771.4279010590890     
   4792.7100532045597     
   4809.9599170591509     
   4823.3386432466368     
   4833.0430308384457     
   4839.2976863804406     
   4842.3487454087963     
   4842.4589973996935     
   5355.1922691042519     
   5377.5983685530928     
   5395.6648218659884     
   5409.5305005640839     
   5419.3724725719658     
   5425.3986857079863     
   5427.8418281819104     
   5426.9542209980009     
   5423.0036277205127     
   5982.1408075194331     
   6003.1145985598750     
   6019.3005404110427     
   6030.8432661048764     
   6037.9155172909868     
   6040.7131115485627     
   6039.4507868991159     
   6034.3588292518189     
   6025.6804096424567     
   2657.1785120288760     
   2665.6632169392046     
   2671.9938295355432     
   2676.4313843668538     
   2679.2369159821287     
   2680.6714589304706     
   2680.9960477609388     
   2680.4717170226254     
   2679.3595012647211     
   2740.9273664495831     
   2749.0949163392793     
   2755.0810963663116     
   2759.1231289324314     
   2761.4583305427527     
   2762.3238844928214     
   2761.9567567136714     
   2760.5937532648372     
   2758.4717201526200     
   2978.4046703178988     
   2985.6046662459694     
   2990.5523306599707     
   2993.4276884327605     
   2994.4110190802744     
   2993.6822967143321     
   2991.4209802828173     
   2987.8061512029508     
   2983.0170012009744     
   3337.4858938963130     
   3343.1242000158554     
   3346.4185188432639     
   3347.4819128027098     
   3346.4277057419099     
   3343.3688161558189     
   3338.4175021950045     
   3331.6855164935987     
   3323.2846758594346     
   3784.2929595533496     
   3787.8186742961793     
   3788.9166683640337     
   3787.6403372146970     
   3784.0431962108933     
   3778.1783890797506     
   3770.0985091429948     
   3759.8557332884566     
   3747.5022739670530     
   4292.1280901503933     
   4292.9670141028191     
   4291.3317465026012     
   4287.2318948029169     
   4280.6770942921794     
   4271.6768307410848     
   4260.2404062640744     
   4246.3770495379986     
   4230.0961738685928     
   4842.4589973996935     
   4839.9666338539482     
   4835.0177683330412     
   4827.5974845612682     
   4817.6911332124582     
   4805.2843525138460     
   4790.3631061949172     
   4772.9137394822237     
   4752.9230541280194     
   5423.0036277205127     
   5416.4452318609256     
   5407.5358689030609     
   5396.2563109274934     
   5382.5885196168365     
   5366.5154323402967     
   5348.0207922100180     
   5327.0890213955208     
   5303.7051374855928     
   6025.6804096424567     
   6014.2265473335292     
   6000.6360052110031     
   5984.9053106811416     
   5967.0342466781613     
   5947.0246170059554     
   5924.8793327662979     
   5900.6018197143358     
   5874.1957496515706     
   2679.3595012647211     
   2677.9499491100796     
   2676.2957984532686     
   2674.3013677511049     
   2671.8709754603074     
   2668.9089400377297     
   2665.3195799404029     
   2661.0072136251979     
   2655.8761595492974     
   2758.4717201526200     
   2755.9780830227851     
   2753.2875817655245     
   2750.3184439896932     
   2746.9889207613555     
   2743.2170765228630     
   2738.9206687257142     
   2734.0171173487456     
   2728.4235647567652     
   2983.0170012009744     
   2977.6790587866017     
   2972.2650174332935     
   2966.7259454858795     
   2961.0130429342439     
   2955.0770434459691     
   2948.8678551407670     
   2942.3344425180780     
   2935.4249522706145     
   3323.2846758594346     
   3314.1271431031118     
   3305.0422409916114     
   3296.0191047381495     
   3287.0472437420053     
   3278.1156461814762     
   3269.2122066419724     
   3260.3234830855126     
   3251.4347894053049     
   3747.5022739670530     
   3734.2100785049506     
   3721.1300798726461     
   3708.2846569988910     
   3695.6968459728232     
   3683.3893696297537     
   3671.3839782398750     
   3659.7011099183774     
   3648.3598790848882     
   4230.0961738685928     
   4212.7550376300296     
   4195.7339060735949     
   4179.0783027797261     
   4162.8345916926428     
   4147.0491622789368     
   4131.7678435475536     
   4117.0355546209021     
   4102.8961993371204     
   4752.9230541280194     
   4731.8302520968664     
   4711.1200725984245     
   4690.8490204775162     
   4671.0744501307008     
   4651.8540590723305     
   4633.2455027383639     
   4615.3061349972877     
   4598.0928787913235     
   5303.7051374855928     
   5279.2677452951375     
   5255.2212878521204     
   5231.6206048563436     
   5208.5212388854688     
   5185.9792644152267     
   5164.0511519240399     
   5142.7936682964255     
   5122.2638147442840     
   5874.1957496515706     
   5846.8821545362507     
   5819.9063511990234     
   5793.3089862161332     
   5767.1312086527114     
   5741.4147113838890     
   5716.2017874511857     
   5691.5354016984720     
   5667.4592778771685     
   2655.8761595492974     
   2650.4618079907227     
   2645.3917554118589     
   2640.7086295464760     
   2636.4550581285648     
   2632.6736688924525     
   2629.4070895725599     
   2626.6979479036199     
   2624.5888716207974     
   2728.4235647567652     
   2722.6029213423326     
   2717.0966440434950     
   2711.9397273933855     
   2707.1673095539063     
   2702.8146126960573     
   2698.9169150358703     
   2695.5095549676944     
   2692.6279676112804     
   2935.4249522706145     
   2928.4234548708673     
   2921.6600066001556     
   2915.1517613544474     
   2908.9162798551051     
   2902.9713677587138     
   2897.3349965520906     
   2892.0253085931299     
   2887.0607074544778     
   3251.4347894053049     
   3242.6135440263924     
   3233.9348310529258     
   3225.3953742959520     
   3216.9924670597115     
   3208.7237428308499     
   3200.5870553396071     
   3192.5804701231673     
   3184.7023696312122     
   3648.3598790848882     
   3637.2286852379048     
   3626.1495576672992     
   3615.1018235135584     
   3604.0653604911195     
   3593.0203669701332     
   3581.9472328460365     
   3570.8265134359767     
   3559.6390086797915     
   4102.8961993371204     
   4089.0697307810865     
   4075.2257408440364     
   4061.3323062591103     
   4047.3578764387307     
   4033.2711040953627     
   4019.0407436522923     
   4004.6356190976330     
   3990.0246630071288     
   4598.0928787913235     
   4581.2449370936047     
   4564.3399774701102     
   4547.3424175400451     
   4530.2167669750870     
   4512.9275468945634     
   4495.4392384972898     
   4477.7162616770247     
   4459.7229844062285     
   5122.2638147442840     
   5102.0966585636515     
   5081.8685645242658     
   5061.5484764210096     
   5041.1051083658849     
   5020.5069311847656     
   4999.7221643061766     
   4978.7187732410839     
   4957.4644727585064     
   5667.4592778771685     
   5643.6861728192853     
   5619.8874282163943     
   5596.0449051876540     
   5572.1399393267475     
   5548.1533123504068     
   5524.0652400549088     
   5499.8553770065755     
   5475.5028384097395     
   2624.5888716207974     
   2622.8484122176424     
   2621.1865577257977     
   2619.5580906888122     
   2617.9177936514329     
   2616.2204491599082     
   2614.4208397623374     
   2612.4737480091972     
   2610.3339564542334     
   2692.6279676112804     
   2690.0850488209967     
   2687.6439869021874     
   2685.2657159414357     
   2682.9110631548342     
   2680.5407160729383     
   2678.1152097849886     
   2675.5949342951026     
   2672.9401620445219     
   2887.0607074544778     
   2882.3629911510880     
   2877.8250780246181     
   2873.4222016286008     
   2869.1292943155936     
   2864.9208942707492     
   2860.7711058853733     
   2856.6536139367217     
   2852.5417519942407     
   3184.7023696312122     
   3177.0064132895882     
   3169.5417225344449     
   3162.3000385797113     
   3155.2726880814726     
   3148.4504451379116     
   3141.8234654028215     
   3135.3812934784237     
   3129.1129446319169     
   3559.6390086797915     
   3548.5592929231461     
   3537.7786373997487     
   3527.3029951158201     
   3517.1379221030879     
   3507.2884320327153     
   3497.7589194453394     
   3488.5531531688071     
   3479.6743413533495     
   3990.0246630071288     
   3975.4717800916892     
   3961.2718134132570     
   3947.4401238918917     
   3933.9917892181270     
   3920.9414899443132     
   3908.3034441485497     
   3896.0913920366361     
   3884.3186317471645     
   4459.7229844062285     
   4441.7699048372915     
   4424.2039067333590     
   4407.0438737590812     
   4390.3085669341071     
   4374.0165652264877     
   4358.1862291582820     
   4342.8356881489999     
   4327.9828522826774     
   4957.4644727585064     
   4936.2675180893521     
   4915.4685736226720     
   4895.0838314680987     
   4875.1295372667346     
   4855.6219822505827     
   4836.5774993000568     
   4818.0124631169710     
   4799.9432946251372     
   5475.5028384097395     
   5451.2610951465549     
   5427.4025316870229     
   5403.9344259366626     
   5380.8642942873694     
   5358.1999008417006     
   5335.9492699005632     
   5314.1207017807474     
   5292.7227920219211     
   2610.3339564542334     
   2608.2612395813321     
   2606.5621050733994     
   2605.2614352854080     
   2604.3841125722761     
   2603.9550192961956     
   2603.9990378397529     
   2604.5410506256758     
   2605.6059401424691     
   2672.9401620445219     
   2670.3675546044678     
   2668.1328105355697     
   2666.2547806708835     
   2664.7524016102698     
   2663.6446880788862     
   2662.9507564888881     
   2662.6898797293793     
   2662.8815730659653     
   2852.5417519942407     
   2848.5466789065435     
   2844.8009114291040     
   2841.3098673266772     
   2838.0792117396204     
   2835.1148314445077     
   2832.4228926009105     
   2830.0099825160487     
   2827.8833357325198     
   3129.1129446319169     
   3123.0002702755883     
   3117.0258740216691     
   3111.1799353860952     
   3105.4529818608598     
   3099.8358416417841     
   3094.3197117136133     
   3088.8963427760305     
   3083.5583424176102     
   3479.6743413533495     
   3470.9830363776600     
   3462.3226409770159     
   3453.6706446305775     
   3445.0048814115521     
   3436.3034686878436     
   3427.5448589604603     
   3418.7080069351186     
   3409.7726540363760     
   3884.3186317471645     
   3872.7519363175729     
   3861.1292245155714     
   3849.4205008515428     
   3837.5960306246020     
   3825.6262812605078     
   3813.4819471036517     
   3801.1340595669108     
   3788.5541847100781     
   4327.9828522826774     
   4313.3384306112457     
   4298.5805952184710     
   4283.6784437134284     
   4268.6011988675618     
   4253.3181698548715     
   4237.7987559816547     
   4222.0124939983743     
   4205.9291501882144     
   4799.9432946251372     
   4782.0673149440481     
   4764.0544858483408     
   4745.8802008469402     
   4727.5198017727243     
   4708.9485682749118     
   4690.1417166876427     
   4671.0744085223441     
   4651.7217688488454     
   5292.7227920219211     
   5271.4845328598494     
   5250.1219262782770     
   5228.6241086027758     
   5206.9799438199379     
   5185.1780335229541     
   5163.2067303823314     
   5141.0541552361401     
   5118.7082178981937     
   4752.9029602575565     
   4778.0458505567076     
   4830.3872599349643     
   4903.3325633998438     
   4991.2998474557262     
   5089.7106654682811     
   5194.9034955718134     
   5304.0117432527368     
   5414.8353302918922     
   5295.5312240248950     
   5355.0789179554786     
   5436.0836084331941     
   5531.7329888396980     
   5636.5896615120164     
   5746.4065418861828     
   5857.9174255827584     
   5968.6388423394937     
   6076.7015287543263     
   5834.0615632211611     
   5931.6500194462860     
   6044.2986002632360     
   6165.2256746701578     
   6289.2168033855824     
   6412.3154707418798     
   6531.5373847705487     
   6644.6310322101381     
   6749.8911435836462     
   6375.5734551483647     
   6512.1462474822383     
   6657.1977356148673     
   6804.1961112088838     
   6948.2107495332575     
   7085.5388573422206     
   7213.3896667162544     
   7329.6345181370516     
   7432.6200505245197     
   6927.3749595580002     
   7101.0563237423130     
   7276.9746099810200     
   7449.0308917151333     
   7612.6192139815039     
   7764.2515096954894     
   7901.2546679777788     
   8021.5375442096938     
   8123.4197083281015     
   7496.9309791113610     
   7702.9354914012702     
   7905.8408285153537     
   8100.1171249068911     
   8281.5008768376265     
   8446.6739751113782     
   8593.0103610674123     
   8718.3835238754255     
   8821.0256684827145     
   8091.8210032577144     
   8322.3852466130502     
   8546.0201109217141     
   8757.8420717431400     
   8953.9212603413816     
   9131.0564333237035     
   9286.5987934005188     
   9418.3189235145564     
   9524.3103668268050     
   8719.7103016974306     
   8964.0404879696962     
   9199.7445775802298     
   9422.5929033335469     
   9628.9503115255993     
   9815.6689813506237     
   9980.0055301197172     
   10119.560893965257     
   10232.241143547315     
   9388.3272701101978     
   9632.5605532515910     
   9869.2522369494200     
   10094.756528427582     
   10305.660955939520     
   10498.795617057864     
   10671.246684161108     
   10820.376575618582     
   10943.853204752997     
   5414.8353302918922     
   5522.0290312917487     
   5620.5945097281210     
   5709.4477318723757     
   5787.6994157148965     
   5854.6238579687833     
   5909.6338980930541     
   5952.2611591568348     
   5982.1408075194331     
   6076.7015287543263     
   6179.1934609447599     
   6273.4428402789417     
   6358.4728196762562     
   6433.4856588006305     
   6497.8349032840897     
   6551.0035566825445     
   6592.5875520148820     
   6622.2839354509715     
   6749.8911435836462     
   6847.2326794364317     
   6936.8063433451989     
   7017.7403658766716     
   7089.3427108397191     
   7151.0717193503569     
   7202.5132575049765     
   7243.3636643366845     
   7273.4179088545634     
   7432.6200505245197     
   7525.1403129742694     
   7610.2841073713917     
   7687.2778710079456     
   7755.5365770196622     
   7814.6312823988555     
   7864.2634005201162     
   7904.2449702986123     
   7934.4842933493783     
   8123.4197083281015     
   8212.2749689203774     
   8293.8729761175218     
   8367.5324758403185     
   8432.7703761319935     
   8489.2666530186671     
   8536.8357108723794     
   8575.4034634095206     
   8604.9894821133603     
   8821.0256684827145     
   8908.2318331411625     
   8987.8267361687249     
   9059.2205203542726     
   9122.0256027783998     
   9176.0203216968166     
   9221.1185271209179     
   9257.3443750083843     
   9284.8116585397747     
   9524.3103668268050     
   9612.7654099642841     
   9692.5716214227759     
   9763.2373660635458     
   9824.4667546489000     
   9876.1234495115241     
   9918.2001497054443     
   9950.7929817319509     
   9974.0801131188127     
   10232.241143547315     
   10325.741343341755     
   10408.653839114235     
   10480.601566538244     
   10541.382247444457     
   10590.933092332098     
   10629.301733284528     
   10656.622533041222     
   10673.097563637106     
   10943.853204752997     
   11047.105422986589     
   11136.706004037407     
   11212.419357560799     
   11274.146891813221     
   11321.892132893148     
   11355.733981645562     
   11375.807113740459     
   11382.288795635492     
   5982.1408075194331     
   6003.1145985598750     
   6019.3005404110427     
   6030.8432661048764     
   6037.9155172909868     
   6040.7131115485627     
   6039.4507868991159     
   6034.3588292518189     
   6025.6804096424567     
   6622.2839354509715     
   6643.1848268104541     
   6658.6144351377861     
   6668.7048845706468     
   6673.6062426507697     
   6673.4830149366890     
   6668.5115402099482     
   6658.8782281600088     
   6644.7786017611106     
   7273.4179088545634     
   7294.8570910858498     
   7310.0165844029461     
   7319.0022427983540     
   7321.9308743339370     
   7318.9277002273157     
   7310.1246978308563     
   7295.6597917095687     
   7275.6768773450722     
   7934.4842933493783     
   7956.2774447362981     
   7970.9822836276626     
   7978.6729693123762     
   7979.4312729608409     
   7973.3447861278573     
   7960.5058117210529     
   7941.0109146583172     
   7914.9611257286042     
   8604.9894821133603     
   8626.2114907861796     
   8639.6577623050707     
   8645.3726644552262     
   8643.4087137520019     
   8633.8251964198771     
   8616.6871820956439     
   8592.0649109109872     
   8560.0335439874943     
   9284.8116585397747     
   9303.8406519423461     
   9314.6456522637400     
   9317.2493152057996     
   9311.6872827835778     
   9298.0063488286341     
   9276.2628800753737     
   9246.5214629050643     
   9208.8537512383591     
   9974.0801131188127     
   9988.6334953700771     
   9994.8684509734776     
   9992.7988368106398     
   9982.4615836868961     
   9963.9126254786861     
   9937.2234242368031     
   9902.4780315915323     
   9859.7706388481238     
   10673.097563637106     
   10680.262355656232     
   10679.479744019500     
   10670.770911572150     
   10654.197213560919     
   10629.850808837275     
   10597.847070657370     
   10558.318670695331     
   10511.411264500677     
   11382.288795635492     
   11378.547999172230     
   11367.805323136488     
   11350.106615584511     
   11325.564828810177     
   11294.340658227935     
   11256.627355674626     
   11212.639569320771     
   11162.606134226020     
   6025.6804096424567     
   6014.2265473335292     
   6000.6360052110031     
   5984.9053106811416     
   5967.0342466781613     
   5947.0246170059554     
   5924.8793327662979     
   5900.6018197143358     
   5874.1957496515706     
   6644.7786017611106     
   6627.6106419106709     
   6608.6503405977155     
   6587.9235871000028     
   6565.4624410633733     
   6541.3023109788028     
   6515.4798846249205     
   6488.0318177220724     
   6458.9941933059254     
   7275.6768773450722     
   7252.2972176117300     
   7227.5743884568510     
   7201.5652231862114     
   7174.3353431161850     
   7145.9550717714483     
   7116.4963907509709     
   7086.0309533794180     
   7054.6291789604620     
   7914.9611257286042     
   7885.2240661938195     
   7854.6451511302694     
   7823.3071082069318     
   7791.3031684463613     
   7758.7324222558145     
   7725.6962734066365     
   7692.2960149877554     
   7658.6315565970899     
   8560.0335439874943     
   8524.1233056140118     
   8487.8704529326224     
   8451.3741704556469     
   8414.7445341094262     
   8378.0981340079652     
   8341.5546311007984     
   8305.2342733939404     
   8269.2564006788671     
   9208.8537512383591     
   9167.2671196762494     
   9125.7804217959656     
   9084.4968861314501     
   9043.5295024816405     
   9002.9976408486073     
   8963.0242967024369     
   8923.7339827227024     
   8885.2512887825615     
   9859.7706388481238     
   9813.3028662483102     
   9767.2666082699670     
   9721.7545402164960     
   9676.8665490968797     
   9632.7078001931022     
   9589.3870935733721     
   9547.0155207990247     
   9505.7054326898433     
   10511.411264500677     
   10461.144102537339     
   10411.475747110397     
   10362.471833811764     
   10314.201686793636     
   10266.737845030249     
   10220.155649936598     
   10174.532896282890     
   10129.949548403896     
   11162.606134226020     
   11109.897157230131     
   11057.738173863332     
   11006.149277463117     
   10955.150606498346     
   10904.762755454494     
   10855.007276327577     
   10805.907273084827     
   10757.488091325804     
   5874.1957496515706     
   5846.8821545362507     
   5819.9063511990234     
   5793.3089862161332     
   5767.1312086527114     
   5741.4147113838890     
   5716.2017874511857     
   5691.5354016984720     
   5667.4592778771685     
   6458.9941933059254     
   6429.2719295246834     
   6399.7586722378192     
   6370.4735701935979     
   6341.4361862282212     
   6312.6665132519865     
   6284.1850600647567     
   6256.0130091384308     
   6228.1724484747037     
   7054.6291789604620     
   7022.7922713749194     
   6990.9736239842650     
   6959.1714832972293     
   6927.3845374179600     
   6895.6118040863430     
   6863.8526444092704     
   6832.1069063776640     
   6800.3752024089672     
   7658.6315565970899     
   7624.7742267816593     
   7590.7167667467183     
   7556.4405510894203     
   7521.9274432239181     
   7487.1595918809626     
   7452.1193688820613     
   7416.7894527727058     
   7381.1530632136028     
   8269.2564006788671     
   8233.2921805951828     
   8196.9143676346030     
   8160.0941350018156     
   8122.8031206358901     
   8085.0132259300672     
   8046.6965264660721     
   8007.8252983335578     
   7968.3721639363530     
   8885.2512887825615     
   8846.9283400845816     
   8808.0141211095961     
   8768.4783779318514     
   8728.2911669989462     
   8687.4227399339688     
   8645.8434850472659     
   8603.5239273404768     
   8560.4347889762557     
   9505.7054326898433     
   9464.6188342695168     
   9422.8283569536561     
   9380.3128074781453     
   9337.0510168264918     
   9293.0218265339608     
   9248.2040841925573     
   9202.5766484521573     
   9156.1184038481188     
   10129.949548403896     
   10085.551298999968     
   10040.429514802927     
   9994.5839445289439     
   9948.0140243078931     
   9900.7188593728315     
   9852.6972188287946     
   9803.9475439262806     
   9754.4679703099719     
   10757.488091325804     
   10709.095426410195     
   10660.079187717301     
   10610.473039534714     
   10560.310134928870     
   10509.622815704135     
   10458.442430481127     
   10406.799274773535     
   10354.722657285682     
   5667.4592778771685     
   5643.6861728192853     
   5619.8874282163943     
   5596.0449051876540     
   5572.1399393267475     
   5548.1533123504068     
   5524.0652400549088     
   5499.8553770065755     
   5475.5028384097395     
   6228.1724484747037     
   6200.5344820493838     
   6172.9546813609750     
   6145.4323039863912     
   6117.9659412718484     
   6090.5533802091513     
   6063.1915247207180     
   6035.8763782498781     
   6008.6030896019283     
   6800.3752024089672     
   6768.7377563734544     
   6737.2841613487199     
   6706.0296195169667     
   6674.9887061653144     
   6644.1751182439384     
   6613.6015188031524     
   6583.2794806502216     
   6553.2195326017008     
   7381.1530632136028     
   7345.5144274851336     
   7310.2069247671834     
   7275.2579994292464     
   7240.6946088828636     
   7206.5429135896866     
   7172.8280744555686     
   7139.5741615969746     
   7106.8041784634243     
   7968.3721639363530     
   7928.8479528356520     
   7889.8044415641380     
   7851.2760664967655     
   7813.2969503097311     
   7775.9006094745437     
   7739.1197538322958     
   7702.9861818361069     
   7667.5307750228258     
   8560.4347889762557     
   8517.2465674012001     
   8474.6725066910076     
   8432.7477037031967     
   8391.5071039836857     
   8350.9852939915163     
   8311.2163518664474     
   8272.2337591077903     
   8234.0703755044924     
   9156.1184038481188     
   9109.5851807962590     
   9063.7659250413053     
   9018.6892835754734     
   8974.3838919113659     
   8930.8782839205578     
   8888.2008236507063     
   8846.3796600332498     
   8805.4427053819982     
   9754.4679703099719     
   9704.9996328879315     
   9656.2946421417582     
   9608.3674889941158     
   9561.2328000382604     
   9514.9053409979442     
   9469.4000220080052     
   9424.7319047620440     
   9380.9162115709751     
   10354.722657285682     
   10302.814720227514     
   10251.653045539875     
   10201.229756648141     
   10151.537347770689     
   10102.568679774471     
   10054.316996286396     
   10006.775960750307     
   9959.9397151027661     
   5475.5028384097395     
   5451.2610951465549     
   5427.4025316870229     
   5403.9344259366626     
   5380.8642942873694     
   5358.1999008417006     
   5335.9492699005632     
   5314.1207017807474     
   5292.7227920219211     
   6008.6030896019283     
   5981.5182254580277     
   5954.7686890524847     
   5928.3498741599251     
   5902.2575692029914     
   5876.4879334266225     
   5851.0374953971677     
   5825.9031745365810     
   5801.0823263912098     
   6553.2195326017008     
   6523.4280823665713     
   6493.8946209697115     
   6464.6040254376276     
   6435.5416562221271     
   6406.6932856691774     
   6378.0450681528882     
   6349.5835532635856     
   6321.2957434472701     
   7106.8041784634243     
   7074.3734662879406     
   7042.1069168755648     
   7009.9816026446379     
   6977.9751055400984     
   6946.0654124953880     
   6914.2308611289354     
   6882.4501373730855     
   6850.7023267707928     
   7667.5307750228258     
   7632.4664628021383     
   7597.4676981080211     
   7562.5074507990767     
   7527.5591642032114     
   7492.5966456922924     
   7457.5940028911718     
   7422.5256270686514     
   7387.3662253094681     
   8234.0703755044924     
   8196.3227909990128     
   8158.5479703276214     
   8120.7192347965583     
   8082.8102810564906     
   8044.7950953376730     
   8006.6478987103910     
   7968.3431244228441     
   7929.8554284116171     
   8805.4427053819982     
   8764.9120340325426     
   8724.2769074725766     
   8683.5160380395791     
   8642.6083573942960     
   8601.5329723731393     
   8560.2691340185538     
   8518.7962202326471     
   8477.0937325208524     
   9380.9162115709751     
   9337.4567616090771     
   9293.8401988954429     
   9250.0561272647810     
   9206.0941691035950     
   9161.9439605537082     
   9117.5951479389259     
   9073.0373854549671     
   9028.2603341654067     
   9959.9397151027661     
   9913.3634645873353     
   9866.6103851270200     
   9819.6868308260127     
   9772.5989560731068     
   9725.3527189899469     
   9677.9538907218794     
   9630.4080707791036     
   9582.7207086452945     
   5292.7227920219211     
   5271.4845328598494     
   5250.1219262782770     
   5228.6241086027758     
   5206.9799438199379     
   5185.1780335229541     
   5163.2067303823314     
   5141.0541552361401     
   5118.7082178981937     
   5801.0823263912098     
   5776.3793512647308     
   5751.6043553477202     
   5726.7632790572607     
   5701.8615943079094     
   5676.9043103634331     
   5651.8960094909544     
   5626.8409133632385     
   5601.7429811908551     
   6321.2957434472701     
   6293.0892352461115     
   6264.8936756517878     
   6236.7291585768317     
   6208.6152194156857     
   6180.5708202552187     
   6152.6143942210592     
   6124.7639509074679     
   6097.0372448766993     
   6850.7023267707928     
   6819.0081137007001     
   6787.4222114397380     
   6755.9747563211122     
   6724.6953403897242     
   6693.6129749996708     
   6662.7561279895626     
   6632.1528369259213     
   6601.8309009131453     
   7387.3662253094681     
   7352.2444139717345     
   7317.3290287865484     
   7282.6551157082868     
   7248.2572763238350     
   7214.1696201876721     
   7180.4257856094728     
   7147.0590312595023     
   7114.1024009439006     
   7929.8554284116171     
   7891.4032858740366     
   7853.2447897086831     
   7815.4140459701193     
   7777.9448728045963     
   7740.8707572268704     
   7704.2248596582522     
   7668.0400679025352     
   7632.3491022223443     
   8477.0937325208524     
   8435.4406329848880     
   8394.1473971348150     
   8353.2408379820317     
   8312.7476597074674     
   8272.6944331161994     
   8233.1075923098288     
   8194.0134533285764     
   8155.4382555093216     
   9028.2603341654067     
   8983.5640340814643     
   8939.2639241385787     
   8895.3728155663248     
   8851.9035800073616     
   8808.8691493101360     
   8766.2825176352108     
   8724.1567459508660     
   8682.5049689926072     
   9582.7207086452945     
   9535.1644909228744     
   9488.0030045537569     
   9441.2280948275347     
   9394.8318026237339     
   9348.8063785699760     
   9303.1443042446008     
   9257.8383206600101     
   9212.8814642641282     
   9388.3272701101978     
   9632.5605532515910     
   9869.2522369494200     
   10094.756528427582     
   10305.660955939520     
   10498.795617057864     
   10671.246684161108     
   10820.376575618582     
   10943.853204752997     
   10101.311512123157     
   10331.068401759845     
   10557.351273738828     
   10776.799528388059     
   10986.066597122805     
   11181.898975737577     
   11361.212881252117     
   11521.171749222834     
   11659.268457315829     
   10845.854096668261     
   11054.781116576678     
   11265.622880175468     
   11474.946782520852     
   11679.312349210699     
   11875.371241913323     
   12059.962447640744     
   12230.205589450683     
   12383.596165684206     
   11605.199058427443     
   11796.681789400116     
   11994.632289056874     
   12195.355410787985     
   12395.264970456446     
   12590.970953613201     
   12779.358389706367     
   12957.661200955041     
   13123.534757293457     
   12362.831394109595     
   12550.008881441037     
   12745.182879856389     
   12944.361833658852     
   13143.898446818372     
   13340.512541365308     
   13531.309814836561     
   13713.800075055355     
   13885.917990060638     
   13102.533427468945     
   13308.300111912236     
   13518.338152691089     
   13728.481462216518     
   13935.272378323803     
   14135.824435462475     
   14327.713327730524     
   14508.896280629988     
   14677.658825150576     
   13808.459150999241     
   14065.444095581242     
   14315.441300176206     
   14554.403804832707     
   14779.510912293261     
   14988.715192900047     
   15180.407448360755     
   15353.184145016576     
   15505.703840782942     
   14465.234372606068     
   14815.741349566395     
   15138.131940504307     
   15428.982179453247     
   15686.781417013761     
   15910.946774165777     
   16101.138859197748     
   16256.817498640557     
   16376.995375073000     
   15058.093238459654     
   15553.976569177423     
   15988.359609027611     
   16359.217965073398     
   16667.273125151387     
   16914.215071868861     
   17101.540410881436     
   17229.840087222932     
   17298.440181586368     
   10943.853204752997     
   11047.105422986589     
   11136.706004037407     
   11212.419357560799     
   11274.146891813221     
   11321.892132893148     
   11355.733981645562     
   11375.807113740459     
   11382.288795635492     
   11659.268457315829     
   11776.863056498671     
   11876.642845215360     
   11958.495087916746     
   12022.408007330441     
   12068.435314093613     
   12096.671042040423     
   12107.233520853337     
   12100.257738091779     
   12383.596165684206     
   12516.707525166752     
   12627.438578783562     
   12715.712163952745     
   12781.544234166231     
   12825.008461341848     
   12846.211347956736     
   12845.276552994297     
   12822.337632850174     
   13123.534757293457     
   13269.325693329452     
   13388.526545439434     
   13480.994531341037     
   13546.711924652405     
   13585.748122039142     
   13598.231590118578     
   13584.330189549381     
   13544.238879926512     
   13885.917990060638     
   14037.587779496647     
   14159.544533886581     
   14251.470794761481     
   14313.261913746846     
   14344.973722913563     
   14346.782010079891     
   14318.951644669425     
   14261.813800202073     
   14677.658825150576     
   14824.515512174643     
   14940.329123544176     
   15024.488406972529     
   15076.762318133729     
   15097.206980313955     
   15086.093599302940     
   15043.853618694493     
   14971.038408897050     
   15505.703840782942     
   15633.257784834561     
   15730.915866084795     
   15797.633321044939     
   15833.027477368434     
   15837.198784764711     
   15810.594079616321     
   15753.905726029052     
   15668.002121101119     
   16376.995375073000     
   16467.070985221020     
   16531.543466858609     
   16568.754517023492     
   16578.153259642386     
   16559.963828657073     
   16514.932353372827     
   16444.144041478161     
   16348.903919205157     
   17298.440181586368     
   17329.302241311107     
   17342.660640205861     
   17335.993063591548     
   17308.559226998117     
   17260.823662638431     
   17194.011633310136     
   17109.788229655434     
   17010.053966053099     
   11382.288795635492     
   11378.547999172230     
   11367.805323136488     
   11350.106615584511     
   11325.564828810177     
   11294.340658227935     
   11256.627355674626     
   11212.639569320771     
   11162.606134226020     
   12100.257738091779     
   12081.889407248127     
   12058.163832747354     
   12029.156909725736     
   11995.041264044083     
   11956.055290660899     
   11912.478971981680     
   11864.616362598597     
   11812.784719124353     
   12822.337632850174     
   12786.881851078304     
   12748.289590692231     
   12706.654344044684     
   12662.185328737683     
   12615.170035817380     
   12565.944528849346     
   12514.871503453347     
   12462.326187839575     
   13544.238879926512     
   13490.826356108648     
   13436.805549750639     
   13382.269490657915     
   13327.430930005330     
   13272.585397799292     
   13218.081135540622     
   13164.296046198569     
   13111.621834357362     
   14261.813800202073     
   14191.133680818355     
   14122.409994703898     
   14055.713854987420     
   13991.223082889745     
   13929.192564639839     
   13869.929253496135     
   13813.772017761388     
   13761.076535555869     
   14971.038408897050     
   14885.303990027229     
   14803.859433777905     
   14726.727919608249     
   14654.010607067543     
   14585.868929162451     
   14522.508884165165     
   14464.167479523998     
   14411.101473203973     
   15668.002121101119     
   15570.912526653941     
   15479.955965613381     
   15395.072581298638     
   15316.241552546950     
   15243.475992713946     
   15176.817974928401     
   15116.333729416616     
   15062.109057105532     
   16348.903919205157     
   16245.599839284598     
   16149.537879581801     
   16060.522974672369     
   15978.360550823934     
   15902.858988819926     
   15833.832450248085     
   15771.104056976757     
   15714.509410858978     
   17010.053966053099     
   16907.065529612439     
   16811.472622043751     
   16722.864001609287     
   16640.807553303704     
   16564.847777730305     
   16494.507463191749     
   16429.293653536050     
   16368.707989271337     
   11162.606134226020     
   11109.897157230131     
   11057.738173863332     
   11006.149277463117     
   10955.150606498346     
   10904.762755454494     
   10855.007276327577     
   10805.907273084827     
   10757.488091325804     
   11812.784719124353     
   11759.184221572523     
   11705.779872951673     
   11652.541504044835     
   11599.437025365034     
   11546.432642260595     
   11493.493444985368     
   11440.584385662165     
   11387.671654546793     
   12462.326187839575     
   12408.975598378291     
   12355.189647243549     
   12300.901944057903     
   12246.044185582234     
   12190.545721452818     
   12134.333718364280     
   12077.333941485669     
   12019.472173658924     
   13111.621834357362     
   13059.050888288821     
   13005.255870206052     
   12950.153469078976     
   12893.659374266399     
   12835.687422197945     
   12776.149349219448     
   12714.955168457036     
   12652.014191262017     
   13761.076535555869     
   13709.230782285422     
   13655.330704124404     
   13599.300691257040     
   13541.065053625425     
   13480.547248968618     
   13417.669518289658     
   13352.352939728104     
   13284.517914168424     
   14411.101473203973     
   14359.367191702555     
   14304.817850074349     
   14247.415314953254     
   14187.121784496821     
   14123.899462685033     
   14057.710367991387     
   13988.516279641854     
   13916.278825582587     
   15062.109057105532     
   15009.335936183603     
   14953.163428979629     
   14893.625302700335     
   14830.755653113401     
   14764.588847595585     
   14695.159481654189     
   14622.502349099148     
   14546.652426141200     
   15714.509410858978     
   15659.031256250351     
   15599.849142162291     
   15537.106864994556     
   15470.949060103823     
   15401.520279931990     
   15328.964416407374     
   15253.424475489399     
   15175.042714346338     
   16368.707989271337     
   16308.361646608337     
   16244.387113863400     
   16177.078568167244     
   16106.734051332724     
   16033.651171752497     
   15958.124286539520     
   15880.443199863628     
   15800.893424231092     
   10757.488091325804     
   10709.095426410195     
   10660.079187717301     
   10610.473039534714     
   10560.310134928870     
   10509.622815704135     
   10458.442430481127     
   10406.799274773535     
   10354.722657285682     
   11387.671654546793     
   11334.545734421170     
   11281.064648782905     
   11227.298262793833     
   11173.316121846989     
   11119.186615348301     
   11064.976433395494     
   11010.750326500238     
   10956.571179142673     
   12019.472173658924     
   11961.158289153407     
   11902.913219104956     
   11844.831595805530     
   11787.008204730953     
   11729.536717237397     
   11672.508826675821     
   11616.013802845366     
   11560.138480228663     
   12652.014191262017     
   12588.426366010099     
   12525.420870846139     
   12463.102784802906     
   12401.577813521313     
   12340.950889498063     
   12281.325174426662     
   12222.801479579544     
   12165.478120324169     
   13284.517914168424     
   13215.924698759512     
   13148.451707062077     
   13082.198078024270     
   13017.263812113761     
   12953.748591840638     
   12891.750900319672     
   12831.367450576823     
   12772.692938161146     
   13916.278825582587     
   13843.291280947678     
   13771.921981373314     
   13702.246204701902     
   13634.339979799861     
   13568.279394625999     
   13504.140046828743     
   13441.996643496921     
   13381.922756523147     
   14546.652426141200     
   14470.213780798760     
   14395.788279160362     
   14323.408139298497     
   14253.105985026161     
   14184.914683373319     
   14118.867200108338     
   14054.996474372598     
   13993.335313477783     
   15175.042714346338     
   15096.419278575759     
   15020.038670287511     
   14945.869555223235     
   14873.880835566262     
   14804.041692943072     
   14736.321661808746     
   14670.690734056889     
   14607.119495608480     
   15800.893424231092     
   15721.666427110584     
   15644.686013552015     
   15569.835218512930     
   15496.998112815410     
   15426.059220878791     
   15356.903242134500     
   15289.415087113795     
   15223.480238465989     
   10354.722657285682     
   10302.814720227514     
   10251.653045539875     
   10201.229756648141     
   10151.537347770689     
   10102.568679774471     
   10054.316996286396     
   10006.775960750307     
   9959.9397151027661     
   10956.571179142673     
   10902.762091489894     
   10849.583484886529     
   10797.003683716235     
   10744.991717592511     
   10693.517177255766     
   10642.550145628560     
   10592.061206743592     
   10542.021535249376     
   11560.138480228663     
   11504.826695950747     
   11449.932281510097     
   11395.406455222619     
   11341.201450735394     
   11287.270213294296     
   11233.566216627816     
   11180.043404741244     
   11126.656262967577     
   12165.478120324169     
   12108.877130529001     
   12052.416836295639     
   11996.039471411295     
   11939.688486708044     
   11883.308153724456     
   11826.843301849440     
   11770.239193544696     
   11713.441542376189     
   12772.692938161146     
   12714.839880680316     
   12656.819635440266     
   12598.574874587812     
   12540.049507700291     
   12481.188298727355     
   12421.936593546607     
   12362.240161775520     
   12302.045156654649     
   13381.922756523147     
   13322.686002464468     
   13262.974049364389     
   13202.740601216201     
   13141.940400348736     
   13080.528956344682     
   13018.462338926158     
   12955.697036795773     
   12892.189884547097     
   13993.335313477783     
   13932.421200329189     
   13870.753707267337     
   13808.309180351418     
   13745.064605882291     
   13680.997497794249     
   13616.085802066526     
   13550.307818618217     
   13483.642141189981     
   14607.119495608480     
   14544.078341074781     
   14480.064450748589     
   14415.089246341287     
   14349.164296196028     
   14282.301311078847     
   14214.512142048115     
   14145.808780462921     
   14076.203360197647     
   15223.480238465989     
   15157.711739718057     
   15090.838171719524     
   15022.919042293301     
   14954.013628233533     
   14884.180888982395     
   14813.479438483113     
   14741.967577118714     
   14669.703385820980     
   9959.9397151027661     
   9913.3634645873353     
   9866.6103851270200     
   9819.6868308260127     
   9772.5989560731068     
   9725.3527189899469     
   9677.9538907218794     
   9630.4080707791036     
   9582.7207086452945     
   10542.021535249376     
   10492.117053077107     
   10442.068669793671     
   10391.900357788005     
   10341.635746862014     
   10291.298088303107     
   10240.910246886957     
   10190.494721802319     
   10140.073697535236     
   11126.656262967577     
   11073.281184790148     
   11019.849096144402     
   10966.396597451461     
   10912.959922942948     
   10859.574853068978     
   10806.276675024374     
   10753.100193122244     
   10700.079790808421     
   11713.441542376189     
   11656.547181264876     
   11599.717869749024     
   11542.997001280048     
   11486.427659948549     
   11430.052499836414     
   11373.913679929157     
   11318.052856611457     
   11262.511235828804     
   12302.045156654649     
   12241.670658958141     
   12181.500603454044     
   12121.578684252156     
   12061.948382441011     
   12002.652846096167     
   11943.734818261924     
   11885.236614676349     
   11827.200153048923     
   12892.189884547097     
   12828.457250838163     
   12765.068786592763     
   12702.061482218316     
   12639.472215970363     
   12577.337667855601     
   12515.694263072508     
   12454.578146092532     
   12394.025186504723     
   13483.642141189981     
   13416.751915433524     
   13350.329677176407     
   13284.398303709297     
   13218.980644796857     
   13154.099487848140     
   13089.777532410326     
   13026.037374339703     
   12962.901500008054     
   14076.203360197647     
   14006.430835850577     
   13937.218659499713     
   13868.567851157030     
   13800.479473727184     
   13732.954635768836     
   13665.994494368997     
   13599.600258131733     
   13533.773190282820     
   14669.703385820980     
   14597.395212513258     
   14525.693400880327     
   14454.569069195035     
   14383.993468657594     
   14313.937964083247     
   14244.374032109192     
   14175.273277541915     
   14106.607468471229     
   9582.7207086452945     
   9535.1644909228744     
   9488.0030045537569     
   9441.2280948275347     
   9394.8318026237339     
   9348.8063785699760     
   9303.1443042446008     
   9257.8383206600101     
   9212.8814642641282     
   10140.073697535236     
   10089.838112564225     
   10039.944256691961     
   9990.3623674301289     
   9941.0629475586575     
   9892.0167673078158     
   9843.1949045861329     
   9794.5688246036934     
   9746.1105002746117     
   10700.079790808421     
   10647.284365156052     
   10594.729865894184     
   10542.371266465703     
   10490.163825044710     
   10438.063057559251     
   10386.024778980969     
   10334.005215330337     
   10281.961188944244     
   11262.511235828804     
   11207.215689568644     
   11152.030109264979     
   11096.901244000057     
   11041.776131366256     
   10986.602041119822     
   10931.326500403229     
   10875.897403479516     
   10820.263209068795     
   11827.200153048923     
   11769.408940977835     
   11711.582621338626     
   11653.667354500833     
   11595.609587398038     
   11537.355981036129     
   11478.853411624099     
   11420.049047989813     
   11360.890508095612     
   12394.025186504723     
   12333.691399398660     
   12273.177983303125     
   12212.438664731822     
   12151.427441323007     
   12090.098513640649     
   12028.406266005120     
   11966.305298121895     
   11903.750509388927     
   12962.901500008054     
   12899.930266873633     
   12836.648893748124     
   12773.027283262534     
   12709.035563018841     
   12644.644041249274     
   12579.823181658785     
   12514.543598136423     
   12448.776070063450     
   13533.773190282820     
   13468.024690051008     
   13401.861938507327     
   13335.280019791251     
   13268.274149011910     
   13200.839661089643     
   13132.972000294440     
   13064.666710501415     
   12995.919426183111     
   14106.607468471229     
   14037.899634514848     
   13968.711269384910     
   13899.071977853631     
   13829.011347375768     
   13758.558959008089     
   13687.744412543469     
   13616.597366387856     
   13545.147592735275     
   15058.093238459654     
   15553.976569177423     
   15988.359609027611     
   16359.217965073398     
   16667.273125151387     
   16914.215071868861     
   17101.540410881436     
   17229.840087222932     
   17298.440181586368     
   15610.058164711529     
   16284.267481929211     
   16859.577325262591     
   17334.126979567012     
   17709.381668369588     
   17987.928932153569     
   18172.095394278185     
   18263.107632281859     
   18260.648219286079     
   16293.935254785179     
   17098.001385839736     
   17784.624371960042     
   18345.772552226372     
   18778.158613968706     
   19081.006865929052     
   19254.649342575958     
   19299.630591739759     
   19216.138966308888     
   17322.469467631396     
   18122.766410654000     
   18828.184392418203     
   19410.590815293461     
   19853.540781400698     
   20148.138625574418     
   20290.339698288673     
   20279.198582894351     
   20115.732630626808     
   18910.036056491692     
   19487.113256073808     
   20057.973619136410     
   20550.190515707276     
   20921.508917691892     
   21149.538768862720     
   21224.467046020709     
   21144.271082374573     
   20911.782852421424     
   21270.009707050005     
   21319.547846587022     
   21542.931046586473     
   21789.983124301125     
   21974.009195026949     
   22051.985381848874     
   22007.902107757502     
   21841.016354187675     
   21558.525218250190     
   24612.411372911567     
   23747.901784167254     
   23351.545878787729     
   23157.853982938184     
   23009.239078149214     
   22830.606312374508     
   22599.356722449618     
   22321.034286884893     
   22012.799610465936     
   29143.380447776191     
   26899.179618644845     
   25550.538478121613     
   24682.851209727112     
   24032.258366176866     
   23471.689187767388     
   22969.043444631643     
   22544.201051535212     
   22235.309189362284     
   35066.493662591951     
   30899.821212722672     
   28204.129701157603     
   26393.940619706031     
   25055.850481058114     
   23976.855813718808     
   23104.559268180979     
   22483.428725713591     
   22192.739499180356     
   17298.440181586368     
   17329.302241311107     
   17342.660640205861     
   17335.993063591548     
   17308.559226998117     
   17260.823662638431     
   17194.011633310136     
   17109.788229655434     
   17010.053966053099     
   18260.648219286079     
   18210.176816212974     
   18154.423592259413     
   18090.057522967178     
   18016.138501578927     
   17933.337298846014     
   17843.317459165752     
   17748.276614107421     
   17650.645910754163     
   19216.138966308888     
   19074.870896986115     
   18942.767261323686     
   18816.250612192020     
   18694.211566019043     
   18577.258077021619     
   18467.092669715130     
   18366.026663448039     
   18276.638542882341     
   20115.732630626808     
   19890.053260068195     
   19687.601339345296     
   19505.206172792175     
   19341.672573213327     
   19197.266065282725     
   19073.258863949148     
   18971.550061514132     
   18894.370811715358     
   20911.782852421424     
   20623.326667158246     
   20369.469860989586     
   20147.926410764034     
   19957.489138811969     
   19797.839324976514     
   19669.360033054207     
   19572.960269359377     
   19509.916188100251     
   21558.525218250190     
   21243.136245449739     
   20969.361196062087     
   20735.671178375465     
   20540.714610168317     
   20383.350089817730     
   20262.674887663885     
   20178.048061844012     
   20129.107390134526     
   22012.799610465936     
   21718.840727962634     
   21468.588823031063     
   21259.879905644510     
   21090.523779734467     
   20958.189300368755     
   20860.363132360679     
   20794.387264571502     
   20757.576885318551     
   22235.309189362284     
   22020.962446830115     
   21848.731756458874     
   21712.118881822058     
   21606.268648464513     
   21526.916286724736     
   21469.642162847384     
   21429.468096597990     
   21400.812018441138     
   22192.739499180356     
   22121.665058377806     
   22091.627590731194     
   22084.048420684165     
   22087.552477880392     
   22094.430025311751     
   22097.988549573751     
   22090.853574725392     
   22064.223055485541     
   17010.053966053099     
   16907.065529612439     
   16811.472622043751     
   16722.864001609287     
   16640.807553303704     
   16564.847777730305     
   16494.507463191749     
   16429.293653536050     
   16368.707989271337     
   17650.645910754163     
   17555.792320378165     
   17466.978114352536     
   17383.562341102173     
   17304.895950578892     
   17230.301994494246     
   17159.065605969157     
   17090.434087309382     
   17023.627365828459     
   18276.638542882341     
   18195.826651216641     
   18118.190386356247     
   18042.970091159885     
   17969.425924279021     
   17896.805936227716     
   17824.325846163531     
   17751.160863201269     
   17676.449854297749     
   18894.370811715358     
   18830.189489060202     
   18765.398335670725     
   18699.283628635523     
   18631.169262304647     
   18560.386740602382     
   18486.254078086014     
   18408.063785095139     
   18325.080120199280     
   19509.916188100251     
   19461.809148680004     
   19408.919245371082     
   19350.797962200617     
   19287.029941402438     
   19217.217021223962     
   19140.965790471029     
   19057.878671262202     
   18967.548560525240     
   20129.107390134526     
   20093.519783333872     
   20049.092660767372     
   19995.902550493123     
   19934.039577492927     
   19863.604548129111     
   19784.706429169044     
   19697.460205196210     
   19601.985102986440     
   20757.576885318551     
   20728.064185479012     
   20686.275482409132     
   20633.079897034160     
   20569.359128411346     
   20495.991520037882     
   20413.843019880176     
   20323.765098875170     
   20226.599800603541     
   21400.812018441138     
   21368.100432342017     
   21320.837990171913     
   21260.906570171835     
   21190.286148807078     
   21110.962181859031     
   21024.865336045721     
   20933.843786440644     
   20839.668909457858     
   22064.223055485541     
   22016.211972737579     
   21953.160587438058     
   21878.056383884923     
   21794.267130323235     
   21705.257948695904     
   21614.395377370467     
   21524.839281044668     
   21439.525413623116     
   16368.707989271337     
   16308.361646608337     
   16244.387113863400     
   16177.078568167244     
   16106.734051332724     
   16033.651171752497     
   15958.124286539520     
   15880.443199863628     
   15800.893424231092     
   17023.627365828459     
   16955.892352853167     
   16885.273679821425     
   16812.193212272443     
   16737.082693754692     
   16660.374569210475     
   16582.495701876494     
   16503.864062538178     
   16424.888487913948     
   17676.449854297749     
   17599.808259033678     
   17521.729638014702     
   17442.671238686613     
   17363.105261741963     
   17283.507440557121     
   17204.348866493332     
   17126.091162197659     
   17049.185119010446     
   18325.080120199280     
   18239.535170499545     
   18154.415135976775     
   18070.116226395650     
   17987.050565166810     
   17905.636516542720     
   17826.291392335475     
   17749.426625666427     
   17675.445503983901     
   18967.548560525240     
   18874.588385247847     
   18784.039349498715     
   18696.140219831348     
   18611.141289296098     
   18529.299485388186     
   18450.874373743834     
   18376.125098005061     
   18305.308295961338     
   19601.985102986440     
   19504.556123029557     
   19411.355266949453     
   19322.367969591982     
   19237.583819565880     
   19156.996070269146     
   19080.601155079381     
   19008.398209132185     
   18940.388600129914     
   20226.599800603541     
   20129.086342443232     
   20037.156118997907     
   19950.442257998096     
   19868.579276828048     
   19791.200650783627     
   19717.937795861315     
   19648.420511762175     
   19582.278922633508     
   20839.668909457858     
   20747.876203220247     
   20662.273038780582     
   20582.030038039324     
   20506.335530020118     
   20434.376195861834     
   20365.325007596806     
   20298.336696019542     
   20232.550932081835     
   21439.525413623116     
   21360.663605902537     
   21287.573642807838     
   21218.829153213585     
   21153.079938322506     
   21088.989235398469     
   21025.191304358199     
   20960.269882995384     
   20892.757907239837     
   15800.893424231092     
   15721.666427110584     
   15644.686013552015     
   15569.835218512930     
   15496.998112815410     
   15426.059220878791     
   15356.903242134500     
   15289.415087113795     
   15223.480238465989     
   16424.888487913948     
   16346.873112521929     
   16270.721691507882     
   16196.240950477979     
   16123.240737698694     
   16051.532061653101     
   15980.925858574945     
   15911.232516006807     
   15842.262177090743     
   17049.185119010446     
   16973.712534940081     
   16899.305216119141     
   16825.737893245958     
   16752.790478926025     
   16680.245148877544     
   16607.884342290061     
   16535.489711774808     
   16462.842052646465     
   17675.445503983901     
   17603.101093599853     
   17530.738069831848     
   17458.147646139354     
   17385.127113865910     
   17311.476961818997     
   17236.998767554152     
   17161.493882985938     
   17084.762937424410     
   18305.308295961338     
   18235.958871150666     
   18165.345991082781     
   18093.330327157881     
   18019.777775383602     
   17944.557543593604     
   17867.540639288149     
   17788.598767536801     
   17707.603649236065     
   18940.388600129914     
   18873.206825782723     
   18803.475035016800     
   18731.180189734605     
   18656.312229156450     
   18578.863338238159     
   18498.827310469835     
   18416.199005900253     
   18330.973905616014     
   19582.278922633508     
   19515.764670558543     
   19445.488405119304     
   19371.622286765712     
   19294.339519846064     
   19213.813635625105     
   19130.218062878736     
   19043.725992585325     
   18954.510545004265     
   20232.550932081835     
   20164.549297510803     
   20091.763885008306     
   20014.609965014475     
   19933.505720015000     
   19848.868321024824     
   19761.111538294859     
   19670.644922154523     
   19577.874600931755     
   20892.757907239837     
   20820.473640303520     
   20742.691740955943     
   20660.123021026258     
   20573.492572625870     
   20483.526690712122     
   20390.944274050424     
   20296.452807083268     
   20200.749062473122     
   15223.480238465989     
   15157.711739718057     
   15090.838171719524     
   15022.919042293301     
   14954.013628233533     
   14884.180888982395     
   14813.479438483113     
   14741.967577118714     
   14669.703385820980     
   15842.262177090743     
   15773.024917935110     
   15702.725113599896     
   15631.464902940534     
   15559.346213943296     
   15486.470388960215     
   15412.937975407125     
   15338.848687282840     
   15264.301543352780     
   16462.842052646465     
   16389.549065391453     
   16315.444047708785     
   16240.646527997418     
   16165.276111178373     
   16089.451885514247     
   16013.292048842162     
   15936.913761391757     
   15860.433232921885     
   17084.762937424410     
   17007.112521359450     
   16929.055620455056     
   16850.702741453137     
   16772.164735654926     
   16693.552205531094     
   16614.975098903040     
   16536.542496951479     
   16458.362602688503     
   17707.603649236065     
   17625.565909954053     
   17543.631012411497     
   17461.873328371137     
   17380.367630346609     
   17299.188708003308     
   17218.411080415684     
   17138.108807488919     
   17058.355403981426     
   18330.973905616014     
   18244.778702164916     
   18159.249877681661     
   18074.398102688450     
   17990.234277223622     
   17906.769402541740     
   17824.014470514379     
   17741.980371409249     
   17660.677820733665     
   18954.510545004265     
   18864.636444518219     
   18775.998704350848     
   18688.516261489687     
   18602.108134023299     
   18516.693273805711     
   18432.190484390983     
   18348.518406473653     
   18265.595573041748     
   19577.874600931755     
   19485.038512946940     
   19393.969503289642     
   19304.465963211314     
   19216.326849926190     
   19129.350772396243     
   19043.335459635578     
   18958.077624558347     
   18873.373235992032     
   20200.749062473122     
   20105.896283359383     
   20013.258755161114     
   19922.484082548570     
   19833.222624753631     
   19745.124441405405     
   19657.837378339234     
   19571.006332018958     
   19484.273729321361     
   14669.703385820980     
   14597.395212513258     
   14525.693400880327     
   14454.569069195035     
   14383.993468657594     
   14313.937964083247     
   14244.374032109192     
   14175.273277541915     
   14106.607468471229     
   15264.301543352780     
   15189.855930149943     
   15115.968257323959     
   15042.583018990641     
   14969.644969036048     
   14897.099011054170     
   14824.890144646082     
   14752.963470081257     
   14681.264253354560     
   15860.433232921885     
   15784.159463721702     
   15708.279423031103     
   15632.726165725242     
   15557.433123450328     
   15482.333919414836     
   15407.362261327795     
   15332.451915230988     
   15257.536763032356     
   16458.362602688503     
   16380.434887917276     
   16302.645021491808     
   16224.930422812584     
   16147.228952680005     
   16069.478716046115     
   15991.617934326046     
   15913.584889672673     
   15835.317943697757     
   17058.355403981426     
   16978.821115925646     
   16899.099324191815     
   16819.148256304790     
   16738.926555729588     
   16658.393136615556     
   16577.507077700822     
   16496.227556691541     
   16414.513826490507     
   17660.677820733665     
   17579.465032781969     
   17497.690399383220     
   17415.350008046549     
   17332.440239534895     
   17248.957693896071     
   17164.899129854202     
   17080.261417973376     
   16995.041508035574     
   18265.595573041748     
   18182.519989637283     
   18098.478214999668     
   18013.521754254965     
   17927.702238421523     
   17841.071351658364     
   17753.680791698138     
   17665.582264548935     
   17576.827514640543     
   18873.373235992032     
   18788.144580162123     
   18701.533097691645     
   18613.663585707698     
   18524.660899451384     
   18434.649677820456     
   18343.754220583593     
   18252.098522342450     
   18159.806468780658     
   19484.273729321361     
   19396.501639379643     
   19306.934473124878     
   19215.788222106868     
   19123.279238172898     
   19029.623379344008     
   18935.035587428432     
   18839.729911834525     
   18743.919995508000     
   14106.607468471229     
   14037.899634514848     
   13968.711269384910     
   13899.071977853631     
   13829.011347375768     
   13758.558959008089     
   13687.744412543469     
   13616.597366387856     
   13545.147592735275     
   14681.264253354560     
   14609.401985860688     
   14537.062649116668     
   14464.306347263464     
   14391.193026326508     
   14317.782474673877     
   14244.134379999319     
   14170.308444915983     
   14096.364563345092     
   15257.536763032356     
   15182.378226501465     
   15106.830201535895     
   15030.965344609393     
   14954.856103592685     
   14878.574690825877     
   14802.193136944206     
   14725.783428426827     
   14649.417731958893     
   15835.317943697757     
   15756.775502458464     
   15678.001584011323     
   15599.063012740666     
   15520.026443096804     
   15440.958310756751     
   15361.924853419436     
   15282.992203785536     
   15204.226557368062     
   16414.513826490507     
   16332.548077217729     
   16250.567850235790     
   16168.615470194716     
   16086.733172708075     
   16004.963052282015     
   15923.347044775292     
   15841.926945654324     
   15760.744465352602     
   16995.041508035574     
   16909.655881930514     
   16824.522358406539     
   16739.639935771360     
   16655.007572370789     
   16570.624151568209     
   16486.488457138377     
   16402.599159462334     
   16318.954812915583     
   17576.827514640543     
   17488.063349474163     
   17399.859911816544     
   17312.153971255339     
   17224.882199437634     
   17137.981161053714     
   17051.387356646494     
   16965.037319084251     
   16878.867765590243     
   18159.806468780658     
   18067.738471301753     
   17976.576081465377     
   17886.174894936579     
   17796.390199825481     
   17707.076977885030     
   17618.090135287941     
   17529.284971035984     
   17440.517891368727     
   18743.919995508000     
   18648.652030498557     
   18554.666672351741     
   18461.719329932122     
   18369.564765940700     
   18277.957054510644     
   18186.650166880689     
   18095.399207014223     
   18003.962320069390     
 </DataArray>
 </PointData>
 </Piece>
 <Piece  NumberOfPoints="          1296 "  NumberOfCells="         1024 ">
 <Points>
 <DataArray  type="Float64" NumberOfComponents="3"  format="ascii" >
  -5.0000000000000000        2.0000000000000000        0.0000000000000000     
  -4.6875000000000000        2.0000000000000000        0.0000000000000000     
  -4.3750000000000000        2.0000000000000000        0.0000000000000000     
  -4.0625000000000000        2.0000000000000000        0.0000000000000000     
  -3.7499999999999996        2.0000000000000000        0.0000000000000000     
  -3.4375000000000000        2.0000000000000000        0.0000000000000000     
  -3.1250000000000000        2.0000000000000000        0.0000000000000000     
  -2.8124999999999996        2.0000000000000000        0.0000000000000000     
  -2.5000000000000000        2.0000000000000000        0.0000000000000000     
  -5.0000000000000000        2.0937500000000000        0.0000000000000000     
  -4.6875000000000000        2.0937500000000000        0.0000000000000000     
  -4.3750000000000000        2.0937500000000000        0.0000000000000000     
  -4.0625000000000000        2.0937500000000000        0.0000000000000000     
  -3.7499999999999996        2.0937500000000000        0.0000000000000000     
  -3.4375000000000000        2.0937500000000000        0.0000000000000000     
  -3.1250000000000000        2.0937500000000000        0.0000000000000000     
  -2.8124999999999996        2.0937500000000000        0.0000000000000000     
  -2.5000000000000000        2.0937500000000000        0.0000000000000000     
  -5.0000000000000000        2.1875000000000000        0.0000000000000000     
  -4.6875000000000000        2.1875000000000000        0.0000000000000000     
  -4.3750000000000000        2.1875000000000000        0.0000000000000000     
  -4.0625000000000000        2.1875000000000000        0.0000000000000000     
  -3.7500000000000000        2.1875000000000000        0.0000000000000000     
  -3.4375000000000000        2.1875000000000000        0.0000000000000000     
  -3.1250000000000000        2.1875000000000000        0.0000000000000000     
  -2.8124999999999996        2.1875000000000000        0.0000000000000000     
  -2.5000000000000000        2.1875000000000000        0.0000000000000000     
  -5.0000000000000000        2.2812500000000000        0.0000000000000000     
  -4.6875000000000000        2.2812500000000000        0.0000000000000000     
  -4.3750000000000000        2.2812500000000000        0.0000000000000000     
  -4.0625000000000000        2.2812500000000000        0.0000000000000000     
  -3.7500000000000000        2.2812500000000000        0.0000000000000000     
  -3.4375000000000000        2.2812500000000000        0.0000000000000000     
  -3.1250000000000000        2.2812500000000000        0.0000000000000000     
  -2.8125000000000000        2.2812500000000000        0.0000000000000000     
  -2.4999999999999996        2.2812500000000000        0.0000000000000000     
  -5.0000000000000000        2.3750000000000000        0.0000000000000000     
  -4.6875000000000000        2.3750000000000000        0.0000000000000000     
  -4.3750000000000000        2.3750000000000000        0.0000000000000000     
  -4.0624999999999991        2.3750000000000000        0.0000000000000000     
  -3.7499999999999996        2.3750000000000000        0.0000000000000000     
  -3.4374999999999996        2.3750000000000000        0.0000000000000000     
  -3.1250000000000000        2.3750000000000000        0.0000000000000000     
  -2.8124999999999996        2.3750000000000000        0.0000000000000000     
  -2.5000000000000000        2.3750000000000000        0.0000000000000000     
  -5.0000000000000000        2.4687500000000000        0.0000000000000000     
  -4.6875000000000000        2.4687500000000000        0.0000000000000000     
  -4.3750000000000000        2.4687500000000000        0.0000000000000000     
  -4.0625000000000000        2.4687500000000000        0.0000000000000000     
  -3.7499999999999996        2.4687500000000000        0.0000000000000000     
  -3.4375000000000000        2.4687500000000000        0.0000000000000000     
  -3.1250000000000000        2.4687500000000000        0.0000000000000000     
  -2.8125000000000000        2.4687500000000000        0.0000000000000000     
  -2.5000000000000000        2.4687500000000000        0.0000000000000000     
  -5.0000000000000000        2.5625000000000000        0.0000000000000000     
  -4.6875000000000000        2.5625000000000000        0.0000000000000000     
  -4.3750000000000000        2.5625000000000000        0.0000000000000000     
  -4.0625000000000000        2.5625000000000000        0.0000000000000000     
  -3.7499999999999991        2.5625000000000000        0.0000000000000000     
  -3.4375000000000000        2.5625000000000000        0.0000000000000000     
  -3.1250000000000000        2.5625000000000000        0.0000000000000000     
  -2.8124999999999996        2.5625000000000000        0.0000000000000000     
  -2.4999999999999996        2.5625000000000000        0.0000000000000000     
  -5.0000000000000000        2.6562500000000000        0.0000000000000000     
  -4.6875000000000000        2.6562500000000000        0.0000000000000000     
  -4.3750000000000000        2.6562500000000000        0.0000000000000000     
  -4.0625000000000000        2.6562500000000004        0.0000000000000000     
  -3.7500000000000000        2.6562500000000000        0.0000000000000000     
  -3.4374999999999991        2.6562500000000000        0.0000000000000000     
  -3.1250000000000004        2.6562500000000004        0.0000000000000000     
  -2.8125000000000000        2.6562500000000004        0.0000000000000000     
  -2.5000000000000004        2.6562500000000000        0.0000000000000000     
  -5.0000000000000009        2.7500000000000000        0.0000000000000000     
  -4.6875000000000000        2.7500000000000000        0.0000000000000000     
  -4.3749999999999991        2.7500000000000000        0.0000000000000000     
  -4.0625000000000000        2.7500000000000000        0.0000000000000000     
  -3.7500000000000000        2.7500000000000004        0.0000000000000000     
  -3.4374999999999996        2.7500000000000000        0.0000000000000000     
  -3.1249999999999996        2.7500000000000000        0.0000000000000000     
  -2.8125000000000004        2.7500000000000004        0.0000000000000000     
  -2.4999999999999996        2.7500000000000000        0.0000000000000000     
  -2.5000000000000000        2.0000000000000000        0.0000000000000000     
  -2.1875000000000000        2.0000000000000000        0.0000000000000000     
  -1.8749999999999998        2.0000000000000000        0.0000000000000000     
  -1.5625000000000002        2.0000000000000004        0.0000000000000000     
  -1.2500000000000000        2.0000000000000000        0.0000000000000000     
 -0.93750000000000011        2.0000000000000004        0.0000000000000000     
 -0.62499999999999989        2.0000000000000000        0.0000000000000000     
 -0.31250000000000000        2.0000000000000000        0.0000000000000000     
   0.0000000000000000        2.0000000000000004        0.0000000000000000     
  -2.5000000000000000        2.0937500000000000        0.0000000000000000     
  -2.1875000000000000        2.0937500000000000        0.0000000000000000     
  -1.8749999999999998        2.0937500000000000        0.0000000000000000     
  -1.5625000000000002        2.0937500000000004        0.0000000000000000     
  -1.2500000000000000        2.0937500000000000        0.0000000000000000     
 -0.93750000000000011        2.0937500000000000        0.0000000000000000     
 -0.62500000000000011        2.0937500000000004        0.0000000000000000     
 -0.31250000000000006        2.0937500000000000        0.0000000000000000     
   0.0000000000000000        2.0937500000000004        0.0000000000000000     
  -2.5000000000000000        2.1875000000000000        0.0000000000000000     
  -2.1875000000000000        2.1875000000000000        0.0000000000000000     
  -1.8749999999999996        2.1875000000000000        0.0000000000000000     
  -1.5624999999999998        2.1875000000000000        0.0000000000000000     
  -1.2500000000000000        2.1875000000000000        0.0000000000000000     
 -0.93750000000000011        2.1875000000000000        0.0000000000000000     
 -0.62500000000000000        2.1875000000000000        0.0000000000000000     
 -0.31250000000000000        2.1875000000000000        0.0000000000000000     
   0.0000000000000000        2.1875000000000000        0.0000000000000000     
  -2.4999999999999996        2.2812500000000000        0.0000000000000000     
  -2.1875000000000004        2.2812500000000000        0.0000000000000000     
  -1.8750000000000002        2.2812500000000000        0.0000000000000000     
  -1.5624999999999998        2.2812500000000000        0.0000000000000000     
  -1.2499999999999998        2.2812500000000000        0.0000000000000000     
 -0.93750000000000022        2.2812500000000004        0.0000000000000000     
 -0.62499999999999989        2.2812500000000000        0.0000000000000000     
 -0.31250000000000000        2.2812500000000000        0.0000000000000000     
   0.0000000000000000        2.2812500000000004        0.0000000000000000     
  -2.5000000000000000        2.3750000000000000        0.0000000000000000     
  -2.1874999999999996        2.3750000000000000        0.0000000000000000     
  -1.8749999999999998        2.3749999999999996        0.0000000000000000     
  -1.5625000000000000        2.3750000000000000        0.0000000000000000     
  -1.2500000000000000        2.3750000000000000        0.0000000000000000     
 -0.93750000000000011        2.3749999999999996        0.0000000000000000     
 -0.62500000000000011        2.3750000000000004        0.0000000000000000     
 -0.31250000000000006        2.3750000000000000        0.0000000000000000     
   0.0000000000000000        2.3749999999999996        0.0000000000000000     
  -2.5000000000000000        2.4687500000000000        0.0000000000000000     
  -2.1875000000000000        2.4687500000000000        0.0000000000000000     
  -1.8750000000000000        2.4687500000000000        0.0000000000000000     
  -1.5624999999999998        2.4687500000000000        0.0000000000000000     
  -1.2500000000000000        2.4687500000000000        0.0000000000000000     
 -0.93750000000000000        2.4687500000000004        0.0000000000000000     
 -0.62499999999999989        2.4687500000000000        0.0000000000000000     
 -0.31250000000000000        2.4687500000000000        0.0000000000000000     
   0.0000000000000000        2.4687500000000004        0.0000000000000000     
  -2.4999999999999996        2.5625000000000000        0.0000000000000000     
  -2.1875000000000000        2.5625000000000000        0.0000000000000000     
  -1.8750000000000002        2.5625000000000004        0.0000000000000000     
  -1.5625000000000002        2.5625000000000000        0.0000000000000000     
  -1.2500000000000000        2.5625000000000000        0.0000000000000000     
 -0.93750000000000000        2.5625000000000009        0.0000000000000000     
 -0.62500000000000000        2.5625000000000000        0.0000000000000000     
 -0.31250000000000000        2.5625000000000000        0.0000000000000000     
   0.0000000000000000        2.5625000000000009        0.0000000000000000     
  -2.5000000000000004        2.6562500000000000        0.0000000000000000     
  -2.1875000000000000        2.6562500000000000        0.0000000000000000     
  -1.8750000000000002        2.6562499999999996        0.0000000000000000     
  -1.5624999999999998        2.6562500000000000        0.0000000000000000     
  -1.2500000000000002        2.6562499999999996        0.0000000000000000     
 -0.93750000000000000        2.6562499999999996        0.0000000000000000     
 -0.62500000000000011        2.6562500000000000        0.0000000000000000     
 -0.31250000000000006        2.6562500000000000        0.0000000000000000     
   0.0000000000000000        2.6562499999999996        0.0000000000000000     
  -2.4999999999999996        2.7500000000000000        0.0000000000000000     
  -2.1875000000000004        2.7500000000000000        0.0000000000000000     
  -1.8750000000000002        2.7500000000000009        0.0000000000000000     
  -1.5624999999999998        2.7500000000000000        0.0000000000000000     
  -1.2500000000000000        2.7500000000000004        0.0000000000000000     
 -0.93750000000000011        2.7500000000000000        0.0000000000000000     
 -0.62500000000000000        2.7500000000000000        0.0000000000000000     
 -0.31250000000000000        2.7500000000000004        0.0000000000000000     
   0.0000000000000000        2.7500000000000004        0.0000000000000000     
   0.0000000000000000        2.0000000000000004        0.0000000000000000     
  0.31250000000000006        2.0000000000000000        0.0000000000000000     
  0.62499999999999989        2.0000000000000000        0.0000000000000000     
  0.93750000000000022        2.0000000000000004        0.0000000000000000     
   1.2500000000000000        2.0000000000000000        0.0000000000000000     
   1.5625000000000002        2.0000000000000004        0.0000000000000000     
   1.8750000000000002        2.0000000000000004        0.0000000000000000     
   2.1874999999999996        2.0000000000000000        0.0000000000000000     
   2.5000000000000000        2.0000000000000004        0.0000000000000000     
   0.0000000000000000        2.0937500000000004        0.0000000000000000     
  0.31250000000000006        2.0937500000000004        0.0000000000000000     
  0.62499999999999989        2.0937500000000000        0.0000000000000000     
  0.93750000000000011        2.0937500000000000        0.0000000000000000     
   1.2500000000000002        2.0937500000000004        0.0000000000000000     
   1.5624999999999998        2.0937500000000000        0.0000000000000000     
   1.8750000000000002        2.0937500000000004        0.0000000000000000     
   2.1875000000000004        2.0937500000000004        0.0000000000000000     
   2.5000000000000004        2.0937500000000004        0.0000000000000000     
   0.0000000000000000        2.1875000000000000        0.0000000000000000     
  0.31250000000000000        2.1875000000000000        0.0000000000000000     
  0.62500000000000000        2.1875000000000000        0.0000000000000000     
  0.93750000000000011        2.1875000000000000        0.0000000000000000     
   1.2500000000000000        2.1875000000000000        0.0000000000000000     
   1.5624999999999996        2.1875000000000000        0.0000000000000000     
   1.8750000000000000        2.1875000000000000        0.0000000000000000     
   2.1875000000000000        2.1875000000000000        0.0000000000000000     
   2.4999999999999996        2.1875000000000000        0.0000000000000000     
   0.0000000000000000        2.2812500000000004        0.0000000000000000     
  0.31250000000000006        2.2812500000000000        0.0000000000000000     
  0.62500000000000000        2.2812500000000000        0.0000000000000000     
  0.93750000000000022        2.2812500000000009        0.0000000000000000     
   1.2500000000000002        2.2812500000000000        0.0000000000000000     
   1.5625000000000000        2.2812500000000000        0.0000000000000000     
   1.8750000000000000        2.2812500000000004        0.0000000000000000     
   2.1874999999999996        2.2812500000000000        0.0000000000000000     
   2.5000000000000000        2.2812500000000000        0.0000000000000000     
   0.0000000000000000        2.3749999999999996        0.0000000000000000     
  0.31250000000000006        2.3750000000000000        0.0000000000000000     
  0.62500000000000000        2.3750000000000000        0.0000000000000000     
  0.93749999999999989        2.3749999999999996        0.0000000000000000     
   1.2500000000000002        2.3750000000000000        0.0000000000000000     
   1.5625000000000000        2.3750000000000000        0.0000000000000000     
   1.8749999999999998        2.3749999999999991        0.0000000000000000     
   2.1875000000000004        2.3750000000000004        0.0000000000000000     
   2.5000000000000000        2.3750000000000000        0.0000000000000000     
   0.0000000000000000        2.4687500000000004        0.0000000000000000     
  0.31250000000000006        2.4687500000000000        0.0000000000000000     
  0.62500000000000022        2.4687500000000000        0.0000000000000000     
  0.93750000000000011        2.4687500000000004        0.0000000000000000     
   1.2500000000000002        2.4687500000000000        0.0000000000000000     
   1.5625000000000002        2.4687500000000004        0.0000000000000000     
   1.8749999999999998        2.4687500000000000        0.0000000000000000     
   2.1875000000000000        2.4687500000000000        0.0000000000000000     
   2.5000000000000004        2.4687500000000004        0.0000000000000000     
   0.0000000000000000        2.5625000000000009        0.0000000000000000     
  0.31250000000000000        2.5625000000000000        0.0000000000000000     
  0.62500000000000000        2.5625000000000000        0.0000000000000000     
  0.93750000000000000        2.5625000000000004        0.0000000000000000     
   1.2500000000000000        2.5625000000000000        0.0000000000000000     
   1.5625000000000002        2.5625000000000000        0.0000000000000000     
   1.8750000000000004        2.5625000000000009        0.0000000000000000     
   2.1875000000000000        2.5625000000000000        0.0000000000000000     
   2.4999999999999996        2.5625000000000000        0.0000000000000000     
   0.0000000000000000        2.6562499999999996        0.0000000000000000     
  0.31250000000000006        2.6562500000000004        0.0000000000000000     
  0.62500000000000000        2.6562499999999996        0.0000000000000000     
  0.93749999999999978        2.6562499999999991        0.0000000000000000     
   1.2500000000000000        2.6562500000000004        0.0000000000000000     
   1.5625000000000000        2.6562500000000000        0.0000000000000000     
   1.8749999999999998        2.6562499999999991        0.0000000000000000     
   2.1875000000000004        2.6562500000000004        0.0000000000000000     
   2.5000000000000000        2.6562500000000000        0.0000000000000000     
   0.0000000000000000        2.7500000000000004        0.0000000000000000     
  0.31250000000000000        2.7500000000000004        0.0000000000000000     
  0.62500000000000000        2.7500000000000000        0.0000000000000000     
  0.93750000000000011        2.7500000000000004        0.0000000000000000     
   1.2500000000000002        2.7500000000000000        0.0000000000000000     
   1.5625000000000000        2.7500000000000000        0.0000000000000000     
   1.8750000000000000        2.7500000000000000        0.0000000000000000     
   2.1875000000000000        2.7500000000000004        0.0000000000000000     
   2.5000000000000000        2.7500000000000000        0.0000000000000000     
   2.5000000000000000        2.0000000000000004        0.0000000000000000     
   2.8124999999999996        2.0000000000000000        0.0000000000000000     
   3.1250000000000000        2.0000000000000000        0.0000000000000000     
   3.4375000000000000        2.0000000000000000        0.0000000000000000     
   3.7499999999999996        2.0000000000000000        0.0000000000000000     
   4.0625000000000000        2.0000000000000000        0.0000000000000000     
   4.3749999999999991        2.0000000000000000        0.0000000000000000     
   4.6875000000000000        2.0000000000000000        0.0000000000000000     
   5.0000000000000000        2.0000000000000000        0.0000000000000000     
   2.5000000000000004        2.0937500000000004        0.0000000000000000     
   2.8125000000000004        2.0937500000000000        0.0000000000000000     
   3.1250000000000000        2.0937500000000000        0.0000000000000000     
   3.4375000000000000        2.0937500000000000        0.0000000000000000     
   3.7500000000000004        2.0937500000000004        0.0000000000000000     
   4.0625000000000000        2.0937500000000000        0.0000000000000000     
   4.3750000000000000        2.0937500000000000        0.0000000000000000     
   4.6874999999999991        2.0937500000000000        0.0000000000000000     
   5.0000000000000000        2.0937500000000000        0.0000000000000000     
   2.4999999999999996        2.1875000000000000        0.0000000000000000     
   2.8124999999999996        2.1875000000000000        0.0000000000000000     
   3.1250000000000000        2.1875000000000000        0.0000000000000000     
   3.4375000000000000        2.1875000000000000        0.0000000000000000     
   3.7500000000000000        2.1875000000000000        0.0000000000000000     
   4.0625000000000000        2.1875000000000000        0.0000000000000000     
   4.3750000000000000        2.1875000000000000        0.0000000000000000     
   4.6875000000000000        2.1875000000000000        0.0000000000000000     
   5.0000000000000000        2.1875000000000000        0.0000000000000000     
   2.5000000000000000        2.2812500000000000        0.0000000000000000     
   2.8124999999999996        2.2812500000000000        0.0000000000000000     
   3.1250000000000000        2.2812500000000000        0.0000000000000000     
   3.4375000000000000        2.2812500000000000        0.0000000000000000     
   3.7499999999999996        2.2812500000000000        0.0000000000000000     
   4.0625000000000000        2.2812500000000000        0.0000000000000000     
   4.3750000000000000        2.2812500000000000        0.0000000000000000     
   4.6875000000000000        2.2812500000000000        0.0000000000000000     
   5.0000000000000000        2.2812500000000000        0.0000000000000000     
   2.5000000000000000        2.3750000000000000        0.0000000000000000     
   2.8125000000000000        2.3750000000000000        0.0000000000000000     
   3.1249999999999996        2.3750000000000000        0.0000000000000000     
   3.4375000000000000        2.3750000000000000        0.0000000000000000     
   3.7500000000000004        2.3750000000000000        0.0000000000000000     
   4.0624999999999991        2.3750000000000000        0.0000000000000000     
   4.3750000000000000        2.3750000000000000        0.0000000000000000     
   4.6874999999999991        2.3750000000000000        0.0000000000000000     
   5.0000000000000000        2.3750000000000000        0.0000000000000000     
   2.5000000000000004        2.4687500000000004        0.0000000000000000     
   2.8125000000000000        2.4687500000000000        0.0000000000000000     
   3.1250000000000000        2.4687500000000000        0.0000000000000000     
   3.4375000000000000        2.4687500000000000        0.0000000000000000     
   3.7499999999999996        2.4687500000000000        0.0000000000000000     
   4.0625000000000000        2.4687500000000000        0.0000000000000000     
   4.3749999999999991        2.4687500000000000        0.0000000000000000     
   4.6875000000000000        2.4687500000000000        0.0000000000000000     
   5.0000000000000000        2.4687500000000000        0.0000000000000000     
   2.4999999999999996        2.5625000000000000        0.0000000000000000     
   2.8124999999999996        2.5625000000000000        0.0000000000000000     
   3.1250000000000000        2.5625000000000000        0.0000000000000000     
   3.4374999999999996        2.5625000000000000        0.0000000000000000     
   3.7500000000000000        2.5625000000000000        0.0000000000000000     
   4.0625000000000000        2.5625000000000000        0.0000000000000000     
   4.3750000000000000        2.5625000000000000        0.0000000000000000     
   4.6875000000000000        2.5625000000000000        0.0000000000000000     
   5.0000000000000000        2.5625000000000000        0.0000000000000000     
   2.5000000000000000        2.6562500000000000        0.0000000000000000     
   2.8125000000000004        2.6562500000000004        0.0000000000000000     
   3.1249999999999996        2.6562499999999996        0.0000000000000000     
   3.4375000000000000        2.6562500000000000        0.0000000000000000     
   3.7500000000000004        2.6562500000000000        0.0000000000000000     
   4.0625000000000000        2.6562500000000000        0.0000000000000000     
   4.3749999999999991        2.6562500000000000        0.0000000000000000     
   4.6875000000000000        2.6562500000000000        0.0000000000000000     
   5.0000000000000000        2.6562500000000000        0.0000000000000000     
   2.5000000000000000        2.7500000000000000        0.0000000000000000     
   2.8125000000000000        2.7500000000000000        0.0000000000000000     
   3.1249999999999996        2.7499999999999996        0.0000000000000000     
   3.4375000000000000        2.7500000000000000        0.0000000000000000     
   3.7499999999999996        2.7500000000000000        0.0000000000000000     
   4.0624999999999991        2.7499999999999996        0.0000000000000000     
   4.3750000000000000        2.7499999999999996        0.0000000000000000     
   4.6875000000000009        2.7500000000000004        0.0000000000000000     
   5.0000000000000009        2.7500000000000000        0.0000000000000000     
  -5.0000000000000009        2.7500000000000000        0.0000000000000000     
  -4.6875000000000000        2.7500000000000000        0.0000000000000000     
  -4.3749999999999991        2.7500000000000000        0.0000000000000000     
  -4.0625000000000000        2.7500000000000000        0.0000000000000000     
  -3.7500000000000000        2.7500000000000004        0.0000000000000000     
  -3.4374999999999996        2.7500000000000000        0.0000000000000000     
  -3.1249999999999996        2.7500000000000000        0.0000000000000000     
  -2.8125000000000004        2.7500000000000004        0.0000000000000000     
  -2.4999999999999996        2.7500000000000000        0.0000000000000000     
  -5.0000000000000000        2.8437500000000000        0.0000000000000000     
  -4.6875000000000000        2.8437500000000000        0.0000000000000000     
  -4.3750000000000000        2.8437500000000000        0.0000000000000000     
  -4.0625000000000000        2.8437500000000000        0.0000000000000000     
  -3.7499999999999991        2.8437500000000000        0.0000000000000000     
  -3.4375000000000000        2.8437500000000000        0.0000000000000000     
  -3.1250000000000000        2.8437500000000000        0.0000000000000000     
  -2.8125000000000000        2.8437500000000000        0.0000000000000000     
  -2.4999999999999996        2.8437499999999996        0.0000000000000000     
  -4.9999999999999991        2.9375000000000000        0.0000000000000000     
  -4.6875000000000000        2.9374999999999996        0.0000000000000000     
  -4.3750000000000000        2.9375000000000000        0.0000000000000000     
  -4.0625000000000000        2.9375000000000004        0.0000000000000000     
  -3.7500000000000000        2.9375000000000000        0.0000000000000000     
  -3.4374999999999996        2.9375000000000000        0.0000000000000000     
  -3.1250000000000004        2.9375000000000004        0.0000000000000000     
  -2.8124999999999996        2.9375000000000004        0.0000000000000000     
  -2.5000000000000000        2.9375000000000000        0.0000000000000000     
  -5.0000000000000009        3.0312500000000000        0.0000000000000000     
  -4.6875000000000000        3.0312500000000004        0.0000000000000000     
  -4.3749999999999991        3.0312499999999996        0.0000000000000000     
  -4.0625000000000000        3.0312500000000000        0.0000000000000000     
  -3.7500000000000004        3.0312500000000004        0.0000000000000000     
  -3.4374999999999996        3.0312499999999996        0.0000000000000000     
  -3.1249999999999996        3.0312499999999996        0.0000000000000000     
  -2.8125000000000000        3.0312500000000004        0.0000000000000000     
  -2.5000000000000000        3.0312500000000000        0.0000000000000000     
  -5.0000000000000000        3.1250000000000000        0.0000000000000000     
  -4.6875000000000000        3.1250000000000000        0.0000000000000000     
  -4.3750000000000000        3.1250000000000000        0.0000000000000000     
  -4.0625000000000000        3.1250000000000000        0.0000000000000000     
  -3.7499999999999991        3.1249999999999996        0.0000000000000000     
  -3.4375000000000000        3.1250000000000000        0.0000000000000000     
  -3.1249999999999996        3.1250000000000000        0.0000000000000000     
  -2.8125000000000000        3.1250000000000000        0.0000000000000000     
  -2.5000000000000000        3.1250000000000000        0.0000000000000000     
  -5.0000000000000009        3.2187500000000004        0.0000000000000000     
  -4.6875000000000000        3.2187499999999996        0.0000000000000000     
  -4.3750000000000000        3.2187500000000004        0.0000000000000000     
  -4.0624999999999991        3.2187500000000004        0.0000000000000000     
  -3.7499999999999991        3.2187499999999991        0.0000000000000000     
  -3.4375000000000004        3.2187500000000004        0.0000000000000000     
  -3.1249999999999996        3.2187500000000004        0.0000000000000000     
  -2.8125000000000000        3.2187499999999996        0.0000000000000000     
  -2.5000000000000000        3.2187500000000004        0.0000000000000000     
  -5.0000000000000000        3.3124999999999996        0.0000000000000000     
  -4.6875000000000000        3.3125000000000009        0.0000000000000000     
  -4.3750000000000000        3.3124999999999996        0.0000000000000000     
  -4.0625000000000000        3.3124999999999996        0.0000000000000000     
  -3.7500000000000000        3.3125000000000004        0.0000000000000000     
  -3.4374999999999996        3.3124999999999996        0.0000000000000000     
  -3.1250000000000000        3.3125000000000000        0.0000000000000000     
  -2.8125000000000004        3.3125000000000004        0.0000000000000000     
  -2.4999999999999996        3.3125000000000000        0.0000000000000000     
  -5.0000000000000000        3.4062499999999996        0.0000000000000000     
  -4.6875000000000000        3.4062500000000000        0.0000000000000000     
  -4.3750000000000000        3.4062500000000000        0.0000000000000000     
  -4.0625000000000009        3.4062500000000009        0.0000000000000000     
  -3.7500000000000000        3.4062500000000004        0.0000000000000000     
  -3.4374999999999996        3.4062500000000000        0.0000000000000000     
  -3.1250000000000004        3.4062500000000004        0.0000000000000000     
  -2.8124999999999996        3.4062500000000000        0.0000000000000000     
  -2.5000000000000000        3.4062500000000004        0.0000000000000000     
  -5.0000000000000018        3.5000000000000004        0.0000000000000000     
  -4.6875000000000000        3.4999999999999996        0.0000000000000000     
  -4.3750000000000000        3.5000000000000004        0.0000000000000000     
  -4.0625000000000009        3.5000000000000009        0.0000000000000000     
  -3.7499999999999991        3.4999999999999991        0.0000000000000000     
  -3.4374999999999996        3.5000000000000009        0.0000000000000000     
  -3.1250000000000004        3.5000000000000009        0.0000000000000000     
  -2.8125000000000000        3.4999999999999996        0.0000000000000000     
  -2.5000000000000004        3.5000000000000009        0.0000000000000000     
  -2.4999999999999996        2.7500000000000000        0.0000000000000000     
  -2.1875000000000004        2.7500000000000000        0.0000000000000000     
  -1.8750000000000002        2.7500000000000009        0.0000000000000000     
  -1.5624999999999998        2.7500000000000000        0.0000000000000000     
  -1.2500000000000000        2.7500000000000004        0.0000000000000000     
 -0.93750000000000011        2.7500000000000000        0.0000000000000000     
 -0.62500000000000000        2.7500000000000000        0.0000000000000000     
 -0.31250000000000000        2.7500000000000004        0.0000000000000000     
   0.0000000000000000        2.7500000000000004        0.0000000000000000     
  -2.4999999999999996        2.8437499999999996        0.0000000000000000     
  -2.1874999999999996        2.8437500000000000        0.0000000000000000     
  -1.8750000000000000        2.8437500000000000        0.0000000000000000     
  -1.5625000000000000        2.8437500000000000        0.0000000000000000     
  -1.2500000000000000        2.8437500000000000        0.0000000000000000     
 -0.93749999999999978        2.8437500000000000        0.0000000000000000     
 -0.62500000000000000        2.8437500000000000        0.0000000000000000     
 -0.31250000000000006        2.8437500000000000        0.0000000000000000     
   0.0000000000000000        2.8437500000000000        0.0000000000000000     
  -2.5000000000000000        2.9375000000000000        0.0000000000000000     
  -2.1875000000000000        2.9375000000000000        0.0000000000000000     
  -1.8750000000000000        2.9375000000000000        0.0000000000000000     
  -1.5625000000000004        2.9375000000000004        0.0000000000000000     
  -1.2500000000000000        2.9375000000000000        0.0000000000000000     
 -0.93750000000000000        2.9375000000000000        0.0000000000000000     
 -0.62500000000000011        2.9375000000000004        0.0000000000000000     
 -0.31250000000000006        2.9375000000000004        0.0000000000000000     
   0.0000000000000000        2.9375000000000004        0.0000000000000000     
  -2.5000000000000000        3.0312500000000000        0.0000000000000000     
  -2.1875000000000000        3.0312500000000004        0.0000000000000000     
  -1.8750000000000004        3.0312500000000004        0.0000000000000000     
  -1.5625000000000000        3.0312500000000000        0.0000000000000000     
  -1.2500000000000000        3.0312500000000004        0.0000000000000000     
 -0.93750000000000000        3.0312500000000004        0.0000000000000000     
 -0.62500000000000000        3.0312500000000000        0.0000000000000000     
 -0.31250000000000006        3.0312500000000000        0.0000000000000000     
   0.0000000000000000        3.0312500000000004        0.0000000000000000     
  -2.5000000000000000        3.1250000000000000        0.0000000000000000     
  -2.1875000000000000        3.1250000000000000        0.0000000000000000     
  -1.8749999999999998        3.1249999999999996        0.0000000000000000     
  -1.5624999999999998        3.1249999999999996        0.0000000000000000     
  -1.2500000000000000        3.1249999999999996        0.0000000000000000     
 -0.93749999999999978        3.1249999999999996        0.0000000000000000     
 -0.62499999999999989        3.1250000000000000        0.0000000000000000     
 -0.31249999999999994        3.1250000000000000        0.0000000000000000     
   0.0000000000000000        3.1250000000000000        0.0000000000000000     
  -2.5000000000000000        3.2187500000000004        0.0000000000000000     
  -2.1874999999999996        3.2187499999999996        0.0000000000000000     
  -1.8750000000000000        3.2187500000000004        0.0000000000000000     
  -1.5625000000000000        3.2187500000000004        0.0000000000000000     
  -1.2500000000000000        3.2187499999999996        0.0000000000000000     
 -0.93750000000000000        3.2187500000000004        0.0000000000000000     
 -0.62500000000000000        3.2187500000000004        0.0000000000000000     
 -0.31250000000000000        3.2187499999999996        0.0000000000000000     
   0.0000000000000000        3.2187500000000004        0.0000000000000000     
  -2.4999999999999996        3.3125000000000000        0.0000000000000000     
  -2.1875000000000000        3.3125000000000009        0.0000000000000000     
  -1.8750000000000007        3.3125000000000009        0.0000000000000000     
  -1.5625000000000000        3.3125000000000000        0.0000000000000000     
  -1.2500000000000002        3.3125000000000004        0.0000000000000000     
 -0.93750000000000033        3.3125000000000009        0.0000000000000000     
 -0.62499999999999989        3.3125000000000000        0.0000000000000000     
 -0.31250000000000006        3.3125000000000004        0.0000000000000000     
   0.0000000000000000        3.3125000000000009        0.0000000000000000     
  -2.5000000000000000        3.4062500000000004        0.0000000000000000     
  -2.1875000000000000        3.4062499999999996        0.0000000000000000     
  -1.8749999999999998        3.4062499999999996        0.0000000000000000     
  -1.5625000000000000        3.4062500000000004        0.0000000000000000     
  -1.2500000000000000        3.4062499999999996        0.0000000000000000     
 -0.93749999999999989        3.4062499999999996        0.0000000000000000     
 -0.62500000000000011        3.4062500000000004        0.0000000000000000     
 -0.31250000000000000        3.4062499999999996        0.0000000000000000     
   0.0000000000000000        3.4062499999999996        0.0000000000000000     
  -2.5000000000000004        3.5000000000000009        0.0000000000000000     
  -2.1874999999999996        3.4999999999999996        0.0000000000000000     
  -1.8750000000000000        3.5000000000000004        0.0000000000000000     
  -1.5625000000000000        3.5000000000000004        0.0000000000000000     
  -1.2500000000000000        3.4999999999999996        0.0000000000000000     
 -0.93750000000000000        3.4999999999999996        0.0000000000000000     
 -0.62500000000000011        3.5000000000000004        0.0000000000000000     
 -0.31250000000000006        3.4999999999999996        0.0000000000000000     
   0.0000000000000000        3.5000000000000004        0.0000000000000000     
   0.0000000000000000        2.7500000000000004        0.0000000000000000     
  0.31250000000000000        2.7500000000000004        0.0000000000000000     
  0.62500000000000000        2.7500000000000000        0.0000000000000000     
  0.93750000000000011        2.7500000000000004        0.0000000000000000     
   1.2500000000000002        2.7500000000000000        0.0000000000000000     
   1.5625000000000000        2.7500000000000000        0.0000000000000000     
   1.8750000000000000        2.7500000000000000        0.0000000000000000     
   2.1875000000000000        2.7500000000000004        0.0000000000000000     
   2.5000000000000000        2.7500000000000000        0.0000000000000000     
   0.0000000000000000        2.8437500000000000        0.0000000000000000     
  0.31250000000000000        2.8437500000000000        0.0000000000000000     
  0.62500000000000000        2.8437500000000000        0.0000000000000000     
  0.93749999999999967        2.8437499999999996        0.0000000000000000     
   1.2500000000000000        2.8437500000000000        0.0000000000000000     
   1.5624999999999996        2.8437499999999996        0.0000000000000000     
   1.8750000000000000        2.8437499999999996        0.0000000000000000     
   2.1875000000000004        2.8437500000000000        0.0000000000000000     
   2.4999999999999996        2.8437500000000000        0.0000000000000000     
   0.0000000000000000        2.9375000000000004        0.0000000000000000     
  0.31250000000000011        2.9375000000000004        0.0000000000000000     
  0.62500000000000000        2.9375000000000000        0.0000000000000000     
  0.93750000000000000        2.9374999999999996        0.0000000000000000     
   1.2500000000000002        2.9375000000000004        0.0000000000000000     
   1.5625000000000000        2.9374999999999996        0.0000000000000000     
   1.8750000000000000        2.9374999999999996        0.0000000000000000     
   2.1875000000000000        2.9375000000000009        0.0000000000000000     
   2.5000000000000000        2.9375000000000000        0.0000000000000000     
   0.0000000000000000        3.0312500000000004        0.0000000000000000     
  0.31250000000000000        3.0312500000000000        0.0000000000000000     
  0.62500000000000000        3.0312500000000000        0.0000000000000000     
  0.93750000000000000        3.0312500000000004        0.0000000000000000     
   1.2500000000000002        3.0312500000000004        0.0000000000000000     
   1.5625000000000000        3.0312500000000000        0.0000000000000000     
   1.8750000000000000        3.0312500000000000        0.0000000000000000     
   2.1875000000000000        3.0312500000000004        0.0000000000000000     
   2.5000000000000000        3.0312500000000000        0.0000000000000000     
   0.0000000000000000        3.1250000000000000        0.0000000000000000     
  0.31249999999999994        3.1250000000000000        0.0000000000000000     
  0.62500000000000000        3.1250000000000000        0.0000000000000000     
  0.93749999999999978        3.1249999999999996        0.0000000000000000     
   1.2500000000000000        3.1250000000000000        0.0000000000000000     
   1.5625000000000000        3.1250000000000000        0.0000000000000000     
   1.8749999999999998        3.1249999999999996        0.0000000000000000     
   2.1875000000000000        3.1250000000000000        0.0000000000000000     
   2.4999999999999996        3.1250000000000000        0.0000000000000000     
   0.0000000000000000        3.2187500000000004        0.0000000000000000     
  0.31250000000000000        3.2187500000000004        0.0000000000000000     
  0.62500000000000000        3.2187500000000004        0.0000000000000000     
  0.93750000000000000        3.2187499999999996        0.0000000000000000     
   1.2500000000000002        3.2187500000000004        0.0000000000000000     
   1.5625000000000000        3.2187500000000004        0.0000000000000000     
   1.8750000000000000        3.2187499999999996        0.0000000000000000     
   2.1875000000000004        3.2187500000000004        0.0000000000000000     
   2.5000000000000000        3.2187500000000004        0.0000000000000000     
   0.0000000000000000        3.3125000000000009        0.0000000000000000     
  0.31250000000000006        3.3125000000000004        0.0000000000000000     
  0.62500000000000000        3.3124999999999996        0.0000000000000000     
  0.93750000000000000        3.3125000000000004        0.0000000000000000     
   1.2500000000000002        3.3125000000000004        0.0000000000000000     
   1.5625000000000000        3.3125000000000000        0.0000000000000000     
   1.8750000000000000        3.3125000000000004        0.0000000000000000     
   2.1875000000000000        3.3125000000000004        0.0000000000000000     
   2.5000000000000000        3.3125000000000000        0.0000000000000000     
   0.0000000000000000        3.4062499999999996        0.0000000000000000     
  0.31250000000000006        3.4062500000000004        0.0000000000000000     
  0.62500000000000011        3.4062500000000004        0.0000000000000000     
  0.93749999999999989        3.4062499999999996        0.0000000000000000     
   1.2500000000000002        3.4062500000000004        0.0000000000000000     
   1.5625000000000000        3.4062500000000000        0.0000000000000000     
   1.8750000000000000        3.4062499999999996        0.0000000000000000     
   2.1875000000000004        3.4062500000000004        0.0000000000000000     
   2.4999999999999996        3.4062499999999996        0.0000000000000000     
   0.0000000000000000        3.5000000000000004        0.0000000000000000     
  0.31250000000000006        3.5000000000000009        0.0000000000000000     
  0.62500000000000022        3.5000000000000004        0.0000000000000000     
  0.93750000000000000        3.4999999999999996        0.0000000000000000     
   1.2500000000000000        3.5000000000000004        0.0000000000000000     
   1.5625000000000002        3.5000000000000000        0.0000000000000000     
   1.8750000000000002        3.5000000000000004        0.0000000000000000     
   2.1875000000000004        3.5000000000000004        0.0000000000000000     
   2.5000000000000000        3.5000000000000009        0.0000000000000000     
   2.5000000000000000        2.7500000000000000        0.0000000000000000     
   2.8125000000000000        2.7500000000000000        0.0000000000000000     
   3.1249999999999996        2.7499999999999996        0.0000000000000000     
   3.4375000000000000        2.7500000000000000        0.0000000000000000     
   3.7499999999999996        2.7500000000000000        0.0000000000000000     
   4.0624999999999991        2.7499999999999996        0.0000000000000000     
   4.3750000000000000        2.7499999999999996        0.0000000000000000     
   4.6875000000000009        2.7500000000000004        0.0000000000000000     
   5.0000000000000009        2.7500000000000000        0.0000000000000000     
   2.4999999999999996        2.8437500000000000        0.0000000000000000     
   2.8125000000000000        2.8437500000000000        0.0000000000000000     
   3.1250000000000000        2.8437500000000000        0.0000000000000000     
   3.4374999999999996        2.8437500000000000        0.0000000000000000     
   3.7499999999999996        2.8437500000000000        0.0000000000000000     
   4.0625000000000000        2.8437500000000000        0.0000000000000000     
   4.3750000000000000        2.8437500000000000        0.0000000000000000     
   4.6875000000000000        2.8437500000000000        0.0000000000000000     
   5.0000000000000000        2.8437500000000000        0.0000000000000000     
   2.5000000000000000        2.9375000000000000        0.0000000000000000     
   2.8125000000000000        2.9375000000000004        0.0000000000000000     
   3.1249999999999991        2.9375000000000000        0.0000000000000000     
   3.4374999999999991        2.9375000000000000        0.0000000000000000     
   3.7500000000000000        2.9375000000000000        0.0000000000000000     
   4.0624999999999991        2.9375000000000000        0.0000000000000000     
   4.3750000000000000        2.9375000000000004        0.0000000000000000     
   4.6874999999999991        2.9374999999999996        0.0000000000000000     
   4.9999999999999991        2.9375000000000000        0.0000000000000000     
   2.5000000000000000        3.0312500000000000        0.0000000000000000     
   2.8125000000000000        3.0312500000000000        0.0000000000000000     
   3.1250000000000000        3.0312500000000004        0.0000000000000000     
   3.4375000000000000        3.0312500000000000        0.0000000000000000     
   3.7500000000000000        3.0312500000000000        0.0000000000000000     
   4.0624999999999991        3.0312500000000000        0.0000000000000000     
   4.3749999999999991        3.0312499999999996        0.0000000000000000     
   4.6875000000000000        3.0312500000000004        0.0000000000000000     
   5.0000000000000009        3.0312500000000000        0.0000000000000000     
   2.4999999999999996        3.1250000000000000        0.0000000000000000     
   2.8124999999999996        3.1250000000000000        0.0000000000000000     
   3.1249999999999996        3.1250000000000000        0.0000000000000000     
   3.4374999999999991        3.1250000000000000        0.0000000000000000     
   3.7499999999999991        3.1250000000000000        0.0000000000000000     
   4.0624999999999991        3.1250000000000000        0.0000000000000000     
   4.3749999999999991        3.1250000000000000        0.0000000000000000     
   4.6874999999999991        3.1250000000000000        0.0000000000000000     
   5.0000000000000000        3.1250000000000000        0.0000000000000000     
   2.5000000000000000        3.2187500000000004        0.0000000000000000     
   2.8125000000000000        3.2187499999999996        0.0000000000000000     
   3.1250000000000000        3.2187500000000009        0.0000000000000000     
   3.4374999999999991        3.2187500000000000        0.0000000000000000     
   3.7499999999999991        3.2187499999999996        0.0000000000000000     
   4.0625000000000009        3.2187500000000004        0.0000000000000000     
   4.3750000000000000        3.2187500000000004        0.0000000000000000     
   4.6875000000000009        3.2187500000000009        0.0000000000000000     
   5.0000000000000009        3.2187500000000004        0.0000000000000000     
   2.5000000000000000        3.3125000000000000        0.0000000000000000     
   2.8125000000000000        3.3125000000000004        0.0000000000000000     
   3.1249999999999996        3.3124999999999996        0.0000000000000000     
   3.4374999999999991        3.3125000000000000        0.0000000000000000     
   3.7500000000000000        3.3125000000000004        0.0000000000000000     
   4.0625000000000000        3.3124999999999996        0.0000000000000000     
   4.3749999999999991        3.3124999999999996        0.0000000000000000     
   4.6875000000000000        3.3125000000000009        0.0000000000000000     
   5.0000000000000000        3.3124999999999996        0.0000000000000000     
   2.4999999999999996        3.4062499999999996        0.0000000000000000     
   2.8125000000000000        3.4062500000000004        0.0000000000000000     
   3.1250000000000000        3.4062500000000000        0.0000000000000000     
   3.4374999999999996        3.4062500000000000        0.0000000000000000     
   3.7500000000000000        3.4062500000000004        0.0000000000000000     
   4.0625000000000000        3.4062500000000000        0.0000000000000000     
   4.3750000000000000        3.4062500000000000        0.0000000000000000     
   4.6875000000000000        3.4062499999999996        0.0000000000000000     
   5.0000000000000000        3.4062499999999996        0.0000000000000000     
   2.5000000000000000        3.5000000000000009        0.0000000000000000     
   2.8125000000000000        3.4999999999999996        0.0000000000000000     
   3.1250000000000000        3.5000000000000000        0.0000000000000000     
   3.4375000000000000        3.5000000000000009        0.0000000000000000     
   3.7500000000000000        3.5000000000000000        0.0000000000000000     
   4.0625000000000009        3.5000000000000009        0.0000000000000000     
   4.3750000000000000        3.5000000000000004        0.0000000000000000     
   4.6875000000000000        3.4999999999999996        0.0000000000000000     
   5.0000000000000018        3.5000000000000004        0.0000000000000000     
  -5.0000000000000018        3.5000000000000004        0.0000000000000000     
  -4.6875000000000000        3.4999999999999996        0.0000000000000000     
  -4.3750000000000000        3.5000000000000004        0.0000000000000000     
  -4.0625000000000009        3.5000000000000009        0.0000000000000000     
  -3.7499999999999991        3.4999999999999991        0.0000000000000000     
  -3.4374999999999996        3.5000000000000009        0.0000000000000000     
  -3.1250000000000004        3.5000000000000009        0.0000000000000000     
  -2.8125000000000000        3.4999999999999996        0.0000000000000000     
  -2.5000000000000004        3.5000000000000009        0.0000000000000000     
  -5.0000000000000000        3.5937499999999996        0.0000000000000000     
  -4.6874999999999991        3.5937500000000009        0.0000000000000000     
  -4.3750000000000000        3.5937499999999996        0.0000000000000000     
  -4.0625000000000000        3.5937499999999996        0.0000000000000000     
  -3.7500000000000000        3.5937500000000004        0.0000000000000000     
  -3.4374999999999996        3.5937499999999996        0.0000000000000000     
  -3.1250000000000000        3.5937500000000000        0.0000000000000000     
  -2.8125000000000000        3.5937500000000004        0.0000000000000000     
  -2.5000000000000004        3.5937500000000000        0.0000000000000000     
  -5.0000000000000000        3.6874999999999996        0.0000000000000000     
  -4.6875000000000000        3.6874999999999996        0.0000000000000000     
  -4.3749999999999991        3.6875000000000000        0.0000000000000000     
  -4.0625000000000009        3.6875000000000004        0.0000000000000000     
  -3.7500000000000000        3.6874999999999996        0.0000000000000000     
  -3.4374999999999991        3.6875000000000000        0.0000000000000000     
  -3.1250000000000004        3.6875000000000004        0.0000000000000000     
  -2.8125000000000000        3.6875000000000004        0.0000000000000000     
  -2.5000000000000000        3.6875000000000004        0.0000000000000000     
  -5.0000000000000009        3.7812500000000004        0.0000000000000000     
  -4.6875000000000009        3.7812499999999991        0.0000000000000000     
  -4.3750000000000000        3.7812500000000004        0.0000000000000000     
  -4.0625000000000000        3.7812500000000009        0.0000000000000000     
  -3.7500000000000009        3.7812500000000004        0.0000000000000000     
  -3.4375000000000000        3.7812500000000009        0.0000000000000000     
  -3.1250000000000004        3.7812500000000009        0.0000000000000000     
  -2.8124999999999996        3.7812499999999996        0.0000000000000000     
  -2.4999999999999996        3.7812500000000004        0.0000000000000000     
  -5.0000000000000000        3.8749999999999996        0.0000000000000000     
  -4.6874999999999991        3.8750000000000009        0.0000000000000000     
  -4.3750000000000000        3.8749999999999996        0.0000000000000000     
  -4.0625000000000000        3.8750000000000000        0.0000000000000000     
  -3.7500000000000000        3.8750000000000004        0.0000000000000000     
  -3.4374999999999996        3.8749999999999996        0.0000000000000000     
  -3.1250000000000000        3.8750000000000000        0.0000000000000000     
  -2.8124999999999996        3.8750000000000004        0.0000000000000000     
  -2.5000000000000004        3.8750000000000000        0.0000000000000000     
  -5.0000000000000009        3.9687500000000004        0.0000000000000000     
  -4.6875000000000000        3.9687499999999996        0.0000000000000000     
  -4.3750000000000000        3.9687500000000004        0.0000000000000000     
  -4.0625000000000000        3.9687500000000004        0.0000000000000000     
  -3.7500000000000000        3.9687500000000004        0.0000000000000000     
  -3.4375000000000004        3.9687500000000004        0.0000000000000000     
  -3.1249999999999996        3.9687499999999996        0.0000000000000000     
  -2.8125000000000000        3.9687500000000009        0.0000000000000000     
  -2.4999999999999996        3.9687500000000000        0.0000000000000000     
  -5.0000000000000009        4.0625000000000000        0.0000000000000000     
  -4.6875000000000000        4.0625000000000000        0.0000000000000000     
  -4.3750000000000000        4.0625000000000009        0.0000000000000000     
  -4.0625000000000000        4.0625000000000000        0.0000000000000000     
  -3.7499999999999996        4.0625000000000009        0.0000000000000000     
  -3.4375000000000004        4.0625000000000009        0.0000000000000000     
  -3.1250000000000004        4.0625000000000000        0.0000000000000000     
  -2.8125000000000000        4.0625000000000009        0.0000000000000000     
  -2.4999999999999996        4.0625000000000000        0.0000000000000000     
  -5.0000000000000000        4.1562500000000000        0.0000000000000000     
  -4.6874999999999991        4.1562499999999991        0.0000000000000000     
  -4.3750000000000000        4.1562500000000009        0.0000000000000000     
  -4.0625000000000000        4.1562500000000000        0.0000000000000000     
  -3.7499999999999996        4.1562500000000000        0.0000000000000000     
  -3.4375000000000000        4.1562500000000000        0.0000000000000000     
  -3.1250000000000000        4.1562500000000000        0.0000000000000000     
  -2.8124999999999996        4.1562500000000000        0.0000000000000000     
  -2.4999999999999996        4.1562500000000000        0.0000000000000000     
  -5.0000000000000000        4.2500000000000000        0.0000000000000000     
  -4.6875000000000000        4.2499999999999991        0.0000000000000000     
  -4.3750000000000000        4.2500000000000000        0.0000000000000000     
  -4.0625000000000000        4.2500000000000000        0.0000000000000000     
  -3.7499999999999991        4.2500000000000000        0.0000000000000000     
  -3.4375000000000004        4.2500000000000000        0.0000000000000000     
  -3.1249999999999996        4.2499999999999991        0.0000000000000000     
  -2.8124999999999991        4.2500000000000000        0.0000000000000000     
  -2.4999999999999996        4.2500000000000000        0.0000000000000000     
  -2.5000000000000004        3.5000000000000009        0.0000000000000000     
  -2.1874999999999996        3.4999999999999996        0.0000000000000000     
  -1.8750000000000000        3.5000000000000004        0.0000000000000000     
  -1.5625000000000000        3.5000000000000004        0.0000000000000000     
  -1.2500000000000000        3.4999999999999996        0.0000000000000000     
 -0.93750000000000000        3.4999999999999996        0.0000000000000000     
 -0.62500000000000011        3.5000000000000004        0.0000000000000000     
 -0.31250000000000006        3.4999999999999996        0.0000000000000000     
   0.0000000000000000        3.5000000000000004        0.0000000000000000     
  -2.5000000000000004        3.5937500000000000        0.0000000000000000     
  -2.1875000000000004        3.5937500000000009        0.0000000000000000     
  -1.8750000000000002        3.5937500000000009        0.0000000000000000     
  -1.5625000000000000        3.5937500000000000        0.0000000000000000     
  -1.2500000000000002        3.5937500000000004        0.0000000000000000     
 -0.93750000000000000        3.5937500000000004        0.0000000000000000     
 -0.62500000000000000        3.5937500000000004        0.0000000000000000     
 -0.31250000000000011        3.5937500000000004        0.0000000000000000     
   0.0000000000000000        3.5937499999999996        0.0000000000000000     
  -2.5000000000000000        3.6875000000000004        0.0000000000000000     
  -2.1875000000000000        3.6874999999999996        0.0000000000000000     
  -1.8749999999999998        3.6875000000000000        0.0000000000000000     
  -1.5625000000000004        3.6875000000000013        0.0000000000000000     
  -1.2500000000000000        3.6874999999999996        0.0000000000000000     
 -0.93750000000000000        3.6875000000000004        0.0000000000000000     
 -0.62500000000000022        3.6875000000000004        0.0000000000000000     
 -0.31250000000000006        3.6875000000000004        0.0000000000000000     
   0.0000000000000000        3.6875000000000004        0.0000000000000000     
  -2.4999999999999996        3.7812500000000004        0.0000000000000000     
  -2.1875000000000000        3.7812499999999991        0.0000000000000000     
  -1.8750000000000000        3.7812499999999996        0.0000000000000000     
  -1.5625000000000000        3.7812500000000004        0.0000000000000000     
  -1.2500000000000000        3.7812499999999996        0.0000000000000000     
 -0.93750000000000000        3.7812499999999996        0.0000000000000000     
 -0.62500000000000000        3.7812500000000004        0.0000000000000000     
 -0.31250000000000000        3.7812499999999991        0.0000000000000000     
   0.0000000000000000        3.7812499999999987        0.0000000000000000     
  -2.5000000000000004        3.8750000000000000        0.0000000000000000     
  -2.1874999999999996        3.8750000000000013        0.0000000000000000     
  -1.8750000000000000        3.8750000000000004        0.0000000000000000     
  -1.5625000000000000        3.8750000000000000        0.0000000000000000     
  -1.2500000000000004        3.8750000000000009        0.0000000000000000     
 -0.93750000000000000        3.8750000000000004        0.0000000000000000     
 -0.62500000000000000        3.8750000000000004        0.0000000000000000     
 -0.31250000000000011        3.8750000000000004        0.0000000000000000     
   0.0000000000000000        3.8750000000000000        0.0000000000000000     
  -2.4999999999999996        3.9687500000000000        0.0000000000000000     
  -2.1875000000000000        3.9687500000000000        0.0000000000000000     
  -1.8750000000000000        3.9687500000000000        0.0000000000000000     
  -1.5625000000000000        3.9687500000000000        0.0000000000000000     
  -1.2500000000000000        3.9687500000000004        0.0000000000000000     
 -0.93750000000000000        3.9687500000000004        0.0000000000000000     
 -0.62500000000000000        3.9687500000000000        0.0000000000000000     
 -0.31250000000000006        3.9687500000000000        0.0000000000000000     
   0.0000000000000000        3.9687500000000004        0.0000000000000000     
  -2.4999999999999996        4.0625000000000000        0.0000000000000000     
  -2.1875000000000000        4.0624999999999991        0.0000000000000000     
  -1.8750000000000000        4.0625000000000000        0.0000000000000000     
  -1.5625000000000004        4.0625000000000009        0.0000000000000000     
  -1.2499999999999998        4.0624999999999991        0.0000000000000000     
 -0.93750000000000000        4.0625000000000009        0.0000000000000000     
 -0.62500000000000011        4.0625000000000000        0.0000000000000000     
 -0.31250000000000006        4.0624999999999991        0.0000000000000000     
   0.0000000000000000        4.0625000000000000        0.0000000000000000     
  -2.4999999999999996        4.1562500000000000        0.0000000000000000     
  -2.1875000000000000        4.1562500000000009        0.0000000000000000     
  -1.8750000000000000        4.1562499999999991        0.0000000000000000     
  -1.5624999999999996        4.1562499999999991        0.0000000000000000     
  -1.2500000000000002        4.1562500000000018        0.0000000000000000     
 -0.93749999999999989        4.1562499999999991        0.0000000000000000     
 -0.62499999999999989        4.1562500000000000        0.0000000000000000     
 -0.31250000000000006        4.1562500000000018        0.0000000000000000     
   0.0000000000000000        4.1562500000000000        0.0000000000000000     
  -2.4999999999999996        4.2500000000000000        0.0000000000000000     
  -2.1875000000000004        4.2500000000000009        0.0000000000000000     
  -1.8750000000000000        4.2500000000000000        0.0000000000000000     
  -1.5625000000000000        4.2500000000000000        0.0000000000000000     
  -1.2500000000000000        4.2500000000000009        0.0000000000000000     
 -0.93750000000000000        4.2500000000000009        0.0000000000000000     
 -0.62500000000000000        4.2499999999999991        0.0000000000000000     
 -0.31250000000000006        4.2500000000000009        0.0000000000000000     
   0.0000000000000000        4.2500000000000009        0.0000000000000000     
   0.0000000000000000        3.5000000000000004        0.0000000000000000     
  0.31250000000000006        3.5000000000000009        0.0000000000000000     
  0.62500000000000022        3.5000000000000004        0.0000000000000000     
  0.93750000000000000        3.4999999999999996        0.0000000000000000     
   1.2500000000000000        3.5000000000000004        0.0000000000000000     
   1.5625000000000002        3.5000000000000000        0.0000000000000000     
   1.8750000000000002        3.5000000000000004        0.0000000000000000     
   2.1875000000000004        3.5000000000000004        0.0000000000000000     
   2.5000000000000000        3.5000000000000009        0.0000000000000000     
   0.0000000000000000        3.5937499999999996        0.0000000000000000     
  0.31250000000000000        3.5937500000000009        0.0000000000000000     
  0.62500000000000000        3.5937500000000004        0.0000000000000000     
  0.93750000000000000        3.5937500000000004        0.0000000000000000     
   1.2500000000000002        3.5937500000000004        0.0000000000000000     
   1.5624999999999998        3.5937500000000000        0.0000000000000000     
   1.8750000000000002        3.5937500000000009        0.0000000000000000     
   2.1875000000000000        3.5937500000000013        0.0000000000000000     
   2.5000000000000004        3.5937500000000000        0.0000000000000000     
   0.0000000000000000        3.6875000000000004        0.0000000000000000     
  0.31250000000000011        3.6875000000000000        0.0000000000000000     
  0.62500000000000000        3.6875000000000000        0.0000000000000000     
  0.93750000000000000        3.6875000000000004        0.0000000000000000     
   1.2500000000000002        3.6875000000000004        0.0000000000000000     
   1.5625000000000000        3.6875000000000000        0.0000000000000000     
   1.8750000000000000        3.6875000000000004        0.0000000000000000     
   2.1875000000000004        3.6875000000000004        0.0000000000000000     
   2.5000000000000000        3.6875000000000000        0.0000000000000000     
   0.0000000000000000        3.7812499999999987        0.0000000000000000     
  0.31250000000000006        3.7812499999999996        0.0000000000000000     
  0.62500000000000000        3.7812500000000000        0.0000000000000000     
  0.93749999999999989        3.7812499999999991        0.0000000000000000     
   1.2499999999999998        3.7812499999999996        0.0000000000000000     
   1.5625000000000002        3.7812500000000000        0.0000000000000000     
   1.8749999999999998        3.7812499999999987        0.0000000000000000     
   2.1874999999999996        3.7812499999999996        0.0000000000000000     
   2.5000000000000000        3.7812500000000004        0.0000000000000000     
   0.0000000000000000        3.8750000000000000        0.0000000000000000     
  0.31250000000000006        3.8750000000000004        0.0000000000000000     
  0.62500000000000000        3.8750000000000004        0.0000000000000000     
  0.93750000000000011        3.8750000000000004        0.0000000000000000     
   1.2500000000000002        3.8750000000000009        0.0000000000000000     
   1.5625000000000000        3.8750000000000000        0.0000000000000000     
   1.8750000000000004        3.8750000000000004        0.0000000000000000     
   2.1875000000000000        3.8750000000000009        0.0000000000000000     
   2.5000000000000000        3.8750000000000000        0.0000000000000000     
   0.0000000000000000        3.9687500000000004        0.0000000000000000     
  0.31250000000000000        3.9687500000000000        0.0000000000000000     
  0.62500000000000000        3.9687500000000000        0.0000000000000000     
  0.93750000000000000        3.9687500000000004        0.0000000000000000     
   1.2500000000000000        3.9687500000000000        0.0000000000000000     
   1.5625000000000000        3.9687500000000000        0.0000000000000000     
   1.8750000000000000        3.9687500000000004        0.0000000000000000     
   2.1875000000000004        3.9687499999999996        0.0000000000000000     
   2.5000000000000000        3.9687500000000004        0.0000000000000000     
   0.0000000000000000        4.0625000000000000        0.0000000000000000     
  0.31250000000000000        4.0624999999999991        0.0000000000000000     
  0.62500000000000011        4.0625000000000009        0.0000000000000000     
  0.93749999999999989        4.0625000000000000        0.0000000000000000     
   1.2499999999999998        4.0624999999999991        0.0000000000000000     
   1.5625000000000004        4.0625000000000009        0.0000000000000000     
   1.8749999999999998        4.0625000000000009        0.0000000000000000     
   2.1875000000000000        4.0624999999999991        0.0000000000000000     
   2.5000000000000000        4.0625000000000000        0.0000000000000000     
   0.0000000000000000        4.1562500000000000        0.0000000000000000     
  0.31250000000000006        4.1562500000000009        0.0000000000000000     
  0.62500000000000000        4.1562500000000018        0.0000000000000000     
  0.93749999999999989        4.1562500000000000        0.0000000000000000     
   1.2500000000000002        4.1562500000000009        0.0000000000000000     
   1.5624999999999998        4.1562500000000009        0.0000000000000000     
   1.8750000000000000        4.1562500000000000        0.0000000000000000     
   2.1875000000000000        4.1562500000000000        0.0000000000000000     
   2.5000000000000004        4.1562500000000009        0.0000000000000000     
   0.0000000000000000        4.2500000000000009        0.0000000000000000     
  0.31250000000000006        4.2500000000000000        0.0000000000000000     
  0.62500000000000011        4.2500000000000000        0.0000000000000000     
  0.93750000000000000        4.2500000000000009        0.0000000000000000     
   1.2500000000000000        4.2500000000000000        0.0000000000000000     
   1.5625000000000000        4.2500000000000009        0.0000000000000000     
   1.8750000000000000        4.2500000000000009        0.0000000000000000     
   2.1875000000000004        4.2500000000000009        0.0000000000000000     
   2.5000000000000000        4.2500000000000009        0.0000000000000000     
   2.5000000000000000        3.5000000000000009        0.0000000000000000     
   2.8125000000000000        3.4999999999999996        0.0000000000000000     
   3.1250000000000000        3.5000000000000000        0.0000000000000000     
   3.4375000000000000        3.5000000000000009        0.0000000000000000     
   3.7500000000000000        3.5000000000000000        0.0000000000000000     
   4.0625000000000009        3.5000000000000009        0.0000000000000000     
   4.3750000000000000        3.5000000000000004        0.0000000000000000     
   4.6875000000000000        3.4999999999999996        0.0000000000000000     
   5.0000000000000018        3.5000000000000004        0.0000000000000000     
   2.5000000000000004        3.5937500000000000        0.0000000000000000     
   2.8125000000000000        3.5937500000000004        0.0000000000000000     
   3.1249999999999996        3.5937499999999996        0.0000000000000000     
   3.4374999999999996        3.5937499999999991        0.0000000000000000     
   3.7500000000000000        3.5937500000000009        0.0000000000000000     
   4.0624999999999991        3.5937499999999996        0.0000000000000000     
   4.3750000000000000        3.5937499999999996        0.0000000000000000     
   4.6874999999999991        3.5937500000000009        0.0000000000000000     
   5.0000000000000000        3.5937499999999996        0.0000000000000000     
   2.5000000000000000        3.6875000000000000        0.0000000000000000     
   2.8125000000000000        3.6875000000000000        0.0000000000000000     
   3.1249999999999996        3.6875000000000000        0.0000000000000000     
   3.4374999999999991        3.6875000000000000        0.0000000000000000     
   3.7500000000000000        3.6875000000000000        0.0000000000000000     
   4.0625000000000000        3.6875000000000000        0.0000000000000000     
   4.3750000000000000        3.6875000000000004        0.0000000000000000     
   4.6874999999999991        3.6874999999999996        0.0000000000000000     
   5.0000000000000000        3.6874999999999996        0.0000000000000000     
   2.5000000000000000        3.7812500000000004        0.0000000000000000     
   2.8125000000000000        3.7812500000000000        0.0000000000000000     
   3.1250000000000000        3.7812500000000004        0.0000000000000000     
   3.4375000000000000        3.7812500000000009        0.0000000000000000     
   3.7500000000000000        3.7812500000000000        0.0000000000000000     
   4.0625000000000009        3.7812500000000004        0.0000000000000000     
   4.3750000000000000        3.7812500000000004        0.0000000000000000     
   4.6875000000000000        3.7812499999999991        0.0000000000000000     
   5.0000000000000009        3.7812500000000004        0.0000000000000000     
   2.5000000000000000        3.8750000000000000        0.0000000000000000     
   2.8125000000000000        3.8750000000000009        0.0000000000000000     
   3.1249999999999996        3.8750000000000000        0.0000000000000000     
   3.4374999999999996        3.8749999999999996        0.0000000000000000     
   3.7500000000000000        3.8750000000000009        0.0000000000000000     
   4.0625000000000000        3.8750000000000000        0.0000000000000000     
   4.3750000000000009        3.8749999999999996        0.0000000000000000     
   4.6874999999999991        3.8750000000000009        0.0000000000000000     
   5.0000000000000000        3.8749999999999996        0.0000000000000000     
   2.5000000000000000        3.9687500000000004        0.0000000000000000     
   2.8125000000000000        3.9687499999999991        0.0000000000000000     
   3.1250000000000000        3.9687500000000004        0.0000000000000000     
   3.4375000000000000        3.9687500000000004        0.0000000000000000     
   3.7499999999999987        3.9687499999999991        0.0000000000000000     
   4.0625000000000000        3.9687500000000004        0.0000000000000000     
   4.3750000000000000        3.9687500000000004        0.0000000000000000     
   4.6875000000000009        3.9687500000000009        0.0000000000000000     
   5.0000000000000009        3.9687500000000004        0.0000000000000000     
   2.5000000000000000        4.0625000000000000        0.0000000000000000     
   2.8125000000000000        4.0625000000000009        0.0000000000000000     
   3.1249999999999996        4.0625000000000000        0.0000000000000000     
   3.4375000000000004        4.0625000000000009        0.0000000000000000     
   3.7499999999999996        4.0625000000000000        0.0000000000000000     
   4.0625000000000000        4.0625000000000009        0.0000000000000000     
   4.3749999999999991        4.0625000000000009        0.0000000000000000     
   4.6874999999999991        4.0625000000000000        0.0000000000000000     
   5.0000000000000009        4.0625000000000000        0.0000000000000000     
   2.5000000000000004        4.1562500000000009        0.0000000000000000     
   2.8124999999999996        4.1562499999999982        0.0000000000000000     
   3.1250000000000000        4.1562500000000009        0.0000000000000000     
   3.4374999999999991        4.1562500000000000        0.0000000000000000     
   3.7499999999999996        4.1562499999999991        0.0000000000000000     
   4.0625000000000009        4.1562500000000009        0.0000000000000000     
   4.3750000000000009        4.1562500000000000        0.0000000000000000     
   4.6874999999999991        4.1562500000000009        0.0000000000000000     
   5.0000000000000000        4.1562500000000000        0.0000000000000000     
   2.5000000000000000        4.2500000000000009        0.0000000000000000     
   2.8124999999999991        4.2499999999999982        0.0000000000000000     
   3.1250000000000000        4.2500000000000009        0.0000000000000000     
   3.4375000000000009        4.2500000000000009        0.0000000000000000     
   3.7499999999999991        4.2499999999999991        0.0000000000000000     
   4.0625000000000000        4.2500000000000009        0.0000000000000000     
   4.3750000000000000        4.2500000000000000        0.0000000000000000     
   4.6875000000000000        4.2500000000000000        0.0000000000000000     
   5.0000000000000000        4.2500000000000000        0.0000000000000000     
  -5.0000000000000000        4.2500000000000000        0.0000000000000000     
  -4.6875000000000000        4.2499999999999991        0.0000000000000000     
  -4.3750000000000000        4.2500000000000000        0.0000000000000000     
  -4.0625000000000000        4.2500000000000000        0.0000000000000000     
  -3.7499999999999991        4.2500000000000000        0.0000000000000000     
  -3.4375000000000004        4.2500000000000000        0.0000000000000000     
  -3.1249999999999996        4.2499999999999991        0.0000000000000000     
  -2.8124999999999991        4.2500000000000000        0.0000000000000000     
  -2.4999999999999996        4.2500000000000000        0.0000000000000000     
  -5.0000000000000000        4.3437500000000000        0.0000000000000000     
  -4.6874999999999991        4.3437500000000000        0.0000000000000000     
  -4.3750000000000000        4.3437500000000000        0.0000000000000000     
  -4.0625000000000000        4.3437500000000000        0.0000000000000000     
  -3.7500000000000000        4.3437500000000000        0.0000000000000000     
  -3.4374999999999996        4.3437500000000000        0.0000000000000000     
  -3.1250000000000000        4.3437500000000009        0.0000000000000000     
  -2.8125000000000000        4.3437500000000000        0.0000000000000000     
  -2.5000000000000004        4.3437500000000009        0.0000000000000000     
  -5.0000000000000000        4.4375000000000000        0.0000000000000000     
  -4.6875000000000000        4.4375000000000000        0.0000000000000000     
  -4.3750000000000000        4.4375000000000000        0.0000000000000000     
  -4.0625000000000000        4.4375000000000000        0.0000000000000000     
  -3.7499999999999991        4.4375000000000000        0.0000000000000000     
  -3.4375000000000000        4.4375000000000000        0.0000000000000000     
  -3.1250000000000000        4.4375000000000000        0.0000000000000000     
  -2.8124999999999996        4.4375000000000000        0.0000000000000000     
  -2.4999999999999996        4.4375000000000000        0.0000000000000000     
  -5.0000000000000000        4.5312500000000000        0.0000000000000000     
  -4.6875000000000009        4.5312500000000009        0.0000000000000000     
  -4.3750000000000000        4.5312500000000000        0.0000000000000000     
  -4.0625000000000000        4.5312500000000000        0.0000000000000000     
  -3.7499999999999996        4.5312500000000000        0.0000000000000000     
  -3.4375000000000000        4.5312500000000000        0.0000000000000000     
  -3.1250000000000000        4.5312500000000000        0.0000000000000000     
  -2.8125000000000000        4.5312500000000000        0.0000000000000000     
  -2.5000000000000000        4.5312500000000000        0.0000000000000000     
  -5.0000000000000000        4.6250000000000000        0.0000000000000000     
  -4.6874999999999991        4.6249999999999991        0.0000000000000000     
  -4.3750000000000000        4.6250000000000000        0.0000000000000000     
  -4.0625000000000000        4.6250000000000000        0.0000000000000000     
  -3.7500000000000000        4.6250000000000000        0.0000000000000000     
  -3.4374999999999996        4.6250000000000000        0.0000000000000000     
  -3.1250000000000000        4.6250000000000000        0.0000000000000000     
  -2.8125000000000000        4.6250000000000000        0.0000000000000000     
  -2.5000000000000000        4.6250000000000000        0.0000000000000000     
  -5.0000000000000000        4.7187500000000000        0.0000000000000000     
  -4.6875000000000000        4.7187500000000000        0.0000000000000000     
  -4.3750000000000000        4.7187500000000000        0.0000000000000000     
  -4.0625000000000000        4.7187500000000000        0.0000000000000000     
  -3.7499999999999996        4.7187500000000000        0.0000000000000000     
  -3.4375000000000000        4.7187500000000000        0.0000000000000000     
  -3.1250000000000000        4.7187500000000000        0.0000000000000000     
  -2.8125000000000000        4.7187500000000000        0.0000000000000000     
  -2.4999999999999996        4.7187500000000000        0.0000000000000000     
  -5.0000000000000000        4.8125000000000000        0.0000000000000000     
  -4.6875000000000000        4.8125000000000000        0.0000000000000000     
  -4.3750000000000000        4.8125000000000000        0.0000000000000000     
  -4.0624999999999991        4.8125000000000000        0.0000000000000000     
  -3.7500000000000000        4.8125000000000000        0.0000000000000000     
  -3.4375000000000000        4.8125000000000000        0.0000000000000000     
  -3.1250000000000000        4.8125000000000000        0.0000000000000000     
  -2.8124999999999996        4.8125000000000000        0.0000000000000000     
  -2.4999999999999991        4.8125000000000000        0.0000000000000000     
  -5.0000000000000000        4.9062500000000000        0.0000000000000000     
  -4.6875000000000000        4.9062500000000000        0.0000000000000000     
  -4.3750000000000000        4.9062500000000000        0.0000000000000000     
  -4.0625000000000000        4.9062500000000000        0.0000000000000000     
  -3.7500000000000000        4.9062500000000000        0.0000000000000000     
  -3.4375000000000000        4.9062500000000000        0.0000000000000000     
  -3.1250000000000000        4.9062500000000000        0.0000000000000000     
  -2.8124999999999996        4.9062500000000000        0.0000000000000000     
  -2.5000000000000000        4.9062500000000000        0.0000000000000000     
  -5.0000000000000000        5.0000000000000000        0.0000000000000000     
  -4.6875000000000000        5.0000000000000000        0.0000000000000000     
  -4.3750000000000000        5.0000000000000000        0.0000000000000000     
  -4.0625000000000000        5.0000000000000000        0.0000000000000000     
  -3.7499999999999996        5.0000000000000000        0.0000000000000000     
  -3.4375000000000000        5.0000000000000000        0.0000000000000000     
  -3.1250000000000000        5.0000000000000000        0.0000000000000000     
  -2.8124999999999996        5.0000000000000000        0.0000000000000000     
  -2.5000000000000000        5.0000000000000009        0.0000000000000000     
  -2.4999999999999996        4.2500000000000000        0.0000000000000000     
  -2.1875000000000004        4.2500000000000009        0.0000000000000000     
  -1.8750000000000000        4.2500000000000000        0.0000000000000000     
  -1.5625000000000000        4.2500000000000000        0.0000000000000000     
  -1.2500000000000000        4.2500000000000009        0.0000000000000000     
 -0.93750000000000000        4.2500000000000009        0.0000000000000000     
 -0.62500000000000000        4.2499999999999991        0.0000000000000000     
 -0.31250000000000006        4.2500000000000009        0.0000000000000000     
   0.0000000000000000        4.2500000000000009        0.0000000000000000     
  -2.5000000000000004        4.3437500000000009        0.0000000000000000     
  -2.1875000000000004        4.3437500000000000        0.0000000000000000     
  -1.8750000000000000        4.3437500000000000        0.0000000000000000     
  -1.5625000000000000        4.3437500000000009        0.0000000000000000     
  -1.2500000000000002        4.3437500000000000        0.0000000000000000     
 -0.93750000000000000        4.3437499999999991        0.0000000000000000     
 -0.62500000000000000        4.3437500000000009        0.0000000000000000     
 -0.31250000000000006        4.3437500000000000        0.0000000000000000     
   0.0000000000000000        4.3437499999999991        0.0000000000000000     
  -2.4999999999999996        4.4375000000000000        0.0000000000000000     
  -2.1875000000000000        4.4375000000000000        0.0000000000000000     
  -1.8750000000000000        4.4375000000000000        0.0000000000000000     
  -1.5625000000000002        4.4375000000000000        0.0000000000000000     
  -1.2500000000000000        4.4375000000000000        0.0000000000000000     
 -0.93749999999999989        4.4375000000000000        0.0000000000000000     
 -0.62500000000000000        4.4375000000000000        0.0000000000000000     
 -0.31250000000000000        4.4375000000000000        0.0000000000000000     
   0.0000000000000000        4.4375000000000000        0.0000000000000000     
  -2.5000000000000000        4.5312500000000000        0.0000000000000000     
  -2.1875000000000004        4.5312500000000000        0.0000000000000000     
  -1.8749999999999998        4.5312500000000009        0.0000000000000000     
  -1.5624999999999998        4.5312500000000000        0.0000000000000000     
  -1.2500000000000000        4.5312500000000000        0.0000000000000000     
 -0.93749999999999978        4.5312500000000000        0.0000000000000000     
 -0.62500000000000000        4.5312500000000000        0.0000000000000000     
 -0.31250000000000000        4.5312500000000000        0.0000000000000000     
   0.0000000000000000        4.5312500000000018        0.0000000000000000     
  -2.5000000000000000        4.6250000000000000        0.0000000000000000     
  -2.1875000000000000        4.6250000000000000        0.0000000000000000     
  -1.8750000000000002        4.6250000000000000        0.0000000000000000     
  -1.5624999999999998        4.6249999999999991        0.0000000000000000     
  -1.2500000000000002        4.6250000000000000        0.0000000000000000     
 -0.93750000000000011        4.6249999999999991        0.0000000000000000     
 -0.62500000000000000        4.6250000000000000        0.0000000000000000     
 -0.31250000000000011        4.6250000000000000        0.0000000000000000     
   0.0000000000000000        4.6250000000000000        0.0000000000000000     
  -2.4999999999999996        4.7187500000000000        0.0000000000000000     
  -2.1875000000000000        4.7187500000000000        0.0000000000000000     
  -1.8750000000000000        4.7187499999999991        0.0000000000000000     
  -1.5625000000000000        4.7187500000000009        0.0000000000000000     
  -1.2500000000000000        4.7187500000000000        0.0000000000000000     
 -0.93749999999999978        4.7187500000000000        0.0000000000000000     
 -0.62500000000000000        4.7187500000000000        0.0000000000000000     
 -0.31250000000000000        4.7187500000000000        0.0000000000000000     
   0.0000000000000000        4.7187500000000000        0.0000000000000000     
  -2.4999999999999991        4.8125000000000000        0.0000000000000000     
  -2.1875000000000000        4.8125000000000000        0.0000000000000000     
  -1.8750000000000002        4.8125000000000018        0.0000000000000000     
  -1.5624999999999998        4.8124999999999991        0.0000000000000000     
  -1.2499999999999998        4.8125000000000000        0.0000000000000000     
 -0.93750000000000011        4.8125000000000009        0.0000000000000000     
 -0.62499999999999989        4.8125000000000000        0.0000000000000000     
 -0.31250000000000000        4.8125000000000000        0.0000000000000000     
   0.0000000000000000        4.8125000000000018        0.0000000000000000     
  -2.5000000000000000        4.9062500000000000        0.0000000000000000     
  -2.1875000000000000        4.9062500000000000        0.0000000000000000     
  -1.8749999999999998        4.9062499999999991        0.0000000000000000     
  -1.5624999999999998        4.9062500000000000        0.0000000000000000     
  -1.2500000000000002        4.9062500000000000        0.0000000000000000     
 -0.93749999999999978        4.9062499999999991        0.0000000000000000     
 -0.62500000000000011        4.9062500000000009        0.0000000000000000     
 -0.31250000000000006        4.9062500000000000        0.0000000000000000     
   0.0000000000000000        4.9062499999999973        0.0000000000000000     
  -2.5000000000000000        5.0000000000000009        0.0000000000000000     
  -2.1875000000000000        5.0000000000000000        0.0000000000000000     
  -1.8749999999999998        4.9999999999999991        0.0000000000000000     
  -1.5625000000000002        5.0000000000000009        0.0000000000000000     
  -1.2500000000000000        5.0000000000000000        0.0000000000000000     
 -0.93750000000000011        5.0000000000000009        0.0000000000000000     
 -0.62499999999999989        5.0000000000000000        0.0000000000000000     
 -0.31250000000000000        5.0000000000000000        0.0000000000000000     
   0.0000000000000000        5.0000000000000018        0.0000000000000000     
   0.0000000000000000        4.2500000000000009        0.0000000000000000     
  0.31250000000000006        4.2500000000000000        0.0000000000000000     
  0.62500000000000011        4.2500000000000000        0.0000000000000000     
  0.93750000000000000        4.2500000000000009        0.0000000000000000     
   1.2500000000000000        4.2500000000000000        0.0000000000000000     
   1.5625000000000000        4.2500000000000009        0.0000000000000000     
   1.8750000000000000        4.2500000000000009        0.0000000000000000     
   2.1875000000000004        4.2500000000000009        0.0000000000000000     
   2.5000000000000000        4.2500000000000009        0.0000000000000000     
   0.0000000000000000        4.3437499999999991        0.0000000000000000     
  0.31250000000000000        4.3437500000000009        0.0000000000000000     
  0.62500000000000000        4.3437500000000000        0.0000000000000000     
  0.93750000000000000        4.3437499999999991        0.0000000000000000     
   1.2500000000000002        4.3437500000000009        0.0000000000000000     
   1.5625000000000000        4.3437499999999991        0.0000000000000000     
   1.8750000000000002        4.3437500000000000        0.0000000000000000     
   2.1875000000000000        4.3437500000000000        0.0000000000000000     
   2.4999999999999991        4.3437499999999991        0.0000000000000000     
   0.0000000000000000        4.4375000000000000        0.0000000000000000     
  0.31250000000000000        4.4375000000000000        0.0000000000000000     
  0.62500000000000000        4.4375000000000000        0.0000000000000000     
  0.93749999999999989        4.4375000000000000        0.0000000000000000     
   1.2500000000000000        4.4375000000000000        0.0000000000000000     
   1.5624999999999998        4.4374999999999991        0.0000000000000000     
   1.8750000000000000        4.4375000000000000        0.0000000000000000     
   2.1875000000000000        4.4375000000000000        0.0000000000000000     
   2.4999999999999996        4.4375000000000000        0.0000000000000000     
   0.0000000000000000        4.5312500000000018        0.0000000000000000     
  0.31249999999999994        4.5312500000000000        0.0000000000000000     
  0.62500000000000000        4.5312499999999991        0.0000000000000000     
  0.93750000000000011        4.5312500000000018        0.0000000000000000     
   1.2499999999999998        4.5312500000000000        0.0000000000000000     
   1.5625000000000000        4.5312499999999991        0.0000000000000000     
   1.8750000000000002        4.5312500000000018        0.0000000000000000     
   2.1874999999999996        4.5312500000000000        0.0000000000000000     
   2.5000000000000004        4.5312500000000000        0.0000000000000000     
   0.0000000000000000        4.6250000000000000        0.0000000000000000     
  0.31250000000000006        4.6250000000000000        0.0000000000000000     
  0.62500000000000000        4.6250000000000009        0.0000000000000000     
  0.93750000000000011        4.6249999999999991        0.0000000000000000     
   1.2500000000000002        4.6250000000000000        0.0000000000000000     
   1.5624999999999998        4.6250000000000000        0.0000000000000000     
   1.8750000000000002        4.6250000000000000        0.0000000000000000     
   2.1875000000000004        4.6250000000000000        0.0000000000000000     
   2.4999999999999996        4.6250000000000000        0.0000000000000000     
   0.0000000000000000        4.7187500000000000        0.0000000000000000     
  0.31250000000000000        4.7187500000000000        0.0000000000000000     
  0.62500000000000000        4.7187500000000000        0.0000000000000000     
  0.93749999999999978        4.7187500000000000        0.0000000000000000     
   1.2500000000000000        4.7187500000000000        0.0000000000000000     
   1.5624999999999998        4.7187499999999991        0.0000000000000000     
   1.8750000000000000        4.7187500000000000        0.0000000000000000     
   2.1875000000000000        4.7187500000000000        0.0000000000000000     
   2.4999999999999996        4.7187500000000000        0.0000000000000000     
   0.0000000000000000        4.8125000000000018        0.0000000000000000     
  0.31250000000000006        4.8124999999999991        0.0000000000000000     
  0.62500000000000011        4.8125000000000009        0.0000000000000000     
  0.93750000000000011        4.8125000000000018        0.0000000000000000     
   1.2500000000000002        4.8124999999999991        0.0000000000000000     
   1.5625000000000002        4.8125000000000000        0.0000000000000000     
   1.8750000000000002        4.8125000000000018        0.0000000000000000     
   2.1874999999999996        4.8125000000000000        0.0000000000000000     
   2.5000000000000004        4.8125000000000009        0.0000000000000000     
   0.0000000000000000        4.9062499999999973        0.0000000000000000     
  0.31250000000000006        4.9062500000000009        0.0000000000000000     
  0.62500000000000000        4.9062500000000000        0.0000000000000000     
  0.93749999999999967        4.9062499999999973        0.0000000000000000     
   1.2500000000000000        4.9062500000000009        0.0000000000000000     
   1.5624999999999996        4.9062499999999991        0.0000000000000000     
   1.8750000000000000        4.9062499999999982        0.0000000000000000     
   2.1875000000000004        4.9062500000000009        0.0000000000000000     
   2.4999999999999996        4.9062499999999991        0.0000000000000000     
   0.0000000000000000        5.0000000000000018        0.0000000000000000     
  0.31250000000000006        5.0000000000000000        0.0000000000000000     
  0.62499999999999989        5.0000000000000000        0.0000000000000000     
  0.93750000000000022        5.0000000000000009        0.0000000000000000     
   1.2500000000000000        5.0000000000000000        0.0000000000000000     
   1.5625000000000002        5.0000000000000009        0.0000000000000000     
   1.8750000000000002        5.0000000000000009        0.0000000000000000     
   2.1874999999999996        5.0000000000000000        0.0000000000000000     
   2.5000000000000000        5.0000000000000000        0.0000000000000000     
   2.5000000000000000        4.2500000000000009        0.0000000000000000     
   2.8124999999999991        4.2499999999999982        0.0000000000000000     
   3.1250000000000000        4.2500000000000009        0.0000000000000000     
   3.4375000000000009        4.2500000000000009        0.0000000000000000     
   3.7499999999999991        4.2499999999999991        0.0000000000000000     
   4.0625000000000000        4.2500000000000009        0.0000000000000000     
   4.3750000000000000        4.2500000000000000        0.0000000000000000     
   4.6875000000000000        4.2500000000000000        0.0000000000000000     
   5.0000000000000000        4.2500000000000000        0.0000000000000000     
   2.4999999999999991        4.3437499999999991        0.0000000000000000     
   2.8125000000000000        4.3437500000000009        0.0000000000000000     
   3.1249999999999996        4.3437500000000000        0.0000000000000000     
   3.4374999999999996        4.3437500000000000        0.0000000000000000     
   3.7500000000000000        4.3437500000000000        0.0000000000000000     
   4.0624999999999991        4.3437500000000000        0.0000000000000000     
   4.3750000000000000        4.3437500000000000        0.0000000000000000     
   4.6874999999999991        4.3437500000000000        0.0000000000000000     
   5.0000000000000000        4.3437500000000000        0.0000000000000000     
   2.4999999999999996        4.4375000000000000        0.0000000000000000     
   2.8124999999999996        4.4375000000000000        0.0000000000000000     
   3.1250000000000000        4.4375000000000000        0.0000000000000000     
   3.4374999999999996        4.4375000000000000        0.0000000000000000     
   3.7500000000000000        4.4375000000000000        0.0000000000000000     
   4.0625000000000000        4.4375000000000000        0.0000000000000000     
   4.3750000000000000        4.4375000000000000        0.0000000000000000     
   4.6875000000000000        4.4375000000000000        0.0000000000000000     
   5.0000000000000000        4.4375000000000000        0.0000000000000000     
   2.5000000000000004        4.5312500000000000        0.0000000000000000     
   2.8125000000000000        4.5312500000000009        0.0000000000000000     
   3.1250000000000000        4.5312500000000000        0.0000000000000000     
   3.4375000000000000        4.5312500000000000        0.0000000000000000     
   3.7499999999999996        4.5312500000000009        0.0000000000000000     
   4.0625000000000000        4.5312500000000000        0.0000000000000000     
   4.3750000000000000        4.5312500000000000        0.0000000000000000     
   4.6874999999999991        4.5312500000000000        0.0000000000000000     
   5.0000000000000000        4.5312500000000000        0.0000000000000000     
   2.4999999999999996        4.6250000000000000        0.0000000000000000     
   2.8125000000000009        4.6250000000000009        0.0000000000000000     
   3.1250000000000000        4.6250000000000000        0.0000000000000000     
   3.4374999999999987        4.6250000000000000        0.0000000000000000     
   3.7500000000000004        4.6250000000000000        0.0000000000000000     
   4.0625000000000000        4.6250000000000000        0.0000000000000000     
   4.3750000000000000        4.6250000000000000        0.0000000000000000     
   4.6875000000000000        4.6250000000000000        0.0000000000000000     
   5.0000000000000000        4.6250000000000000        0.0000000000000000     
   2.4999999999999996        4.7187500000000000        0.0000000000000000     
   2.8125000000000000        4.7187500000000000        0.0000000000000000     
   3.1250000000000000        4.7187500000000000        0.0000000000000000     
   3.4375000000000000        4.7187500000000000        0.0000000000000000     
   3.7500000000000000        4.7187500000000000        0.0000000000000000     
   4.0625000000000000        4.7187500000000000        0.0000000000000000     
   4.3750000000000000        4.7187500000000000        0.0000000000000000     
   4.6875000000000000        4.7187500000000000        0.0000000000000000     
   5.0000000000000000        4.7187500000000000        0.0000000000000000     
   2.5000000000000004        4.8125000000000009        0.0000000000000000     
   2.8124999999999996        4.8124999999999991        0.0000000000000000     
   3.1250000000000000        4.8125000000000000        0.0000000000000000     
   3.4375000000000000        4.8125000000000000        0.0000000000000000     
   3.7499999999999996        4.8125000000000000        0.0000000000000000     
   4.0624999999999991        4.8125000000000000        0.0000000000000000     
   4.3750000000000000        4.8125000000000000        0.0000000000000000     
   4.6875000000000000        4.8125000000000000        0.0000000000000000     
   5.0000000000000000        4.8125000000000000        0.0000000000000000     
   2.4999999999999996        4.9062499999999991        0.0000000000000000     
   2.8125000000000004        4.9062500000000009        0.0000000000000000     
   3.1250000000000000        4.9062500000000000        0.0000000000000000     
   3.4374999999999987        4.9062499999999991        0.0000000000000000     
   3.7500000000000004        4.9062500000000009        0.0000000000000000     
   4.0625000000000000        4.9062500000000000        0.0000000000000000     
   4.3750000000000000        4.9062500000000000        0.0000000000000000     
   4.6875000000000000        4.9062500000000000        0.0000000000000000     
   5.0000000000000000        4.9062500000000000        0.0000000000000000     
   2.5000000000000000        5.0000000000000000        0.0000000000000000     
   2.8124999999999996        5.0000000000000000        0.0000000000000000     
   3.1250000000000000        5.0000000000000000        0.0000000000000000     
   3.4375000000000000        5.0000000000000000        0.0000000000000000     
   3.7499999999999996        5.0000000000000000        0.0000000000000000     
   4.0625000000000000        5.0000000000000000        0.0000000000000000     
   4.3749999999999991        5.0000000000000000        0.0000000000000000     
   4.6875000000000000        5.0000000000000000        0.0000000000000000     
   5.0000000000000000        5.0000000000000000        0.0000000000000000     
 </DataArray>
 </Points>
 <Cells>
 <DataArray  type="Int32"  Name="connectivity"  format="ascii">
           0           1          10           9
           1           2          11          10
           2           3          12          11
           3           4          13          12
           4           5          14          13
           5           6          15          14
           6           7          16          15
           7           8          17          16
           9          10          19          18
          10          11          20          19
          11          12          21          20
          12          13          22          21
          13          14          23          22
          14          15          24          23
          15          16          25          24
          16          17          26          25
          18          19          28          27
          19          20          29          28
          20          21          30          29
          21          22          31          30
          22          23          32          31
          23          24          33          32
          24          25          34          33
          25          26          35          34
          27          28          37          36
          28          29          38          37
          29          30          39          38
          30          31          40          39
          31          32          41          40
          32          33          42          41
          33          34          43          42
          34          35          44          43
          36          37          46          45
          37          38          47          46
          38          39          48          47
          39          40          49          48
          40          41          50          49
          41          42          51          50
          42          43          52          51
          43          44          53          52
          45          46          55          54
          46          47          56          55
          47          48          57          56
          48          49          58          57
          49          50          59          58
          50          51          60          59
          51          52          61          60
          52          53          62          61
          54          55          64          63
          55          56          65          64
          56          57          66          65
          57          58          67          66
          58          59          68          67
          59          60          69          68
          60          61          70          69
          61          62          71          70
          63          64          73          72
          64          65          74          73
          65          66          75          74
          66          67          76          75
          67          68          77          76
          68          69          78          77
          69          70          79          78
          70          71          80          79
          81          82          91          90
          82          83          92          91
          83          84          93          92
          84          85          94          93
          85          86          95          94
          86          87          96          95
          87          88          97          96
          88          89          98          97
          90          91         100          99
          91          92         101         100
          92          93         102         101
          93          94         103         102
          94          95         104         103
          95          96         105         104
          96          97         106         105
          97          98         107         106
          99         100         109         108
         100         101         110         109
         101         102         111         110
         102         103         112         111
         103         104         113         112
         104         105         114         113
         105         106         115         114
         106         107         116         115
         108         109         118         117
         109         110         119         118
         110         111         120         119
         111         112         121         120
         112         113         122         121
         113         114         123         122
         114         115         124         123
         115         116         125         124
         117         118         127         126
         118         119         128         127
         119         120         129         128
         120         121         130         129
         121         122         131         130
         122         123         132         131
         123         124         133         132
         124         125         134         133
         126         127         136         135
         127         128         137         136
         128         129         138         137
         129         130         139         138
         130         131         140         139
         131         132         141         140
         132         133         142         141
         133         134         143         142
         135         136         145         144
         136         137         146         145
         137         138         147         146
         138         139         148         147
         139         140         149         148
         140         141         150         149
         141         142         151         150
         142         143         152         151
         144         145         154         153
         145         146         155         154
         146         147         156         155
         147         148         157         156
         148         149         158         157
         149         150         159         158
         150         151         160         159
         151         152         161         160
         162         163         172         171
         163         164         173         172
         164         165         174         173
         165         166         175         174
         166         167         176         175
         167         168         177         176
         168         169         178         177
         169         170         179         178
         171         172         181         180
         172         173         182         181
         173         174         183         182
         174         175         184         183
         175         176         185         184
         176         177         186         185
         177         178         187         186
         178         179         188         187
         180         181         190         189
         181         182         191         190
         182         183         192         191
         183         184         193         192
         184         185         194         193
         185         186         195         194
         186         187         196         195
         187         188         197         196
         189         190         199         198
         190         191         200         199
         191         192         201         200
         192         193         202         201
         193         194         203         202
         194         195         204         203
         195         196         205         204
         196         197         206         205
         198         199         208         207
         199         200         209         208
         200         201         210         209
         201         202         211         210
         202         203         212         211
         203         204         213         212
         204         205         214         213
         205         206         215         214
         207         208         217         216
         208         209         218         217
         209         210         219         218
         210         211         220         219
         211         212         221         220
         212         213         222         221
         213         214         223         222
         214         215         224         223
         216         217         226         225
         217         218         227         226
         218         219         228         227
         219         220         229         228
         220         221         230         229
         221         222         231         230
         222         223         232         231
         223         224         233         232
         225         226         235         234
         226         227         236         235
         227         228         237         236
         228         229         238         237
         229         230         239         238
         230         231         240         239
         231         232         241         240
         232         233         242         241
         243         244         253         252
         244         245         254         253
         245         246         255         254
         246         247         256         255
         247         248         257         256
         248         249         258         257
         249         250         259         258
         250         251         260         259
         252         253         262         261
         253         254         263         262
         254         255         264         263
         255         256         265         264
         256         257         266         265
         257         258         267         266
         258         259         268         267
         259         260         269         268
         261         262         271         270
         262         263         272         271
         263         264         273         272
         264         265         274         273
         265         266         275         274
         266         267         276         275
         267         268         277         276
         268         269         278         277
         270         271         280         279
         271         272         281         280
         272         273         282         281
         273         274         283         282
         274         275         284         283
         275         276         285         284
         276         277         286         285
         277         278         287         286
         279         280         289         288
         280         281         290         289
         281         282         291         290
         282         283         292         291
         283         284         293         292
         284         285         294         293
         285         286         295         294
         286         287         296         295
         288         289         298         297
         289         290         299         298
         290         291         300         299
         291         292         301         300
         292         293         302         301
         293         294         303         302
         294         295         304         303
         295         296         305         304
         297         298         307         306
         298         299         308         307
         299         300         309         308
         300         301         310         309
         301         302         311         310
         302         303         312         311
         303         304         313         312
         304         305         314         313
         306         307         316         315
         307         308         317         316
         308         309         318         317
         309         310         319         318
         310         311         320         319
         311         312         321         320
         312         313         322         321
         313         314         323         322
         324         325         334         333
         325         326         335         334
         326         327         336         335
         327         328         337         336
         328         329         338         337
         329         330         339         338
         330         331         340         339
         331         332         341         340
         333         334         343         342
         334         335         344         343
         335         336         345         344
         336         337         346         345
         337         338         347         346
         338         339         348         347
         339         340         349         348
         340         341         350         349
         342         343         352         351
         343         344         353         352
         344         345         354         353
         345         346         355         354
         346         347         356         355
         347         348         357         356
         348         349         358         357
         349         350         359         358
         351         352         361         360
         352         353         362         361
         353         354         363         362
         354         355         364         363
         355         356         365         364
         356         357         366         365
         357         358         367         366
         358         359         368         367
         360         361         370         369
         361         362         371         370
         362         363         372         371
         363         364         373         372
         364         365         374         373
         365         366         375         374
         366         367         376         375
         367         368         377         376
         369         370         379         378
         370         371         380         379
         371         372         381         380
         372         373         382         381
         373         374         383         382
         374         375         384         383
         375         376         385         384
         376         377         386         385
         378         379         388         387
         379         380         389         388
         380         381         390         389
         381         382         391         390
         382         383         392         391
         383         384         393         392
         384         385         394         393
         385         386         395         394
         387         388         397         396
         388         389         398         397
         389         390         399         398
         390         391         400         399
         391         392         401         400
         392         393         402         401
         393         394         403         402
         394         395         404         403
         405         406         415         414
         406         407         416         415
         407         408         417         416
         408         409         418         417
         409         410         419         418
         410         411         420         419
         411         412         421         420
         412         413         422         421
         414         415         424         423
         415         416         425         424
         416         417         426         425
         417         418         427         426
         418         419         428         427
         419         420         429         428
         420         421         430         429
         421         422         431         430
         423         424         433         432
         424         425         434         433
         425         426         435         434
         426         427         436         435
         427         428         437         436
         428         429         438         437
         429         430         439         438
         430         431         440         439
         432         433         442         441
         433         434         443         442
         434         435         444         443
         435         436         445         444
         436         437         446         445
         437         438         447         446
         438         439         448         447
         439         440         449         448
         441         442         451         450
         442         443         452         451
         443         444         453         452
         444         445         454         453
         445         446         455         454
         446         447         456         455
         447         448         457         456
         448         449         458         457
         450         451         460         459
         451         452         461         460
         452         453         462         461
         453         454         463         462
         454         455         464         463
         455         456         465         464
         456         457         466         465
         457         458         467         466
         459         460         469         468
         460         461         470         469
         461         462         471         470
         462         463         472         471
         463         464         473         472
         464         465         474         473
         465         466         475         474
         466         467         476         475
         468         469         478         477
         469         470         479         478
         470         471         480         479
         471         472         481         480
         472         473         482         481
         473         474         483         482
         474         475         484         483
         475         476         485         484
         486         487         496         495
         487         488         497         496
         488         489         498         497
         489         490         499         498
         490         491         500         499
         491         492         501         500
         492         493         502         501
         493         494         503         502
         495         496         505         504
         496         497         506         505
         497         498         507         506
         498         499         508         507
         499         500         509         508
         500         501         510         509
         501         502         511         510
         502         503         512         511
         504         505         514         513
         505         506         515         514
         506         507         516         515
         507         508         517         516
         508         509         518         517
         509         510         519         518
         510         511         520         519
         511         512         521         520
         513         514         523         522
         514         515         524         523
         515         516         525         524
         516         517         526         525
         517         518         527         526
         518         519         528         527
         519         520         529         528
         520         521         530         529
         522         523         532         531
         523         524         533         532
         524         525         534         533
         525         526         535         534
         526         527         536         535
         527         528         537         536
         528         529         538         537
         529         530         539         538
         531         532         541         540
         532         533         542         541
         533         534         543         542
         534         535         544         543
         535         536         545         544
         536         537         546         545
         537         538         547         546
         538         539         548         547
         540         541         550         549
         541         542         551         550
         542         543         552         551
         543         544         553         552
         544         545         554         553
         545         546         555         554
         546         547         556         555
         547         548         557         556
         549         550         559         558
         550         551         560         559
         551         552         561         560
         552         553         562         561
         553         554         563         562
         554         555         564         563
         555         556         565         564
         556         557         566         565
         567         568         577         576
         568         569         578         577
         569         570         579         578
         570         571         580         579
         571         572         581         580
         572         573         582         581
         573         574         583         582
         574         575         584         583
         576         577         586         585
         577         578         587         586
         578         579         588         587
         579         580         589         588
         580         581         590         589
         581         582         591         590
         582         583         592         591
         583         584         593         592
         585         586         595         594
         586         587         596         595
         587         588         597         596
         588         589         598         597
         589         590         599         598
         590         591         600         599
         591         592         601         600
         592         593         602         601
         594         595         604         603
         595         596         605         604
         596         597         606         605
         597         598         607         606
         598         599         608         607
         599         600         609         608
         600         601         610         609
         601         602         611         610
         603         604         613         612
         604         605         614         613
         605         606         615         614
         606         607         616         615
         607         608         617         616
         608         609         618         617
         609         610         619         618
         610         611         620         619
         612         613         622         621
         613         614         623         622
         614         615         624         623
         615         616         625         624
         616         617         626         625
         617         618         627         626
         618         619         628         627
         619         620         629         628
         621         622         631         630
         622         623         632         631
         623         624         633         632
         624         625         634         633
         625         626         635         634
         626         627         636         635
         627         628         637         636
         628         629         638         637
         630         631         640         639
         631         632         641         640
         632         633         642         641
         633         634         643         642
         634         635         644         643
         635         636         645         644
         636         637         646         645
         637         638         647         646
         648         649         658         657
         649         650         659         658
         650         651         660         659
         651         652         661         660
         652         653         662         661
         653         654         663         662
         654         655         664         663
         655         656         665         664
         657         658         667         666
         658         659         668         667
         659         660         669         668
         660         661         670         669
         661         662         671         670
         662         663         672         671
         663         664         673         672
         664         665         674         673
         666         667         676         675
         667         668         677         676
         668         669         678         677
         669         670         679         678
         670         671         680         679
         671         672         681         680
         672         673         682         681
         673         674         683         682
         675         676         685         684
         676         677         686         685
         677         678         687         686
         678         679         688         687
         679         680         689         688
         680         681         690         689
         681         682         691         690
         682         683         692         691
         684         685         694         693
         685         686         695         694
         686         687         696         695
         687         688         697         696
         688         689         698         697
         689         690         699         698
         690         691         700         699
         691         692         701         700
         693         694         703         702
         694         695         704         703
         695         696         705         704
         696         697         706         705
         697         698         707         706
         698         699         708         707
         699         700         709         708
         700         701         710         709
         702         703         712         711
         703         704         713         712
         704         705         714         713
         705         706         715         714
         706         707         716         715
         707         708         717         716
         708         709         718         717
         709         710         719         718
         711         712         721         720
         712         713         722         721
         713         714         723         722
         714         715         724         723
         715         716         725         724
         716         717         726         725
         717         718         727         726
         718         719         728         727
         729         730         739         738
         730         731         740         739
         731         732         741         740
         732         733         742         741
         733         734         743         742
         734         735         744         743
         735         736         745         744
         736         737         746         745
         738         739         748         747
         739         740         749         748
         740         741         750         749
         741         742         751         750
         742         743         752         751
         743         744         753         752
         744         745         754         753
         745         746         755         754
         747         748         757         756
         748         749         758         757
         749         750         759         758
         750         751         760         759
         751         752         761         760
         752         753         762         761
         753         754         763         762
         754         755         764         763
         756         757         766         765
         757         758         767         766
         758         759         768         767
         759         760         769         768
         760         761         770         769
         761         762         771         770
         762         763         772         771
         763         764         773         772
         765         766         775         774
         766         767         776         775
         767         768         777         776
         768         769         778         777
         769         770         779         778
         770         771         780         779
         771         772         781         780
         772         773         782         781
         774         775         784         783
         775         776         785         784
         776         777         786         785
         777         778         787         786
         778         779         788         787
         779         780         789         788
         780         781         790         789
         781         782         791         790
         783         784         793         792
         784         785         794         793
         785         786         795         794
         786         787         796         795
         787         788         797         796
         788         789         798         797
         789         790         799         798
         790         791         800         799
         792         793         802         801
         793         794         803         802
         794         795         804         803
         795         796         805         804
         796         797         806         805
         797         798         807         806
         798         799         808         807
         799         800         809         808
         810         811         820         819
         811         812         821         820
         812         813         822         821
         813         814         823         822
         814         815         824         823
         815         816         825         824
         816         817         826         825
         817         818         827         826
         819         820         829         828
         820         821         830         829
         821         822         831         830
         822         823         832         831
         823         824         833         832
         824         825         834         833
         825         826         835         834
         826         827         836         835
         828         829         838         837
         829         830         839         838
         830         831         840         839
         831         832         841         840
         832         833         842         841
         833         834         843         842
         834         835         844         843
         835         836         845         844
         837         838         847         846
         838         839         848         847
         839         840         849         848
         840         841         850         849
         841         842         851         850
         842         843         852         851
         843         844         853         852
         844         845         854         853
         846         847         856         855
         847         848         857         856
         848         849         858         857
         849         850         859         858
         850         851         860         859
         851         852         861         860
         852         853         862         861
         853         854         863         862
         855         856         865         864
         856         857         866         865
         857         858         867         866
         858         859         868         867
         859         860         869         868
         860         861         870         869
         861         862         871         870
         862         863         872         871
         864         865         874         873
         865         866         875         874
         866         867         876         875
         867         868         877         876
         868         869         878         877
         869         870         879         878
         870         871         880         879
         871         872         881         880
         873         874         883         882
         874         875         884         883
         875         876         885         884
         876         877         886         885
         877         878         887         886
         878         879         888         887
         879         880         889         888
         880         881         890         889
         891         892         901         900
         892         893         902         901
         893         894         903         902
         894         895         904         903
         895         896         905         904
         896         897         906         905
         897         898         907         906
         898         899         908         907
         900         901         910         909
         901         902         911         910
         902         903         912         911
         903         904         913         912
         904         905         914         913
         905         906         915         914
         906         907         916         915
         907         908         917         916
         909         910         919         918
         910         911         920         919
         911         912         921         920
         912         913         922         921
         913         914         923         922
         914         915         924         923
         915         916         925         924
         916         917         926         925
         918         919         928         927
         919         920         929         928
         920         921         930         929
         921         922         931         930
         922         923         932         931
         923         924         933         932
         924         925         934         933
         925         926         935         934
         927         928         937         936
         928         929         938         937
         929         930         939         938
         930         931         940         939
         931         932         941         940
         932         933         942         941
         933         934         943         942
         934         935         944         943
         936         937         946         945
         937         938         947         946
         938         939         948         947
         939         940         949         948
         940         941         950         949
         941         942         951         950
         942         943         952         951
         943         944         953         952
         945         946         955         954
         946         947         956         955
         947         948         957         956
         948         949         958         957
         949         950         959         958
         950         951         960         959
         951         952         961         960
         952         953         962         961
         954         955         964         963
         955         956         965         964
         956         957         966         965
         957         958         967         966
         958         959         968         967
         959         960         969         968
         960         961         970         969
         961         962         971         970
         972         973         982         981
         973         974         983         982
         974         975         984         983
         975         976         985         984
         976         977         986         985
         977         978         987         986
         978         979         988         987
         979         980         989         988
         981         982         991         990
         982         983         992         991
         983         984         993         992
         984         985         994         993
         985         986         995         994
         986         987         996         995
         987         988         997         996
         988         989         998         997
         990         991        1000         999
         991         992        1001        1000
         992         993        1002        1001
         993         994        1003        1002
         994         995        1004        1003
         995         996        1005        1004
         996         997        1006        1005
         997         998        1007        1006
         999        1000        1009        1008
        1000        1001        1010        1009
        1001        1002        1011        1010
        1002        1003        1012        1011
        1003        1004        1013        1012
        1004        1005        1014        1013
        1005        1006        1015        1014
        1006        1007        1016        1015
        1008        1009        1018        1017
        1009        1010        1019        1018
        1010        1011        1020        1019
        1011        1012        1021        1020
        1012        1013        1022        1021
        1013        1014        1023        1022
        1014        1015        1024        1023
        1015        1016        1025        1024
        1017        1018        1027        1026
        1018        1019        1028        1027
        1019        1020        1029        1028
        1020        1021        1030        1029
        1021        1022        1031        1030
        1022        1023        1032        1031
        1023        1024        1033        1032
        1024        1025        1034        1033
        1026        1027        1036        1035
        1027        1028        1037        1036
        1028        1029        1038        1037
        1029        1030        1039        1038
        1030        1031        1040        1039
        1031        1032        1041        1040
        1032        1033        1042        1041
        1033        1034        1043        1042
        1035        1036        1045        1044
        1036        1037        1046        1045
        1037        1038        1047        1046
        1038        1039        1048        1047
        1039        1040        1049        1048
        1040        1041        1050        1049
        1041        1042        1051        1050
        1042        1043        1052        1051
        1053        1054        1063        1062
        1054        1055        1064        1063
        1055        1056        1065        1064
        1056        1057        1066        1065
        1057        1058        1067        1066
        1058        1059        1068        1067
        1059        1060        1069        1068
        1060        1061        1070        1069
        1062        1063        1072        1071
        1063        1064        1073        1072
        1064        1065        1074        1073
        1065        1066        1075        1074
        1066        1067        1076        1075
        1067        1068        1077        1076
        1068        1069        1078        1077
        1069        1070        1079        1078
        1071        1072        1081        1080
        1072        1073        1082        1081
        1073        1074        1083        1082
        1074        1075        1084        1083
        1075        1076        1085        1084
        1076        1077        1086        1085
        1077        1078        1087        1086
        1078        1079        1088        1087
        1080        1081        1090        1089
        1081        1082        1091        1090
        1082        1083        1092        1091
        1083        1084        1093        1092
        1084        1085        1094        1093
        1085        1086        1095        1094
        1086        1087        1096        1095
        1087        1088        1097        1096
        1089        1090        1099        1098
        1090        1091        1100        1099
        1091        1092        1101        1100
        1092        1093        1102        1101
        1093        1094        1103        1102
        1094        1095        1104        1103
        1095        1096        1105        1104
        1096        1097        1106        1105
        1098        1099        1108        1107
        1099        1100        1109        1108
        1100        1101        1110        1109
        1101        1102        1111        1110
        1102        1103        1112        1111
        1103        1104        1113        1112
        1104        1105        1114        1113
        1105        1106        1115        1114
        1107        1108        1117        1116
        1108        1109        1118        1117
        1109        1110        1119        1118
        1110        1111        1120        1119
        1111        1112        1121        1120
        1112        1113        1122        1121
        1113        1114        1123        1122
        1114        1115        1124        1123
        1116        1117        1126        1125
        1117        1118        1127        1126
        1118        1119        1128        1127
        1119        1120        1129        1128
        1120        1121        1130        1129
        1121        1122        1131        1130
        1122        1123        1132        1131
        1123        1124        1133        1132
        1134        1135        1144        1143
        1135        1136        1145        1144
        1136        1137        1146        1145
        1137        1138        1147        1146
        1138        1139        1148        1147
        1139        1140        1149        1148
        1140        1141        1150        1149
        1141        1142        1151        1150
        1143        1144        1153        1152
        1144        1145        1154        1153
        1145        1146        1155        1154
        1146        1147        1156        1155
        1147        1148        1157        1156
        1148        1149        1158        1157
        1149        1150        1159        1158
        1150        1151        1160        1159
        1152        1153        1162        1161
        1153        1154        1163        1162
        1154        1155        1164        1163
        1155        1156        1165        1164
        1156        1157        1166        1165
        1157        1158        1167        1166
        1158        1159        1168        1167
        1159        1160        1169        1168
        1161        1162        1171        1170
        1162        1163        1172        1171
        1163        1164        1173        1172
        1164        1165        1174        1173
        1165        1166        1175        1174
        1166        1167        1176        1175
        1167        1168        1177        1176
        1168        1169        1178        1177
        1170        1171        1180        1179
        1171        1172        1181        1180
        1172        1173        1182        1181
        1173        1174        1183        1182
        1174        1175        1184        1183
        1175        1176        1185        1184
        1176        1177        1186        1185
        1177        1178        1187        1186
        1179        1180        1189        1188
        1180        1181        1190        1189
        1181        1182        1191        1190
        1182        1183        1192        1191
        1183        1184        1193        1192
        1184        1185        1194        1193
        1185        1186        1195        1194
        1186        1187        1196        1195
        1188        1189        1198        1197
        1189        1190        1199        1198
        1190        1191        1200        1199
        1191        1192        1201        1200
        1192        1193        1202        1201
        1193        1194        1203        1202
        1194        1195        1204        1203
        1195        1196        1205        1204
        1197        1198        1207        1206
        1198        1199        1208        1207
        1199        1200        1209        1208
        1200        1201        1210        1209
        1201        1202        1211        1210
        1202        1203        1212        1211
        1203        1204        1213        1212
        1204        1205        1214        1213
        1215        1216        1225        1224
        1216        1217        1226        1225
        1217        1218        1227        1226
        1218        1219        1228        1227
        1219        1220        1229        1228
        1220        1221        1230        1229
        1221        1222        1231        1230
        1222        1223        1232        1231
        1224        1225        1234        1233
        1225        1226        1235        1234
        1226        1227        1236        1235
        1227        1228        1237        1236
        1228        1229        1238        1237
        1229        1230        1239        1238
        1230        1231        1240        1239
        1231        1232        1241        1240
        1233        1234        1243        1242
        1234        1235        1244        1243
        1235        1236        1245        1244
        1236        1237        1246        1245
        1237        1238        1247        1246
        1238        1239        1248        1247
        1239        1240        1249        1248
        1240        1241        1250        1249
        1242        1243        1252        1251
        1243        1244        1253        1252
        1244        1245        1254        1253
        1245        1246        1255        1254
        1246        1247        1256        1255
        1247        1248        1257        1256
        1248        1249        1258        1257
        1249        1250        1259        1258
        1251        1252        1261        1260
        1252        1253        1262        1261
        1253        1254        1263        1262
        1254        1255        1264        1263
        1255        1256        1265        1264
        1256        1257        1266        1265
        1257        1258        1267        1266
        1258        1259        1268        1267
        1260        1261        1270        1269
        1261        1262        1271        1270
        1262        1263        1272        1271
        1263        1264        1273        1272
        1264        1265        1274        1273
        1265        1266        1275        1274
        1266        1267        1276        1275
        1267        1268        1277        1276
        1269        1270        1279        1278
        1270        1271        1280        1279
        1271        1272        1281        1280
        1272        1273        1282        1281
        1273        1274        1283        1282
        1274        1275        1284        1283
        1275        1276        1285        1284
        1276        1277        1286        1285
        1278        1279        1288        1287
        1279        1280        1289        1288
        1280        1281        1290        1289
        1281        1282        1291        1290
        1282        1283        1292        1291
        1283        1284        1293        1292
        1284        1285        1294        1293
        1285        1286        1295        1294
 </DataArray>
 <DataArray  type="Int32"  Name="offsets"  format="ascii"> 
           4
           8
          12
          16
          20
          24
          28
          32
          36
          40
          44
          48
          52
          56
          60
          64
          68
          72
          76
          80
          84
          88
          92
          96
         100
         104
         108
         112
         116
         120
         124
         128
         132
         136
         140
         144
         148
         152
         156
         160
         164
         168
         172
         176
         180
         184
         188
         192
         196
         200
         204
         208
         212
         216
         220
         224
         228
         232
         236
         240
         244
         248
         252
         256
         260
         264
         268
         272
         276
         280
         284
         288
         292
         296
         300
         304
         308
         312
         316
         320
         324
         328
         332
         336
         340
         344
         348
         352
         356
         360
         364
         368
         372
         376
         380
         384
         388
         392
         396
         400
         404
         408
         412
         416
         420
         424
         428
         432
         436
         440
         444
         448
         452
         456
         460
         464
         468
         472
         476
         480
         484
         488
         492
         496
         500
         504
         508
         512
         516
         520
         524
         528
         532
         536
         540
         544
         548
         552
         556
         560
         564
         568
         572
         576
         580
         584
         588
         592
         596
         600
         604
         608
         612
         616
         620
         624
         628
         632
         636
         640
         644
         648
         652
         656
         660
         664
         668
         672
         676
         680
         684
         688
         692
         696
         700
         704
         708
         712
         716
         720
         724
         728
         732
         736
         740
         744
         748
         752
         756
         760
         764
         768
         772
         776
         780
         784
         788
         792
         796
         800
         804
         808
         812
         816
         820
         824
         828
         832
         836
         840
         844
         848
         852
         856
         860
         864
         868
         872
         876
         880
         884
         888
         892
         896
         900
         904
         908
         912
         916
         920
         924
         928
         932
         936
         940
         944
         948
         952
         956
         960
         964
         968
         972
         976
         980
         984
         988
         992
         996
        1000
        1004
        1008
        1012
        1016
        1020
        1024
        1028
        1032
        1036
        1040
        1044
        1048
        1052
        1056
        1060
        1064
        1068
        1072
        1076
        1080
        1084
        1088
        1092
        1096
        1100
        1104
        1108
        1112
        1116
        1120
        1124
        1128
        1132
        1136
        1140
        1144
        1148
        1152
        1156
        1160
        1164
        1168
        1172
        1176
        1180
        1184
        1188
        1192
        1196
        1200
        1204
        1208
        1212
        1216
        1220
        1224
        1228
        1232
        1236
        1240
        1244
        1248
        1252
        1256
        1260
        1264
        1268
        1272
        1276
        1280
        1284
        1288
        1292
        1296
        1300
        1304
        1308
        1312
        1316
        1320
        1324
        1328
        1332
        1336
        1340
        1344
        1348
        1352
        1356
        1360
        1364
        1368
        1372
        1376
        1380
        1384
        1388
        1392
        1396
        1400
        1404
        1408
        1412
        1416
        1420
        1424
        1428
        1432
        1436
        1440
        1444
        1448
        1452
        1456
        1460
        1464
        1468
        1472
        1476
        1480
        1484
        1488
        1492
        1496
        1500
        1504
        1508
        1512
        1516
        1520
        1524
        1528
        1532
        1536
        1540
        1544
        1548
        1552
        1556
        1560
        1564
        1568
        1572
        1576
        1580
        1584
        1588
        1592
        1596
        1600
        1604
        1608
        1612
        1616
        1620
        1624
        1628
        1632
        1636
        1640
        1644
        1648
        1652
        1656
        1660
        1664
        1668
        1672
        1676
        1680
        1684
        1688
        1692
        1696
        1700
        1704
        1708
        1712
        1716
        1720
        1724
        1728
        1732
        1736
        1740
        1744
        1748
        1752
        1756
        1760
        1764
        1768
        1772
        1776
        1780
        1784
        1788
        1792
        1796
        1800
        1804
        1808
        1812
        1816
        1820
        1824
        1828
        1832
        1836
        1840
        1844
        1848
        1852
        1856
        1860
        1864
        1868
        1872
        1876
        1880
        1884
        1888
        1892
        1896
        1900
        1904
        1908
        1912
        1916
        1920
        1924
        1928
        1932
        1936
        1940
        1944
        1948
        1952
        1956
        1960
        1964
        1968
        1972
        1976
        1980
        1984
        1988
        1992
        1996
        2000
        2004
        2008
        2012
        2016
        2020
        2024
        2028
        2032
        2036
        2040
        2044
        2048
        2052
        2056
        2060
        2064
        2068
        2072
        2076
        2080
        2084
        2088
        2092
        2096
        2100
        2104
        2108
        2112
        2116
        2120
        2124
        2128
        2132
        2136
        2140
        2144
        2148
        2152
        2156
        2160
        2164
        2168
        2172
        2176
        2180
        2184
        2188
        2192
        2196
        2200
        2204
        2208
        2212
        2216
        2220
        2224
        2228
        2232
        2236
        2240
        2244
        2248
        2252
        2256
        2260
        2264
        2268
        2272
        2276
        2280
        2284
        2288
        2292
        2296
        2300
        2304
        2308
        2312
        2316
        2320
        2324
        2328
        2332
        2336
        2340
        2344
        2348
        2352
        2356
        2360
        2364
        2368
        2372
        2376
        2380
        2384
        2388
        2392
        2396
        2400
        2404
        2408
        2412
        2416
        2420
        2424
        2428
        2432
        2436
        2440
        2444
        2448
        2452
        2456
        2460
        2464
        2468
        2472
        2476
        2480
        2484
        2488
        2492
        2496
        2500
        2504
        2508
        2512
        2516
        2520
        2524
        2528
        2532
        2536
        2540
        2544
        2548
        2552
        2556
        2560
        2564
        2568
        2572
        2576
        2580
        2584
        2588
        2592
        2596
        2600
        2604
        2608
        2612
        2616
        2620
        2624
        2628
        2632
        2636
        2640
        2644
        2648
        2652
        2656
        2660
        2664
        2668
        2672
        2676
        2680
        2684
        2688
        2692
        2696
        2700
        2704
        2708
        2712
        2716
        2720
        2724
        2728
        2732
        2736
        2740
        2744
        2748
        2752
        2756
        2760
        2764
        2768
        2772
        2776
        2780
        2784
        2788
        2792
        2796
        2800
        2804
        2808
        2812
        2816
        2820
        2824
        2828
        2832
        2836
        2840
        2844
        2848
        2852
        2856
        2860
        2864
        2868
        2872
        2876
        2880
        2884
        2888
        2892
        2896
        2900
        2904
        2908
        2912
        2916
        2920
        2924
        2928
        2932
        2936
        2940
        2944
        2948
        2952
        2956
        2960
        2964
        2968
        2972
        2976
        2980
        2984
        2988
        2992
        2996
        3000
        3004
        3008
        3012
        3016
        3020
        3024
        3028
        3032
        3036
        3040
        3044
        3048
        3052
        3056
        3060
        3064
        3068
        3072
        3076
        3080
        3084
        3088
        3092
        3096
        3100
        3104
        3108
        3112
        3116
        3120
        3124
        3128
        3132
        3136
        3140
        3144
        3148
        3152
        3156
        3160
        3164
        3168
        3172
        3176
        3180
        3184
        3188
        3192
        3196
        3200
        3204
        3208
        3212
        3216
        3220
        3224
        3228
        3232
        3236
        3240
        3244
        3248
        3252
        3256
        3260
        3264
        3268
        3272
        3276
        3280
        3284
        3288
        3292
        3296
        3300
        3304
        3308
        3312
        3316
        3320
        3324
        3328
        3332
        3336
        3340
        3344
        3348
        3352
        3356
        3360
        3364
        3368
        3372
        3376
        3380
        3384
        3388
        3392
        3396
        3400
        3404
        3408
        3412
        3416
        3420
        3424
        3428
        3432
        3436
        3440
        3444
        3448
        3452
        3456
        3460
        3464
        3468
        3472
        3476
        3480
        3484
        3488
        3492
        3496
        3500
        3504
        3508
        3512
        3516
        3520
        3524
        3528
        3532
        3536
        3540
        3544
        3548
        3552
        3556
        3560
        3564
        3568
        3572
        3576
        3580
        3584
        3588
        3592
        3596
        3600
        3604
        3608
        3612
        3616
        3620
        3624
        3628
        3632
        3636
        3640
        3644
        3648
        3652
        3656
        3660
        3664
        3668
        3672
        3676
        3680
        3684
        3688
        3692
        3696
        3700
        3704
        3708
        3712
        3716
        3720
        3724
        3728
        3732
        3736
        3740
        3744
        3748
        3752
        3756
        3760
        3764
        3768
        3772
        3776
        3780
        3784
        3788
        3792
        3796
        3800
        3804
        3808
        3812
        3816
        3820
        3824
        3828
        3832
        3836
        3840
        3844
        3848
        3852
        3856
        3860
        3864
        3868
        3872
        3876
        3880
        3884
        3888
        3892
        3896
        3900
        3904
        3908
        3912
        3916
        3920
        3924
        3928
        3932
        3936
        3940
        3944
        3948
        3952
        3956
        3960
        3964
        3968
        3972
        3976
        3980
        3984
        3988
        3992
        3996
        4000
        4004
        4008
        4012
        4016
        4020
        4024
        4028
        4032
        4036
        4040
        4044
        4048
        4052
        4056
        4060
        4064
        4068
        4072
        4076
        4080
        4084
        4088
        4092
        4096
 </DataArray>
 <DataArray  type="UInt8"  Name="types"  format="ascii">
 9
 9
 9
 9
 9
 9
 9
 9
 9
 9
 9
 9
 9
 9
 9
 9
 9
 9
 9
 9
 9
 9
 9
 9
 9
 9
 9
 9
 9
 9
 9
 9
 9
 9
 9
 9
 9
 9
 9
 9
 9
 9
 9
 9
 9
 9
 9
 9
 9
 9
 9
 9
 9
 9
 9
 9
 9
 9
 9
 9
 9
 9
 9
 9
 9
 9
 9
 9
 9
 9
 9
 9
 9
 9
 9
 9
 9
 9
 9
 9
 9
 9
 9
 9
 9
 9
 9
 9
 9
 9
 9
 9
 9
 9
 9
 9
 9
 9
 9
 9
 9
 9
 9
 9
 9
 9
 9
 9
 9
 9
 9
 9
 9
 9
 9
 9
 9
 9
 9
 9
 9
 9
 9
 9
 9
 9
 9
 9
 9
 9
 9
 9
 9
 9
 9
 9
 9
 9
 9
 9
 9
 9
 9
 9
 9
 9
 9
 9
 9
 9
 9
 9
 9
 9
 9
 9
 9
 9
 9
 9
 9
 9
 9
 9
 9
 9
 9
 9
 9
 9
 9
 9
 9
 9
 9
 9
 9
 9
 9
 9
 9
 9
 9
 9
 9
 9
 9
 9
 9
 9
 9
 9
 9
 9
 9
 9
 9
 9
 9
 9
 9
 9
 9
 9
 9
 9
 9
 9
 9
 9
 9
 9
 9
 9
 9
 9
 9
 9
 9
 9
 9
 9
 9
 9
 9
 9
 9
 9
 9
 9
 9
 9
 9
 9
 9
 9
 9
 9
 9
 9
 9
 9
 9
 9
 9
 9
 9
 9
 9
 9
 9
 9
 9
 9
 9
 9
 9
 9
 9
 9
 9
 9
 9
 9
 9
 9
 9
 9
 9
 9
 9
 9
 9
 9
 9
 9
 9
 9
 9
 9
 9
 9
 9
 9
 9
 9
 9
 9
 9
 9
 9
 9
 9
 9
 9
 9
 9
 9
 9
 9
 9
 9
 9
 9
 9
 9
 9
 9
 9
 9
 9
 9
 9
 9
 9
 9
 9
 9
 9
 9
 9
 9
 9
 9
 9
 9
 9
 9
 9
 9
 9
 9
 9
 9
 9
 9
 9
 9
 9
 9
 9
 9
 9
 9
 9
 9
 9
 9
 9
 9
 9
 9
 9
 9
 9
 9
 9
 9
 9
 9
 9
 9
 9
 9
 9
 9
 9
 9
 9
 9
 9
 9
 9
 9
 9
 9
 9
 9
 9
 9
 9
 9
 9
 9
 9
 9
 9
 9
 9
 9
 9
 9
 9
 9
 9
 9
 9
 9
 9
 9
 9
 9
 9
 9
 9
 9
 9
 9
 9
 9
 9
 9
 9
 9
 9
 9
 9
 9
 9
 9
 9
 9
 9
 9
 9
 9
 9
 9
 9
 9
 9
 9
 9
 9
 9
 9
 9
 9
 9
 9
 9
 9
 9
 9
 9
 9
 9
 9
 9
 9
 9
 9
 9
 9
 9
 9
 9
 9
 9
 9
 9
 9
 9
 9
 9
 9
 9
 9
 9
 9
 9
 9
 9
 9
 9
 9
 9
 9
 9
 9
 9
 9
 9
 9
 9
 9
 9
 9
 9
 9
 9
 9
 9
 9
 9
 9
 9
 9
 9
 9
 9
 9
 9
 9
 9
 9
 9
 9
 9
 9
 9
 9
 9
 9
 9
 9
 9
 9
 9
 9
 9
 9
 9
 9
 9
 9
 9
 9
 9
 9
 9
 9
 9
 9
 9
 9
 9
 9
 9
 9
 9
 9
 9
 9
 9
 9
 9
 9
 9
 9
 9
 9
 9
 9
 9
 9
 9
 9
 9
 9
 9
 9
 9
 9
 9
 9
 9
 9
 9
 9
 9
 9
 9
 9
 9
 9
 9
 9
 9
 9
 9
 9
 9
 9
 9
 9
 9
 9
 9
 9
 9
 9
 9
 9
 9
 9
 9
 9
 9
 9
 9
 9
 9
 9
 9
 9
 9
 9
 9
 9
 9
 9
 9
 9
 9
 9
 9
 9
 9
 9
 9
 9
 9
 9
 9
 9
 9
 9
 9
 9
 9
 9
 9
 9
 9
 9
 9
 9
 9
 9
 9
 9
 9
 9
 9
 9
 9
 9
 9
 9
 9
 9
 9
 9
 9
 9
 9
 9
 9
 9
 9
 9
 9
 9
 9
 9
 9
 9
 9
 9
 9
 9
 9
 9
 9
 9
 9
 9
 9
 9
 9
 9
 9
 9
 9
 9
 9
 9
 9
 9
 9
 9
 9
 9
 9
 9
 9
 9
 9
 9
 9
 9
 9
 9
 9
 9
 9
 9
 9
 9
 9
 9
 9
 9
 9
 9
 9
 9
 9
 9
 9
 9
 9
 9
 9
 9
 9
 9
 9
 9
 9
 9
 9
 9
 9
 9
 9
 9
 9
 9
 9
 9
 9
 9
 9
 9
 9
 9
 9
 9
 9
 9
 9
 9
 9
 9
 9
 9
 9
 9
 9
 9
 9
 9
 9
 9
 9
 9
 9
 9
 9
 9
 9
 9
 9
 9
 9
 9
 9
 9
 9
 9
 9
 9
 9
 9
 9
 9
 9
 9
 9
 9
 9
 9
 9
 9
 9
 9
 9
 9
 9
 9
 9
 9
 9
 9
 9
 9
 9
 9
 9
 9
 9
 9
 9
 9
 9
 9
 9
 9
 9
 9
 9
 9
 9
 9
 9
 9
 9
 9
 9
 9
 9
 9
 9
 9
 9
 9
 9
 9
 9
 9
 9
 9
 9
 9
 9
 9
 9
 9
 9
 9
 9
 9
 9
 9
 9
 9
 9
 9
 9
 9
 9
 9
 9
 9
 9
 9
 9
 9
 9
 9
 9
 9
 9
 9
 9
 9
 9
 9
 9
 9
 9
 9
 9
 9
 9
 9
 9
 9
 9
 9
 9
 9
 9
 9
 9
 9
 9
 9
 9
 9
 9
 9
 9
 9
 9
 9
 9
 9
 9
 9
 9
 9
 9
 9
 9
 9
 9
 9
 9
 9
 9
 9
 9
 9
 9
 9
 9
 9
 9
 9
 9
 9
 9
 9
 9
 9
 9
 9
 9
 9
 9
 9
 9
 9
 9
 9
 9
 9
 9
 9
 9
 9
 9
 9
 9
 9
 9
 9
 9
 9
 9
 9
 9
 9
 9
 9
 9
 9
 9
 9
 9
 9
 9
 9
 9
 9
 9
 9
 9
 9
 9
 9
 9
 9
 9
 9
 9
 9
 9
 9
 9
 9
 9
 9
 9
 9
 9
 9
 9
 9
 9
 9
 9
 9
 9
 9
 9
 9
 9
 9
 9
 9
 9
 9
 9
 9
 9
 9
 9
 9
 9
 9
 </DataArray>
 </Cells> 
 <PointData>
 <DataArray  type="Float64" Name="disp" NumberOfComponents="3" format="ascii">
   3.4214520873346315E-007   2.0384566616947659E-006   0.0000000000000000     
   3.6070687870467419E-007   2.2781188821607799E-006   0.0000000000000000     
   3.7887600604435819E-007   2.5292521483011364E-006   0.0000000000000000     
   3.9665288126910302E-007   2.7916128856418283E-006   0.0000000000000000     
   4.1403779489549643E-007   3.0649575197088493E-006   0.0000000000000000     
   4.3103103744012644E-007   3.3490424760281926E-006   0.0000000000000000     
   4.4763289941958050E-007   3.6436241801258507E-006   0.0000000000000000     
   4.6384367135044663E-007   3.9484590575278171E-006   0.0000000000000000     
   4.7966364374931285E-007   4.2633035337600854E-006   0.0000000000000000     
   2.7788538400535970E-007   2.0369247257470298E-006   0.0000000000000000     
   2.9296746194436848E-007   2.2766194822844892E-006   0.0000000000000000     
   3.0773039485656965E-007   2.5277851702633459E-006   0.0000000000000000     
   3.2217444985703500E-007   2.7901782247014794E-006   0.0000000000000000     
   3.3629989406083629E-007   3.0635550806167682E-006   0.0000000000000000     
   3.5010699458304529E-007   3.3476721730270922E-006   0.0000000000000000     
   3.6359601853873377E-007   3.6422859369503308E-006   0.0000000000000000     
   3.7676723304297350E-007   3.9471528074043613E-006   0.0000000000000000     
   3.8962090521083637E-007   4.2620292194070665E-006   0.0000000000000000     
   2.1369230327859151E-007   2.0357095997041216E-006   0.0000000000000000     
   2.2529435580476086E-007   2.2754302264975527E-006   0.0000000000000000     
   2.3665078473690099E-007   2.5266216718861701E-006   0.0000000000000000     
   2.4776181481022164E-007   2.7890403824763811E-006   0.0000000000000000     
   2.5862767075993265E-007   3.0624428048745932E-006   0.0000000000000000     
   2.6924857732124374E-007   3.3465853856872136E-006   0.0000000000000000     
   2.7962475922936484E-007   3.6412245715206473E-006   0.0000000000000000     
   2.8975644121950549E-007   3.9461168089813031E-006   0.0000000000000000     
   2.9964384802687565E-007   4.2610185446755900E-006   0.0000000000000000     
   1.4955057607219541E-007   2.0348113459919513E-006   0.0000000000000000     
   1.5767226127852516E-007   2.2745511457128836E-006   0.0000000000000000     
   1.6562194272007346E-007   2.5257616637058647E-006   0.0000000000000000     
   1.7339978759887037E-007   2.7881993582030226E-006   0.0000000000000000     
   1.8100596311694603E-007   3.0616206874364839E-006   0.0000000000000000     
   1.8844063647633058E-007   3.3457821096383783E-006   0.0000000000000000     
   1.9570397487905413E-007   3.6404400830408318E-006   0.0000000000000000     
   2.0279614552714681E-007   3.9453510658759712E-006   0.0000000000000000     
   2.0971731562263865E-007   4.2602715163759260E-006   0.0000000000000000     
   8.5444811905208134E-008   2.0342300270364280E-006   0.0000000000000000     
   9.0085879358335185E-008   2.2739822708433933E-006   0.0000000000000000     
   9.4628635840808227E-008   2.5252051562586848E-006   0.0000000000000000     
   9.9073179693188369E-008   2.7876551511178914E-006   0.0000000000000000     
   1.0341960925603668E-007   3.0610887232566040E-006   0.0000000000000000     
   1.0766802286991424E-007   3.3452623405104150E-006   0.0000000000000000     
   1.1181851887538218E-007   3.6399324707149139E-006   0.0000000000000000     
   1.1587119561300154E-007   3.9448555817056909E-006   0.0000000000000000     
   1.1982615142333346E-007   4.2597881413183399E-006   0.0000000000000000     
   2.1359620296666416E-008   2.0339657052634615E-006   0.0000000000000000     
   2.2519911036864747E-008   2.2737236328019967E-006   0.0000000000000000     
   2.3655631133826608E-008   2.5249521600808862E-006   0.0000000000000000     
   2.4766802563382980E-008   2.7874077604574757E-006   0.0000000000000000     
   2.5853447301364886E-008   3.0608469072891152E-006   0.0000000000000000     
   2.6915587323603364E-008   3.3450260739331489E-006   0.0000000000000000     
   2.7953244605929390E-008   3.6397017337469254E-006   0.0000000000000000     
   2.8966441124173933E-008   3.9446303600877936E-006   0.0000000000000000     
   2.9955198854168005E-008   4.2595684263130984E-006   0.0000000000000000     
  -4.2720389234392886E-008   2.0340184430989601E-006   0.0000000000000000     
  -4.5040942693212314E-008   2.2737752625016053E-006   0.0000000000000000     
  -4.7312304366150219E-008   2.5250026857087238E-006   0.0000000000000000     
  -4.9534532320338513E-008   2.7874571854582647E-006   0.0000000000000000     
  -5.1707684622908930E-008   3.0608952344881748E-006   0.0000000000000000     
  -5.3831819340993402E-008   3.3450733055364022E-006   0.0000000000000000     
  -5.5906994541723770E-008   3.6397478713408954E-006   0.0000000000000000     
  -5.7933268292231839E-008   3.9446754046396020E-006   0.0000000000000000     
  -5.9910698659649476E-008   4.2596123781704693E-006   0.0000000000000000     
  -1.0681060716893305E-007   2.0343883029688342E-006   0.0000000000000000     
  -1.1261198083922215E-007   2.2741371908551310E-006   0.0000000000000000     
  -1.1829040362440102E-007   2.5253567436784542E-006   0.0000000000000000     
  -1.2384601348776880E-007   2.7878034253567451E-006   0.0000000000000000     
  -1.2927894839262463E-007   3.0612336998079462E-006   0.0000000000000000     
  -1.3458934630226754E-007   3.3454040309500023E-006   0.0000000000000000     
  -1.3977734517999691E-007   3.6400708827008551E-006   0.0000000000000000     
  -1.4484308298911169E-007   3.9449907189784466E-006   0.0000000000000000     
  -1.4978669769291099E-007   4.2599200037007202E-006   0.0000000000000000     
  -1.7092642398791735E-007   2.0350753472989936E-006   0.0000000000000000     
  -1.8020850240849095E-007   2.2748094487754885E-006   0.0000000000000000     
  -1.8929389960620449E-007   2.5260143445263314E-006   0.0000000000000000     
  -1.9818282946870056E-007   2.7884464793894052E-006   0.0000000000000000     
  -2.0687550588362166E-007   3.0618622982025913E-006   0.0000000000000000     
  -2.1537214273861042E-007   3.3460182458037727E-006   0.0000000000000000     
  -2.2367295392130941E-007   3.6406707670308334E-006   0.0000000000000000     
  -2.3177815331936122E-007   3.9455763067216536E-006   0.0000000000000000     
  -2.3968795482040857E-007   4.2604913097141172E-006   0.0000000000000000     
   4.7966364374931285E-007   4.2633035337600854E-006   0.0000000000000000     
   4.9509305590266368E-007   4.5879139270804367E-006   0.0000000000000000     
   5.1013194217657337E-007   4.9220461266738040E-006   0.0000000000000000     
   5.2478028570701331E-007   5.2654559144569105E-006   0.0000000000000000     
   5.3903806962995404E-007   5.6178990723464730E-006   0.0000000000000000     
   5.5290527708136737E-007   5.9791313822592198E-006   0.0000000000000000     
   5.6638189119722384E-007   6.3489086261118660E-006   0.0000000000000000     
   5.7946789511349514E-007   6.7269865858211375E-006   0.0000000000000000     
   5.9216327196615213E-007   7.1131210433037527E-006   0.0000000000000000     
   3.8962090521083637E-007   4.2620292194070665E-006   0.0000000000000000     
   4.0215725522696173E-007   4.5866715008829607E-006   0.0000000000000000     
   4.1437631555425946E-007   4.9208355513831175E-006   0.0000000000000000     
   4.2627807172520713E-007   5.2642771633652499E-006   0.0000000000000000     
   4.3786250927228210E-007   5.6167521292870616E-006   0.0000000000000000     
   4.4912961372796222E-007   5.9780162416062707E-006   0.0000000000000000     
   4.6007937062472477E-007   6.3478252927805835E-006   0.0000000000000000     
   4.7071176549504725E-007   6.7259350752677070E-006   0.0000000000000000     
   4.8102678387140758E-007   7.1121013815253611E-006   0.0000000000000000     
   2.9964384802687565E-007   4.2610185446755900E-006   0.0000000000000000     
   3.0928716502349518E-007   4.5856861172891850E-006   0.0000000000000000     
   3.1868642012862401E-007   4.9198754338248519E-006   0.0000000000000000     
   3.2784160189833221E-007   5.2633422933646283E-006   0.0000000000000000     
   3.3675269888869012E-007   5.6158424949905490E-006   0.0000000000000000     
   3.4541969965576756E-007   5.9771318377846499E-006   0.0000000000000000     
   3.5384259275563473E-007   6.3469661208289677E-006   0.0000000000000000     
   3.6202136674436179E-007   6.7251011432055366E-006   0.0000000000000000     
   3.6995601017801895E-007   7.1112927039963948E-006   0.0000000000000000     
   2.0971731562263865E-007   4.2602715163759260E-006   0.0000000000000000     
   2.1646762319705376E-007   4.5849577835081630E-006   0.0000000000000000     
   2.2304708959989158E-007   4.9191657791815148E-006   0.0000000000000000     
   2.2945570701014521E-007   5.2626513060401525E-006   0.0000000000000000     
   2.3569346760680823E-007   5.6151701667282447E-006   0.0000000000000000     
   2.4176036356887385E-007   5.9764781638899715E-006   0.0000000000000000     
   2.4765638707533527E-007   6.3463311001694992E-006   0.0000000000000000     
   2.5338153030518592E-007   6.7244847782109995E-006   0.0000000000000000     
   2.5893578543741911E-007   7.1106950006586486E-006   0.0000000000000000     
   1.1982615142333346E-007   4.2597881413183399E-006   0.0000000000000000     
   1.2368346765242738E-007   4.5844865067489472E-006   0.0000000000000000     
   1.2744315766828655E-007   4.9187065926356087E-006   0.0000000000000000     
   1.3110521784440254E-007   5.2622042029769178E-006   0.0000000000000000     
   1.3466964455426689E-007   5.6147351417714650E-006   0.0000000000000000     
   1.3813643417137133E-007   5.9760552130178448E-006   0.0000000000000000     
   1.4150558306920732E-007   6.3459202207146491E-006   0.0000000000000000     
   1.4477708762126656E-007   6.7240859688604699E-006   0.0000000000000000     
   1.4795094420104060E-007   7.1103082614539043E-006   0.0000000000000000     
   2.9955198854168005E-008   4.2595684263130984E-006   0.0000000000000000     
   3.0919536294405755E-008   4.5842722942205944E-006   0.0000000000000000     
   3.1859458034033388E-008   4.9184978793696461E-006   0.0000000000000000     
   3.2774965184860440E-008   5.2620009857600294E-006   0.0000000000000000     
   3.3666058858696323E-008   5.6145374173915180E-006   0.0000000000000000     
   3.4532740167350409E-008   5.9758629782638812E-006   0.0000000000000000     
   3.5375010222632135E-008   6.3457334723768928E-006   0.0000000000000000     
   3.6192870136350973E-008   6.7239047037303278E-006   0.0000000000000000     
   3.6986321020316255E-008   7.1101324763239592E-006   0.0000000000000000     
  -5.9910698659649476E-008   4.2596123781704693E-006   0.0000000000000000     
  -6.1839332972221322E-008   4.5843151531321538E-006   0.0000000000000000     
  -6.3719175602643391E-008   4.9185396445661321E-006   0.0000000000000000     
  -6.5550220184724378E-008   5.2620416559745891E-006   0.0000000000000000     
  -6.7332460352273086E-008   5.6145769908597149E-006   0.0000000000000000     
  -6.9065889739098383E-008   5.9759014527236935E-006   0.0000000000000000     
  -7.0750501979008938E-008   6.3457708450687091E-006   0.0000000000000000     
  -7.2386290705813646E-008   6.7239409713969474E-006   0.0000000000000000     
  -7.3973249553321216E-008   7.1101676352105992E-006   0.0000000000000000     
  -1.4978669769291099E-007   4.2599200037007202E-006   0.0000000000000000     
  -1.5460830224266407E-007   4.5846150906926794E-006   0.0000000000000000     
  -1.5930790954151928E-007   4.9188318934075709E-006   0.0000000000000000     
  -1.6388550748059562E-007   5.2623262152056980E-006   0.0000000000000000     
  -1.6834108395101119E-007   5.6148538594473696E-006   0.0000000000000000     
  -1.7267462684388471E-007   5.9761706294928916E-006   0.0000000000000000     
  -1.7688612405033484E-007   6.3460323287025667E-006   0.0000000000000000     
  -1.8097556346148014E-007   6.7241947604367052E-006   0.0000000000000000     
  -1.8494293296843914E-007   7.1104137280556106E-006   0.0000000000000000     
  -2.3968795482040857E-007   4.2604913097141172E-006   0.0000000000000000     
  -2.4740253361213264E-007   4.5851721141112273E-006   0.0000000000000000     
  -2.5492191008237020E-007   4.9193746310764734E-006   0.0000000000000000     
  -2.6224606591899663E-007   5.2628546650384572E-006   0.0000000000000000     
  -2.6937498280988754E-007   5.6153680204257925E-006   0.0000000000000000     
  -2.7630864244291831E-007   5.9766705016670871E-006   0.0000000000000000     
  -2.8304702650596449E-007   6.3465179131909443E-006   0.0000000000000000     
  -2.8959011668690146E-007   6.7246660594259762E-006   0.0000000000000000     
  -2.9593789467360494E-007   7.1108707448007898E-006   0.0000000000000000     
   5.9216327196615213E-007   7.1131210433037527E-006   0.0000000000000000     
   6.0446800823901786E-007   7.5070678020383532E-006   0.0000000000000000     
   6.1638210380732332E-007   7.9085827517512494E-006   0.0000000000000000     
   6.2790556189415139E-007   8.3174218037306716E-006   0.0000000000000000     
   6.3903838572258417E-007   8.7333408692648407E-006   0.0000000000000000     
   6.4978057851570518E-007   9.1560958596419949E-006   0.0000000000000000     
   6.6013214349659653E-007   9.5854426861503583E-006   0.0000000000000000     
   6.7009308388834121E-007   1.0021137260078157E-005   0.0000000000000000     
   6.7966340291402218E-007   1.0462935492713628E-005   0.0000000000000000     
   4.8102678387140758E-007   7.1121013815253611E-006   0.0000000000000000     
   4.9102441334402262E-007   7.5060800219317704E-006   0.0000000000000000     
   5.0070464973406952E-007   7.9076268785472618E-006   0.0000000000000000     
   5.1006749092046532E-007   8.3164978513526756E-006   0.0000000000000000     
   5.1911293478212656E-007   8.7324488403288637E-006   0.0000000000000000     
   5.2784097919796986E-007   9.1552357454566638E-006   0.0000000000000000     
   5.3625162204691250E-007   9.5846144667169307E-006   0.0000000000000000     
   5.4434486120787080E-007   1.0020340904090500E-005   0.0000000000000000     
   5.5212069455976180E-007   1.0462170957558220E-005   0.0000000000000000     
   3.6995601017801895E-007   7.1112927039963948E-006   0.0000000000000000     
   3.7764651274277928E-007   7.5052966181689350E-006   0.0000000000000000     
   3.8509286864523009E-007   7.9068687642319949E-006   0.0000000000000000     
   3.9229507322206176E-007   8.3157650365797702E-006   0.0000000000000000     
   3.9925312180996464E-007   8.7317413296064528E-006   0.0000000000000000     
   4.0596700974562889E-007   9.1545535377062390E-006   0.0000000000000000     
   4.1243673236574513E-007   9.5839575552733269E-006   0.0000000000000000     
   4.1866228500700363E-007   1.0019709276701904E-005   0.0000000000000000     
   4.2464366300609474E-007   1.0461564596386171E-005   0.0000000000000000     
   2.5893578543741911E-007   7.1106950006586486E-006   0.0000000000000000     
   2.6431914511159945E-007   7.5047175852307556E-006   0.0000000000000000     
   2.6953160380957821E-007   7.9063084099422195E-006   0.0000000000000000     
   2.7457315647377773E-007   8.3152233678820749E-006   0.0000000000000000     
   2.7944379804662036E-007   8.7312183521393547E-006   0.0000000000000000     
   2.8414352347052873E-007   9.1540492558030944E-006   0.0000000000000000     
   2.8867232768792525E-007   9.5834719719623377E-006   0.0000000000000000     
   2.9303020564123229E-007   1.0019242393706115E-005   0.0000000000000000     
   2.9721715227287251E-007   1.0461116414123464E-005   0.0000000000000000     
   1.4795094420104060E-007   7.1103082614539043E-006   0.0000000000000000     
   1.5102714912679451E-007   7.5043429175981323E-006   0.0000000000000000     
   1.5400569849588681E-007   7.9059458168146875E-006   0.0000000000000000     
   1.5688658835044973E-007   8.3148728537297023E-006   0.0000000000000000     
   1.5966981473261538E-007   8.7308799229693008E-006   0.0000000000000000     
   1.6235537368451568E-007   9.1537229191596123E-006   0.0000000000000000     
   1.6494326124828279E-007   9.5831577369267557E-006   0.0000000000000000     
   1.6743347346604887E-007   1.0018940270896870E-005   0.0000000000000000     
   1.6982600637994592E-007   1.0460826415696072E-005   0.0000000000000000     
   3.6986321020316255E-008   7.1101324763239592E-006   0.0000000000000000     
   3.7755363464675587E-008   7.5041726097519655E-006   0.0000000000000000     
   3.8499995972929045E-008   7.9057809859861663E-006   0.0000000000000000     
   3.9220216526914830E-008   8.3147135025927819E-006   0.0000000000000000     
   3.9916023108471134E-008   8.7307260571380360E-006   0.0000000000000000     
   4.0587413699436253E-008   9.1535745471881633E-006   0.0000000000000000     
   4.1234386281648237E-008   9.5830148703093783E-006   0.0000000000000000     
   4.1856938836945389E-008   1.0018802924067911E-005   0.0000000000000000     
   4.2455069347165973E-008   1.0460694606029985E-005   0.0000000000000000     
  -7.3973249553321216E-008   7.1101676352105992E-006   0.0000000000000000     
  -7.5511373198445589E-008   7.5042066561731620E-006   0.0000000000000000     
  -7.7000660490521888E-008   7.9058139185934097E-006   0.0000000000000000     
  -7.8441111321990059E-008   8.3147453229414247E-006   0.0000000000000000     
  -7.9832725585290402E-008   8.7307567696873034E-006   0.0000000000000000     
  -8.1175503172863035E-008   9.1536041593011281E-006   0.0000000000000000     
  -8.2469443977148128E-008   9.5830433922529895E-006   0.0000000000000000     
  -8.3714547890585836E-008   1.0018830369012973E-005   0.0000000000000000     
  -8.4910814805616264E-008   1.0460720990051166E-005   0.0000000000000000     
  -1.8494293296843914E-007   7.1104137280556106E-006   0.0000000000000000     
  -1.8878822218625793E-007   7.5044450513426220E-006   0.0000000000000000     
  -1.9251142762569290E-007   7.9060446157731750E-006   0.0000000000000000     
  -1.9611254752142822E-007   8.3149683232457602E-006   0.0000000000000000     
  -1.9959158010814791E-007   8.7309720756588362E-006   0.0000000000000000     
  -2.0294852362053585E-007   9.1538117749108891E-006   0.0000000000000000     
  -2.0618337629327597E-007   9.5832433229003836E-006   0.0000000000000000     
  -2.0929613636105268E-007   1.0019022621525804E-005   0.0000000000000000     
  -2.1228680205854964E-007   1.0460905572685617E-005   0.0000000000000000     
  -2.9593789467360494E-007   7.1108707448007898E-006   0.0000000000000000     
  -3.0209034482244988E-007   7.5048877897412483E-006   0.0000000000000000     
  -3.0804746216381089E-007   7.9064730786622362E-006   0.0000000000000000     
  -3.1380924439656281E-007   8.3153825119759012E-006   0.0000000000000000     
  -3.1937568921957955E-007   8.7313719900943808E-006   0.0000000000000000     
  -3.2474679433173549E-007   9.1541974134298152E-006   0.0000000000000000     
  -3.2992255743190521E-007   9.5836146823943528E-006   0.0000000000000000     
  -3.3490297621896322E-007   1.0019379697400132E-005   0.0000000000000000     
  -3.3968804839178350E-007   1.0461248358859296E-005   0.0000000000000000     
   6.7966340291402218E-007   1.0462935492713628E-005   0.0000000000000000     
   6.8884309612484622E-007   1.0910593287925634E-005   0.0000000000000000     
   6.9763212838451884E-007   1.1363866519905625E-005   0.0000000000000000     
   7.0603045688486942E-007   1.1822511055425692E-005   0.0000000000000000     
   7.1403803881772760E-007   1.2286282761257917E-005   0.0000000000000000     
   7.2165483137492331E-007   1.2754937504174395E-005   0.0000000000000000     
   7.2888079174828564E-007   1.3228231150947212E-005   0.0000000000000000     
   7.3571587712964474E-007   1.3705919568348461E-005   0.0000000000000000     
   7.4216004471083002E-007   1.4187758623150222E-005   0.0000000000000000     
   5.5212069455976180E-007   1.0462170957558220E-005   0.0000000000000000     
   5.5957911769509870E-007   1.0909860528498333E-005   0.0000000000000000     
   5.6672011706078068E-007   1.1363165523878664E-005   0.0000000000000000     
   5.7354367681730361E-007   1.1821841852064434E-005   0.0000000000000000     
   5.8004978112516331E-007   1.2285645421420871E-005   0.0000000000000000     
   5.8623841414485524E-007   1.2754332140313190E-005   0.0000000000000000     
   5.9210956003687533E-007   1.3227657917106620E-005   0.0000000000000000     
   5.9766320296171924E-007   1.3705378660166377E-005   0.0000000000000000     
   6.0289932707988291E-007   1.4187250277857692E-005   0.0000000000000000     
   4.2464366300609474E-007   1.0461564596386171E-005   0.0000000000000000     
   4.3038086243825561E-007   1.0909279413344441E-005   0.0000000000000000     
   4.3587388233290999E-007   1.1362609645091519E-005   0.0000000000000000     
   4.4112272245802867E-007   1.1821311213766316E-005   0.0000000000000000     
   4.4612738258158179E-007   1.2285140041507760E-005   0.0000000000000000     
   4.5088786247154023E-007   1.2753852050454770E-005   0.0000000000000000     
   4.5540416189587448E-007   1.3227203162746267E-005   0.0000000000000000     
   4.5967628062255503E-007   1.3704949300521171E-005   0.0000000000000000     
   4.6370421841955242E-007   1.4186846385918403E-005   0.0000000000000000     
   2.9721715227287251E-007   1.0461116414123464E-005   0.0000000000000000     
   3.0123316444881755E-007   1.0908849930032908E-005   0.0000000000000000     
   3.0507824672923652E-007   1.1362198853170950E-005   0.0000000000000000     
   3.0875240559784750E-007   1.1820919099003572E-005   0.0000000000000000     
   3.1225564753836890E-007   1.2284766582996760E-005   0.0000000000000000     
   3.1558797903451904E-007   1.2753497220616502E-005   0.0000000000000000     
   3.1874940657001626E-007   1.3226866927328778E-005   0.0000000000000000     
   3.2173993662857860E-007   1.3704631618599590E-005   0.0000000000000000     
   3.2455957569392447E-007   1.4186547209894911E-005   0.0000000000000000     
   1.6982600637994592E-007   1.0460826415696072E-005   0.0000000000000000     
   1.7212085782128465E-007   1.0908572066132676E-005   0.0000000000000000     
   1.7431803277808939E-007   1.1361933117743721E-005   0.0000000000000000     
   1.7641753802756362E-007   1.1820665466248430E-005   0.0000000000000000     
   1.7841938034691034E-007   1.2284525007366030E-005   0.0000000000000000     
   1.8032356651333265E-007   1.2753267636815738E-005   0.0000000000000000     
   1.8213010330403377E-007   1.3226649250316783E-005   0.0000000000000000     
   1.8383899749621681E-007   1.3704425743588388E-005   0.0000000000000000     
   1.8545025586708493E-007   1.4186353012349774E-005   0.0000000000000000     
   4.2455069347165973E-008   1.0460694606029985E-005   0.0000000000000000     
   4.3028776650156592E-008   1.0908445809212688E-005   0.0000000000000000     
   4.3578063007798121E-008   1.1361812408436593E-005   0.0000000000000000     
   4.4102931537979962E-008   1.1820550273973135E-005   0.0000000000000000     
   4.4603385358591371E-008   1.2284415276093740E-005   0.0000000000000000     
   4.5079427587521650E-008   1.2753163285069852E-005   0.0000000000000000     
   4.5531061342660226E-008   1.3226550171172900E-005   0.0000000000000000     
   4.5958289741896428E-008   1.3704331804674319E-005   0.0000000000000000     
   4.6361115903119599E-008   1.4186264055845544E-005   0.0000000000000000     
  -8.4910814805616264E-008   1.0460720990051166E-005   0.0000000000000000     
  -8.6058244970066058E-008   1.0908471146841887E-005   0.0000000000000000     
  -8.7156840053307681E-008   1.1361836694876325E-005   0.0000000000000000     
  -8.8206602080100163E-008   1.1820573480649909E-005   0.0000000000000000     
  -8.9207533075202259E-008   1.2284437350658057E-005   0.0000000000000000     
  -9.0159635063372829E-008   1.2753184151396197E-005   0.0000000000000000     
  -9.1062910069371089E-008   1.3226569729359749E-005   0.0000000000000000     
  -9.1917360117955609E-008   1.3704349931044132E-005   0.0000000000000000     
  -9.2722987233885591E-008   1.4186280602944774E-005   0.0000000000000000     
  -2.1228680205854964E-007   1.0460905572685617E-005   0.0000000000000000     
  -2.1515537294488346E-007   1.0908648066589216E-005   0.0000000000000000     
  -2.1790185387689889E-007   1.1362005946689678E-005   0.0000000000000000     
  -2.2052625103587360E-007   1.1820735044750994E-005   0.0000000000000000     
  -2.2302857060308500E-007   1.2284591192537150E-005   0.0000000000000000     
  -2.2540881875981037E-007   1.2753330221812144E-005   0.0000000000000000     
  -2.2766700168732714E-007   1.3226707964339957E-005   0.0000000000000000     
  -2.2980312556691276E-007   1.3704480251884584E-005   0.0000000000000000     
  -2.3181719657984468E-007   1.4186402916210020E-005   0.0000000000000000     
  -3.3968804839178350E-007   1.0461248358859296E-005   0.0000000000000000     
  -3.4427777317979521E-007   1.0908976556023619E-005   0.0000000000000000     
  -3.4867215593464590E-007   1.1362320133503413E-005   0.0000000000000000     
  -3.5287120353853728E-007   1.1821034924748624E-005   0.0000000000000000     
  -3.5687492287367124E-007   1.2284876763209185E-005   0.0000000000000000     
  -3.6068332082224961E-007   1.2753601482335045E-005   0.0000000000000000     
  -3.6429640426647474E-007   1.3226964915576143E-005   0.0000000000000000     
  -3.6771418008854837E-007   1.3704722896382433E-005   0.0000000000000000     
  -3.7093665517067200E-007   1.4186631258203844E-005   0.0000000000000000     
  -1.7092642398791735E-007   2.0350753472989936E-006   0.0000000000000000     
  -1.8020850240849095E-007   2.2748094487754885E-006   0.0000000000000000     
  -1.8929389960620449E-007   2.5260143445263314E-006   0.0000000000000000     
  -1.9818282946870056E-007   2.7884464793894052E-006   0.0000000000000000     
  -2.0687550588362166E-007   3.0618622982025913E-006   0.0000000000000000     
  -2.1537214273861042E-007   3.3460182458037727E-006   0.0000000000000000     
  -2.2367295392130941E-007   3.6406707670308334E-006   0.0000000000000000     
  -2.3177815331936122E-007   3.9455763067216536E-006   0.0000000000000000     
  -2.3968795482040857E-007   4.2604913097141172E-006   0.0000000000000000     
  -2.3508319593709246E-007   2.0360796099797807E-006   0.0000000000000000     
  -2.4784578534229543E-007   2.2757920500724548E-006   0.0000000000000000     
  -2.6033801383741124E-007   2.5269754895728145E-006   0.0000000000000000     
  -2.7256016395458385E-007   2.7893863425348443E-006   0.0000000000000000     
  -2.8451251822595734E-007   3.0627810230125323E-006   0.0000000000000000     
  -2.9619535918367588E-007   3.3469159450598651E-006   0.0000000000000000     
  -3.0760896935988323E-007   3.6415475227308255E-006   0.0000000000000000     
  -3.1875363128672373E-007   3.9464321700794030E-006   0.0000000000000000     
  -3.2962962749634123E-007   4.2613263011595808E-006   0.0000000000000000     
  -2.9929614232133976E-007   2.0374010107592810E-006   0.0000000000000000     
  -3.1553902331771452E-007   2.2770849401432682E-006   0.0000000000000000     
  -3.3143792208615875E-007   2.5282401432751610E-006   0.0000000000000000     
  -3.4699318128349818E-007   2.7906229927401039E-006   0.0000000000000000     
  -3.6220514356655897E-007   3.0639898611232414E-006   0.0000000000000000     
  -3.7707415159216724E-007   3.3480971210097203E-006   0.0000000000000000     
  -3.9160054801714920E-007   3.6427011449846853E-006   0.0000000000000000     
  -4.0578467549833060E-007   3.9475583056332824E-006   0.0000000000000000     
  -4.1962687669253758E-007   4.2624249755406541E-006   0.0000000000000000     
  -3.6358044821032401E-007   2.0390394408500109E-006   0.0000000000000000     
  -3.8330338894577788E-007   2.2786880472820330E-006   0.0000000000000000     
  -4.0260878868115597E-007   2.5298082608748332E-006   0.0000000000000000     
  -4.2149704095518007E-007   2.7921564036943337E-006   0.0000000000000000     
  -4.3996853930657112E-007   3.0654887978064521E-006   0.0000000000000000     
  -4.5802367727405054E-007   3.3495617652771108E-006   0.0000000000000000     
  -4.7566284839633987E-007   3.6441316281722280E-006   0.0000000000000000     
  -4.9288644621216030E-007   3.9489547085577274E-006   0.0000000000000000     
  -5.0969486426023348E-007   4.2637873284995270E-006   0.0000000000000000     
  -4.2795129867370985E-007   2.0409947914644894E-006   0.0000000000000000     
  -4.5115405483751473E-007   2.2806012997828524E-006   0.0000000000000000     
  -4.7386577795111268E-007   2.5316797976132931E-006   0.0000000000000000     
  -4.9608690246936640E-007   2.7939865490866842E-006   0.0000000000000000     
  -5.1781786284713844E-007   3.0672778183338966E-006   0.0000000000000000     
  -5.3905909353929169E-007   3.3513098694858036E-006   0.0000000000000000     
  -5.5981102900068875E-007   3.6458389666732726E-006   0.0000000000000000     
  -5.8007410368619202E-007   3.9506213740271793E-006   0.0000000000000000     
  -5.9984875205066431E-007   4.2654133556783922E-006   0.0000000000000000     
  -4.9242387878116242E-007   2.0432669538152348E-006   0.0000000000000000     
  -5.1910619360395466E-007   2.2828246259398291E-006   0.0000000000000000     
  -5.4522405422473774E-007   2.5338547087320012E-006   0.0000000000000000     
  -5.7077792532579404E-007   2.7961134026063086E-006   0.0000000000000000     
  -5.9576827158940573E-007   3.0693569079773107E-006   0.0000000000000000     
  -6.2019555769785656E-007   3.3533414252595681E-006   0.0000000000000000     
  -6.4406024833342818E-007   3.6478231548676357E-006   0.0000000000000000     
  -6.6736280817840392E-007   3.9525582972160763E-006   0.0000000000000000     
  -6.9010370191506615E-007   4.2673030527194463E-006   0.0000000000000000     
  -5.5701337360234592E-007   2.0458558191147642E-006   0.0000000000000000     
  -5.8717497785612747E-007   2.2853579540470683E-006   0.0000000000000000     
  -6.1669878183074036E-007   2.5363329494724171E-006   0.0000000000000000     
  -6.4558526902419924E-007   2.7985369379423564E-006   0.0000000000000000     
  -6.7383492293451806E-007   3.0717260520084274E-006   0.0000000000000000     
  -7.0144822705971063E-007   3.3556564242221719E-006   0.0000000000000000     
  -7.2842566489779152E-007   3.6500841871351339E-006   0.0000000000000000     
  -7.5476771994677485E-007   3.9547654732988572E-006   0.0000000000000000     
  -7.8047487570467435E-007   4.2694564152648828E-006   0.0000000000000000     
  -6.2173496820692583E-007   2.0487612785755963E-006   0.0000000000000000     
  -6.5537558020506217E-007   2.2882012123986723E-006   0.0000000000000000     
  -6.8830512509782997E-007   2.5391144750760056E-006   0.0000000000000000     
  -7.2052409306431941E-007   2.8012571287839799E-006   0.0000000000000000     
  -7.5203297428361949E-007   3.0743852356989784E-006   0.0000000000000000     
  -7.8283225893482014E-007   3.3582548579973857E-006   0.0000000000000000     
  -8.1292243719701187E-007   3.6526220578555840E-006   0.0000000000000000     
  -8.4230399924928335E-007   3.9572428974499575E-006   0.0000000000000000     
  -8.7097743527072517E-007   4.2718734389568916E-006   0.0000000000000000     
  -6.8660384766456659E-007   2.0519832234102501E-006   0.0000000000000000     
  -7.2372317326178850E-007   2.2913543292887447E-006   0.0000000000000000     
  -7.6005824835471589E-007   2.5421992407842248E-006   0.0000000000000000     
  -7.9560955694589068E-007   2.8042739488203297E-006   0.0000000000000000     
  -8.3037758303785467E-007   3.0773344443206987E-006   0.0000000000000000     
  -8.6436281063315122E-007   3.3611367182089777E-006   0.0000000000000000     
  -8.9756572373432172E-007   3.6554367614088048E-006   0.0000000000000000     
  -9.2998680634390828E-007   3.9599905648438204E-006   0.0000000000000000     
  -9.6162654246445418E-007   4.2745541194376702E-006   0.0000000000000000     
  -2.3968795482040857E-007   4.2604913097141172E-006   0.0000000000000000     
  -2.4740253361213264E-007   4.5851721141112273E-006   0.0000000000000000     
  -2.5492191008237020E-007   4.9193746310764734E-006   0.0000000000000000     
  -2.6224606591899663E-007   5.2628546650384572E-006   0.0000000000000000     
  -2.6937498280988754E-007   5.6153680204257925E-006   0.0000000000000000     
  -2.7630864244291831E-007   5.9766705016670871E-006   0.0000000000000000     
  -2.8304702650596449E-007   6.3465179131909443E-006   0.0000000000000000     
  -2.8959011668690146E-007   6.7246660594259762E-006   0.0000000000000000     
  -2.9593789467360494E-007   7.1108707448007898E-006   0.0000000000000000     
  -3.2962962749634123E-007   4.2613263011595808E-006   0.0000000000000000     
  -3.4023718927844414E-007   4.5859862289069955E-006   0.0000000000000000     
  -3.5057634295299716E-007   4.9201678617838554E-006   0.0000000000000000     
  -3.6064706359752973E-007   5.2636270071340287E-006   0.0000000000000000     
  -3.7044932628957074E-007   5.6161194723013707E-006   0.0000000000000000     
  -3.7998310610664958E-007   5.9774010646297438E-006   0.0000000000000000     
  -3.8924837812629538E-007   6.3472275914630100E-006   0.0000000000000000     
  -3.9824511742603706E-007   6.7253548601450283E-006   0.0000000000000000     
  -4.0697329908340395E-007   7.1115386780196625E-006   0.0000000000000000     
  -4.1962687669253758E-007   4.2624249755406541E-006   0.0000000000000000     
  -4.3312743184984310E-007   4.5870574338397601E-006   0.0000000000000000     
  -4.4628637159330574E-007   4.9212115858548057E-006   0.0000000000000000     
  -4.5910366413923134E-007   5.2646432434578067E-006   0.0000000000000000     
  -4.7157927770392505E-007   5.6171082185207787E-006   0.0000000000000000     
  -4.8371318050369299E-007   5.9783623229157448E-006   0.0000000000000000     
  -4.9550534075484035E-007   6.3481613685147132E-006   0.0000000000000000     
  -5.0695572667367271E-007   6.7262611671897080E-006   0.0000000000000000     
  -5.1806430647649560E-007   7.1124175308127439E-006   0.0000000000000000     
  -5.0969486426023348E-007   4.2637873284995270E-006   0.0000000000000000     
  -5.2608842403718101E-007   4.5883857259794460E-006   0.0000000000000000     
  -5.4206715887122712E-007   4.9225058026429136E-006   0.0000000000000000     
  -5.5763103004849632E-007   5.2659033760512432E-006   0.0000000000000000     
  -5.7277999885511376E-007   5.6183342637657732E-006   0.0000000000000000     
  -5.8751402657720398E-007   5.9795542833478144E-006   0.0000000000000000     
  -6.0183307450089136E-007   6.3493192523586984E-006   0.0000000000000000     
  -6.1573710391230065E-007   6.7273849883597462E-006   0.0000000000000000     
  -6.2922607609755637E-007   7.1135073089122837E-006   0.0000000000000000     
  -5.9984875205066431E-007   4.2654133556783922E-006   0.0000000000000000     
  -6.1913532855130925E-007   4.5899711023959766E-006   0.0000000000000000     
  -6.3793386765469209E-007   4.9240505115017702E-006   0.0000000000000000     
  -6.5624432382972014E-007   5.2674074069558002E-006   0.0000000000000000     
  -6.7406665154529999E-007   5.6197976127180969E-006   0.0000000000000000     
  -6.9140080527033747E-007   5.9809769527486893E-006   0.0000000000000000     
  -7.0824673947373979E-007   6.3507012510076051E-006   0.0000000000000000     
  -7.2460440862441333E-007   6.7287263314548791E-006   0.0000000000000000     
  -7.4047376719126477E-007   7.1148080180505341E-006   0.0000000000000000     
  -6.9010370191506615E-007   4.2673030527194463E-006   0.0000000000000000     
  -7.1228330810307920E-007   4.5918135601592759E-006   0.0000000000000000     
  -7.3390166081163265E-007   4.9258457117849757E-006   0.0000000000000000     
  -7.5495870798729822E-007   5.2691553382129253E-006   0.0000000000000000     
  -7.7545439757664668E-007   5.6214982700595059E-006   0.0000000000000000     
  -7.9538867752624944E-007   5.9826303379410989E-006   0.0000000000000000     
  -8.1476149578267803E-007   6.3523073724740820E-006   0.0000000000000000     
  -8.3357280029250352E-007   6.7302852042748392E-006   0.0000000000000000     
  -8.5182253900229711E-007   7.1163196639597508E-006   0.0000000000000000     
  -7.8047487570467435E-007   4.2694564152648828E-006   0.0000000000000000     
  -8.0554752540334225E-007   4.5939130963392683E-006   0.0000000000000000     
  -8.2998570120997958E-007   4.9278914028461247E-006   0.0000000000000000     
  -8.5378934502562474E-007   5.2711471718640748E-006   0.0000000000000000     
  -8.7695839875131706E-007   5.6234362404717512E-006   0.0000000000000000     
  -8.9949280428809525E-007   5.9845144457477758E-006   0.0000000000000000     
  -9.2139250353699750E-007   6.3541376247707712E-006   0.0000000000000000     
  -9.4265743839906345E-007   6.7320616146193659E-006   0.0000000000000000     
  -9.6328755077533129E-007   7.1180422523721869E-006   0.0000000000000000     
  -8.7097743527072517E-007   4.2718734389568916E-006   0.0000000000000000     
  -8.9894314316294986E-007   4.5962697080058710E-006   0.0000000000000000     
  -9.2620115171766366E-007   4.9301875840388048E-006   0.0000000000000000     
  -9.5275139744909538E-007   5.2733829099507046E-006   0.0000000000000000     
  -9.7859381687147414E-007   5.6256115286365811E-006   0.0000000000000000     
  -1.0037283464990292E-006   5.9866292829914492E-006   0.0000000000000000     
  -1.0281549228459902E-006   6.3561920159103137E-006   0.0000000000000000     
  -1.0518734824265848E-006   6.7340555702881903E-006   0.0000000000000000     
  -1.0748839617550435E-006   7.1199757890200905E-006   0.0000000000000000     
  -9.6162654246445418E-007   4.2745541194376702E-006   0.0000000000000000     
  -9.9248532409275365E-007   4.5988833922290149E-006   0.0000000000000000     
  -1.0225631752026167E-006   4.9327342547166197E-006   0.0000000000000000     
  -1.0518600277621052E-006   5.2758625545142702E-006   0.0000000000000000     
  -1.0803758137392814E-006   5.6280241392357510E-006   0.0000000000000000     
  -1.1081104651022085E-006   5.9889748564948502E-006   0.0000000000000000     
  -1.1350639138189475E-006   6.3584705539053550E-006   0.0000000000000000     
  -1.1612360918575609E-006   6.7362670790810482E-006   0.0000000000000000     
  -1.1866269311861128E-006   7.1221202796357232E-006   0.0000000000000000     
  -2.9593789467360494E-007   7.1108707448007898E-006   0.0000000000000000     
  -3.0209034482244988E-007   7.5048877897412483E-006   0.0000000000000000     
  -3.0804746216381089E-007   7.9064730786622362E-006   0.0000000000000000     
  -3.1380924439656281E-007   8.3153825119759012E-006   0.0000000000000000     
  -3.1937568921957955E-007   8.7313719900943808E-006   0.0000000000000000     
  -3.2474679433173549E-007   9.1541974134298152E-006   0.0000000000000000     
  -3.2992255743190521E-007   9.5836146823943528E-006   0.0000000000000000     
  -3.3490297621896322E-007   1.0019379697400132E-005   0.0000000000000000     
  -3.3968804839178350E-007   1.0461248358859296E-005   0.0000000000000000     
  -4.0697329908340395E-007   7.1115386780196625E-006   0.0000000000000000     
  -4.1543290212935273E-007   7.5055348670389329E-006   0.0000000000000000     
  -4.2362392140854941E-007   7.9070993075875056E-006   0.0000000000000000     
  -4.3154635571908786E-007   8.3159878946582090E-006   0.0000000000000000     
  -4.3920020385906167E-007   8.7319565232438764E-006   0.0000000000000000     
  -4.4658546462656413E-007   9.1547610883373261E-006   0.0000000000000000     
  -4.5370213681968947E-007   9.5841574849313966E-006   0.0000000000000000     
  -4.6055021923653086E-007   1.0019901608018909E-005   0.0000000000000000     
  -4.6712971067518212E-007   1.0461749352592693E-005   0.0000000000000000     
  -5.1806430647649560E-007   7.1124175308127439E-006   0.0000000000000000     
  -5.2883105392386859E-007   7.5063862836615337E-006   0.0000000000000000     
  -5.3925596495336755E-007   7.9079232996365639E-006   0.0000000000000000     
  -5.4933904104682222E-007   8.3167844650440267E-006   0.0000000000000000     
  -5.5908028368606251E-007   8.7327256661901072E-006   0.0000000000000000     
  -5.6847969435291794E-007   9.1555027893809824E-006   0.0000000000000000     
  -5.7753727452921854E-007   9.5848717209228460E-006   0.0000000000000000     
  -5.8625302569679383E-007   1.0020588347121887E-005   0.0000000000000000     
  -5.9462694933747362E-007   1.0462408554284280E-005   0.0000000000000000     
  -6.2922607609755637E-007   7.1135073089122837E-006   0.0000000000000000     
  -6.4229995972154209E-007   7.5074420412238859E-006   0.0000000000000000     
  -6.5495875296417110E-007   7.9089450510871502E-006   0.0000000000000000     
  -6.6720246138411586E-007   8.3177722139409207E-006   0.0000000000000000     
  -6.7903109054004840E-007   8.7336794052240466E-006   0.0000000000000000     
  -6.9044464599064087E-007   9.1564225003753686E-006   0.0000000000000000     
  -7.0144313329456613E-007   9.5857573748337442E-006   0.0000000000000000     
  -7.1202655801049539E-007   1.0021439904038014E-005   0.0000000000000000     
  -7.2219492569710151E-007   1.0463225963427026E-005   0.0000000000000000     
  -7.4047376719126477E-007   7.1148080180505341E-006   0.0000000000000000     
  -7.5585477903791786E-007   7.5087021413408400E-006   0.0000000000000000     
  -7.7074744560686558E-007   7.9101645582170019E-006   0.0000000000000000     
  -7.8515177773531788E-007   8.3189511321564678E-006   0.0000000000000000     
  -7.9906778626048543E-007   8.7348177266366799E-006   0.0000000000000000     
  -8.1249548201957808E-007   9.1575202051350860E-006   0.0000000000000000     
  -8.2543487584980555E-007   9.5868144311291274E-006   0.0000000000000000     
  -8.3788597858837981E-007   1.0022456268096254E-005   0.0000000000000000     
  -8.4984880107250909E-007   1.0464201579513900E-005   0.0000000000000000     
  -8.5182253900229711E-007   7.1163196639597508E-006   0.0000000000000000     
  -8.6951067138854053E-007   7.5101665856272346E-006   0.0000000000000000     
  -8.8663720304735673E-007   7.9115818173038665E-006   0.0000000000000000     
  -9.0320215110477857E-007   8.3203212104982479E-006   0.0000000000000000     
  -9.1920553268683983E-007   8.7361406167189989E-006   0.0000000000000000     
  -9.3464736491957337E-007   9.1587958874747259E-006   0.0000000000000000     
  -9.4952766492901224E-007   9.5880428742740438E-006   0.0000000000000000     
  -9.6384644984119057E-007   1.0023637428625557E-005   0.0000000000000000     
  -9.7760373678214024E-007   1.0465335402037883E-005   0.0000000000000000     
  -9.6328755077533129E-007   7.1180422523721869E-006   0.0000000000000000     
  -9.8328279628895473E-007   7.5118353756979144E-006   0.0000000000000000     
  -1.0026431854515503E-006   7.9131968246254697E-006   0.0000000000000000     
  -1.0213687424968477E-006   8.3218824397738309E-006   0.0000000000000000     
  -1.0394594916585779E-006   8.7376480617619753E-006   0.0000000000000000     
  -1.0569154571704714E-006   9.1602495312088811E-006   0.0000000000000000     
  -1.0737366632662586E-006   9.5894426887335245E-006   0.0000000000000000     
  -1.0899231341796711E-006   1.0024983374954884E-005   0.0000000000000000     
  -1.1054748941444382E-006   1.0466627430491935E-005   0.0000000000000000     
  -1.0748839617550435E-006   7.1199757890200905E-006   0.0000000000000000     
  -1.0971863132547060E-006   7.5137085131677223E-006   0.0000000000000000     
  -1.1187805529853519E-006   7.9150095764595624E-006   0.0000000000000000     
  -1.1396667129158747E-006   8.3236348107907934E-006   0.0000000000000000     
  -1.1598448250151659E-006   8.7393400480565961E-006   0.0000000000000000     
  -1.1793149212521165E-006   9.1618811201521411E-006   0.0000000000000000     
  -1.1980770335956190E-006   9.5910138589726109E-006   0.0000000000000000     
  -1.2161311940145653E-006   1.0026494096413183E-005   0.0000000000000000     
  -1.2334774344778471E-006   1.0468077664369031E-005   0.0000000000000000     
  -1.1866269311861128E-006   7.1221202796357232E-006   0.0000000000000000     
  -1.2112363818013373E-006   7.5157859996514994E-006   0.0000000000000000     
  -1.2350644658146674E-006   7.9170200690838838E-006   0.0000000000000000     
  -1.2581112233662098E-006   8.3255783143567155E-006   0.0000000000000000     
  -1.2803766945960696E-006   8.7412165618938430E-006   0.0000000000000000     
  -1.3018609196443532E-006   9.1636906381191040E-006   0.0000000000000000     
  -1.3225639386511677E-006   9.5927563694563495E-006   0.0000000000000000     
  -1.3424857917566178E-006   1.0028169582329417E-005   0.0000000000000000     
  -1.3616265191008104E-006   1.0469686103162144E-005   0.0000000000000000     
  -3.3968804839178350E-007   1.0461248358859296E-005   0.0000000000000000     
  -3.4427777317979521E-007   1.0908976556023619E-005   0.0000000000000000     
  -3.4867215593464590E-007   1.1362320133503413E-005   0.0000000000000000     
  -3.5287120353853728E-007   1.1821034924748624E-005   0.0000000000000000     
  -3.5687492287367124E-007   1.2284876763209185E-005   0.0000000000000000     
  -3.6068332082224961E-007   1.2753601482335045E-005   0.0000000000000000     
  -3.6429640426647474E-007   1.3226964915576143E-005   0.0000000000000000     
  -3.6771418008854837E-007   1.3704722896382433E-005   0.0000000000000000     
  -3.7093665517067200E-007   1.4186631258203844E-005   0.0000000000000000     
  -4.6712971067518212E-007   1.0461749352592693E-005   0.0000000000000000     
  -4.7344061050103690E-007   1.0909456607250430E-005   0.0000000000000000     
  -4.7948292034868779E-007   1.1362779235009188E-005   0.0000000000000000     
  -4.8525664242002774E-007   1.1821473092490893E-005   0.0000000000000000     
  -4.9076177891694945E-007   1.2285294036317464E-005   0.0000000000000000     
  -4.9599833204134588E-007   1.2753997923110823E-005   0.0000000000000000     
  -5.0096630399510934E-007   1.3227340609492900E-005   0.0000000000000000     
  -5.0566569698013290E-007   1.3705077952085608E-005   0.0000000000000000     
  -5.1009651319830942E-007   1.4186965807510877E-005   0.0000000000000000     
  -5.9462694933747362E-007   1.0462408554284280E-005   0.0000000000000000     
  -6.0265904541778444E-007   1.0910088230520513E-005   0.0000000000000000     
  -6.1034930784303774E-007   1.1363383271158225E-005   0.0000000000000000     
  -6.1769772900324175E-007   1.1822049573329358E-005   0.0000000000000000     
  -6.2470430128840494E-007   1.2285843034165853E-005   0.0000000000000000     
  -6.3136901708853533E-007   1.2754519550799630E-005   0.0000000000000000     
  -6.3769186879364106E-007   1.3227835020362646E-005   0.0000000000000000     
  -6.4367284879373017E-007   1.3705545339986825E-005   0.0000000000000000     
  -6.4931194947881154E-007   1.4187406406804116E-005   0.0000000000000000     
  -7.2219492569710151E-007   1.0463225963427026E-005   0.0000000000000000     
  -7.3194823735994929E-007   1.0910871440621130E-005   0.0000000000000000     
  -7.4128647579217725E-007   1.1364132271966656E-005   0.0000000000000000     
  -7.5020961923381591E-007   1.1822764405991443E-005   0.0000000000000000     
  -7.5871764592489676E-007   1.2286523791223340E-005   0.0000000000000000     
  -7.6681053410545063E-007   1.2755166376190164E-005   0.0000000000000000     
  -7.7448826201550826E-007   1.3228448109419770E-005   0.0000000000000000     
  -7.8175080789510158E-007   1.3706124939439984E-005   0.0000000000000000     
  -7.8859814998426088E-007   1.4187952814778648E-005   0.0000000000000000     
  -8.4984880107250909E-007   1.0464201579513900E-005   0.0000000000000000     
  -8.6132334575744333E-007   1.0911806252339530E-005   0.0000000000000000     
  -8.7230958157058810E-007   1.1365026267450595E-005   0.0000000000000000     
  -8.8280746905738704E-007   1.1823617629204569E-005   0.0000000000000000     
  -8.9281696876328403E-007   1.2287336341958927E-005   0.0000000000000000     
  -9.0233804123372387E-007   1.2755938410071128E-005   0.0000000000000000     
  -9.1137064701415022E-007   1.3229179837898660E-005   0.0000000000000000     
  -9.1991474665000747E-007   1.3706816629798972E-005   0.0000000000000000     
  -9.2797030068673937E-007   1.4188604790129542E-005   0.0000000000000000     
  -9.7760373678214024E-007   1.0465335402037883E-005   0.0000000000000000     
  -9.9079953004017847E-007   1.0912892680462975E-005   0.0000000000000000     
  -1.0034337825527522E-006   1.1366065287626169E-005   0.0000000000000000     
  -1.0155064344195912E-006   1.1824609281696156E-005   0.0000000000000000     
  -1.0270174257404261E-006   1.2288280720841614E-005   0.0000000000000000     
  -1.0379666966149876E-006   1.2756835663231238E-005   0.0000000000000000     
  -1.0483541871430053E-006   1.3230030167033697E-005   0.0000000000000000     
  -1.0581798374242095E-006   1.3707620290417691E-005   0.0000000000000000     
  -1.0674435875583302E-006   1.4189362091551894E-005   0.0000000000000000     
  -1.1054748941444382E-006   1.0466627430491935E-005   0.0000000000000000     
  -1.1203919496380655E-006   1.0914130739778720E-005   0.0000000000000000     
  -1.1346742361131501E-006   1.1367249362509504E-005   0.0000000000000000     
  -1.1483216712660658E-006   1.1825739402193620E-005   0.0000000000000000     
  -1.1613341727931827E-006   1.2289356962340402E-005   0.0000000000000000     
  -1.1737116583908740E-006   1.2757858146459178E-005   0.0000000000000000     
  -1.1854540457555121E-006   1.3230999058059273E-005   0.0000000000000000     
  -1.1965612525834680E-006   1.3708535800650033E-005   0.0000000000000000     
  -1.2070331965711149E-006   1.4190224477740769E-005   0.0000000000000000     
  -1.2334774344778471E-006   1.0468077664369031E-005   0.0000000000000000     
  -1.2501157639810164E-006   1.0915520445074017E-005   0.0000000000000000     
  -1.2660460996262653E-006   1.1368578522116717E-005   0.0000000000000000     
  -1.2812683355424460E-006   1.1827008029424387E-005   0.0000000000000000     
  -1.2957823658584120E-006   1.2290565100924282E-005   0.0000000000000000     
  -1.3095880847030152E-006   1.2759005870543661E-005   0.0000000000000000     
  -1.3226853862051092E-006   1.3232086472209777E-005   0.0000000000000000     
  -1.3350741644935452E-006   1.3709563039849892E-005   0.0000000000000000     
  -1.3467543136971767E-006   1.4191191707391261E-005   0.0000000000000000     
  -1.3616265191008104E-006   1.0469686103162144E-005   0.0000000000000000     
  -1.3799861324989422E-006   1.0917061811136131E-005   0.0000000000000000     
  -1.3975645304665771E-006   1.1370052796463934E-005   0.0000000000000000     
  -1.4143615831943700E-006   1.1828415202115874E-005   0.0000000000000000     
  -1.4303771608729742E-006   1.2291905171062255E-005   0.0000000000000000     
  -1.4456111336930447E-006   1.2760278846273393E-005   0.0000000000000000     
  -1.4600633718452356E-006   1.3233292370719594E-005   0.0000000000000000     
  -1.4737337455202013E-006   1.3710701887371170E-005   0.0000000000000000     
  -1.4866221249085975E-006   1.4192263539198445E-005   0.0000000000000000     
  -6.8660384766456659E-007   2.0519832234102501E-006   0.0000000000000000     
  -7.2372317326178850E-007   2.2913543292887447E-006   0.0000000000000000     
  -7.6005824835471589E-007   2.5421992407842248E-006   0.0000000000000000     
  -7.9560955694589068E-007   2.8042739488203297E-006   0.0000000000000000     
  -8.3037758303785467E-007   3.0773344443206987E-006   0.0000000000000000     
  -8.6436281063315122E-007   3.3611367182089777E-006   0.0000000000000000     
  -8.9756572373432172E-007   3.6554367614088048E-006   0.0000000000000000     
  -9.2998680634390828E-007   3.9599905648438204E-006   0.0000000000000000     
  -9.6162654246445418E-007   4.2745541194376702E-006   0.0000000000000000     
  -7.5163517043616281E-007   2.0555215476797668E-006   0.0000000000000000     
  -7.9223291267240352E-007   2.2948172353803237E-006   0.0000000000000000     
  -8.3197330610522159E-007   2.5455872039522328E-006   0.0000000000000000     
  -8.7085681533818769E-007   2.8075873737533543E-006   0.0000000000000000     
  -9.0888390497487176E-007   3.0805736651415446E-006   0.0000000000000000     
  -9.4605503961884438E-007   3.3643019984746611E-006   0.0000000000000000     
  -9.8237068387367591E-007   3.6585282941105621E-006   0.0000000000000000     
  -1.0178313023429366E-006   3.9630084724071071E-006   0.0000000000000000     
  -1.0524373596301971E-006   4.2774984537221518E-006   0.0000000000000000     
  -8.1684398854752947E-007   2.0593761568392924E-006   0.0000000000000000     
  -8.6091988622327462E-007   2.2985898708121722E-006   0.0000000000000000     
  -9.0406541355363149E-007   2.5492783303899759E-006   0.0000000000000000     
  -9.4628100358863714E-007   2.8111973873362041E-006   0.0000000000000000     
  -9.8756708937832835E-007   3.0841028934143567E-006   0.0000000000000000     
  -1.0279241039727426E-006   3.3677507003879365E-006   0.0000000000000000     
  -1.0673524804219170E-006   3.6618966600204429E-006   0.0000000000000000     
  -1.1058526517758887E-006   3.9662966240753775E-006   0.0000000000000000     
  -1.1434250510846936E-006   4.2807064443162402E-006   0.0000000000000000     
  -8.8224532741571116E-007   2.0635469591924950E-006   0.0000000000000000     
  -9.2979916473583723E-007   2.3026721780919895E-006   0.0000000000000000     
  -9.7634967607934398E-007   2.5532725880210931E-006   0.0000000000000000     
  -1.0218972522142031E-006   2.8151039753348237E-006   0.0000000000000000     
  -1.0664422839083857E-006   3.0879221263882004E-006   0.0000000000000000     
  -1.1099851619298641E-006   3.3714828275362463E-006   0.0000000000000000     
  -1.1525262770466081E-006   3.6655418651339778E-006   0.0000000000000000     
  -1.1940660200265906E-006   3.9698550255364172E-006   0.0000000000000000     
  -1.2346047816377833E-006   4.2841780950985864E-006   0.0000000000000000     
  -9.4785421245775194E-007   2.0680338630430437E-006   0.0000000000000000     
  -9.9888581903152592E-007   2.3070640997274757E-006   0.0000000000000000     
  -1.0488411990617575E-006   2.5575699447692255E-006   0.0000000000000000     
  -1.0977206917318493E-006   2.8193071235151590E-006   0.0000000000000000     
  -1.1455246362252046E-006   3.0920313613121409E-006   0.0000000000000000     
  -1.1922533717252251E-006   3.3754983835070334E-006   0.0000000000000000     
  -1.2379072374153133E-006   3.6694639154467030E-006   0.0000000000000000     
  -1.2824865724788726E-006   3.9736836824780151E-006   0.0000000000000000     
  -1.3259917160993052E-006   4.2879134099478331E-006   0.0000000000000000     
  -1.0136856690906972E-006   2.0728367766946088E-006   0.0000000000000000     
  -1.0681949199317757E-006   2.3117655782263263E-006   0.0000000000000000     
  -1.1215550878802712E-006   2.5621703685580154E-006   0.0000000000000000     
  -1.1737664526585410E-006   2.8238068176431581E-006   0.0000000000000000     
  -1.2248292939889457E-006   3.0964305954352401E-006   0.0000000000000000     
  -1.2747438915938450E-006   3.3797973718877449E-006   0.0000000000000000     
  -1.3235105251955965E-006   3.6736628169541541E-006   0.0000000000000000     
  -1.3711294745165616E-006   3.9777826005879550E-006   0.0000000000000000     
  -1.4176010192790988E-006   4.2919123927426289E-006   0.0000000000000000     
  -1.0797547227315907E-006   2.0779556084508584E-006   0.0000000000000000     
  -1.1377415382580226E-006   2.3167765560962417E-006   0.0000000000000000     
  -1.1945064479142824E-006   2.5670738273111021E-006   0.0000000000000000     
  -1.2500496655112417E-006   2.8286030434847676E-006   0.0000000000000000     
  -1.3043714048597706E-006   3.1011198260065636E-006   0.0000000000000000     
  -1.3574718797707410E-006   3.3843797962658215E-006   0.0000000000000000     
  -1.4093513040550220E-006   3.6781385756518645E-006   0.0000000000000000     
  -1.4600098915234867E-006   3.9821517855540219E-006   0.0000000000000000     
  -1.5094478559870042E-006   4.2961750473616215E-006   0.0000000000000000     
  -1.1460763987974774E-006   2.0833902666154616E-006   0.0000000000000000     
  -1.2075407448317002E-006   2.3220969758449182E-006   0.0000000000000000     
  -1.2677103845431911E-006   2.5722802889521269E-006   0.0000000000000000     
  -1.3265854608069150E-006   2.8336957868059313E-006   0.0000000000000000     
  -1.3841661164978399E-006   3.1060990502751768E-006   0.0000000000000000     
  -1.4404524944909298E-006   3.3892456602287071E-006   0.0000000000000000     
  -1.4954447376611527E-006   3.6828911975353681E-006   0.0000000000000000     
  -1.5491429888834740E-006   3.9867912430640037E-006   0.0000000000000000     
  -1.6015473910328601E-006   4.3007013776834560E-006   0.0000000000000000     
  -1.2126657227054023E-006   2.0891406594920887E-006   0.0000000000000000     
  -1.2776076104742446E-006   2.3277267799800553E-006   0.0000000000000000     
  -1.3411820031463950E-006   2.5777897214047310E-006   0.0000000000000000     
  -1.4033889690625264E-006   2.8390850333725987E-006   0.0000000000000000     
  -1.4642285765633133E-006   3.1113682654901428E-006   0.0000000000000000     
  -1.5237008939894309E-006   3.3943949673638495E-006   0.0000000000000000     
  -1.5818059896815528E-006   3.6879206886001999E-006   0.0000000000000000     
  -1.6385439319803533E-006   3.9917009788056818E-006   0.0000000000000000     
  -1.6939147892265067E-006   4.3054913875867786E-006   0.0000000000000000     
  -9.6162654246445418E-007   4.2745541194376702E-006   0.0000000000000000     
  -9.9248532409275365E-007   4.5988833922290149E-006   0.0000000000000000     
  -1.0225631752026167E-006   4.9327342547166197E-006   0.0000000000000000     
  -1.0518600277621052E-006   5.2758625545142702E-006   0.0000000000000000     
  -1.0803758137392814E-006   5.6280241392357510E-006   0.0000000000000000     
  -1.1081104651022085E-006   5.9889748564948502E-006   0.0000000000000000     
  -1.1350639138189475E-006   6.3584705539053550E-006   0.0000000000000000     
  -1.1612360918575609E-006   6.7362670790810482E-006   0.0000000000000000     
  -1.1866269311861128E-006   7.1221202796357232E-006   0.0000000000000000     
  -1.0524373596301971E-006   4.2774984537221518E-006   0.0000000000000000     
  -1.0861892309831979E-006   4.6017541468363951E-006   0.0000000000000000     
  -1.1190869342263599E-006   4.9355314142219026E-006   0.0000000000000000     
  -1.1511303978282745E-006   5.2785861067735807E-006   0.0000000000000000     
  -1.1823195502575339E-006   5.6306740753863379E-006   0.0000000000000000     
  -1.2126543199827285E-006   5.9915511709550771E-006   0.0000000000000000     
  -1.2421346354724507E-006   6.3609732443747050E-006   0.0000000000000000     
  -1.2707604251952909E-006   6.7386961465401281E-006   0.0000000000000000     
  -1.2985316176198411E-006   7.1244757283462546E-006   0.0000000000000000     
  -1.1434250510846936E-006   4.2807064443162402E-006   0.0000000000000000     
  -1.1800700269430978E-006   4.6048819726868116E-006   0.0000000000000000     
  -1.2157875901247749E-006   4.9385790618519760E-006   0.0000000000000000     
  -1.2505776669481266E-006   5.2815535646568978E-006   0.0000000000000000     
  -1.2844401837315528E-006   5.6335613339467397E-006   0.0000000000000000     
  -1.3173750667934558E-006   5.9943582225666634E-006   0.0000000000000000     
  -1.3493822424522378E-006   6.3637000833618365E-006   0.0000000000000000     
  -1.3804616370262985E-006   6.7413427691774210E-006   0.0000000000000000     
  -1.4106131768340401E-006   7.1270421328585802E-006   0.0000000000000000     
  -1.2346047816377833E-006   4.2841780950985864E-006   0.0000000000000000     
  -1.2741428751608632E-006   4.6082668713968411E-006   0.0000000000000000     
  -1.3126803039273346E-006   4.9418771968929023E-006   0.0000000000000000     
  -1.3502169937814077E-006   5.2847649252698312E-006   0.0000000000000000     
  -1.3867528705672914E-006   5.6366859102106813E-006   0.0000000000000000     
  -1.4222878601291974E-006   5.9973960053985156E-006   0.0000000000000000     
  -1.4568218883113350E-006   6.3666510645163935E-006   0.0000000000000000     
  -1.4903548809579138E-006   6.7442069412473694E-006   0.0000000000000000     
  -1.5228867639131447E-006   7.1298194892745062E-006   0.0000000000000000     
  -1.3259917160993052E-006   4.2879134099478331E-006   0.0000000000000000     
  -1.3684229388249022E-006   4.6119088445830604E-006   0.0000000000000000     
  -1.4097802366635109E-006   4.9454258186307502E-006   0.0000000000000000     
  -1.4500635369878659E-006   5.2882201857179980E-006   0.0000000000000000     
  -1.4892727671707043E-006   5.6400477994718952E-006   0.0000000000000000     
  -1.5274078545847605E-006   6.0006645135195365E-006   0.0000000000000000     
  -1.5644687266027705E-006   6.3698261814880150E-006   0.0000000000000000     
  -1.6004553105974700E-006   6.7472886570044245E-006   0.0000000000000000     
  -1.6353675339415933E-006   7.1328077936958548E-006   0.0000000000000000     
  -1.4176010192790988E-006   4.2919123927426289E-006   0.0000000000000000     
  -1.4629253811236235E-006   4.6158078938620429E-006   0.0000000000000000     
  -1.5071025493627753E-006   4.9492249263515813E-006   0.0000000000000000     
  -1.5501324552272503E-006   5.2919193431070129E-006   0.0000000000000000     
  -1.5920150299477441E-006   5.6436469970241046E-006   0.0000000000000000     
  -1.6327502047549521E-006   6.0041637409986258E-006   0.0000000000000000     
  -1.6723379108795706E-006   6.3732254279263434E-006   0.0000000000000000     
  -1.7107780795522949E-006   6.7505879107030219E-006   0.0000000000000000     
  -1.7480706420038212E-006   7.1360070422244348E-006   0.0000000000000000     
  -1.5094478559870042E-006   4.2961750473616215E-006   0.0000000000000000     
  -1.5576653652454358E-006   4.6199640208503645E-006   0.0000000000000000     
  -1.6046624030546008E-006   4.9532745193414602E-006   0.0000000000000000     
  -1.6504389071593082E-006   5.2958623945424943E-006   0.0000000000000000     
  -1.6949948153043637E-006   5.6474834981610385E-006   0.0000000000000000     
  -1.7383300652345799E-006   6.0078936819046870E-006   0.0000000000000000     
  -1.7804445946947630E-006   6.3768487974810168E-006   0.0000000000000000     
  -1.8213383414297215E-006   6.7541046965976109E-006   0.0000000000000000     
  -1.8610112431842655E-006   7.1394172309620564E-006   0.0000000000000000     
  -1.6015473910328601E-006   4.3007013776834560E-006   0.0000000000000000     
  -1.6526580543787484E-006   4.6243772271646046E-006   0.0000000000000000     
  -1.7024749587684590E-006   4.9575745968864542E-006   0.0000000000000000     
  -1.7509980514437850E-006   5.3000493371300482E-006   0.0000000000000000     
  -1.7982272796465186E-006   5.6515572981764252E-006   0.0000000000000000     
  -1.8441625906184504E-006   6.0118543303066210E-006   0.0000000000000000     
  -1.8888039316013737E-006   6.3806962838016793E-006   0.0000000000000000     
  -1.9321512498370816E-006   6.7578390089426426E-006   0.0000000000000000     
  -1.9742044925673624E-006   7.1430383560105429E-006   0.0000000000000000     
  -1.6939147892265067E-006   4.3054913875867786E-006   0.0000000000000000     
  -1.7479186117119694E-006   4.6290475144213348E-006   0.0000000000000000     
  -1.8005553775338230E-006   4.9621251582726280E-006   0.0000000000000000     
  -1.8518250467404320E-006   5.3044801679752995E-006   0.0000000000000000     
  -1.9017275793801604E-006   5.6558683923639879E-006   0.0000000000000000     
  -1.9502629355013720E-006   6.0160456802733326E-006   0.0000000000000000     
  -1.9974310751524315E-006   6.3847678805379741E-006   0.0000000000000000     
  -2.0432319583817026E-006   6.7617908419925510E-006   0.0000000000000000     
  -2.0876655452375489E-006   7.1468704134717019E-006   0.0000000000000000     
  -1.1866269311861128E-006   7.1221202796357232E-006   0.0000000000000000     
  -1.2112363818013373E-006   7.5157859996514994E-006   0.0000000000000000     
  -1.2350644658146674E-006   7.9170200690838838E-006   0.0000000000000000     
  -1.2581112233662098E-006   8.3255783143567155E-006   0.0000000000000000     
  -1.2803766945960696E-006   8.7412165618938430E-006   0.0000000000000000     
  -1.3018609196443532E-006   9.1636906381191040E-006   0.0000000000000000     
  -1.3225639386511677E-006   9.5927563694563495E-006   0.0000000000000000     
  -1.3424857917566178E-006   1.0028169582329417E-005   0.0000000000000000     
  -1.3616265191008104E-006   1.0469686103162144E-005   0.0000000000000000     
  -1.2985316176198411E-006   7.1244757283462546E-006   0.0000000000000000     
  -1.3254481612145250E-006   7.5180678363699373E-006   0.0000000000000000     
  -1.3515100844470935E-006   7.9192282999158033E-006   0.0000000000000000     
  -1.3767174357851287E-006   8.3277129439704414E-006   0.0000000000000000     
  -1.4010702636962147E-006   8.7432775935204248E-006   0.0000000000000000     
  -1.4245686166479344E-006   9.1656780735523355E-006   0.0000000000000000     
  -1.4472125431078709E-006   9.5946702090527639E-006   0.0000000000000000     
  -1.4690020915436070E-006   1.0030009825008273E-005   0.0000000000000000     
  -1.4899373104227257E-006   1.0471452746405450E-005   0.0000000000000000     
  -1.4106131768340401E-006   7.1270421328585802E-006   0.0000000000000000     
  -1.4398368098604662E-006   7.5205540229670981E-006   0.0000000000000000     
  -1.4681325707569863E-006   7.9216342709312370E-006   0.0000000000000000     
  -1.4955005158416153E-006   8.3300387038958942E-006   0.0000000000000000     
  -1.5219407014323637E-006   8.7455231490059508E-006   0.0000000000000000     
  -1.5474531838472448E-006   9.1678434334062929E-006   0.0000000000000000     
  -1.5720380194042720E-006   9.5967553842418102E-006   0.0000000000000000     
  -1.5956952644214569E-006   1.0032014828657396E-005   0.0000000000000000     
  -1.6184249752168126E-006   1.0473377593797924E-005   0.0000000000000000     
  -1.5228867639131447E-006   7.1298194892745062E-006   0.0000000000000000     
  -1.5544174858754881E-006   7.5232445586928944E-006   0.0000000000000000     
  -1.5849470869603971E-006   7.9242379852457348E-006   0.0000000000000000     
  -1.6144756301375781E-006   8.3325556010882734E-006   0.0000000000000000     
  -1.6430031783767364E-006   8.7479532383757471E-006   0.0000000000000000     
  -1.6705297946475777E-006   9.1701867292633946E-006   0.0000000000000000     
  -1.6970555419198058E-006   9.5990119059064508E-006   0.0000000000000000     
  -1.7225804831631268E-006   1.0034184600460158E-005   0.0000000000000000     
  -1.7471046813472457E-006   1.0475460645079756E-005   0.0000000000000000     
  -1.6353675339415933E-006   7.1328077936958548E-006   0.0000000000000000     
  -1.6692053473959175E-006   7.5261394427972397E-006   0.0000000000000000     
  -1.7019687952733720E-006   7.9270394459748446E-006   0.0000000000000000     
  -1.7336579452749279E-006   8.3352636425027832E-006   0.0000000000000000     
  -1.7642728651015562E-006   8.7505678716551551E-006   0.0000000000000000     
  -1.7938136224542265E-006   9.1727079727060706E-006   0.0000000000000000     
  -1.8222802850339104E-006   9.6014397849296343E-006   0.0000000000000000     
  -1.8496729205415773E-006   1.0036519147599956E-005   0.0000000000000000     
  -1.8759915966781980E-006   1.0477701899991135E-005   0.0000000000000000     
  -1.7480706420038212E-006   7.1360070422244348E-006   0.0000000000000000     
  -1.7842155525580824E-006   7.5292386745300429E-006   0.0000000000000000     
  -1.8192128579119600E-006   7.9300386562341147E-006   0.0000000000000000     
  -1.8530626278555737E-006   8.3381628350946145E-006   0.0000000000000000     
  -1.8857649321790425E-006   8.7533670588695027E-006   0.0000000000000000     
  -1.9173198406724843E-006   9.1754071753167460E-006   0.0000000000000000     
  -1.9477274231260195E-006   9.6040390321943077E-006   0.0000000000000000     
  -1.9769877493297662E-006   1.0039018477260151E-005   0.0000000000000000     
  -2.0051008890738446E-006   1.0480101358272241E-005   0.0000000000000000     
  -1.8610112431842655E-006   7.1394172309620564E-006   0.0000000000000000     
  -1.8994632594983110E-006   7.5325422531412175E-006   0.0000000000000000     
  -1.9366944370922110E-006   7.9332356191390932E-006   0.0000000000000000     
  -1.9727048444814255E-006   8.3412531858189648E-006   0.0000000000000000     
  -2.0074945501814160E-006   8.7563508100441209E-006   0.0000000000000000     
  -2.0410636227076450E-006   9.1782843486778477E-006   0.0000000000000000     
  -2.0734121305755696E-006   9.6068096585834212E-006   0.0000000000000000     
  -2.1045401423006544E-006   1.0041682596624128E-005   0.0000000000000000     
  -2.1344477263983579E-006   1.0482659019663258E-005   0.0000000000000000     
  -1.9742044925673624E-006   7.1430383560105429E-006   0.0000000000000000     
  -2.0149636263529308E-006   7.5360501778806760E-006   0.0000000000000000     
  -2.0544286950301719E-006   7.9366303378053316E-006   0.0000000000000000     
  -2.0925997617543929E-006   8.3445347016310403E-006   0.0000000000000000     
  -2.1294768896809010E-006   8.7595191352043545E-006   0.0000000000000000     
  -2.1650601419650000E-006   9.1813395043718058E-006   0.0000000000000000     
  -2.1993495817619976E-006   9.6097516749799270E-006   0.0000000000000000     
  -2.2323452722272010E-006   1.0044511512875277E-005   0.0000000000000000     
  -2.2640472765159140E-006   1.0485374883904376E-005   0.0000000000000000     
  -2.0876655452375489E-006   7.1468704134717019E-006   0.0000000000000000     
  -2.1307318112582680E-006   7.5397624479983283E-006   0.0000000000000000     
  -2.1724307939418921E-006   7.9402228153483695E-006   0.0000000000000000     
  -2.2127625462763857E-006   8.3480073894860317E-006   0.0000000000000000     
  -2.2517271212497150E-006   8.7628720443755213E-006   0.0000000000000000     
  -2.2893245718498444E-006   9.1845726539810335E-006   0.0000000000000000     
  -2.3255549510647391E-006   9.6128650922667806E-006   0.0000000000000000     
  -2.3604183118823647E-006   1.0047505233196961E-005   0.0000000000000000     
  -2.3939147072906858E-006   1.0488248950735781E-005   0.0000000000000000     
  -1.3616265191008104E-006   1.0469686103162144E-005   0.0000000000000000     
  -1.3799861324989422E-006   1.0917061811136131E-005   0.0000000000000000     
  -1.3975645304665771E-006   1.1370052796463934E-005   0.0000000000000000     
  -1.4143615831943700E-006   1.1828415202115874E-005   0.0000000000000000     
  -1.4303771608729742E-006   1.2291905171062255E-005   0.0000000000000000     
  -1.4456111336930447E-006   1.2760278846273393E-005   0.0000000000000000     
  -1.4600633718452356E-006   1.3233292370719594E-005   0.0000000000000000     
  -1.4737337455202013E-006   1.3710701887371170E-005   0.0000000000000000     
  -1.4866221249085975E-006   1.4192263539198445E-005   0.0000000000000000     
  -1.4899373104227257E-006   1.0471452746405450E-005   0.0000000000000000     
  -1.5100182146084487E-006   1.0918754848416325E-005   0.0000000000000000     
  -1.5292446845465508E-006   1.1371672206954710E-005   0.0000000000000000     
  -1.5476165670784461E-006   1.1829960948119878E-005   0.0000000000000000     
  -1.5651337090455490E-006   1.2293377198011102E-005   0.0000000000000000     
  -1.5817959572892712E-006   1.2761677082727637E-005   0.0000000000000000     
  -1.5976031586510282E-006   1.3234616728368753E-005   0.0000000000000000     
  -1.6125551599722332E-006   1.3711952261033730E-005   0.0000000000000000     
  -1.6266518080942990E-006   1.4193439806821810E-005   0.0000000000000000     
  -1.6184249752168126E-006   1.0473377593797924E-005   0.0000000000000000     
  -1.6402271696729134E-006   1.0920599550021909E-005   0.0000000000000000     
  -1.6611017119305756E-006   1.1373436740542317E-005   0.0000000000000000     
  -1.6810484276951789E-006   1.1831645251785738E-005   0.0000000000000000     
  -1.7000671426721016E-006   1.2294981170178753E-005   0.0000000000000000     
  -1.7181576825667221E-006   1.2763200582147952E-005   0.0000000000000000     
  -1.7353198730844201E-006   1.3236059574119917E-005   0.0000000000000000     
  -1.7515535399305720E-006   1.3713314232521235E-005   0.0000000000000000     
  -1.7668585088105591E-006   1.4194720643778497E-005   0.0000000000000000     
  -1.7471046813472457E-006   1.0475460645079756E-005   0.0000000000000000     
  -1.7706281570424080E-006   1.0922595904724220E-005   0.0000000000000000     
  -1.7931507612210240E-006   1.1375346375567465E-005   0.0000000000000000     
  -1.8146723024560441E-006   1.1833468086587144E-005   0.0000000000000000     
  -1.8351925893204200E-006   1.2296717066760921E-005   0.0000000000000000     
  -1.8547114303871023E-006   1.2764849345066443E-005   0.0000000000000000     
  -1.8732286342290418E-006   1.3237620950481372E-005   0.0000000000000000     
  -1.8907440094191886E-006   1.3714787911983356E-005   0.0000000000000000     
  -1.9072573645304960E-006   1.4196106258550059E-005   0.0000000000000000     
  -1.8759915966781980E-006   1.0477701899991135E-005   0.0000000000000000     
  -1.9012363360670043E-006   1.0924743901294574E-005   0.0000000000000000     
  -1.9254069810202666E-006   1.1377401090370845E-005   0.0000000000000000     
  -1.9485033287725168E-006   1.1835429425997802E-005   0.0000000000000000     
  -1.9705251765582890E-006   1.2298584866953313E-005   0.0000000000000000     
  -1.9914723216121136E-006   1.2766623372015229E-005   0.0000000000000000     
  -2.0113445611685234E-006   1.3239300899961414E-005   0.0000000000000000     
  -2.0301416924620504E-006   1.3716373409569730E-005   0.0000000000000000     
  -2.0478635127272253E-006   1.4197596859618029E-005   0.0000000000000000     
  -2.0051008890738446E-006   1.0480101358272241E-005   0.0000000000000000     
  -2.0320668660967738E-006   1.0927043528504308E-005   0.0000000000000000     
  -2.0578855199306765E-006   1.1379600863293176E-005   0.0000000000000000     
  -2.0825566440560762E-006   1.1837529243491426E-005   0.0000000000000000     
  -2.1060800319534967E-006   1.2300584549951647E-005   0.0000000000000000     
  -2.1284554771034640E-006   1.2768522663526427E-005   0.0000000000000000     
  -2.1496827729864975E-006   1.3241099465068349E-005   0.0000000000000000     
  -2.1697617130831243E-006   1.3718070835430002E-005   0.0000000000000000     
  -2.1886920908738659E-006   1.4199192655463972E-005   0.0000000000000000     
  -2.1344477263983579E-006   1.0482659019663258E-005   0.0000000000000000     
  -2.1631349064817876E-006   1.0929494775124745E-005   0.0000000000000000     
  -2.1906015265546241E-006   1.1381945672675150E-005   0.0000000000000000     
  -2.2168473857181962E-006   1.1839767512541714E-005   0.0000000000000000     
  -2.2418722830738308E-006   1.2302716094951630E-005   0.0000000000000000     
  -2.2656760177228540E-006   1.2770547220132150E-005   0.0000000000000000     
  -2.2882583887665945E-006   1.3243016688310466E-005   0.0000000000000000     
  -2.3096191953063779E-006   1.3719880299713810E-005   0.0000000000000000     
  -2.3297582364435338E-006   1.4200893854569425E-005   0.0000000000000000     
  -2.2640472765159140E-006   1.0485374883904376E-005   0.0000000000000000     
  -2.2944556165721176E-006   1.0932097629927203E-005   0.0000000000000000     
  -2.3235701494944831E-006   1.1384435496857487E-005   0.0000000000000000     
  -2.3513906911703530E-006   1.1842144206622363E-005   0.0000000000000000     
  -2.3779170574870749E-006   1.2304979481148988E-005   0.0000000000000000     
  -2.4031490643319903E-006   1.2772697042364503E-005   0.0000000000000000     
  -2.4270865275924440E-006   1.3245052612196068E-005   0.0000000000000000     
  -2.4497292631557825E-006   1.3721801912570833E-005   0.0000000000000000     
  -2.4710770869093462E-006   1.4202700665415936E-005   0.0000000000000000     
  -2.3939147072906858E-006   1.0488248950735781E-005   0.0000000000000000     
  -2.4260441557178354E-006   1.0934852081683031E-005   0.0000000000000000     
  -2.4568065373526239E-006   1.1387070314180881E-005   0.0000000000000000     
  -2.4862016978240260E-006   1.1844659299207095E-005   0.0000000000000000     
  -2.5142294827610176E-006   1.2307374687739419E-005   0.0000000000000000     
  -2.5408897377925777E-006   1.2774972130755621E-005   0.0000000000000000     
  -2.5661823085476799E-006   1.3247207279233456E-005   0.0000000000000000     
  -2.5901070406553021E-006   1.3723835784150683E-005   0.0000000000000000     
  -2.6126637797444221E-006   1.4204613296485062E-005   0.0000000000000000     
  -1.2126657227054023E-006   2.0891406594920887E-006   0.0000000000000000     
  -1.2776076104742446E-006   2.3277267799800553E-006   0.0000000000000000     
  -1.3411820031463950E-006   2.5777897214047310E-006   0.0000000000000000     
  -1.4033889690625264E-006   2.8390850333725987E-006   0.0000000000000000     
  -1.4642285765633133E-006   3.1113682654901428E-006   0.0000000000000000     
  -1.5237008939894309E-006   3.3943949673638495E-006   0.0000000000000000     
  -1.5818059896815528E-006   3.6879206886001999E-006   0.0000000000000000     
  -1.6385439319803533E-006   3.9917009788056818E-006   0.0000000000000000     
  -1.6939147892265067E-006   4.3054913875867786E-006   0.0000000000000000     
  -1.2795377183178872E-006   2.0952067319754392E-006   0.0000000000000000     
  -1.3479572089107667E-006   2.3336659336817270E-006   0.0000000000000000     
  -1.4149364142394214E-006   2.5836021051772540E-006   0.0000000000000000     
  -1.4804753264099503E-006   2.8447707746961924E-006   0.0000000000000000     
  -1.5445739375284501E-006   3.1169274704727144E-006   0.0000000000000000     
  -1.6072322397010180E-006   3.3998277207409923E-006   0.0000000000000000     
  -1.6684502250337523E-006   3.6932270537351978E-006   0.0000000000000000     
  -1.7282278856327504E-006   3.9968809976895037E-006   0.0000000000000000     
  -1.7865652136041095E-006   4.3105450808380829E-006   0.0000000000000000     
  -1.3467074032793693E-006   2.1015885753243434E-006   0.0000000000000000     
  -1.4186046254810804E-006   2.3399144928195093E-006   0.0000000000000000     
  -1.4889887488823164E-006   2.5897174711168320E-006   0.0000000000000000     
  -1.5578596914407093E-006   2.8507530252700481E-006   0.0000000000000000     
  -1.6252173711138899E-006   3.1227766703328910E-006   0.0000000000000000     
  -1.6910617058594916E-006   3.4055439213590960E-006   0.0000000000000000     
  -1.7553926136351455E-006   3.6988102934023970E-006   0.0000000000000000     
  -1.8182100123984821E-006   4.0023313015165297E-006   0.0000000000000000     
  -1.8795138201071358E-006   4.3158624607552284E-006   0.0000000000000000     
  -1.4141897936797618E-006   2.1082863173886611E-006   0.0000000000000000     
  -1.4895649484286764E-006   2.3464725359353525E-006   0.0000000000000000     
  -1.5633541432712525E-006   2.5961358626553010E-006   0.0000000000000000     
  -1.6355572283612351E-006   2.8570318053329792E-006   0.0000000000000000     
  -1.7061740538523712E-006   3.1289158717528627E-006   0.0000000000000000     
  -1.7752044698984080E-006   3.4115435696994254E-006   0.0000000000000000     
  -1.8426483266530907E-006   3.7046704069571386E-006   0.0000000000000000     
  -1.9085054742701660E-006   4.0080518913104790E-006   0.0000000000000000     
  -1.9727757629033809E-006   4.3214435305439179E-006   0.0000000000000000     
  -1.4819999056089787E-006   2.1153000860182523E-006   0.0000000000000000     
  -1.5608532659970454E-006   2.3533401415712092E-006   0.0000000000000000     
  -1.6380477336024021E-006   2.6028573232244942E-006   0.0000000000000000     
  -1.7135831013779611E-006   2.8636071351237995E-006   0.0000000000000000     
  -1.7874591622766318E-006   3.1353450814148181E-006   0.0000000000000000     
  -1.8596757092513245E-006   3.4178266662432413E-006   0.0000000000000000     
  -1.9302325352549490E-006   3.7108073937547607E-006   0.0000000000000000     
  -1.9991294332404167E-006   4.0140427680950711E-006   0.0000000000000000     
  -2.0663661961606377E-006   4.3272882934098613E-006   0.0000000000000000     
  -1.5501527551569353E-006   2.1226300090629792E-006   0.0000000000000000     
  -1.6324846664296771E-006   2.3605173882690313E-006   0.0000000000000000     
  -1.7130846560719406E-006   2.6098818962562475E-006   0.0000000000000000     
  -1.7919524746973200E-006   2.8704790348813215E-006   0.0000000000000000     
  -1.8690878729194082E-006   3.1420643060009443E-006   0.0000000000000000     
  -1.9444906013517972E-006   3.4243932114718082E-006   0.0000000000000000     
  -2.0181604106080800E-006   3.7172212531506047E-006   0.0000000000000000     
  -2.0900970513018513E-006   4.0203039328940244E-006   0.0000000000000000     
  -2.1603002740467018E-006   4.3333967525587605E-006   0.0000000000000000     
  -1.6186633584135449E-006   2.1302762143727013E-006   0.0000000000000000     
  -1.7044742379700621E-006   2.3680043545707684E-006   0.0000000000000000     
  -1.7884800468760410E-006   2.6172096251823956E-006   0.0000000000000000     
  -1.8706805125257453E-006   2.8776475248443587E-006   0.0000000000000000     
  -1.9510753623134378E-006   3.1490735521934321E-006   0.0000000000000000     
  -2.0296643236333834E-006   3.4312432058663904E-006   0.0000000000000000     
  -2.1064471238798438E-006   3.7239119845000089E-006   0.0000000000000000     
  -2.1814234904470838E-006   4.0268353867310601E-006   0.0000000000000000     
  -2.2545931507293656E-006   4.3397689111963218E-006   0.0000000000000000     
  -1.6875467314687219E-006   2.1382388297972793E-006   0.0000000000000000     
  -1.7768370688616903E-006   2.3758011190183735E-006   0.0000000000000000     
  -1.8642490422108757E-006   2.6248405534347747E-006   0.0000000000000000     
  -1.9497823790696681E-006   2.8851126252517260E-006   0.0000000000000000     
  -2.0334368069914603E-006   3.1563728266744685E-006   0.0000000000000000     
  -2.1152120535296405E-006   3.4383766499082487E-006   0.0000000000000000     
  -2.1951078462375998E-006   3.7308795871583103E-006   0.0000000000000000     
  -2.2731239126687319E-006   4.0336371306298957E-006   0.0000000000000000     
  -2.3492599803764238E-006   4.3464047725282508E-006   0.0000000000000000     
  -1.7568178904123803E-006   2.1465179831865745E-006   0.0000000000000000     
  -1.8495882473480531E-006   2.3839077601537987E-006   0.0000000000000000     
  -1.9404067782726196E-006   2.6327747244452177E-006   0.0000000000000000     
  -2.0292732385355238E-006   2.8928743563422322E-006   0.0000000000000000     
  -2.1161873834862103E-006   3.1639621361262426E-006   0.0000000000000000     
  -2.2011489684741243E-006   3.4457935440786491E-006   0.0000000000000000     
  -2.2841577488487089E-006   3.7381240604808520E-006   0.0000000000000000     
  -2.3652134799594098E-006   4.0407091656142516E-006   0.0000000000000000     
  -2.4443159171556712E-006   4.3533043397602494E-006   0.0000000000000000     
  -1.6939147892265067E-006   4.3054913875867786E-006   0.0000000000000000     
  -1.7479186117119694E-006   4.6290475144213348E-006   0.0000000000000000     
  -1.8005553775338230E-006   4.9621251582726280E-006   0.0000000000000000     
  -1.8518250467404320E-006   5.3044801679752995E-006   0.0000000000000000     
  -1.9017275793801604E-006   5.6558683923639879E-006   0.0000000000000000     
  -1.9502629355013720E-006   6.0160456802733326E-006   0.0000000000000000     
  -1.9974310751524315E-006   6.3847678805379741E-006   0.0000000000000000     
  -2.0432319583817026E-006   6.7617908419925510E-006   0.0000000000000000     
  -2.0876655452375489E-006   7.1468704134717019E-006   0.0000000000000000     
  -1.7865652136041095E-006   4.3105450808380829E-006   0.0000000000000000     
  -1.8434621984065276E-006   4.6339748846461955E-006   0.0000000000000000     
  -1.8989188189091023E-006   4.9669262035034435E-006   0.0000000000000000     
  -1.9529350513335317E-006   5.3091548850305267E-006   0.0000000000000000     
  -2.0055108719015139E-006   5.6604167768481349E-006   0.0000000000000000     
  -2.0566462568347455E-006   6.0204677265769652E-006   0.0000000000000000     
  -2.1063411823549264E-006   6.3890635818377108E-006   0.0000000000000000     
  -2.1545956246837537E-006   6.7659601902510639E-006   0.0000000000000000     
  -2.2014095600429244E-006   7.1509133994377208E-006   0.0000000000000000     
  -1.8795138201071358E-006   4.3158624607552284E-006   0.0000000000000000     
  -1.9393039675159302E-006   4.6391593415010642E-006   0.0000000000000000     
  -1.9975804365684607E-006   4.9719777354519618E-006   0.0000000000000000     
  -2.0543432220055157E-006   5.3140734896346847E-006   0.0000000000000000     
  -2.1095923185678822E-006   5.6652024510759908E-006   0.0000000000000000     
  -2.1633277209963507E-006   6.0251204668026438E-006   0.0000000000000000     
  -2.2155494240317090E-006   6.3935833838414040E-006   0.0000000000000000     
  -2.2662574224147443E-006   6.7703470492190327E-006   0.0000000000000000     
  -2.3154517108862456E-006   7.1551673099622925E-006   0.0000000000000000     
  -1.9727757629033809E-006   4.3214435305439179E-006   0.0000000000000000     
  -2.0354590700667049E-006   4.6446008890568890E-006   0.0000000000000000     
  -2.0965553827149988E-006   4.9772797577086446E-006   0.0000000000000000     
  -2.1560647151633503E-006   5.3192359839733955E-006   0.0000000000000000     
  -2.2139870817268427E-006   5.6702254153253546E-006   0.0000000000000000     
  -2.2703224967205612E-006   6.0300038992387317E-006   0.0000000000000000     
  -2.3250709744595928E-006   6.3983272831877374E-006   0.0000000000000000     
  -2.3782325292590198E-006   6.7749514146465856E-006   0.0000000000000000     
  -2.4298071754339315E-006   7.1596321410894861E-006   0.0000000000000000     
  -2.0663661961606377E-006   4.3272882934098613E-006   0.0000000000000000     
  -2.1319426570853779E-006   4.6502995313846125E-006   0.0000000000000000     
  -2.1958588095518204E-006   4.9828322738639504E-006   0.0000000000000000     
  -2.2581146872140033E-006   5.3246423702322844E-006   0.0000000000000000     
  -2.3187103237259680E-006   5.6754856698740318E-006   0.0000000000000000     
  -2.3776457527417504E-006   6.0351180221735990E-006   0.0000000000000000     
  -2.4349210079153909E-006   6.4032952765154022E-006   0.0000000000000000     
  -2.4905361229009285E-006   6.7797732822838519E-006   0.0000000000000000     
  -2.5444911313524009E-006   7.1643078888633620E-006   0.0000000000000000     
  -2.1603002740467018E-006   4.3333967525587605E-006   0.0000000000000000     
  -2.2287698795984769E-006   4.6562552725551777E-006   0.0000000000000000     
  -2.2955058692820246E-006   4.9886352875083381E-006   0.0000000000000000     
  -2.3605082945644432E-006   5.3302926505969726E-006   0.0000000000000000     
  -2.4237772069128323E-006   5.6809832149998171E-006   0.0000000000000000     
  -2.4853126577942914E-006   6.0404628338956088E-006   0.0000000000000000     
  -2.5451146986759172E-006   6.4084873604630784E-006   0.0000000000000000     
  -2.6031833810248126E-006   6.7848126478809588E-006   0.0000000000000000     
  -2.6595187563080739E-006   7.1691945493279893E-006   0.0000000000000000     
  -2.2545931507293656E-006   4.3397689111963218E-006   0.0000000000000000     
  -2.3259558886325290E-006   4.6624681166395291E-006   0.0000000000000000     
  -2.3955117141087138E-006   4.9946888022322671E-006   0.0000000000000000     
  -2.4632606936216360E-006   5.3361868272530812E-006   0.0000000000000000     
  -2.5292028936350122E-006   5.6867180509805213E-006   0.0000000000000000     
  -2.5933383806125578E-006   6.0460383326931287E-006   0.0000000000000000     
  -2.6556672210179883E-006   6.4139035316694515E-006   0.0000000000000000     
  -2.7161894813150198E-006   6.7900695071880397E-006   0.0000000000000000     
  -2.7749052279673704E-006   7.1742921185274352E-006   0.0000000000000000     
  -2.3492599803764238E-006   4.3464047725282508E-006   0.0000000000000000     
  -2.4235158352140606E-006   4.6689380677086096E-006   0.0000000000000000     
  -2.4958914962349896E-006   5.0009928216261989E-006   0.0000000000000000     
  -2.5663870407925498E-006   5.3423249023862373E-006   0.0000000000000000     
  -2.6350025462400821E-006   5.6926901780939388E-006   0.0000000000000000     
  -2.7017380899309234E-006   6.0518445168545253E-006   0.0000000000000000     
  -2.7665937492184159E-006   6.4195437867732161E-006   0.0000000000000000     
  -2.8295696014558970E-006   6.7955438559552202E-006   0.0000000000000000     
  -2.8906657239967070E-006   7.1796005925057628E-006   0.0000000000000000     
  -2.4443159171556712E-006   4.3533043397602494E-006   0.0000000000000000     
  -2.5214648703696000E-006   4.6756651298333627E-006   0.0000000000000000     
  -2.5966603678639541E-006   5.0075473492805928E-006   0.0000000000000000     
  -2.6699024924841524E-006   5.3487068781820586E-006   0.0000000000000000     
  -2.7411913270756152E-006   5.6988995966178762E-006   0.0000000000000000     
  -2.8105269544837627E-006   6.0578813846681670E-006   0.0000000000000000     
  -2.8779094575540132E-006   6.4254081224130446E-006   0.0000000000000000     
  -2.9433389191317883E-006   6.8012356899326319E-006   0.0000000000000000     
  -3.0068154220625072E-006   7.1851199673070471E-006   0.0000000000000000     
  -2.0876655452375489E-006   7.1468704134717019E-006   0.0000000000000000     
  -2.1307318112582680E-006   7.5397624479983283E-006   0.0000000000000000     
  -2.1724307939418921E-006   7.9402228153483695E-006   0.0000000000000000     
  -2.2127625462763857E-006   8.3480073894860317E-006   0.0000000000000000     
  -2.2517271212497150E-006   8.7628720443755213E-006   0.0000000000000000     
  -2.2893245718498444E-006   9.1845726539810335E-006   0.0000000000000000     
  -2.3255549510647391E-006   9.6128650922667806E-006   0.0000000000000000     
  -2.3604183118823647E-006   1.0047505233196961E-005   0.0000000000000000     
  -2.3939147072906858E-006   1.0488248950735781E-005   0.0000000000000000     
  -2.2014095600429244E-006   7.1509133994377208E-006   0.0000000000000000     
  -2.2467829748976289E-006   7.5436790624963824E-006   0.0000000000000000     
  -2.2907158966870174E-006   7.9440130544377905E-006   0.0000000000000000     
  -2.3332083630937360E-006   8.3516712557506910E-006   0.0000000000000000     
  -2.3742604118004266E-006   8.7664095469238353E-006   0.0000000000000000     
  -2.4138720804897327E-006   9.1879838084459727E-006   0.0000000000000000     
  -2.4520434068442984E-006   9.6161499208058544E-006   0.0000000000000000     
  -2.4887744285467672E-006   1.0050663764492225E-005   0.0000000000000000     
  -2.5240651832797815E-006   1.0491281219993832E-005   0.0000000000000000     
  -2.3154517108862456E-006   7.1551673099622925E-006   0.0000000000000000     
  -2.3631322881422241E-006   7.5478000193862582E-006   0.0000000000000000     
  -2.4092991686995869E-006   7.9480010559592674E-006   0.0000000000000000     
  -2.4539523710304617E-006   8.3555263044379690E-006   0.0000000000000000     
  -2.4970919136069783E-006   8.7701316495790140E-006   0.0000000000000000     
  -2.5387178149012667E-006   9.1915729761390528E-006   0.0000000000000000     
  -2.5788300933854555E-006   9.6196061688747374E-006   0.0000000000000000     
  -2.6174287675316745E-006   1.0053987112542718E-005   0.0000000000000000     
  -2.6545138558120523E-006   1.0494471691899644E-005   0.0000000000000000     
  -2.4298071754339315E-006   7.1596321410894861E-006   0.0000000000000000     
  -2.4797949244102458E-006   7.5521253164316717E-006   0.0000000000000000     
  -2.5281957760572363E-006   7.9521868203525071E-006   0.0000000000000000     
  -2.5750097273550069E-006   8.3595725389723723E-006   0.0000000000000000     
  -2.6202367752836616E-006   8.7740383584116426E-006   0.0000000000000000     
  -2.6638769168233115E-006   9.1953401647907115E-006   0.0000000000000000     
  -2.7059301489540618E-006   9.6232338442299559E-006   0.0000000000000000     
  -2.7463964686560160E-006   1.0057475282849753E-005   0.0000000000000000     
  -2.7852758729092839E-006   1.0497820366770499E-005   0.0000000000000000     
  -2.5444911313524009E-006   7.1643078888633620E-006   0.0000000000000000     
  -2.5967860571198852E-006   7.5566549513963459E-006   0.0000000000000000     
  -2.6474208848376023E-006   7.9565703480572177E-006   0.0000000000000000     
  -2.6963955893358089E-006   8.3638099627784044E-006   0.0000000000000000     
  -2.7437101454447672E-006   8.7781296794923164E-006   0.0000000000000000     
  -2.7893645279947315E-006   9.1992853821313798E-006   0.0000000000000000     
  -2.8333587118159630E-006   9.6270329546280176E-006   0.0000000000000000     
  -2.8756926717387195E-006   1.0061128280914644E-005   0.0000000000000000     
  -2.9163663825932593E-006   1.0501327244923672E-005   0.0000000000000000     
  -2.6595187563080739E-006   7.1691945493279893E-006   0.0000000000000000     
  -2.7141208596893289E-006   7.5613889220439843E-006   0.0000000000000000     
  -2.7669896611183191E-006   7.9611516395130958E-006   0.0000000000000000     
  -2.8181251142413133E-006   8.3682385792805653E-006   0.0000000000000000     
  -2.8675271727045802E-006   8.7824056188916189E-006   0.0000000000000000     
  -2.9151957901543894E-006   9.2034086358914987E-006   0.0000000000000000     
  -2.9611309202370115E-006   9.6310035078254454E-006   0.0000000000000000     
  -3.0053325165987134E-006   1.0064946112238684E-005   0.0000000000000000     
  -3.0478005328857649E-006   1.0504992326676461E-005   0.0000000000000000     
  -2.7749052279673704E-006   7.1742921185274352E-006   0.0000000000000000     
  -2.8318145055367704E-006   7.5663272261383130E-006   0.0000000000000000     
  -2.8869172709770263E-006   7.9659306951598532E-006   0.0000000000000000     
  -2.9402134593399605E-006   8.3728583919033618E-006   0.0000000000000000     
  -2.9917030056773941E-006   8.7868661826801438E-006   0.0000000000000000     
  -3.0413858450411514E-006   9.2077099338015095E-006   0.0000000000000000     
  -3.0892619124830550E-006   9.6351455115787589E-006   0.0000000000000000     
  -3.1353311430549244E-006   1.0068928782323204E-005   0.0000000000000000     
  -3.1795934718085863E-006   1.0508815612346148E-005   0.0000000000000000     
  -2.8906657239967070E-006   7.1796005925057628E-006   0.0000000000000000     
  -2.9498821680803974E-006   7.5714698614430492E-006   0.0000000000000000     
  -3.0072188804913580E-006   7.9709075154371897E-006   0.0000000000000000     
  -3.0626757819001894E-006   8.3776694040712971E-006   0.0000000000000000     
  -3.1162527929774968E-006   8.7915113769284796E-006   0.0000000000000000     
  -3.1679498343938796E-006   9.2121892835918345E-006   0.0000000000000000     
  -3.2177668268199411E-006   9.6394589736444726E-006   0.0000000000000000     
  -3.2657036909262843E-006   1.0073076296669505E-005   0.0000000000000000     
  -3.3117603473835078E-006   1.0512797102250016E-005   0.0000000000000000     
  -3.0068154220625072E-006   7.1851199673070471E-006   0.0000000000000000     
  -3.0683390207384010E-006   7.5768168257219029E-006   0.0000000000000000     
  -3.1279096557389500E-006   7.9760821007848121E-006   0.0000000000000000     
  -3.1855272391904457E-006   8.3826716192088816E-006   0.0000000000000000     
  -3.2411916832191782E-006   8.7963412077072133E-006   0.0000000000000000     
  -3.2949028999514408E-006   9.2168466929929216E-006   0.0000000000000000     
  -3.3466608015135235E-006   9.6439439017791094E-006   0.0000000000000000     
  -3.3964653000317171E-006   1.0077388660778883E-005   0.0000000000000000     
  -3.4443163076323141E-006   1.0516936796705352E-005   0.0000000000000000     
  -2.3939147072906858E-006   1.0488248950735781E-005   0.0000000000000000     
  -2.4260441557178354E-006   1.0934852081683031E-005   0.0000000000000000     
  -2.4568065373526239E-006   1.1387070314180881E-005   0.0000000000000000     
  -2.4862016978240260E-006   1.1844659299207095E-005   0.0000000000000000     
  -2.5142294827610176E-006   1.2307374687739419E-005   0.0000000000000000     
  -2.5408897377925777E-006   1.2774972130755621E-005   0.0000000000000000     
  -2.5661823085476799E-006   1.3247207279233456E-005   0.0000000000000000     
  -2.5901070406553021E-006   1.3723835784150683E-005   0.0000000000000000     
  -2.6126637797444221E-006   1.4204613296485062E-005   0.0000000000000000     
  -2.5240651832797815E-006   1.0491281219993832E-005   0.0000000000000000     
  -2.5579156839612447E-006   1.0937758119738204E-005   0.0000000000000000     
  -2.5903258444500952E-006   1.1389850103907899E-005   0.0000000000000000     
  -2.6212955538405299E-006   1.1847312764624275E-005   0.0000000000000000     
  -2.6508247012267459E-006   1.2309901694008671E-005   0.0000000000000000     
  -2.6789131757029399E-006   1.2777372484182436E-005   0.0000000000000000     
  -2.7055608663633099E-006   1.3249480727266906E-005   0.0000000000000000     
  -2.7307676623020519E-006   1.3725982015383439E-005   0.0000000000000000     
  -2.7545334526133639E-006   1.4206631940653361E-005   0.0000000000000000     
  -2.6545138558120523E-006   1.0494471691899644E-005   0.0000000000000000     
  -2.6900853641135750E-006   1.0940815735737370E-005   0.0000000000000000     
  -2.7241432479826528E-006   1.1392774848988539E-005   0.0000000000000000     
  -2.7566874503805531E-006   1.1850104580621005E-005   0.0000000000000000     
  -2.7877179142685416E-006   1.2312560479602615E-005   0.0000000000000000     
  -2.8172345826078869E-006   1.2779898094901226E-005   0.0000000000000000     
  -2.8452373983598550E-006   1.3251872975484675E-005   0.0000000000000000     
  -2.8717263044857129E-006   1.3728240670320818E-005   0.0000000000000000     
  -2.8967012439467267E-006   1.4208756728377509E-005   0.0000000000000000     
  -2.7852758729092839E-006   1.0497820366770499E-005   0.0000000000000000     
  -2.8225683596782879E-006   1.0944024921899853E-005   0.0000000000000000     
  -2.8582739308647291E-006   1.1395844533294665E-005   0.0000000000000000     
  -2.8923925893546241E-006   1.1853034725799056E-005   0.0000000000000000     
  -2.9249243380339920E-006   1.2315351024257148E-005   0.0000000000000000     
  -2.9558691797888516E-006   1.2782548953513086E-005   0.0000000000000000     
  -2.9852271175052181E-006   1.3254384038410982E-005   0.0000000000000000     
  -3.0129981540691120E-006   1.3730611803794970E-005   0.0000000000000000     
  -3.0391822923665507E-006   1.4210987774509186E-005   0.0000000000000000     
  -2.9163663825932593E-006   1.0501327244923672E-005   0.0000000000000000     
  -2.9553798341588462E-006   1.0947385670444976E-005   0.0000000000000000     
  -2.9927330760107546E-006   1.1399059140698132E-005   0.0000000000000000     
  -3.0284261726732711E-006   1.1856103178760184E-005   0.0000000000000000     
  -3.0624591886706804E-006   1.2318273307708176E-005   0.0000000000000000     
  -3.0948321885272614E-006   1.2785325050619122E-005   0.0000000000000000     
  -3.1255452367673002E-006   1.3257013930570065E-005   0.0000000000000000     
  -3.1545983979150779E-006   1.3733095470638043E-005   0.0000000000000000     
  -3.1819917364948767E-006   1.4213325193900080E-005   0.0000000000000000     
  -3.0478005328857649E-006   1.0504992326676461E-005   0.0000000000000000     
  -3.0885349510587074E-006   1.0950897973592037E-005   0.0000000000000000     
  -3.1275358663351625E-006   1.1402418655070806E-005   0.0000000000000000     
  -3.1648034022470262E-006   1.1859309918106182E-005   0.0000000000000000     
  -3.2003376823261900E-006   1.2321327309691585E-005   0.0000000000000000     
  -3.2341388301045498E-006   1.2788226376820433E-005   0.0000000000000000     
  -3.2662069691140004E-006   1.3259762666486159E-005   0.0000000000000000     
  -3.2965422228864341E-006   1.3735691725682166E-005   0.0000000000000000     
  -3.3251447149537451E-006   1.4215769101401882E-005   0.0000000000000000     
  -3.1795934718085863E-006   1.0508815612346148E-005   0.0000000000000000     
  -3.2220488738813373E-006   1.0954561823560372E-005   0.0000000000000000     
  -3.2626974847523849E-006   1.1405923060284541E-005   0.0000000000000000     
  -3.3015394799864137E-006   1.1862654922438802E-005   0.0000000000000000     
  -3.3385750351481057E-006   1.2324513009943278E-005   0.0000000000000000     
  -3.3738043258021467E-006   1.2791252922718131E-005   0.0000000000000000     
  -3.4072275275132196E-006   1.3262630260683489E-005   0.0000000000000000     
  -3.4388448158460081E-006   1.3738400623759491E-005   0.0000000000000000     
  -3.4686563663651977E-006   1.4218319611866277E-005   0.0000000000000000     
  -3.3117603473835078E-006   1.0512797102250016E-005   0.0000000000000000     
  -3.3559367661301971E-006   1.0958377212569288E-005   0.0000000000000000     
  -3.3982331141768533E-006   1.1409572340211203E-005   0.0000000000000000     
  -3.4386496078019628E-006   1.1866138170359814E-005   0.0000000000000000     
  -3.4771864632840127E-006   1.2327830388199168E-005   0.0000000000000000     
  -3.5138438969014829E-006   1.2794404678913311E-005   0.0000000000000000     
  -3.5486221249328607E-006   1.3265616727686289E-005   0.0000000000000000     
  -3.5815213636566293E-006   1.3741222219702152E-005   0.0000000000000000     
  -3.6125418293512749E-006   1.4220976840144947E-005   0.0000000000000000     
  -3.4443163076323141E-006   1.0516936796705352E-005   0.0000000000000000     
  -3.4902137913087454E-006   1.0962344132838102E-005   0.0000000000000000     
  -3.5341579375229998E-006   1.1413366478722653E-005   0.0000000000000000     
  -3.5761489876042063E-006   1.1869759640470999E-005   0.0000000000000000     
  -3.6161871828814929E-006   1.2331279424195138E-005   0.0000000000000000     
  -3.6542727646839882E-006   1.2797681636007070E-005   0.0000000000000000     
  -3.6904059743408225E-006   1.3268722082018789E-005   0.0000000000000000     
  -3.7245870531811226E-006   1.3744156568342297E-005   0.0000000000000000     
  -3.7568162425340174E-006   1.4223740901089589E-005   0.0000000000000000     
 </DataArray>
 <DataArray  type="Float64" Name="stress" NumberOfComponents="3" format="ascii">
   3601.1009479011800       -1.4745741984888809        1441.3107574547462     
   3525.8138625447696       -1.1112759011530216        1440.9427630504322     
   3450.5646080220017      -0.80780544120761988        1440.6375061947633     
   3375.3548209918572      -0.55870728870468156        1440.3918761594198     
   3300.1861381133731      -0.35852591352659147        1440.2027622161481     
   3225.0601960457543      -0.20180578500617230        1440.0670536366981     
   3149.9786314478824       -8.3091373521710921E-002   1439.9816396927777     
   3074.9430809789255        3.0728514777820237E-003   1439.9434096561026     
   2999.9551812978452        6.2142419866518139E-002   1439.9492527984048     
   2926.0373994471265       -1.2552759356250363        1462.0413783485337     
   2864.8357814844676      -0.92237516463535485        1461.5466612064436     
   2803.6661746558284      -0.65372425952705271        1461.1489933470516     
   2742.5308752491792      -0.44166892706073213        1460.8401216765069     
   2681.4321795526807      -0.27855487336239548        1460.6117931009660     
   2620.3723838542528      -0.15672780538170628        1460.4557545265911     
   2559.3537844421448       -6.8533428912132877E-002   1460.3637528595400     
   2498.3786776042057       -6.3174511735724082E-003   1460.3275350059921     
   2437.4493596285542        3.7574421594172236E-002   1460.3388478720858     
   2250.8811857012383       -1.0238246783587783        1478.4913287311963     
   2203.7865147072953      -0.73504587900117713        1477.8924304294474     
   2156.7163805704708      -0.50830809016827061        1477.4187878897753     
   2109.6733046866843      -0.33520665881189871        1477.0579471982446     
   2062.6598084516809      -0.20733693243198559        1476.7974544408139     
   2015.6784132614018      -0.11629425789442394        1476.6248557035508     
   1968.7316405116501       -5.3673982543500642E-002   1476.5276970724515     
   1921.8220115982658       -1.1071453556837696E-002   1476.4935246335524     
   1874.9520479170947        1.9917981886351299E-002   1476.5098844728459     
   1575.6545585017213      -0.77354487512604919        1490.6578196070870     
   1542.6825447459912      -0.54434328445472602        1489.9781801408249     
   1509.7267460322871      -0.36810085295746831        1489.4457455789664     
   1476.7894743430415      -0.23711097254806646        1489.0448027328255     
   1443.8730416606900      -0.14366703509438139        1488.7596384136989     
   1410.9797599676001       -8.0062432701026864E-002   1488.5745394328960     
   1378.1119412462347       -3.8590557191298558E-002   1488.4737926017272     
   1345.2718974790530       -1.1544800335798300E-002   1488.4416847315083     
   1312.4619406483907        8.7814456487649295E-003   1488.4625026335466     
   900.37976968672865      -0.49776097453207058        1498.5380619805624     
   881.54035413329927      -0.34532262118500512        1497.8020197619908     
   862.70879130747369      -0.22964646825795398        1497.2287221706144     
   843.88674925700161      -0.14517235658041727        1496.8001382884736     
   825.07589602965481       -8.6340126918230453E-002   1496.4982371975718     
   806.27789967331330       -4.7589619659390792E-002   1496.3049879799473     
   787.49442823567222       -2.3360675844458001E-002   1496.2023597176230     
   768.72714976451130       -8.0931361864600149E-003   1496.1723214926287     
   749.97773230770360        3.7731589044085467E-003   1496.1968423869735     
   225.07907109443948      -0.18979742507210062        1502.1292668559718     
   220.37642540200994      -0.13303912922189909        1501.3620587143071     
   215.67403666233372       -8.9488856083463020E-002   1500.7665734207371     
   210.97249446730535       -5.7181299258147078E-002   1500.3234038733726     
   206.27238840890399       -3.4151152206064239E-002   1500.0131429704209     
   201.57430807899519       -1.8433108682586408E-002   1499.8163836100287     
   196.87884306965310       -8.0618617617176369E-003   1499.7137186903688     
   192.18658297270636       -1.0721053706248540E-003   1499.6857411096253     
   187.49811738012929        4.5014670772474119E-003   1499.7130437659710     
  -450.22528543699150       0.15702132465565910        1501.4286452376327     
  -440.79275891512674        9.7451951193107789E-002   1500.6564064192057     
  -431.36599763686519        5.5828063432016961E-002   1500.0581550853278     
  -421.94592498729128        2.9071711086771757E-002   1499.6140494957442     
  -412.53346435159443        1.4104943536182191E-002   1499.3042479101994     
  -403.12953911477570        7.8498107562836594E-003   1499.1089085884284     
  -393.73507266206934        7.2283620029054418E-003   1499.0081897901994     
  -384.35098837848471        9.1626472111698831E-003   1498.9822497752386     
  -374.97820964925972        1.0574715603269169E-002   1499.0112468033087     
  -1125.5110480694077       0.54937082606807053        1496.4334081299176     
  -1101.9507162854165       0.35109537977302807        1495.6831722980335     
  -1078.3997913238377       0.20976037022643368        1495.1023229203981     
  -1054.8611440681150       0.11579618590275231        1494.6715251637793     
  -1031.3376454016100        5.9633215689927965E-002   1494.3714441948928     
  -1007.8321662076571        3.1701848359205087E-002   1494.1827451805063     
  -984.34757736974598        2.2432472367825085E-002   1494.0860932873577     
  -960.88674977116989        2.2255476736688706E-002   1494.0621536822066     
  -937.45255429535655        2.1601249987043047E-002   1494.0915915317771     
  -1800.7559649646205       0.99392663069966147        1487.1407665371805     
  -1763.0809641760634       0.63283591647086723        1486.4404657722089     
  -1725.4158241323516       0.37576414399006808        1485.8979326819792     
  -1687.7657977363924       0.20520163694584426        1485.4952808856792     
  -1650.1361378910233       0.10363871922277212        1485.2146240024576     
  -1612.5320974991221        5.3565714490559913E-002   1485.0380756515342     
  -1574.9589294635637        3.7472946517937089E-002   1484.9477494520793     
  -1537.4218866872495        3.7850739022019297E-002   1484.9257590232435     
  -1499.9262220729995        3.7189415872205700E-002   1484.9542179842565     
   2999.9551812978452        6.2142419866518139E-002   1439.9492527984048     
   2924.9843188734717        9.0434025076888247E-002   1439.9728978868500     
   2850.0005872779602        8.6621371623323284E-002   1439.9904878087457     
   2775.0066838254793        5.9695506733532966E-002   1440.0025330161068     
   2700.0053058303683        1.8647478192406197E-002   1440.0095439610825     
   2624.9991506068313       -2.7531666630466134E-002   1440.0120310956345     
   2549.9909154689135       -6.9850880935291570E-002   1440.0105048717885     
   2474.9832977308370       -9.9319117314962568E-002   1440.0054757416485     
   2399.9789947069557      -0.10694532790660105        1439.9974541572108     
   2437.4493596285542        3.7574421594172236E-002   1460.3388478720858     
   2376.5383354719897        6.1598475530672658E-002   1460.3671999523467     
   2315.6177664315974        6.3065464420105855E-002   1460.3880472891456     
   2254.6894333063556        4.7911384858934980E-002   1460.4020581102466     
   2193.7551168949808        2.2072232575510498E-002   1460.4099006434310     
   2132.8165979967948       -8.5159946912654050E-003   1460.4122431165040     
   2071.8756574104636       -3.7917301416882765E-002   1460.4097537572527     
   2010.9340759347670       -6.0195691646867999E-002   1460.4031007934607     
   1949.9936343688478       -6.9415168230761992E-002   1460.3929524528978     
   1874.9520479170947        1.9917981886351299E-002   1476.5098844728459     
   1828.0991091244896        3.9403836317887908E-002   1476.5426262650869     
   1781.2395703251980        4.4213783599957424E-002   1476.5664484086290     
   1734.3744760873396        3.7829717459317180E-002   1476.5821700748481     
   1687.5048709794116        2.3733532887717956E-002   1476.5906104351427     
   1640.6317995694399        5.4071233068953006E-003   1476.5925886609211     
   1593.7563064259234       -1.3667616281054507E-002   1476.5889239236046     
   1546.8794361170310       -3.0008791991178896E-002   1476.5804353945559     
   1500.0022332111432       -4.0134509210929536E-002   1476.5679422451967     
   1312.4619406483907        8.7814456487649295E-003   1488.4625026335466     
   1279.6656148747161        2.3542620758860267E-002   1488.4991062065492     
   1246.8652487048923        2.9841252979508681E-002   1488.5254729969640     
   1214.0613307611811        2.9306083207075062E-002   1488.5425662876523     
   1181.2543496659835        2.3565852758792971E-002   1488.5513493614956     
   1148.4447940415839        1.4249302591679225E-002   1488.5527855013661     
   1115.6331525103030        2.9851737641024556E-003   1488.5478379901529     
   1082.8199136944218       -8.5977927764702144E-003   1488.5374701107226     
   1050.0055662162272       -1.8870856080468457E-002   1488.5226451459198     
   749.97773230770360        3.7731589044085467E-003   1496.1968423869735     
   731.23682776629562        1.3707341763563363E-002   1496.2365691582017     
   712.49405131682875        1.9722796489219263E-002   1496.2649028839430     
   693.74951592027071        2.2196059609854046E-002   1496.2829441263957     
   675.00333453769656        2.1503668079134286E-002   1496.2917934477948     
   656.25562013000547        1.8022158178979453E-002   1496.2925514103390     
   637.50648565822110        1.2128066696732276E-002   1496.2863185762310     
   618.75604408335266        4.1979302987158462E-003   1496.2741955077302     
   600.00440836641769       -5.3917142711554789E-003   1496.2572827669824     
   187.49811738012929        4.5014670772474119E-003   1499.7130437659710     
   182.81172284296699        9.5905126378923455E-003   1499.7549445015422     
   178.12522790717335        1.3633338067720047E-002   1499.7845198993566     
   173.43855015710244        1.6355224543843860E-002   1499.8030009688180     
   168.75160717708397        1.7481453164982952E-002   1499.8116187193336     
   164.06431655142072        1.6737304933840846E-002   1499.8116041603307     
   159.37659586451528        1.3848061204512874E-002   1499.8041883011849     
   154.68836270055260        8.5390026087850401E-003   1499.7906021513531     
   149.99953464409671        5.3541097923925918E-004   1499.7720767202311     
  -374.97820964925972        1.0574715603269169E-002   1499.0112468033087     
  -365.61072485160020        1.0884646439890844E-002   1499.0541616180512     
  -356.24197177796043        1.1347801512556543E-002   1499.0841058729950     
  -346.87204793593190        1.1639155480764884E-002   1499.1024341926272     
  -337.50105083315589        1.1433682895216180E-002   1499.1105012013995     
  -328.12907797737313        1.0406357959496404E-002   1499.1096615238075     
  -318.75622687621950        8.2321552136477294E-003   1499.1012697842968     
  -309.38259503731950        4.5860492434854905E-003   1499.0866806073780     
  -300.00827996844447       -8.5698586104854257E-004   1499.0672486175042     
  -937.45255429535655        2.1601249987043047E-002   1494.0915915317771     
  -914.03154027381618        1.7282255978443573E-002   1494.1341498892098     
  -890.60829799245573        1.2641110587310322E-002   1494.1634426346618     
  -867.18275976630775        7.9034303682874452E-003   1494.1809411755446     
  -843.75485791039000        3.2948319312140484E-003   1494.1881169192859     
  -820.32452473965964       -9.5906790943445230E-004   1494.1864412732625     
  -796.89169256913613       -4.6326525657036655E-003   1494.1773856448733     
  -773.45629371380562       -7.5003053163413824E-003   1494.1624214415735     
  -750.01826048870021       -9.3364096051402612E-003   1494.1430200706975     
  -1499.9262220729995        3.7189415872205700E-002   1484.9542179842565     
  -1462.4517483798679        2.8475854763200914E-002   1484.9948386965123     
  -1424.9745009901717        1.7288189189855530E-002   1485.0223120141407     
  -1387.4940667415958        5.0036268543180995E-003   1485.0382192953307     
  -1350.0100324718637       -7.0006246298817132E-003   1485.0441418982989     
  -1312.5219850185540       -1.7347357246705997E-002   1485.0416611812045     
  -1275.0295112194376       -2.4659363553610092E-002   1485.0323585022684     
  -1237.5321979121657       -2.7559435686725919E-002   1485.0178152196961     
  -1200.0296319344409       -2.4670365993983978E-002   1484.9996126916883     
   2399.9789947069557      -0.10694532790660105        1439.9974541572108     
   2324.9818581618920       -8.6318173023300915E-002   1439.9913566224634     
   2249.9918813443755       -4.3888032608947469E-002   1439.9906166726557     
   2175.0059737923507        1.0043553192645049E-002   1439.9935203066557     
   2100.0210450455993        6.5175050251468747E-002   1439.9983535233991     
   2025.0340046428589       0.11120492105692392        1440.0034023218607     
   1950.0417621228030       0.13783162788649861        1440.0069527008980     
   1875.0412270248673       0.13475363551435748        1440.0072906594421     
   1800.0293088876419        9.1669405856919184E-002   1440.0027021964215     
   1949.9936343688478       -6.9415168230761992E-002   1460.3929524528978     
   1889.0568305903250       -6.1200333009878705E-002   1460.3836783766155     
   1828.1238208665984       -3.8981155211672558E-002   1460.3785735183594     
   1767.1928735802871       -8.5296928019715779E-003   1460.3766940752821     
   1706.2622571146339        2.4381998438570918E-002   1460.3770962444069     
   1645.3302398523911        5.3981860935436998E-002   1460.3788362228311     
   1584.3950901767553        7.4497838703791786E-002   1460.3809702076821     
   1523.4550764705275        8.0157874435315080E-002   1460.3825543959993     
   1462.5084671168299        6.5189911827189917E-002   1460.3826449848941     
   1500.0022332111432       -4.0134509210929536E-002   1476.5679422451967     
   1453.1261707604331       -4.1304392527194977E-002   1476.5555905724104     
   1406.2515744799700       -3.4602523522835327E-002   1476.5467573023850     
   1359.3777679326770       -2.2283692465350668E-002   1476.5411078504217     
   1312.5040746811987       -6.6026905104195066E-003   1476.5383076317773     
   1265.6298182880212        1.0185690596529184E-002   1476.5380220617747     
   1218.7543223161813        2.5826660988400363E-002   1476.5399165557678     
   1171.8769103285872        3.8065430375979759E-002   1476.5436565290345     
   1124.9969058875192        4.4647206342062873E-002   1476.5489073968608     
   1050.0055662162272       -1.8870856080468457E-002   1488.5226451459198     
   1017.1908213006311       -2.6347563768524651E-002   1488.5075242764638     
   984.37611447660299       -3.0460449943461754E-002   1488.4957022634551     
   951.56152082222411       -3.0959254345134468E-002   1488.4872927605127     
   918.74711541572060       -2.7593716194928675E-002   1488.4824094211622     
   885.93297333547787       -2.0113574229299047E-002   1488.4811658990629     
   853.11916965960302       -8.2685680939675876E-003   1488.4836758477518     
   820.30577946652977        8.1915636816916049E-003   1488.4900529208071     
   787.49287783426053        2.9517081075198348E-002   1488.5004107718780     
   600.00440836641769       -5.3917142711554789E-003   1496.2572827669824     
   581.25172483983920       -1.6047057222721151E-002   1496.2399105552586     
   562.49841314847595       -2.6263247346946628E-002   1496.2259426402538     
   543.74499622172902       -3.4297186609222763E-002   1496.2157799339013     
   524.99199698925531       -3.8405776160317373E-002   1496.2098233481320     
   506.23993838040769       -3.6845918143939116E-002   1496.2084737948637     
   487.48934332468963       -2.7874514240465942E-002   1496.2121321860125     
   468.74073475176698       -9.7484655505866158E-003   1496.2211994335373     
   449.99463559098433        1.9275325723128844E-002   1496.2360764493553     
   149.99953464409671        5.3541097923925918E-004   1499.7720767202311     
   145.30982400656904       -1.0120084783935113E-002   1499.7531804753232     
   140.61944278782312       -2.1719227718364209E-002   1499.7380126714902     
   135.92905810416755       -3.2038296821703227E-002   1499.7271004990166     
   131.23933707221070       -3.8853570063466236E-002   1499.7209711482330     
   126.55094680860431       -3.9941325247426107E-002   1499.7201518095101     
   121.86455442952440       -3.3077841782379380E-002   1499.7251696731105     
   117.18082705177508       -1.6039397008157152E-002   1499.7365519294299     
   112.50043179176615        1.3397730457654689E-002   1499.7548257687813     
  -300.00827996844447       -8.5698586104854257E-004   1499.0672486175042     
  -290.63393857047856       -8.2838576633434968E-003   1499.0477651031865     
  -281.25982431338770       -1.6536704017696024E-002   1499.0324465958229     
  -271.88542955781992       -2.3923393743217503E-002   1499.0217855842077     
  -262.51024666450814       -2.8751795957589366E-002   1499.0162745570406     
  -253.13376799428084       -2.9329780094784041E-002   1499.0164060032380     
  -243.75548590785712       -2.3965215201599221E-002   1499.0226724115284     
  -234.37489276586285       -1.0965970025353045E-002   1499.0355662707166     
  -224.99148092918355        1.1360085792830432E-002   1499.0555800696197     
  -750.01826048870021       -9.3364096051402612E-003   1494.1430200706975     
  -726.57862026276257       -1.0255587626403440E-002   1494.1240955053652     
  -703.13841586283866       -1.0423987907159926E-002   1494.1097786519636     
  -679.69760279135176       -9.6932852222266774E-003   1494.1003663177848     
  -656.25613655044253       -7.9151533760466464E-003   1494.0961553101401     
  -632.81397264237296       -4.9412665067620765E-003   1494.0974424363517     
  -609.37106656940387       -6.2329888100975950E-004   1494.1045245037842     
  -585.92737383385361        5.1870751013609606E-003   1494.1176983196276     
  -562.48284993793288        1.2638181439683649E-002   1494.1372606913349     
  -1200.0296319344409       -2.4670365993983978E-002   1484.9996126916883     
  -1162.5232784414552       -1.5752485481414169E-002   1484.9826027483916     
  -1125.0153595684937       -3.0893921198185126E-003   1484.9705430786164     
  -1087.5065976236097        1.0911220591424353E-002   1484.9633738282389     
  -1049.9977149147678        2.3841659437550788E-002   1484.9610351431038     
  -1012.4894337500039        3.3294230967442218E-002   1484.9634671691410     
  -974.98247643735840        3.6861241714063908E-002   1484.9706100522792     
  -937.47756528471541        3.2134998710489526E-002   1484.9824039383846     
  -899.97542260015575        1.6707808358432885E-002   1484.9987889733973     
   1800.0293088876419        9.1669405856919184E-002   1440.0027021964215     
   1725.0006144526662        5.3314117859599719E-003   1439.9914885322164     
   1649.9599634472249       -9.3464588155256934E-002   1439.9785864636613     
   1574.9195848900258      -0.16395519822924598        1439.9722353548693     
   1499.8917078000738      -0.16537702182762359        1439.9806745700191     
   1424.8885611947046       -5.6966667728545417E-002   1440.0121434729490     
   1349.9223740936104       0.20203926298370334        1440.0748814278793     
   1275.0053755152858       0.65240416526137324        1440.1771277989051     
   1200.1497944771436        1.3348914305473727        1440.3271219499129     
   1462.5084671168299        6.5189911827189917E-002   1460.3826449848941     
   1401.5533021552965        2.7450644464749985E-002   1460.3816215204140     
   1340.5924971262839       -1.8951565127224512E-002   1460.3839186367256     
   1279.6316336631930       -5.5411272221647323E-002   1460.3946751628002     
   1218.6762933985274       -6.3323035225891999E-002   1460.4190299278480     
   1157.7320579658858       -2.4081408711879249E-002   1460.4621217607566     
   1096.8045089982882        8.0919050651061752E-002   1460.5290894906846     
   1035.8992281285009       0.27028378544008547        1460.6250719467271     
   975.02179699058877       0.56261824258325532        1460.7552079578861     
   1124.9969058875192        4.4647206342062873E-002   1476.5489073968608     
   1078.1142944092683        4.4105366864584994E-002   1476.5568557863412     
   1031.2298388202448        3.7564990320220204E-002   1476.5706754891860     
   984.34402894821778        2.6658835962052763E-002   1476.5930126675357     
   937.45735462195762        1.3019666326385959E-002   1476.6265134836740     
   890.57030566941216       -1.7197587432633554E-003   1476.6738240997065     
   843.68337191853766       -1.5926679404742572E-002   1476.7375906778675     
   796.79704319813220       -2.7968332985324196E-002   1476.8204593803098     
   749.91180933579017       -3.6211960842138069E-002   1476.9250763693169     
   787.49287783426053        2.9517081075198348E-002   1488.5004107718780     
   754.68123713878163        5.4589356080128937E-002   1488.5157972319603     
   721.86954877265612        7.5353149218415183E-002   1488.5376919387829     
   689.05476633982892        8.1653807005153567E-002   1488.5668562557196     
   656.23384344390490        6.3336674724268960E-002   1488.6040515462544     
   623.40373368853886        1.0247097966811225E-002   1488.6500391737914     
   590.56139067738604       -8.7769577794546194E-002   1488.7055805017342     
   557.70376801424413      -0.24086800654646368        1488.7714368935424     
   524.82781930285603      -0.45920284249305610        1488.8483697125992     
   449.99463559098433        1.9275325723128844E-002   1496.2360764493553     
   431.25177626792561        5.8196388836449842E-002   1496.2570517593272     
   412.50918722825310        9.3680986544626421E-002   1496.2838029032882     
   393.76184143161123       0.10897231770312032        1496.3158143140188     
   375.00471183761823        8.7313580964249127E-002   1496.3525704242954     
   356.23277140599851        1.1947975464764227E-002   1496.3935556668177     
   337.44099309635038      -0.13388130009205668        1496.4382544745008     
   318.62434986843209      -0.36693104659424591        1496.4861512800196     
   299.77781468163505      -0.70395806602488165        1496.5367305161947     
   112.50043179176615        1.3397730457654689E-002   1499.7548257687813     
   107.82355772109545        5.4220242880838043E-002   1499.7792252704651     
   103.14631443102567        9.1816574806429685E-002   1499.8078433004657     
   98.463249817638200       0.10801304650981081        1499.8394952290414     
   93.768911776904190        8.4635977856923006E-002   1499.8729964263559     
   89.057848204915217        3.5116891698656616E-003   1499.9071622627700     
   84.324606997994522      -0.15353349841934971        1499.9408081084428     
   79.563736051714642      -0.40467326640116497        1499.9727493335315     
   74.769783262487110      -0.76808129338574105        1500.0018013084821     
  -224.99148092918355        1.1360085792830432E-002   1499.0555800696197     
  -215.60577257753664        4.1954695204481141E-002   1499.0809236674315     
  -206.22150937479333        6.9027987311827133E-002   1499.1086480480992     
  -196.84301290818379        7.8174671378789640E-002   1499.1375073874383     
  -187.47460476462879        5.4989457565000066E-002   1499.1662558612857     
  -178.12060653154685       -1.4932945414791732E-002   1499.1936476454216     
  -168.78533979565736      -0.14599782666482497        1499.2184369156978     
  -159.47312614440307      -0.35261047766268661        1499.2393778478984     
  -150.18828716484481      -0.64917618860373238        1499.2552246178846     
  -562.48284993793288        1.2638181439683649E-002   1494.1372606913349     
  -539.03856870364609        2.0693523314037066E-002   1494.1607528522497     
  -515.59672394494510        2.4583297482166699E-002   1494.1850520639198     
  -492.15895115161732        1.8855871241925115E-002   1494.2094591759271     
  -468.72688581359807       -1.9403885115991670E-003   1494.2332750376650     
  -445.30216342061749       -4.3257114153647080E-002   1494.2558004987100     
  -421.88641946244877      -0.11054593824613335        1494.2763364085797     
  -398.48128942897500      -0.20925849388731876        1494.2941836167727     
  -375.08840881010542      -0.34484641394352877        1494.3086429727421     
  -899.97542260015575        1.6707808358432885E-002   1484.9987889733973     
  -862.47718473306122       -1.0269495779255067E-002   1485.0173187269422     
  -824.98176903522506       -4.2249421534677367E-002   1485.0358902657376     
  -787.48656931891048       -7.0544676475492452E-002   1485.0549589810466     
  -749.98897939624055       -8.6467967676156832E-002   1485.0749802642317     
  -712.48639307919586       -8.1332001749075289E-002   1485.0964095065169     
  -674.97620417993153       -4.6449485779504585E-002   1485.1197020993441     
  -637.45580651064483        2.6866872763633864E-002   1485.1453134338947     
  -599.92259388330820       0.14730436737124819        1485.1736989016090     
  -1800.7559649646205       0.99392663069966147        1487.1407665371805     
  -1763.0809641760634       0.63283591647086723        1486.4404657722089     
  -1725.4158241323516       0.37576414399006808        1485.8979326819792     
  -1687.7657977363924       0.20520163694584426        1485.4952808856792     
  -1650.1361378910233       0.10363871922277212        1485.2146240024576     
  -1612.5320974991221        5.3565714490559913E-002   1485.0380756515342     
  -1574.9589294635637        3.7472946517937089E-002   1484.9477494520793     
  -1537.4218866872495        3.7850739022019297E-002   1484.9257590232435     
  -1499.9262220729995        3.7189415872205700E-002   1484.9542179842565     
  -2475.9590349863038        1.4362007941790580        1473.5742031460541     
  -2424.1802324246719       0.91081659104963819        1472.9426584981445     
  -2372.4101028464179       0.53734301553242858        1472.4527544123569     
  -2320.6563259973636       0.29018091486057074        1472.0886127136330     
  -2268.9265816233669       0.14373113617898525        1471.8343552268548     
  -2217.2285494702419        7.2394526768789547E-002   1471.6741037769557     
  -2165.5699092838645        5.0571933748528863E-002   1471.5919801888263     
  -2113.9583408100134        5.2664204477537169E-002   1471.5721062874093     
  -2062.4015237945564        5.3072186080953543E-002   1471.5986038976098     
  -3151.1320115172280        1.8178790165084138        1455.7611618100686     
  -3085.2547974681356        1.1503164534763073        1455.2069452033036     
  -3019.3854092633974       0.67596811131988943        1454.7764249880179     
  -2953.5336086174962       0.36229494164149401        1454.4559091559913     
  -2887.7091572450818       0.17675789575389445        1454.2317056990826     
  -2821.9218168606217        8.6817925299669696E-002   1454.0901226091255     
  -2756.1813491787811        5.9935981533158156E-002   1454.0174678779269     
  -2690.4975159139844        6.3573016282930439E-002   1454.0000494973092     
  -2624.8800787808959        6.5189980677132553E-002   1454.0241754591154     
  -3826.2717744979527        2.1398973154302894        1433.7047952839014     
  -3746.3024966726352        1.3519842938710553        1433.2356699156255     
  -3666.3403856369141       0.79204675535424940        1432.8706004160479     
  -3586.3969401998124       0.42175533646764052        1432.5982589051371     
  -3506.4836591703438       0.20278067381900655        1432.4073175027652     
  -3426.6120413575627        9.6793403838319136E-002   1432.2864483288572     
  -3346.7935855704591        6.5464163300021028E-002   1432.2243235033291     
  -3267.0397906181461        7.0463588479697137E-002   1432.2096151461074     
  -3187.3621553095559        7.3462316301402097E-002   1432.2309953770814     
  -4501.3752038689436        2.4031917089137096        1407.4082563222094     
  -4407.3211674043441        1.5164689024231848        1407.0311766629777     
  -4313.2736742207117       0.88598627144074271        1406.7369367036704     
  -4219.2456153473258       0.46877371848427174        1406.5167506534410     
  -4125.2498818134354       0.22186114594001083        1406.3618327214756     
  -4031.2993646482792       0.10227845639724364        1406.2633971169537     
  -3937.4069548811426        6.7055552234933202E-002   1406.2126580490544     
  -3843.5855435413150        7.3222335848868170E-002   1406.2008297269576     
  -3749.8480216579815        7.7808709883356642E-002   1406.2191263598374     
  -5176.4391795707488        2.6086982147241997        1376.8746976796772     
  -5068.3086470294338        1.6444190692209304        1376.5958094733626     
  -4960.1839172684577       0.95819398345543050        1376.3770898580501     
  -4852.0789286630707       0.50356170671830114        1376.2124730933338     
  -4744.0076195885704       0.23406098793907404        1376.0958934388459     
  -4635.9839284201144       0.10323057658797552        1376.0212851542472     
  -4528.0217935329874        6.4609221733235245E-002   1375.9825824990719     
  -4420.1351533024563        7.1735672456952670E-002   1375.9737197330023     
  -4312.3379461037239        7.8148678162506258E-002   1375.9886311156613     
  -5851.4605815439008        2.7573528507095943        1342.1072721109722     
  -5729.2627729140768        1.7364835844871322        1341.9319123746877     
  -5607.0697570337888        1.0090772155019749        1341.7927158863154     
  -5484.8961747501135       0.52633092022460914        1341.6865149171747     
  -5362.7566669099651       0.23944187560459795        1341.6101417384655     
  -5240.6658743602820        9.9607258442574675E-002   1341.5604286214655     
  -5118.6384379481451        5.8024245181059086E-002   1341.5342078373683     
  -4996.6889985205144        6.5890012668432973E-002   1341.5283116574285     
  -4874.8321969243143        7.4401737756943476E-002   1341.5395723529093     
  -6526.4362897288811        2.8500916347338716        1303.1091323707662     
  -6390.1813824244300        1.7933112383598200        1303.0418293948248     
  -6253.9298357704538        1.0390432911394782        1302.9854707956865     
  -6117.6966482114312       0.53729297821746513        1302.9399648173880     
  -5981.4968181918339       0.23806548465381638        1302.9052197039894     
  -5845.3453441561551        9.1365995470823691E-002   1302.8811436994927     
  -5709.2572245488427        4.7199695831977806E-002   1302.8676450479427     
  -5573.2474578143720        5.5571770866663428E-002   1302.8646319934078     
  -5437.3310423972471        6.6487405485986528E-002   1302.8720127798952     
  -7201.3631840662383        2.8878505846423650        1259.8834312137385     
  -7051.0623129266914        1.8155508209415530        1259.9279045617661     
  -6900.7627957320683        1.0484995345354946        1259.9570105932985     
  -6750.4796436500965       0.53665949965898108        1259.9739114863501     
  -6600.2278678484745       0.22999349065639763        1259.9817694189364     
  -6450.0224794949354        7.8464281719334394E-002   1259.9837465690891     
  -6299.8784897571959        3.2034647155796847E-002   1259.9830051147856     
  -6149.8109098030127        4.0667361183523099E-002   1259.9827072340365     
  -5999.8347508000425        5.4325198122342044E-002   1259.9860151049161     
  -1499.9262220729995        3.7189415872205700E-002   1484.9542179842565     
  -1462.4517483798679        2.8475854763200914E-002   1484.9948386965123     
  -1424.9745009901717        1.7288189189855530E-002   1485.0223120141407     
  -1387.4940667415958        5.0036268543180995E-003   1485.0382192953307     
  -1350.0100324718637       -7.0006246298817132E-003   1485.0441418982989     
  -1312.5219850185540       -1.7347357246705997E-002   1485.0416611812045     
  -1275.0295112194376       -2.4659363553610092E-002   1485.0323585022684     
  -1237.5321979121657       -2.7559435686725919E-002   1485.0178152196961     
  -1200.0296319344409       -2.4670365993983978E-002   1484.9996126916883     
  -2062.4015237945564        5.3072186080953543E-002   1471.5986038976098     
  -2010.8732897323639        4.0638752231529907E-002   1471.6361171860092     
  -1959.3418162047265        2.3053155186289587E-002   1471.6609861044647     
  -1907.8063020870447        2.9858102819844135E-003   1471.6748761557183     
  -1856.2659462548340       -1.6892867524347821E-002   1471.6794528425196     
  -1804.7199475834343       -3.3912462710873115E-002   1471.6763816676701     
  -1753.1675049483454       -4.5402560269280912E-002   1471.6673281338904     
  -1701.6078172249813       -4.8692744919208053E-002   1471.6539577439648     
  -1650.0400832887985       -4.1112601519330383E-002   1471.6379360006397     
  -2624.8800787808959        6.5189980677132553E-002   1454.0241754591154     
  -2559.2974888287126        5.0129077489032170E-002   1454.0580166470606     
  -2493.7109601156358        2.7855812840698491E-002   1454.0800085283429     
  -2428.1193988696891        2.0160933353281507E-003   1454.0918559699242     
  -2362.5217113187955       -2.3744174146258956E-002   1454.0952638388851     
  -2296.9168036909109       -4.5779082795661452E-002   1454.0919370022027     
  -2231.3035822141178       -6.0442726171459071E-002   1454.0835803269003     
  -2165.6809531163372       -6.4089197381349550E-002   1454.0718986799468     
  -2100.0478226255273       -5.3072589589419294E-002   1454.0585969284391     
  -3187.3621553095559        7.3462316301402097E-002   1432.2309953770814     
  -3107.7244465275426        5.6916572849786462E-002   1432.2606796760085     
  -3028.0819045457756        3.1704615081025622E-002   1432.2795684099888     
  -2948.4332382596294        2.1301250537817396E-003   1432.2893610299188     
  -2868.7771565643261       -2.7503214665898668E-002   1432.2917569868277     
  -2789.1123683552055       -5.2891721907599276E-002   1432.2884557316381     
  -2709.4375825276693       -6.9731714579233994E-002   1432.2811567152803     
  -2629.7515079770092       -7.3719510381920372E-002   1432.2715593886937     
  -2550.0528535985068       -6.0551426911047201E-002   1432.2613632029152     
  -3749.8480216579815        7.7808709883356642E-002   1406.2191263598374     
  -3656.1542636873928        6.0970980923684692E-002   1406.2442488692550     
  -3562.4546213178592        3.4608015341973442E-002   1406.2598548736785     
  -3468.7477014269448        3.3635546049026743E-003   1406.2675936277044     
  -3375.0321108920161       -2.8118659252186262E-002   1406.2691143858842     
  -3281.3064565904965       -5.5194884245565845E-002   1406.2660664028167     
  -3187.5693453999120       -7.3221378797370562E-002   1406.2600989330465     
  -3093.8193841976699       -7.7554400964118031E-002   1406.2528612311962     
  -3000.0551798612232       -6.3550208888955240E-002   1406.2460025518108     
  -4312.3379461037239        7.8148678162506258E-002   1375.9886311156613     
  -4204.5870411668975        6.2262044038789099E-002   1376.0088668231522     
  -4096.8290822548306        3.6574466362253588E-002   1376.0210570437039     
  -3989.0626695418832        5.7520305861089582E-003   1376.0267560552024     
  -3881.2864032024640       -2.5539178031067422E-002   1376.0275181355285     
  -3773.4988834109208       -5.2633073953757048E-002   1376.0248975625957     
  -3665.6987103417023       -7.0863572015923637E-002   1376.0204486142479     
  -3557.8844841690948       -7.5564586479458740E-002   1376.0157255684201     
  -3450.0548050675961       -6.2070032365909356E-002   1376.0122827029666     
  -4874.8321969243143        7.4401737756943476E-002   1341.5395723529093     
  -4753.0228798246335        6.0759504651969110E-002   1341.5546761340861     
  -4631.2052591793536        3.7612421747326152E-002   1341.5633640442675     
  -4509.3780237745304        9.3312021206202189E-003   1341.5670506043457     
  -4387.5398623962901       -1.9713441277644961E-002   1341.5671503352187     
  -4265.6894638307003       -4.5150795397830734E-002   1341.5650777577689     
  -4143.8255168639162       -6.2610147347186285E-002   1341.5622473928772     
  -4021.9467102820404       -6.7720784199536865E-002   1341.5600737613699     
  -3900.0517328711585       -5.6111992897740492E-002   1341.5599713842166     
  -5437.3310423972471        6.6487405485986528E-002   1302.8720127798952     
  -5301.4618805192213        5.6433105155065277E-002   1302.8818193984198     
  -5165.5831239142844        3.7730334478965233E-002   1302.8869649996514     
  -5029.6936452950149        1.4136718253212166E-002   1302.8886795671435     
  -4893.7923173740573       -1.0590119061362202E-002   1302.8881930844639     
  -4757.8780128640028       -3.2692552760863691E-002   1302.8867355352004     
  -4621.9496044775206       -4.8412958378548865E-002   1302.8855369028686     
  -4486.0059649272016       -5.3993711255770904E-002   1302.8858271710674     
  -4350.0459669256416       -4.5677186681814419E-002   1302.8888363233521     
  -5999.8347508000425        5.4325198122342044E-002   1259.9860151049161     
  -5849.9041441092504        4.9252587919909274E-002   1259.9904392125452     
  -5699.9626482824251        3.6936657731985179E-002   1259.9920490341162     
  -5550.0094152735019        2.0204227788553908E-002   1259.9918452355525     
  -5400.0435970363760        1.8821183807631314E-003   1259.9908284827591     
  -5250.0643455250274       -1.5202850354398834E-002   1259.9899994417094     
  -5100.0708126933678       -2.8223858190131068E-002   1259.9903587782899     
  -4950.0621504953015       -3.4354084783899452E-002   1259.9929071584836     
  -4800.0375108848284       -3.0766710133320885E-002   1259.9986452481494     
  -1200.0296319344409       -2.4670365993983978E-002   1484.9996126916883     
  -1162.5232784414552       -1.5752485481414169E-002   1484.9826027483916     
  -1125.0153595684937       -3.0893921198185126E-003   1484.9705430786164     
  -1087.5065976236097        1.0911220591424353E-002   1484.9633738282389     
  -1049.9977149147678        2.3841659437550788E-002   1484.9610351431038     
  -1012.4894337500039        3.3294230967442218E-002   1484.9634671691410     
  -974.98247643735840        3.6861241714063908E-002   1484.9706100522792     
  -937.47756528471541        3.2134998710489526E-002   1484.9824039383846     
  -899.97542260015575        1.6707808358432885E-002   1484.9987889733973     
  -1650.0400832887985       -4.1112601519330383E-002   1471.6379360006397     
  -1598.4663923105566       -2.2035451951410323E-002   1471.6238081845686     
  -1546.8903850855052        3.9933002422571917E-003   1471.6146936097655     
  -1495.3135879257773        3.1885947954435778E-002   1471.6101188289199     
  -1443.7375271435315        5.6554783999672509E-002   1471.6096103948112     
  -1392.1637290509034        7.2912101246458860E-002   1471.6126948602077     
  -1340.5937199600685        7.5870192446245710E-002   1471.6188987778016     
  -1289.0290261831417        6.0341350552107542E-002   1471.6277487003724     
  -1237.4711740323069        2.1237868278376482E-002   1471.6387711806640     
  -2100.0478226255273       -5.3072589589419294E-002   1454.0585969284391     
  -2034.4071387699132       -2.6574695814474580E-002   1454.0477041460454     
  -1968.7639794581642        9.1230894695399911E-003   1454.0415528791930     
  -1903.1204457390220        4.7017270439482672E-002   1454.0393032039376     
  -1837.4786386614123        8.0104350723331663E-002   1454.0401151963410     
  -1771.8406592740387       0.10138083462345548        1454.0431489323903     
  -1706.2086086257616       0.10384322586673989        1454.0475644882265     
  -1640.5845877653326        8.0488028721788396E-002   1454.0525219398846     
  -1574.9706977416258        2.4311746903777021E-002   1454.0571813634044     
  -2550.0528535985068       -6.0551426911047201E-002   1432.2613632029152     
  -2470.3456217350763       -2.9401392022009532E-002   1432.2539281691809     
  -2390.6363064782158        1.2250837831857098E-002   1432.2507084754182     
  -2310.9273543457948        5.6250203050012715E-002   1432.2505448374668     
  -2231.2212118559187        9.4441643345135162E-002   1432.2522779712385     
  -2151.5203255264928       0.11867009896241143        1432.2547485923944     
  -2071.8271418754362       0.12078051024172964        1432.2567974168737     
  -1992.1441074209588        9.2617816458073321E-002   1432.2572651604899     
  -1912.4736686809235        2.6026958016473145E-002   1432.2549925388983     
  -3000.0551798612232       -6.3550208888955240E-002   1406.2460025518108     
  -2906.2819451214764       -3.0546715112677703E-002   1406.2421177902411     
  -2812.5075299372470        1.3327408135182850E-002   1406.2417479869293     
  -2718.7344970283866        5.9529761334260911E-002   1406.2434616139001     
  -2624.9654091144939        9.9517945826391951E-002   1406.2458271431749     
  -2531.2028289152859       0.12474956256210135        1406.2474130468486     
  -2437.4493191505385       0.12668221232956967        1406.2467877969393     
  -2343.7074425398450        9.6773496413447901E-002   1406.2425198655026     
  -2249.9797618028751        2.6481015960257537E-002   1406.2331777246479     
  -3450.0548050675961       -6.2070032365909356E-002   1376.0122827029666     
  -3342.2162128445198       -3.0041839577279461E-002   1376.0119105456738     
  -3234.3778136271280        1.2303662236035962E-002   1376.0142590022333     
  -3126.5420570692086        5.6800960392365596E-002   1376.0176714173645     
  -3018.7113928247982        9.5284541383307442E-002   1376.0204911358728     
  -2910.8882705477458       0.11958889252787230        1376.0210615024052     
  -2803.0751398920347       0.12154850045396870        1376.0177258617668     
  -2695.2744505114915        9.2997852411031090E-002   1376.0088275586568     
  -2587.4886520601294        2.5771435016281430E-002   1375.9927099378717     
  -3900.0517328711585       -5.6111992897740492E-002   1341.5599713842166     
  -3778.1485288197059       -2.7917940132056174E-002   1341.5629439717827     
  -3656.2473213393614        9.1304632371702610E-003   1341.5678291098370     
  -3534.3502177506048        4.8008815520688586E-002   1341.5727921322291     
  -3412.4593253741973        8.1692714291648372E-002   1341.5759983729215     
  -3290.5767515308248       0.10315775725803178        1341.5756131657008     
  -3168.7046035411136       0.10537954225810608        1341.5698018446064     
  -3046.8449887257857        8.1333666922887460E-002   1341.5567297434197     
  -2925.0000144054270        2.3995729287207723E-002   1341.5345621960446     
  -4350.0459669256416       -4.5677186681814419E-002   1302.8888363233521     
  -4214.0789969625448       -2.4206191639223107E-002   1302.8948556048645     
  -4078.1162168656329        3.7586735697914264E-003   1302.9020458981697     
  -3942.1591623549025        3.3098342247740220E-002   1302.9084416427004     
  -3806.2093691502573        5.8693748040923310E-002   1302.9120772779449     
  -3670.2683729716796        7.5425824438752898E-002   1302.9109872434547     
  -3534.3377095390597        7.8175505010904089E-002   1302.9032059787226     
  -3398.4189145723171        6.1823723419138332E-002   1302.8867679232726     
  -3262.5135237914901        2.1251412879792042E-002   1302.8597075165667     
  -4800.0375108848284       -3.0766710133320885E-002   1259.9986452481494     
  -4650.0077211884000       -1.8937768392333965E-002   1260.0072829813662     
  -4499.9846639977222       -3.8608445468071295E-003   1260.0164969557788     
  -4349.9690741644808        1.2014555713676600E-002   1260.0242378329997     
  -4199.9616865404914        2.6238926377345706E-002   1260.0284562746608     
  -4049.9632359774132        3.6362761964710444E-002   1260.0271029422327     
  -3899.9744573269818        3.9936556607017337E-002   1260.0181284973892     
  -3749.9960854409137        3.4510804573983478E-002   1259.9994836017058     
  -3600.0288551709373        1.7636000183074430E-002   1259.9691189167140     
  -899.97542260015575        1.6707808358432885E-002   1484.9987889733973     
  -862.47718473306122       -1.0269495779255067E-002   1485.0173187269422     
  -824.98176903522506       -4.2249421534677367E-002   1485.0358902657376     
  -787.48656931891048       -7.0544676475492452E-002   1485.0549589810466     
  -749.98897939624055       -8.6467967676156832E-002   1485.0749802642317     
  -712.48639307919586       -8.1332001749075289E-002   1485.0964095065169     
  -674.97620417993153       -4.6449485779504585E-002   1485.1197020993441     
  -637.45580651064483        2.6866872763633864E-002   1485.1453134338947     
  -599.92259388330820       0.14730436737124819        1485.1736989016090     
  -1237.4711740323069        2.1237868278376482E-002   1471.6387711806640     
  -1185.9206370181857       -4.1929407384600381E-002   1471.6504576086725     
  -1134.3722411171582      -0.11082451533053472        1471.6628258110848     
  -1082.8190413397979      -0.16229749079315070        1471.6776919956719     
  -1031.2540926967431      -0.17319836927089227        1471.6968723700875     
  -979.67045019879890      -0.12037718673491327        1471.7221831422205     
  -928.06116885644929        1.9316021859765442E-002   1471.7554405197552     
  -876.41930368040528       0.26903122078169872        1471.7984607103872     
  -824.73790968120363       0.65191837492938021        1471.8530599220367     
  -1574.9706977416258        2.4311746903777021E-002   1454.0571813634044     
  -1509.3660765484849       -6.4721648674662902E-002   1454.0617394930780     
  -1443.7618465085425      -0.15992928299488085        1454.0689408161600     
  -1378.1480851640047      -0.22823629670165246        1454.0817670379463     
  -1312.5148700570394      -0.23656783043333007        1454.1031998638402     
  -1246.8522787299089      -0.15184902503676767        1454.1362209991405     
  -1181.1503887245447        5.8994979718647755E-002   1454.1838121492281     
  -1115.3992775833428       0.42903904254103509        1454.2489550194334     
  -1049.5890228483809       0.99135802315504407        1454.3346313151530     
  -1912.4736686809235        2.6026958016473145E-002   1432.2549925388983     
  -1832.8130593549570       -7.8513028907536864E-002   1432.2523707999185     
  -1753.1501897349885      -0.18944508264257820        1432.2551986365554     
  -1673.4735212277706      -0.26830722561828679        1432.2674279328762     
  -1593.7715152398703      -0.27663747984252041        1432.2930105731054     
  -1514.0326331781373      -0.17597386800076720        1432.3358984412102     
  -1434.2453364490902        7.2145588019282059E-002   1432.4000434213742     
  -1354.3980864594510       0.50618286594732353        1432.4893973976787     
  -1274.4793446159520        1.1645999432568033        1432.6079122542171     
  -2249.9797618028751        2.6481015960257537E-002   1406.2331777246479     
  -2156.2611414685352       -8.3170357210860857E-002   1406.2235579489472     
  -2062.5368753218550      -0.19925327164787632        1406.2225626278685     
  -1968.7951699669557      -0.28245640781187831        1406.2349185054236     
  -1875.0242320080190      -0.29346844628685176        1406.2653523255412     
  -1781.2122680492766      -0.19297806781287363        1406.3185908323230     
  -1687.3474846948004        5.8326047396008107E-002   1406.3993607697516     
  -1593.4180885487415       0.49975521864780603        1406.5123888818425     
  -1499.4122862153433        1.1706207653997467        1406.6624019125986     
  -2587.4886520601294        2.5771435016281430E-002   1375.9927099378717     
  -2479.7098789202282       -7.8560442891898674E-002   1375.9765073600101     
  -2371.9215077945737      -0.18923520767793889        1375.9719961458024     
  -2264.1128518176374      -0.27062997418147461        1375.9844825804087     
  -2156.2732241242979      -0.28712185870006124        1376.0192729489588     
  -2048.3919378489391      -0.20308797581196814        1376.0816735364303     
  -1940.4583061264034        1.7094558380904346E-002   1376.1769906279756     
  -1832.4616420911436       0.40904862892296023        1376.3105305086185     
  -1724.3912588777619        1.0083971205506259        1376.4875994635529     
  -2925.0000144054270        2.3995729287207723E-002   1341.5345621960446     
  -2803.1588277410319       -6.4550095340791813E-002   1341.5124254527684     
  -2681.3036916786164      -0.15927224840834242        1341.5044625459022     
  -2559.4263872160136      -0.23277405605995227        1341.5163639828454     
  -2437.5186953514035      -0.25765884562167685        1341.5538202709156     
  -2315.5723970829476      -0.20652994412648695        1341.6225219173796     
  -2193.5792734085258       -5.1990678005722657E-002   1341.7281594295828     
  -2071.5311053264427       0.23335562516865593        1341.8764233148549     
  -1949.4196738345970       0.67690563898474920        1342.0730040804674     
  -3262.5135237914901        2.1251412879792042E-002   1302.8597075165667     
  -3126.6075439620390       -4.1006124059094873E-002   1302.8325186470297     
  -2990.6830314993949      -0.10924575136255044        1302.8209251838048     
  -2854.7355965978250      -0.16883478328293222        1302.8308065376602     
  -2718.7608494521592      -0.20514053590807180        1302.8680421192107     
  -2582.7544002567442      -0.20353032370996971        1302.9385113391629     
  -2446.7118592061129      -0.14937146179738647        1303.0480936082467     
  -2310.6288364946390       -2.8031264796027244E-002   1303.2026683371923     
  -2174.5009423170368       0.17512295156893742        1303.4081149365400     
  -3600.0288551709373        1.7636000183074430E-002   1259.9691189167140     
  -3450.0555836141111       -7.7953379982318438E-003   1259.9379933625835     
  -3300.0591317823632       -3.9037074197494803E-002   1259.9223474151540     
  -3150.0403003994852       -7.8758287864047816E-002   1259.9280540697009     
  -2999.9998901895224      -0.12962805905044661        1259.9609863214807     
  -2849.9387018762791      -0.19431546708040059        1260.0270171656618     
  -2699.8575361837288      -0.27548959193609335        1260.1320195975179     
  -2549.7571938358906      -0.37581951360937182        1260.2818666122964     
  -2399.6384755565282      -0.49797431130730274        1260.4824312051799     
  -7201.3631840662383        2.8878505846423650        1259.8834312137385     
  -7051.0623129266914        1.8155508209415530        1259.9279045617661     
  -6900.7627957320683        1.0484995345354946        1259.9570105932985     
  -6750.4796436500965       0.53665949965898108        1259.9739114863501     
  -6600.2278678484745       0.22999349065639763        1259.9817694189364     
  -6450.0224794949354        7.8464281719334394E-002   1259.9837465690891     
  -6299.8784897571959        3.2034647155796847E-002   1259.9830051147856     
  -6149.8109098030127        4.0667361183523099E-002   1259.9827072340365     
  -5999.8347508000425        5.4325198122342044E-002   1259.9860151049161     
  -7876.2386655435357        2.8768785724960253        1212.4529255242426     
  -7711.9036603436898        1.8083219056984490        1212.6049835831234     
  -7547.5672087971561        1.0419326795408779        1212.7162342983133     
  -7383.2440342400560       0.52863310698421628        1212.7930072511435     
  -7218.9488600084987       0.21934540098891375        1212.8416320229251     
  -7054.6964094385748        6.4991774606369290E-002   1212.8684381949811     
  -6890.5014058663928        1.6494440726546600E-002   1212.8797553485756     
  -6726.3785726280785        2.4775612395387725E-002   1212.8819130650647     
  -6562.3426330597085        4.0757502528322220E-002   1212.8812409257237     
  -8551.0694314266912        2.8206355868792343        1160.8401904924408     
  -8372.7105526493742        1.7746344507613685        1161.0878070850838     
  -8194.3467169445776        1.0223084300509981        1161.2719917788393     
  -8015.9921035813068       0.51639329464114780        1161.4018905358228     
  -7837.6608918285738       0.20962481456353999        1161.4866493180721     
  -7659.3672609554196        5.4738759609335830E-002   1161.5354140876996     
  -7481.1253902307972        4.4708999544127437E-003   1161.5573308067512     
  -7302.9494589238066        1.1557005334907444E-002   1161.5615454372985     
  -7124.8536463033943        2.8732845829381404E-002   1161.5572039414378     
  -9225.8663060737417        2.7158743203635822        1105.0481063316486     
  -9033.4913752867069        1.7119728232128182        1105.3785614733708     
  -8841.1075675786160       0.98775256471935791        1105.6258653154641     
  -8648.7282619158850       0.49861699006532945        1105.8016291781532     
  -8456.3668372650245       0.19996954432826897        1105.9174643818185     
  -8264.0366725924323        4.7213672745783697E-002   1105.9849822467529     
  -8071.7511468645680       -4.2471794963603315E-003   1106.0157940932920     
  -7879.5236390479076        9.9043271211485262E-004   1106.0215112416581     
  -7687.3675281088981        1.8329954535602155E-002   1106.0137450122745     
  -9900.6401138427482        2.5593474655374848        1045.0795532551854     
  -9694.2545136985827        1.6178213902339849        1045.4794331537512     
  -9487.8560081034957       0.93639086229677559        1045.7794371886805     
  -9281.4569194858650       0.47398112051723729        1045.9932910159530     
  -9075.0695702741104       0.18951740347029045        1046.1347202916509     
  -8868.7062828966209        4.1924949824533542E-002   1046.2174506716885     
  -8662.3793797818398       -9.8710018378369568E-003   1046.2552078121823     
  -8456.1011833582015       -6.9452129496312409E-003   1046.2617173691337     
  -8249.8840160540403        9.6275552668885211E-003   1046.2507049985113     
  -10575.401679091723        2.3478077150284662        980.93741147640344     
  -10355.008353327925        1.4896645188505317        981.39260853193605     
  -10134.598285923472       0.86634910155726175        981.73428967907205     
  -9914.1824865332328       0.44116261353929076        981.97794388700936     
  -9693.7719648121165       0.17740620510858207        982.13906012491668     
  -9473.3777304149698        3.8381026761271642E-002   982.23312736205332     
  -9253.0107929967526       -1.2611771356660029E-002   982.27563456750954     
  -9032.6821622123316       -1.2271038778180809E-002   982.28207071053635     
  -8812.4028477165975        2.7043748036703619E-003   982.26792476034018     
  -11250.161826178741        2.0780077613180765        912.62456120859861     
  -11015.761279617655        1.3249865762277295        913.12027401363275     
  -10781.340648442800       0.77575306117842047        913.49200506721297     
  -10546.909373300046       0.39883839642425301        913.75665562911945     
  -10312.476894835283       0.16277376247580833        913.93112695918649     
  -10078.052653694418        3.6090339475777000E-002   914.03232031727941     
  -9843.6460905234235       -1.2680692260801152E-002   914.07713696323606     
  -9609.2666459680822       -1.5008152227437677E-002   914.08247815689720     
  -9374.9237606743809       -2.3608602245985821E-003   914.06524515805756     
  -11924.931379461803        1.7467002970956855        840.14388266508593     
  -11676.521678010680        1.1212719295690476        840.66461600463447     
  -11428.089343065712       0.66272851993653603        841.05416563363303     
  -11179.641990028333       0.34568539671045073        841.33049408006787     
  -10931.187234299952       0.14475788848812954        841.51156387186177     
  -10682.732691281992        3.4561323864636506E-002   841.61533753700076     
  -10434.285976375939       -1.0288968695022049E-002   841.65977760340729     
  -10185.854704983167       -1.5177660530753201E-002   841.66284659906046     
  -9937.4464925051452       -5.4894231730031606E-003   841.64250705188238     
  -12599.721163298942        1.3506380149692632        763.49825605922285     
  -12337.297933949932       0.87600494593334588        764.02782091062988     
  -12074.850617196527       0.52540125641462510        764.42235365891770     
  -11812.384746960159       0.28038054158832892        764.70052707768343     
  -11549.905857162372       0.12249639635274434        764.88101394041234     
  -11287.419481724663        3.3302415791240492E-002   764.98248702069714     
  -11024.931154568494       -5.6478050360055931E-003   765.02361909201829     
  -10762.446409615328       -1.2800671039258305E-002   765.02308292795306     
  -10499.970780786725       -6.6025873707076244E-003   764.99955130204773     
  -5999.8347508000425        5.4325198122342044E-002   1259.9860151049161     
  -5849.9041441092504        4.9252587919909274E-002   1259.9904392125452     
  -5699.9626482824251        3.6936657731985179E-002   1259.9920490341162     
  -5550.0094152735019        2.0204227788553908E-002   1259.9918452355525     
  -5400.0435970363760        1.8821183807631314E-003   1259.9908284827591     
  -5250.0643455250274       -1.5202850354398834E-002   1259.9899994417094     
  -5100.0708126933678       -2.8223858190131068E-002   1259.9903587782899     
  -4950.0621504953015       -3.4354084783899452E-002   1259.9929071584836     
  -4800.0375108848284       -3.0766710133320885E-002   1259.9986452481494     
  -6562.3426330597085        4.0757502528322220E-002   1212.8812409257237     
  -6398.3492066139033        4.0812075955727778E-002   1212.8805669202350     
  -6234.3437343872120        3.5239150804500241E-002   1212.8789718150888     
  -6070.3256721815806        2.5852720635839432E-002   1212.8771643570731     
  -5906.2944757990535        1.4466778681025971E-002   1212.8758532928723     
  -5742.2496010416362        2.8953181447377574E-003   1212.8757473691342     
  -5578.1905037113565       -7.0476676578437036E-003   1212.8775553326232     
  -5414.1166396100789       -1.3548184928595219E-002   1212.8819859300095     
  -5250.0274645399486       -1.4792240893712005E-002   1212.8897479079756     
  -7124.8536463033943        2.8732845829381404E-002   1161.5572039414378     
  -6946.7962632818653        3.2807923648306314E-002   1161.5520239599764     
  -6768.7259769581224        3.2737785762492422E-002   1161.5478500954193     
  -6590.6425008808328        2.9477269879407686E-002   1161.5450187522861     
  -6412.5455485988923        2.3981213073966501E-002   1161.5438663352047     
  -6234.4348336609246        1.7204453201884462E-002   1161.5447292488400     
  -6056.3100696157935        1.0101827410153419E-002   1161.5479438976984     
  -5878.1709700122956        3.6281730849623273E-003   1161.5538466863673     
  -5700.0172483990928       -1.2616720593996433E-003   1161.5627740195121     
  -7687.3675281088981        1.8329954535602155E-002   1106.0137450122745     
  -7495.2449038162804        2.5363219766859402E-002   1106.0046380703304     
  -7303.1088867573935        2.9579333713627420E-002   1105.9985146271865     
  -7110.9594021265593        3.1227648631556804E-002   1105.9952583224792     
  -6918.7963751179150        3.0557517343368090E-002   1105.9947527958459     
  -6726.6197309258168        2.7818292037864012E-002   1105.9968816868211     
  -6534.4293947444721        2.3259325356775662E-002   1106.0015286350472     
  -6342.2252917681881        1.7129969601683115E-002   1106.0085772801142     
  -6150.0073471911173        9.6795776059934724E-003   1106.0179112616040     
  -8249.8840160540403        9.6275552668885211E-003   1046.2507049985113     
  -8043.6947179201197        1.8601053602196771E-002   1046.2382369897516     
  -7837.4919745472816        2.5910565746016800E-002   1046.2307961627123     
  -7631.2758766738962        3.1253630461378634E-002   1046.2277329691015     
  -7425.0465150383952        3.4327786398080207E-002   1046.2283978606908     
  -7218.8039803793172        3.4830571637030516E-002   1046.2321412891315     
  -7012.5483634350567        3.2459524908517778E-002   1046.2383137062545     
  -6806.2797549440947        2.6912184680895734E-002   1046.2462655637551     
  -6599.9982456448442        1.7886089471630839E-002   1046.2553473133096     
  -8812.4028477165975        2.7043748036703619E-003   982.26792476034018     
  -8592.1452952964501        1.2644514099520165E-002   982.25264845674371     
  -8371.8747510897865        2.1878253722206864E-002   982.24452545414920     
  -8151.5914252779676        2.9704989125093562E-002   982.24229259345918     
  -7931.2955280423603        3.5424115821570012E-002   982.24468671566922     
  -7710.9872695643235        3.8335029239078722E-002   982.25044466188001     
  -7490.6668600251687        3.7737124986506387E-002   982.25830327286269     
  -7270.3345096062849        3.2929798468103400E-002   982.26699938974082     
  -7049.9904284890354        2.3212445094486611E-002   982.27526985350789     
  -9374.9237606743809       -2.3608602245985821E-003   914.06524515805756     
  -9140.5962256482562        7.6166905350874003E-003   914.04770020986700     
  -8906.2567271471835        1.7629168661187578E-002   914.03953325368195     
  -8671.9055486940870        2.6731497704076901E-002   914.03878709694050     
  -8437.5429738119710        3.3978600993577857E-002   914.04350454688893     
  -8203.1692860238072        3.8425401949552906E-002   914.05172841096578     
  -7968.7847688525235        3.9126824130562454E-002   914.06150149644043     
  -7734.3897058211351        3.5137790840508387E-002   914.07086661071685     
  -7499.9843804526026        2.5513225531540229E-002   914.07786656111898     
  -9937.4464925051452       -5.4894231730031606E-003   841.64250705188238     
  -9689.0470986786167        3.6406718427315354E-003   841.62321998752805     
  -9440.6374134816233        1.3310081976669608E-002   841.61565031358339     
  -9192.2177476774577        2.2482929588932166E-002   841.61706638086105     
  -8943.7884120293784        3.0123337168333819E-002   841.62473654023870     
  -8695.3497173007454        3.5195426793052320E-002   841.63592914250478     
  -8446.9019742548044        3.6663321067408106E-002   841.64791253853161     
  -8198.4454936548864        3.3491142125512852E-002   841.65795507912844     
  -7949.9805862642506        2.4643012528031250E-002   841.66332511514327     
  -10499.970780786725       -6.6025873707076244E-003   764.99955130204773     
  -10237.497504090525        8.3954724368595635E-004   764.97903552826926     
  -9975.0163208552494        9.0677650932775578E-003   764.97270738603663     
  -9712.5275229832114        1.7109058396272303E-002   764.97698034667599     
  -9450.0314023766932        2.3990419731489965E-002   764.98826788171004     
  -9187.5282509380941        2.8738840933328902E-002   765.00298346257443     
  -8925.0183605696693        3.0381314519217995E-002   765.01754056067136     
  -8662.5020231738581        2.7944832417688303E-002   765.02835264746795     
  -8399.9795306529359        2.0456386976547947E-002   765.03183319439916     
  -4800.0375108848284       -3.0766710133320885E-002   1259.9986452481494     
  -4650.0077211884000       -1.8937768392333965E-002   1260.0072829813662     
  -4499.9846639977222       -3.8608445468071295E-003   1260.0164969557788     
  -4349.9690741644808        1.2014555713676600E-002   1260.0242378329997     
  -4199.9616865404914        2.6238926377345706E-002   1260.0284562746608     
  -4049.9632359774132        3.6362761964710444E-002   1260.0271029422327     
  -3899.9744573269818        3.9936556607017337E-002   1260.0181284973892     
  -3749.9960854409137        3.4510804573983478E-002   1259.9994836017058     
  -3600.0288551709373        1.7636000183074430E-002   1259.9691189167140     
  -5250.0274645399486       -1.4792240893712005E-002   1212.8897479079756     
  -5085.9351672014727       -1.3009159873945464E-002   1212.9001384845676     
  -4921.8522309524542       -1.1410457187821521E-002   1212.9106352234826     
  -4757.7785535806734       -9.6554254780585325E-003   1212.9192173899303     
  -4593.7140328738606       -7.4033572248026758E-003   1212.9238642491975     
  -4429.6585666198989       -4.3135452558544785E-003   1212.9225550665280     
  -4265.6120526065515       -4.5282202108865022E-005   1212.9132691071679     
  -4101.5743886215650        5.7421394130869885E-003   1212.8939856363691     
  -3937.5454724527917        1.3389426852654651E-002   1212.8626839194087     
  -5700.0172483990928       -1.2616720593996433E-003   1161.5627740195121     
  -5521.8622499116364       -7.4516172212497622E-003   1161.5737548868804     
  -5343.7189890526442       -1.6723462437539638E-002   1161.5843843523683     
  -5165.5866834219523       -2.6469207274658402E-002   1161.5928479316531     
  -4987.4645506194511       -3.4080851311955485E-002   1161.5973311404514     
  -4809.3518082451510       -3.6950394540554043E-002   1161.5960194942431     
  -4631.2476738988862       -3.2469836463860702E-002   1161.5870985088470     
  -4453.1513651804262       -1.8031176319254882E-002   1161.5687536998455     
  -4275.0620996898642        8.9735855838171119E-003   1161.5391705829004     
  -6150.0073471911173        9.6795776059934724E-003   1106.0179112616040     
  -5957.7897470428734       -2.4984576364204258E-003   1106.0284003080133     
  -5765.5858567487176       -2.0075395223557280E-002   1106.0380379965004     
  -5573.3943705967977       -3.8698862362025466E-002   1106.0453937398820     
  -5381.2139828750715       -5.4016485567899508E-002   1106.0490369509398     
  -5189.0433878715248       -6.1675891456616228E-002   1106.0475370424517     
  -4996.8812798743138       -5.7324707130646857E-002   1106.0394634272275     
  -4804.7263531713734       -3.6610559157452371E-002   1106.0233855180229     
  -4612.5773020507877        4.8189255221586791E-003   1105.9978727276427     
  -6599.9982456448442        1.7886089471630839E-002   1046.2553473133096     
  -6393.7184363191545        1.6170017006515991E-003   1046.2643428677800     
  -6187.4537524913840       -2.1741791360454954E-002   1046.2718898098124     
  -5981.2025220136684       -4.6616463477448633E-002   1046.2771190961462     
  -5774.9630727382628       -6.7433188814675304E-002   1046.2791616833815     
  -5568.7337325174231       -7.8618141624474447E-002   1046.2771485281185     
  -5362.5128292032350       -7.4597495475472897E-002   1046.2702105870512     
  -5156.2986906480774       -4.9797424923326616E-002   1046.2574788168229     
  -4950.0896447039440        1.3558966586515453E-003   1046.2380841740924     
  -7049.9904284890354        2.3212445094486611E-002   982.27526985350789     
  -6829.6490954644178        4.6614437069365522E-003   982.28185068592632     
  -6609.3235947309295       -2.1998185231041134E-002   982.28623344634707     
  -6389.0120445809489       -5.0494083023750136E-002   982.28828828208202     
  -6168.7125633068435       -7.4553890849301752E-002   982.28788534027910     
  -5948.4232692010773       -8.7905250257563239E-002   982.28489476820550     
  -5728.1422805561215       -8.4275802825231949E-002   982.27918671307737     
  -5507.8677156642689       -5.7393189570348113E-002   982.27063132215028     
  -5287.5976928180089       -9.8505208029564528E-004   982.25909874271417     
  -7499.9843804526026        2.5513225531540229E-002   914.07786656111898     
  -7265.5825022027420        6.4015508983175096E-003   914.08119188224498     
  -7031.1963019180248       -2.1120112550306658E-002   914.08136256010187     
  -6796.8238452069963       -5.0603793338723335E-002   914.07916557920987     
  -6562.4631976784403       -7.5601520683449053E-002   914.07538792425930     
  -6328.1124249409304       -8.9665323156623344E-002   914.07081657964852     
  -6093.7695926031092       -8.6347229673492620E-002   914.06623853002782     
  -5859.4327662737232       -5.9199269303007895E-002   914.06244075999177     
  -5625.1000115614352       -1.7734709183514497E-003   914.06021025404038     
  -7949.9805862642506        2.4643012528031250E-002   841.66332511514327     
  -7701.5194342580244        6.6040063293257845E-003   841.66263457649814     
  -7453.0727925030551       -1.9383108050533338E-002   841.65757080502465     
  -7204.6388308002970       -4.7217667192853696E-002   841.65001526928756     
  -6956.2157189506443       -7.0799007341520337E-002   841.64184943791645     
  -6707.8016267552011       -8.4026465501210623E-002   841.63495477953438     
  -6459.3947240147463       -8.0799377638868464E-002   841.63121276278412     
  -6210.9931805302940       -5.5017080500192606E-002   841.63250485621950     
  -5962.5951661028321       -5.7891065011972387E-004   841.64071252846475     
  -8399.9795306529359        2.0456386976547947E-002   765.03183319439916     
  -8137.4606693542792        5.0354926906948094E-003   765.02644688843418     
  -7874.9539849365974       -1.7062707157947443E-002   765.01515183509673     
  -7612.4579082692026       -4.0607776933939022E-002   765.00110163378201     
  -7349.9708702213456       -6.0369280773556966E-002   764.98744988388819     
  -7087.4913016623605       -7.1116783097750158E-002   764.97735018483354     
  -6825.0176334613989       -6.7619847859532456E-002   764.97395613595609     
  -6562.5482964877056       -4.4648039157891617E-002   764.98042133670754     
  -6300.0817216106980        3.0290783033706248E-003   764.99989938647968     
  -3600.0288551709373        1.7636000183074430E-002   1259.9691189167140     
  -3450.0555836141111       -7.7953379982318438E-003   1259.9379933625835     
  -3300.0591317823632       -3.9037074197494803E-002   1259.9223474151540     
  -3150.0403003994852       -7.8758287864047816E-002   1259.9280540697009     
  -2999.9998901895224      -0.12962805905044661        1259.9609863214807     
  -2849.9387018762791      -0.19431546708040059        1260.0270171656618     
  -2699.8575361837288      -0.27548959193609335        1260.1320195975179     
  -2549.7571938358906      -0.37581951360937182        1260.2818666122964     
  -2399.6384755565282      -0.49797431130730274        1260.4824312051799     
  -3937.5454724527917        1.3389426852654651E-002   1212.8626839194087     
  -3773.5049720984971        2.6149544972668082E-002   1212.8297227780663     
  -3609.4367182114115        3.3399943842596258E-002   1212.8105072328649     
  -3445.3468525605972        1.4668059862970040E-002   1212.8105858470124     
  -3281.2415169152846       -5.0518671096597245E-002   1212.8355071837304     
  -3117.1268530447501      -0.18263281315898894        1212.8908198063311     
  -2953.0090027181795      -0.40214693039274607        1212.9820722779930     
  -2788.8941077047621      -0.72953358670497437        1213.1148131620014     
  -2624.7883097737395       -1.1852653462625540        1213.2945910215578     
  -4275.0620996898642        8.9735855838171119E-003   1161.5391705829004     
  -4096.9566341467325        5.2226007921944984E-002   1161.5072078019796     
  -3918.8191952130928        9.0507841035559977E-002   1161.4861226019802     
  -3740.6602054020582        8.9077374414046062E-002   1161.4806983999479     
  -3562.4900872268258        1.3192897360340794E-002   1161.4957186129138     
  -3384.3192632010323      -0.17188730203270097        1161.5359666577986     
  -3206.1581558375810      -0.50090493364814392        1161.6062259517701     
  -3028.0171876499580       -1.0086017089545294        1161.7112799117260     
  -2849.9067811512964       -1.7297193384822549        1161.8559119547656     
  -4612.5773020507877        4.8189255221586791E-003   1105.9978727276427     
  -4420.4084747853813        7.1062542916479288E-002   1105.9695964486734     
  -4228.2041854269710       0.13299982560920398        1105.9485668363702     
  -4035.9780769315230       0.14515425353829414        1105.9383614471437     
  -3843.7437922551817        6.2049306486187561E-002   1105.9425578377825     
  -3651.5149743541151      -0.16179153617872544        1105.9647335646778     
  -3459.3052661843390      -0.57184479469265170        1106.0084661844487     
  -3267.1283107019663       -1.2135869892226765        1106.0773332536467     
  -3074.9977508631328       -2.1324946403201466        1106.1749123288951     
  -4950.0896447039440        1.3558966586515453E-003   1046.2380841740924     
  -4743.8583990409106        8.3287642039067578E-002   1046.2160367326499     
  -4537.5893114926084       0.16158910554054273        1046.1972132497424     
  -4331.2981851566947       0.18358329493958081        1046.1835447073183     
  -4125.0008231309330        9.6593217642976015E-002   1046.1769620872662     
  -3918.7130285129697      -0.15205811841292416        1046.1793963714108     
  -3712.4506044006143      -0.61504770591272973        1046.1927785416983     
  -3506.2293538914464       -1.3450525369921706        1046.2190395799628     
  -3300.0650800833482       -2.3947496043144838        1046.2601104680682     
  -5287.5976928180089       -9.8505208029564528E-004   982.25909874271417     
  -5067.3043119399044        8.9529797211525874E-002   982.24567666825749     
  -4846.9721960495854       0.17698888905556487        982.23143515598724     
  -4626.6182480852749       0.20504909598480481        982.21621789900257     
  -4406.2593709849625       0.11736729142944569        982.19986859020992     
  -4185.9124676867687      -0.14239965170668256        982.18223092259313     
  -3965.5944411287146      -0.63059486024963007        982.16314858914802     
  -3745.3221942489399       -1.4035614611896108        982.14246528280012     
  -3525.1126299855914       -2.5176425817214749        982.12002469657432     
  -5625.1000115614352       -1.7734709183514497E-003   914.06021025404038     
  -5390.7441185088073        9.0417500807916440E-002   914.05766426992352     
  -5156.3504617375729       0.17991238396871267        914.05060586890545     
  -4921.9359837249585       0.21023625451493899        914.03635074078807     
  -4687.5176269480653       0.12491418867443826        914.01221457550207     
  -4453.1123338844136      -0.13252873848068703        913.97551306276398     
  -4218.7370470109936      -0.61856745043132833        913.92356189245049     
  -3984.4087088051465       -1.3896768714653263        913.85367675441228     
  -3750.1442617441057       -2.5023319257279582        913.76317333842474     
  -5962.5951661028321       -5.7891065011972387E-004   841.64071252846475     
  -5714.1757237742231        8.6579244549739087E-002   841.65114755211891     
  -5465.7217311959557       0.17107279897709304        841.65409870226983     
  -5217.2491100832331       0.19982936863084433        841.64391295142048     
  -4968.7737821511355       0.11977656987187402        841.61493727197933     
  -4720.3116691149089      -0.12215798144302425        841.56151863647096     
  -4471.8786926895691      -0.57904666863328202        841.47800401730103     
  -4223.4907745904275       -1.3039618761847578        841.35874038687359     
  -3975.1638365326648       -2.3499759879223348        841.19807471782508     
  -6300.0817216106980        3.0290783033706248E-003   764.99989938647968     
  -6037.5970327627292        7.8643520374271247E-002   765.02527452926279     
  -5775.0836270644540       0.15118334167982539        765.04128696991017     
  -5512.5553451678952       0.17451303565303533        765.03887424939978     
  -5250.0260277249627       0.10249709581648858        765.00897390854857     
  -4987.5095153873053      -0.11099998329291338        764.94252348824352     
  -4725.0196488068814      -0.51211370835949310        764.83046052924328     
  -4462.5702686356390       -1.1469795855139182        764.66372257250327     
  -4200.1752155253098       -2.0617331207984080        764.43324715885183     
  -12599.721163298942        1.3506380149692632        763.49825605922285     
  -12337.297933949932       0.87600494593334588        764.02782091062988     
  -12074.850617196527       0.52540125641462510        764.42235365891770     
  -11812.384746960159       0.28038054158832892        764.70052707768343     
  -11549.905857162372       0.12249639635274434        764.88101394041234     
  -11287.419481724663        3.3302415791240492E-002   764.98248702069714     
  -11024.931154568494       -5.6478050360055931E-003   765.02361909201829     
  -10762.446409615328       -1.2800671039258305E-002   765.02308292795306     
  -10499.970780786725       -6.6025873707076244E-003   764.99955130204773     
  -13274.520049766637       0.96341407311865623        682.69052592897992     
  -12998.084771238617       0.63429944529343629        683.20905166626119     
  -12721.623021959867       0.38836855548197491        683.59374076616780     
  -12445.138366855408       0.21373832056360698        683.86327661728649     
  -12168.634370850114        9.8525657539084932E-002   684.03634260824117     
  -11892.114598868806        3.0847483659272257E-002   684.13162212755446     
  -11615.582615836462       -1.1792843324656133E-003   684.16779856383459     
  -11339.041986677932       -9.4377292562057846E-003   684.16355530559156     
  -11062.496276318067       -5.8109338979193126E-003   684.13757574145438     
  -13949.321745482324       0.65717126772960910        597.71880229284068     
  -13658.879670585862       0.44044217618647963        598.20395433354247     
  -13368.406186160828       0.27590439766390773        598.56302728398759     
  -13077.903369337682       0.15663416389179474        598.81366690918799     
  -12787.373297246846        7.5707706793764373E-002   598.97351897418730     
  -12496.818047018794        2.6201258184300968E-002   599.06022924402134     
  -12206.239695784032        1.1910496641576174E-003   599.09144348370978     
  -11915.640320672952       -6.2466867148032179E-003   599.08480745828513     
  -11625.021998816046       -3.0357192836163449E-003   599.05796693277966     
  -14624.144326615686       0.42648674774591200        508.57886358492902     
  -14319.695152793873       0.29067689777639316        509.00944000941621     
  -14015.207973724064       0.18564960552430421        509.32808855128013     
  -13710.683859944436       0.10783641038506175        509.55036911344428     
  -13406.123881993142        5.3668851838665432E-002   509.69184159883571     
  -13101.529110408397        1.9578469143198163E-002   509.76806591036791     
  -12796.900615728377        1.9968018086728989E-003   509.79460195093856     
  -12492.239468491278       -2.6446109177413746E-003   509.78700962349734     
  -12187.546739235282        2.0857703761976154E-003   509.76084883099327     
  -15299.005869336308       0.26593766252517526        415.26648823936864     
  -14980.543738664674       0.18124736950176157        415.62241979071865     
  -14662.036248574299       0.11524500162613549        415.88679990691065     
  -14343.483944213227        6.6113398752349894E-002   416.07205439020231     
  -14024.887370729517        3.2035400624408794E-002   416.19060904277143     
  -13706.247073271308        1.1193846749847580E-002   416.25488966690153     
  -13387.563596986703        1.7715769481583266E-003   416.27732206479817     
  -13068.837487023762        1.9514308814905235E-003   416.27033203874674     
  -12750.069288530540        9.9162483884356334E-003   416.24634539094234     
  -15973.924449813891       0.17010116096116690        317.77745469024558     
  -15641.437949000323       0.10839735074932833        318.03980477432248     
  -15308.898874636177        6.2331408682439360E-002   318.23703668976270     
  -14976.307727681502        3.0233467849939188E-002   318.37739389951662     
  -14643.665009096529        1.0433660840135417E-002   318.46911986660206     
  -14310.971219841404        1.2621205378309241E-003   318.52045805395687     
  -13978.226860876273        1.0489797687114333E-003   318.53965192460379     
  -13645.432433161230        8.1243715085292934E-003   318.53494494149419     
  -13312.588437656488        2.0818428452002991E-002   318.51458056761908     
  -16648.918144218092       0.13355439223323629        216.10754137171472     
  -16302.390304602906        6.8370600860362174E-002   216.25850605709599     
  -15955.803715834383        2.4549649233449600E-002   216.37667423867359     
  -15609.159315886867       -1.0350438369641779E-003   216.46505880154680     
  -15262.458042734732       -1.1510059630381875E-002   216.52667263086124     
  -14915.700834352319       -1.0001979285334528E-002   216.56452861177891     
  -14568.888628714129        3.6261556670069695E-004   216.58163962956792     
  -14222.022363794511        1.6457143813568109E-002   216.58101856920189     
  -13875.102977567858        3.5155024032974325E-002   216.56567831590692     
  -17324.005028718591       0.15087450537612312        110.25252671789116     
  -16963.413326274531        5.7410879154303984E-002   110.27543473593921     
  -16602.758636093589       -4.5945404599478934E-004   110.30358789250835     
  -16242.042814366720       -2.8923797240167914E-002   110.33372025636075     
  -15881.267717284520       -3.4169452581409132E-002   110.36256589617764     
  -15520.435201037948       -2.2383723211532924E-002   110.38685888080583     
  -15159.547121817694        2.4608852618257515E-004   110.40333327892479     
  -14798.605335814536        2.7532680164767953E-002   110.40872315933372     
  -14437.611699219258        5.3288748981685785E-002   110.39976259078746     
  -17999.203179485026       0.21663864951278811       0.20818916285628933     
  -17624.519534817195        7.1761945113394177E-002   8.7501907676784244E-002
  -17249.771499338611       -1.5055078887598938E-002   1.5652990157596695E-002
  -16874.962328658668       -5.4664453860823414E-002  -1.7950575888291739E-002
  -16500.095278386743       -5.7918211182368395E-002  -2.3901776814048259E-002
  -16125.173604131980       -3.5668381174218666E-002  -1.2793598801189611E-002
  -15750.200561504029        1.2330040108281537E-003   4.7809719944063691E-003
  -15375.179406112004        4.1933913877073792E-002   1.8228949364201413E-002
  -15000.113393565502        7.5582316501822788E-002   1.6957347036724225E-002
  -10499.970780786725       -6.6025873707076244E-003   764.99955130204773     
  -10237.497504090525        8.3954724368595635E-004   764.97903552826926     
  -9975.0163208552494        9.0677650932775578E-003   764.97270738603663     
  -9712.5275229832114        1.7109058396272303E-002   764.97698034667599     
  -9450.0314023766932        2.3990419731489965E-002   764.98826788171004     
  -9187.5282509380941        2.8738840933328902E-002   765.00298346257443     
  -8925.0183605696693        3.0381314519217995E-002   765.01754056067136     
  -8662.5020231738581        2.7944832417688303E-002   765.02835264746795     
  -8399.9795306529359        2.0456386976547947E-002   765.03183319439916     
  -11062.496276318067       -5.8109338979193126E-003   684.13757574145438     
  -10785.946814067178        1.8705934189711115E-004   684.11650163118952     
  -10509.392689644701        6.5075112293015991E-003   684.11163728740507     
  -10232.834108589137        1.2465293410059530E-002   684.11865992748824     
  -9956.2712764391526        1.7375276979237242E-002   684.13324676902926     
  -9679.7043987332072        2.0552333676278067E-002   684.15107502957085     
  -9403.1336810099037        2.1311334925485426E-002   684.16782192665562     
  -9126.5593288078871        1.8967151844208274E-002   684.17916467774330     
  -8849.9815476657095        1.2834656012273626E-002   684.18078050042493     
  -11625.021998816046       -3.0357192836163449E-003   599.05796693277966     
  -11334.394566401537        2.6072679615936067E-003   599.03709394990005     
  -11043.766495044281        7.0141688552212145E-003   599.03343580065030     
  -10753.137815015039        1.0084080889100733E-002   599.04225112244239     
  -10462.508556584185        1.1716102769696590E-002   599.05879855277738     
  -10171.878750022228        1.1809332858774724E-002   599.07833672902268     
  -9881.2484255997351        1.0262869246162154E-002   599.09612428879427     
  -9590.6176135872302        6.9758101940351480E-003   599.10741986940548     
  -9299.9863442551632        1.8472541419214394E-003   599.10748210832071     
  -12187.546739235282        2.0857703761976154E-003   509.76084883099327     
  -11882.840599211151        8.1487382499290106E-003   509.74082150459645     
  -11578.138350043033        1.0403840675280662E-002   509.73802812787090     
  -11273.439757829095        9.6307503617936163E-003   509.74762643194242     
  -10968.744588667489        6.6091402159145218E-003   509.76477414809625     
  -10664.052608656430        2.1186827757446736E-003   509.78462900752749     
  -10359.363583893968       -3.0609487466790597E-003   509.80234874145754     
  -10054.677280478365       -8.1500818578206236E-003   509.81309108108866     
  -9749.9934645078210       -1.2369044003662566E-002   509.81201375766364     
  -12750.069288530540        9.9162483884356334E-003   416.24634539094234     
  -12431.284750613895        1.6860034394994727E-002   416.22769331555702     
  -12112.508867629733        1.6492630348238890E-002   416.22533947112601     
  -11793.741052599456        1.0770631494779082E-002   416.23465835644282     
  -11474.980718544693        1.6506324632246105E-003   416.25102447028206     
  -11156.227278486816       -8.9107713602061267E-003   416.26981231161113     
  -10837.480145447513       -1.8956985593376885E-002   416.28639637910948     
  -10518.738732448257       -2.6531415088356880E-002   416.29615117165417     
  -10200.002452510626       -2.9677465140593995E-002   416.29445118805222     
  -13312.588437656488        2.0818428452002991E-002   318.51458056761908     
  -12979.726858727450        2.8789721171051497E-002   318.49771840299064     
  -12646.878660793172        2.5096641413256293E-002   318.49529503241331     
  -12314.042814894250        1.3169053818728571E-002   318.50321939616896     
  -11981.218292071189       -3.5631765586003894E-003   318.51740043455857     
  -11648.404063364706       -2.1670185464245151E-002   318.53374708779268     
  -11315.599099815239       -3.7722107717854669E-002   318.54816829611048     
  -10982.802372463591       -4.8289079329606466E-002   318.55657299978395     
  -10650.012852350132       -4.9941234835841897E-002   318.55487013904519     
  -13875.102977567858        3.5155024032974325E-002   216.56567831590692     
  -13528.166761669514        4.3986363320072996E-002   216.55090578715587     
  -13181.248342522362        3.6031976780577679E-002   216.54782001393542     
  -12834.346160281650        1.6491346984366828E-002   216.55318205163579     
  -12487.458655102810       -9.4360442217293894E-003   216.56375295611758     
  -12140.584267141225       -3.6550714702570986E-002   216.57629378262357     
  -11793.721436552052       -5.9653181735939143E-002   216.58756558673761     
  -11446.868603490895       -7.3543963959764369E-002   216.59432942411897     
  -11100.024208113060       -7.3023579056552990E-002   216.59334635022557     
  -14437.611699219258        5.3288748981685785E-002   110.39976259078746     
  -14076.604297557733        6.2498525636328850E-002   110.38726448828844     
  -13715.618525806029        4.9114740251752664E-002   110.38283961759488     
  -13354.652204329814        2.0402840461429150E-002   110.38441882331223     
  -12993.703153495004       -1.6371726786019281E-002   110.38993295018122     
  -12632.769193667431       -5.3943514118145686E-002   110.39731284268676     
  -12271.848145212909       -8.5047074348494789E-002   110.40448934558954     
  -11910.937828497204      -0.10241696006050915        110.40939330355721     
  -11550.036063886233       -9.8787724247813458E-002   110.40995556116205     
  -15000.113393565502        7.5582316501822788E-002   1.6957347036724225E-002
  -14625.039304509939        8.4374772570299683E-002   6.8035266870655883E-003
  -14249.989823633128        6.4161034793869476E-002   2.7904561136621705E-004
  -13874.962062606963        2.4568863610511471E-002  -3.1977885357884527E-003
  -13499.953133103438       -2.4773981095677300E-002  -4.2086680973772153E-003
  -13124.960146794629       -7.4239739445147279E-002  -3.3352853749785117E-003
  -12749.980215352460      -0.11420065130459989       -1.1593330743440201E-003
  -12375.010450449035      -0.13502895690771766        1.7374966453820419E-003
  -12000.047963756297      -0.12709689614302988        4.7735113343153638E-003
  -8399.9795306529359        2.0456386976547947E-002   765.03183319439916     
  -8137.4606693542792        5.0354926906948094E-003   765.02644688843418     
  -7874.9539849365974       -1.7062707157947443E-002   765.01515183509673     
  -7612.4579082692026       -4.0607776933939022E-002   765.00110163378201     
  -7349.9708702213456       -6.0369280773556966E-002   764.98744988388819     
  -7087.4913016623605       -7.1116783097750158E-002   764.97735018483354     
  -6825.0176334613989       -6.7619847859532456E-002   764.97395613595609     
  -6562.5482964877056       -4.4648039157891617E-002   764.98042133670754     
  -6300.0817216106980        3.0290783033706248E-003   764.99989938647968     
  -8849.9815476657095        1.2834656012273626E-002   684.18078050042493     
  -8573.4067991051943        1.0429438621031295E-003   684.17099978496753     
  -8296.8406334131596       -1.5241438105022098E-002   684.15391125355256     
  -8020.2818892756941       -3.2147443455414759E-002   684.13382962181981     
  -7743.7294053786018       -4.5804024981407565E-002   684.11506960530710     
  -7467.1820204079850       -5.2340136205657473E-002   684.10194591947720     
  -7190.6385730497796       -4.7884730294299516E-002   684.09877327992911     
  -6914.0979019900487       -2.8566760807279934E-002   684.10986640230101     
  -6637.5588459147666        9.4848189733056643E-003   684.13954000196827     
  -9299.9863442551632        1.8472541419214394E-003   599.10748210832071     
  -9009.3570435423098       -5.6152323122660164E-003   599.09459899968442     
  -8718.7317059561301       -1.4465978258158430E-002   599.07360354977163     
  -8428.1097146201009       -2.2648728671811114E-002   599.04957191421329     
  -8137.4904526575874       -2.8107228006319929E-002   599.02758024873492     
  -7846.8733031921738       -2.8785221638372605E-002   599.01270470904706     
  -7556.2576493472525       -2.2626454162946175E-002   599.01002145082703     
  -7265.6428742463459       -7.5746706879726844E-003   599.02460662978092     
  -6975.0283610128681        1.8426384160648013E-002   599.06153640161767     
  -9749.9934645078210       -1.2369044003662566E-002   509.81201375766364     
  -9445.3101230160682       -1.4555140773609310E-002   509.79741480271190     
  -9140.6254417591463       -1.4208085585778463E-002   509.77444570686129     
  -8835.9394849188211       -1.1541817629222351E-002   509.74854438999591     
  -8531.2523166767896       -6.7702759324674844E-003   509.72514877201212     
  -8226.5640012147414       -1.0739947856563958E-004   509.70969677267493     
  -7921.8746027144589        8.2328725275147008E-003   509.70762631185704     
  -7617.1841853575461        1.8036601314634026E-002   509.72437530945615     
  -7312.4928133258181        2.9089847541854397E-002   509.76538168521671     
  -10200.002452510626       -2.9677465140593995E-002   416.29445118805222     
  -9881.2647578770175       -2.5392886834197270E-002   416.27961746405060     
  -9562.5200800158436       -1.3939517943981627E-002   416.25665470822582     
  -9243.7693007881389        1.7431047767786367E-003   416.23096292853728     
  -8925.0133020544945        1.8715446025453275E-002   416.20794213294329     
  -8606.2529656754996        3.4037970481676894E-002   416.19299232964914     
  -8287.4891735120236        4.4771141897854250E-002   416.19151352641757     
  -7968.7228074248069        4.7975424561627733E-002   416.20890573144658     
  -7649.9547492744769        4.0711282963002304E-002   416.25056895259729     
  -10650.012852350132       -4.9941234835841897E-002   318.55487013904519     
  -10317.219668475533       -3.7744575356555288E-002   318.54137725378155     
  -9984.4138599200669       -1.3132034079262667E-002   318.52044753694202     
  -9651.5972628445197        1.7775853118564555E-002   318.49704340877366     
  -9318.7717134090653        4.8858552311230596E-002   318.47612728943005     
  -8985.9390477742872        7.3995528218347317E-002   318.46266159904758     
  -8653.1011021008489        8.7066245224832528E-002   318.46160875782459     
  -8320.2597125491284        8.1950168880666752E-002   318.47793118588459     
  -7987.4167152796390        5.2526764021877170E-002   318.51659130349623     
  -11100.024208113060       -7.3023579056552990E-002   216.59334635022557     
  -10753.173575162104       -5.1226311482423625E-002   216.58286444180661     
  -10406.305020665339       -1.1257391499839287E-002   216.56604117633580     
  -10059.421471703863        3.7126243930288183E-002   216.54700170993243     
  -9712.5258553587355        8.4167657882062485E-002   216.52987119915545     
  -9365.6210987109898       0.12010991361421475        216.51877480013516     
  -9018.7101288416306       0.13519607440366599        216.51783766936924     
  -8671.7958728316407       0.11966920374425172        216.53118496313380     
  -8324.8812577621084        6.3772364588203345E-002   216.56294183772636     
  -11550.036063886233       -9.8787724247813458E-002   110.40995556116205     
  -11189.125198287238       -6.5454200425847375E-002   110.40424929828256     
  -10828.191801445366       -7.7873484242445556E-003   110.39365260951129     
  -10467.240027982914        6.0364090691564343E-002   110.38105371123346     
  -10106.274032522098       0.12515137640912144        110.36934081998535     
  -9745.2979696852326       0.17272576737741474        110.36140215220659     
  -9384.3159940949427       0.18923852172292754        110.36012592455613     
  -9023.3322603732886       0.16084089925516309        110.36840035319179     
  -8662.3509231426233        7.3684158652667975E-002   110.38911365501502     
  -12000.047963756297      -0.12709689614302988        4.7735113343153638E-003
  -11625.073258201626       -8.0044347982493491E-002   5.7020932396450261E-003
  -11250.072441453867       -2.1936631023891096E-003   3.4988198197005403E-003
  -10875.051032297772        8.8059209396305960E-002  -5.8470815872525123E-004
  -10500.014549517418       0.17231832257721180       -5.2968902208342574E-003
  -10124.968511897328       0.23218772796553822       -9.3861256535376809E-003
  -9749.9184382217609       0.24927147809967209       -1.1600813551771776E-002
  -9374.8698472752549       0.20517362462624078       -1.0689353643958437E-002
  -8999.8282578424805        8.1498218408796674E-002  -5.4001450334376835E-003
  -6300.0817216106980        3.0290783033706248E-003   764.99989938647968     
  -6037.5970327627292        7.8643520374271247E-002   765.02527452926279     
  -5775.0836270644540       0.15118334167982539        765.04128696991017     
  -5512.5553451678952       0.17451303565303533        765.03887424939978     
  -5250.0260277249627       0.10249709581648858        765.00897390854857     
  -4987.5095153873053      -0.11099998329291338        764.94252348824352     
  -4725.0196488068814      -0.51211370835949310        764.83046052924328     
  -4462.5702686356390       -1.1469795855139182        764.66372257250327     
  -4200.1752155253098       -2.0617331207984080        764.43324715885183     
  -6637.5588459147666        9.4848189733056643E-003   684.13954000196827     
  -6361.0065748763209        6.8154864983171137E-002   684.17871599993919     
  -6084.4342854522447       0.12257314925136598        684.20733478597174     
  -5807.8528561154180       0.13647809562644397        684.21323877902114     
  -5531.2731653393585        7.3608125554983417E-002   684.18427039807182     
  -5254.7060915968168      -0.10229833668017818        684.10827206194517     
  -4978.1625133613679      -0.42750286971113383        683.97308618962643     
  -4701.6533091058518      -0.93826704961406904        683.76655520010434     
  -4425.1893573034977       -1.6708524539367318        683.47652151212969     
  -6975.0283610128681        1.8426384160648013E-002   599.06153640161767     
  -6684.4068319961689        5.5472069813276903E-002   599.11027864541586     
  -6393.7762303731079        8.6254987469601474E-002   599.14746155688908     
  -6103.1437705085664        8.6727254224570061E-002   599.15890176653409     
  -5812.5166667675321        3.2840986694282037E-002   599.13041590501985     
  -5521.9021335148300       -9.9451697805307049E-002   599.04782060277660     
  -5231.3073851153740      -0.33419868232226690        598.89693249044103     
  -4940.7396359340855      -0.69544784990557673        598.66356819860607     
  -4650.2061003359049       -1.2072470836626508        598.33354435778131     
  -7312.4928133258181        2.9089847541854397E-002   509.76538168521671     
  -7007.8016378664042        3.9445012587748352E-002   509.81931430416756     
  -6703.1136663234938        4.0967507425193617E-002   509.86112353506138     
  -6398.4317470239912        2.4162909157894319E-002   509.87566955366862     
  -6093.7587282950763       -2.0463206274143886E-002   509.84781253577216     
  -5789.0974584639434      -0.10240526282927931        509.76241265715919     
  -5484.4507858574125      -0.23115768313687113        509.60433009351073     
  -5179.8215588028061      -0.41621489164685954        509.35842502067817     
  -4875.2126256270049      -0.66707131142379694        509.00955761428719     
  -7649.9547492744769        4.0711282963002304E-002   416.25056895259729     
  -7331.1948262317082        1.8923569334219792E-002   416.30517481456383     
  -7012.4507977999765       -1.4550639918070374E-002   416.34777697289678     
  -6693.7204443387127       -5.2312543066364015E-002   416.36334848213295     
  -6375.0015462078063       -8.6963339562771580E-002   416.33686239682186     
  -6056.2918837668894      -0.11110422829733579        416.25329177138764     
  -5737.5892373757415      -0.11733640854140504        416.09760966050470     
  -5418.8913873938081       -9.8261078396035373E-002   415.85478911858610     
  -5100.1961141811853       -4.6479438139158447E-002   415.50980320019750     
  -7987.4167152796390        5.2526764021877170E-002   318.51659130349623     
  -7654.5902308365603       -7.2423833239554369E-003   318.56721201503245     
  -7321.7918292989698       -8.1560803358115663E-002   318.60687812275381     
  -6989.0135211296447      -0.14379670542575695        318.62174489356823     
  -6656.2473167912485      -0.16731829837817713        318.59796759437313     
  -6323.4852267466631      -0.12549379181928089        318.52170149193569     
  -5990.7192614585538        8.3086054671639431E-003   318.37910185313655     
  -5657.9414313897050       0.26072068405551363        318.15632394490200     
  -5325.1437470029159       0.65837423471975853        317.83952303405567     
  -8324.8812577621084        6.3772364588203345E-002   216.56294183772636     
  -7977.9916854253652       -4.0202968570156372E-002   216.60477774391856     
  -7631.1409653170986      -0.16132433229404342        216.63788323705978     
  -7284.3146360736373      -0.25138718099788093        216.65066512973547     
  -6937.4982363311155      -0.26218696858586554        216.63153023490719     
  -6590.6773047260149      -0.14551914990352088        216.56888536507063     
  -6243.8373798943085       0.14682082179433564        216.45113733324271     
  -5896.9640004724761       0.66303749158214487        216.26669295203189     
  -5550.0427050966236        1.4513354059154153        216.00395903430808     
  -8662.3509231426233        7.3684158652667975E-002   110.38911365501502     
  -8301.4030237425814       -8.1108309633691533E-002   110.41722383979076     
  -7940.5024103508886      -0.25510257562200422        110.44024856816327     
  -7579.6274478476971      -0.37618157316774159        110.44991553238593     
  -7218.7565011132192      -0.37222823631464053        110.43795242474954     
  -6857.8679350276334      -0.17112549903185936        110.39608693741145     
  -6496.9401144714257       0.29924370380103937        110.31604676262035     
  -6135.9514043244271        1.1109964394449889        110.18955959250020     
  -5774.8801694669482        2.3362497733980945        110.00835311942635     
  -8999.8282578424805        8.1498218408796674E-002  -5.4001450334376835E-003
  -8624.8280795326518      -0.13110852976660681        3.9021407359894618E-003
  -8249.8803688965472      -0.36415688146098546        1.3430368443137252E-002
  -7874.9556151284969      -0.51927748421758224        1.9302443166195938E-002
  -7500.0243074227837      -0.49810098587977336        1.7636270363842795E-002
  -7125.0569349745228      -0.20225803673201881        4.5497552236779190E-003
  -6750.0239869779916       0.46662071565606311       -2.3839197163938612E-002
  -6374.8959526275830        1.6069046235261339       -7.1412681319674140E-002
  -5999.6433211182220        3.3169630366971887      -0.14205279201620613     
 </DataArray>
 <DataArray  type="Float64" Name="VM" NumberOfComponents="1" format="ascii">
   4382.3932275130328     
   4320.2119067687681     
   4258.5788033467761     
   4197.5102841810194     
   4137.0235515248805     
   4077.1366792834465     
   4017.8686501042321     
   3959.2393930479057     
   3901.2698216205276     
   3870.1504362266178     
   3823.3863639026035     
   3777.2008701068503     
   3731.6013547450461     
   3686.5954439796510     
   3642.1909851945065     
   3598.3960415612687     
   3555.2188861760101     
   3512.6679957304173     
   3409.7773381068118     
   3377.9866096028245     
   3346.7627500932340     
   3316.1015182824644     
   3285.9983807476942     
   3256.4484925271240     
   3227.4466789656690     
   3198.9874189505276     
   3171.0648296687905     
   3024.9113922683573     
   3006.7947071498165     
   2989.1765759078653     
   2972.0398120444884     
   2955.3667455905907     
   2939.1392165502930     
   2923.3385708790024     
   2907.9456590030600     
   2892.9408368739269     
   2747.3589355874310     
   2740.0092339713460     
   2733.0470484134944     
   2726.4444497579298     
   2720.1732298932093     
   2714.2049066689819     
   2708.5107301105099     
   2703.0616898372864     
   2697.8285235894318     
   2611.4900625374216     
   2609.7622878915045     
   2608.3396102142015     
   2607.1886024995106     
   2606.2758163858921     
   2605.5677829013830     
   2605.0310132909626     
   2604.6319999152893     
   2604.3372172109612     
   2639.2494117634219     
   2636.3327127478301     
   2633.7471623670126     
   2631.4592004216302     
   2629.4351791924446     
   2627.6413661850183     
   2626.0439472199173     
   2624.6090298266699     
   2623.3026469014098     
   2825.8330769829254     
   2815.2951621245084     
   2805.2032417406231     
   2795.5291270127814     
   2786.2442254824509     
   2777.3195448806014     
   2768.7256991964318     
   2760.4329168756040     
   2752.4110510289620     
   3143.1315325714827     
   3120.5907137166155     
   3098.6103749601907     
   3077.1721516713715     
   3056.2571456543124     
   3035.8459122907707     
   3015.9184513281116     
   2996.4542013994687     
   2977.4320383432746     
   3901.2698216205276     
   3843.9347803617497     
   3787.2119427049488     
   3731.1282916415335     
   3675.7122797720203     
   3620.9938913434557     
   3567.0047035837033     
   3513.7779465363469     
   3461.3485604530233     
   3512.6679957304173     
   3470.7067217951180     
   3429.3059581606399     
   3388.4862301127314     
   3348.2688550964676     
   3308.6759532102424     
   3269.7304549074870     
   3231.4561054373239     
   3193.8774655199195     
   3171.0648296687905     
   3143.6298608057764     
   3116.6458065048828     
   3090.1252286576942     
   3064.0809604457008     
   3038.5260981854894     
   3013.4739916034541     
   2988.9382324389767     
   2964.9326412755627     
   2892.9408368739269     
   2878.2638390699622     
   2863.8715042018912     
   2849.7695084474408     
   2835.9635683400215     
   2822.4594357224173     
   2809.2628923946663     
   2796.3797444551842     
   2783.8158163358635     
   2697.8285235894318     
   2692.7437471499989     
   2687.7610942906681     
   2682.8829529961477     
   2678.1117191912313     
   2673.4497957419380     
   2668.8995914341622     
   2664.4635199303202     
   2660.1439987038743     
   2604.3372172109612     
   2604.0762380378046     
   2603.8024093526433     
   2603.5178546472221     
   2603.2246983584910     
   2602.9250658006044     
   2602.6210830971158     
   2602.3148771138581     
   2602.0085753916105     
   2623.3026469014098     
   2622.0536455575539     
   2620.8151126302896     
   2619.5893914274461     
   2618.3788310252471     
   2617.1857859871716     
   2616.0126160814939     
   2614.8616859979834     
   2613.7353650628957     
   2752.4110510289620     
   2744.5910491431155     
   2736.9266666844392     
   2729.4217056976818     
   2722.0799816532012     
   2714.9053211848682     
   2707.9015597511043     
   2701.0725392199001     
   2694.4221053788001     
   2977.4320383432746     
   2958.7895793009061     
   2940.4847841026667     
   2922.5266921063835     
   2904.9244305264760     
   2887.6872058797680     
   2870.8242947050476     
   2854.3450335408747     
   2838.2588081502549     
   3461.3485604530233     
   3409.7604986070892     
   3359.0595624482021     
   3309.2858983352521     
   3260.4811453764546     
   3212.6884278864341     
   3165.9523349334909     
   3120.3188849917919     
   3075.8354735972985     
   3193.8774655199195     
   3157.0259403525647     
   3120.9333062871406     
   3085.6257050901022     
   3051.1298035761201     
   3017.4727536402411     
   2984.6821451790238     
   2952.7859514500756     
   2921.8124664597062     
   2964.9326412755627     
   2941.4766574801506     
   2918.5892364768424     
   2896.2836770452523     
   2874.5733133578074     
   2853.4714888206040     
   2832.9915280537325     
   2813.1467070381714     
   2793.9502214759418     
   2783.8158163358635     
   2771.5822047371098     
   2759.6892374304725     
   2748.1415630625161     
   2736.9437816590175     
   2726.1004377379272     
   2715.6160132792543     
   2705.4949205716175     
   2695.7414949553249     
   2660.1439987038743     
   2655.9488897721112     
   2651.8852638846229     
   2647.9543522095896     
   2644.1573832798299     
   2640.4955823880900     
   2636.9701709846113     
   2633.5823660779174     
   2630.3333796393017     
   2602.0085753916105     
   2601.7100573739031     
   2601.4263784052923     
   2601.1584328357649     
   2600.9071183198621     
   2600.6733358068273     
   2600.4579895453071     
   2600.2619871034403     
   2600.0862394029577     
   2613.7353650628957     
   2612.6420123947341     
   2611.5890307965701     
   2610.5773545183802     
   2609.6079124937687     
   2608.6816282179898     
   2607.7994196339628     
   2606.9621990287692     
   2606.1708729390475     
   2694.4221053788001     
   2687.9600961224451     
   2681.6950599303191     
   2675.6288899479987     
   2669.7634513927287     
   2664.1005798539013     
   2658.6420795925228     
   2653.3897218425827     
   2648.3452431193623     
   2838.2588081502549     
   2822.5807432085103     
   2807.3241040347634     
   2792.4955023871307     
   2778.1015214103359     
   2764.1487045927825     
   2750.6435443256769     
   2737.5924700921132     
   2725.0018363182321     
   3075.8354735972985     
   3032.5475073504749     
   2990.5078316173167     
   2949.7779675397455     
   2910.4220036802330     
   2872.5064849832111     
   2836.1002647888540     
   2801.2743158626331     
   2768.1014967150677     
   2921.8124664597062     
   2891.7912489352234     
   2862.7569263691844     
   2834.7461700636127     
   2807.7963443436252     
   2781.9454030829752     
   2757.2317727881918     
   2733.6942220233741     
   2711.3717171985845     
   2793.9502214759418     
   2775.4176853650947     
   2757.5676098491613     
   2740.4174320249958     
   2723.9845204206304     
   2708.2861276558078     
   2693.3393407707272     
   2679.1610294361458     
   2665.7677923058486     
   2695.7414949553249     
   2686.3619285073696     
   2677.3633740952732     
   2668.7514066257995     
   2660.5314064041750     
   2652.7085487476897     
   2645.2877940665066     
   2638.2738784666985     
   2631.6713049306668     
   2630.3333796393017     
   2627.2244851636765     
   2624.2562471200104     
   2621.4287209460363     
   2618.7418436275839     
   2616.1954345250060     
   2613.7891971520935     
   2611.5227219100161     
   2609.3954897821104     
   2600.0862394029577     
   2599.9294701931071     
   2599.7885299667114     
   2599.6615014771837     
   2599.5464404358040     
   2599.4413772611238     
   2599.3443198346849     
   2599.2532572647656     
   2599.1661646566386     
   2606.1708729390475     
   2605.4223733809886     
   2604.7114555564908     
   2604.0357839606127     
   2603.3930605503569     
   2602.7810261814225     
   2602.1974626681126     
   2601.6401954671774     
   2601.1070969884095     
   2648.3452431193623     
   2643.5057782568761     
   2638.8670991257823     
   2634.4288635893108     
   2630.1907202074481     
   2626.1523086264183     
   2622.3132600757517     
   2618.6731979749552     
   2615.2317386494014     
   2725.0018363182321     
   2712.8743700808541     
   2701.2135887698773     
   2690.0268107272746     
   2679.3211300047851     
   2669.1033991924655     
   2659.3802125232182     
   2650.1578893462170     
   2641.4424580701507     
   3143.1315325714827     
   3120.5907137166155     
   3098.6103749601907     
   3077.1721516713715     
   3056.2571456543124     
   3035.8459122907707     
   3015.9184513281116     
   2996.4542013994687     
   2977.4320383432746     
   3556.4299482019910     
   3519.5935614942146     
   3483.3828564706491     
   3447.7897164438182     
   3412.8057484318347     
   3378.4222596089990     
   3344.6302366748159     
   3311.4203284085738     
   3278.7828316776931     
   4036.4695361365625     
   3984.3731336295014     
   3932.9191518464736     
   3882.1072800495131     
   3831.9373944593649     
   3782.4095488745088     
   3733.5239678178241     
   3685.2810424766481     
   3637.6813297168892     
   4562.3542629040485     
   4494.7016166958429     
   4427.6755568025419     
   4361.2806704974228     
   4295.5221929323316     
   4230.4060295659792     
   4165.9387828251447     
   4102.1277833516615     
   4038.9811262073986     
   5120.1168120265556     
   5036.9014219186874     
   4954.2788074771006     
   4872.2561266254143     
   4790.8415422446733     
   4710.0442799578368     
   4629.8746934245137     
   4550.3443378240272     
   4471.4660522522108     
   5700.5600560014582     
   5601.8869800304028     
   5503.7641582928563     
   5406.1997574997195     
   5309.2031850765479     
   5212.7851770538909     
   5116.9578971172468     
   5021.7350479850420     
   4927.1319963952901     
   6297.5780163036989     
   6183.5869428333808     
   6070.0999433315801     
   5957.1252553723798     
   5844.6724896764699     
   5732.7527398183856     
   5621.3787062723559     
   5510.5648364858334     
   5400.3274828716421     
   6907.0442260775098     
   6777.8783500292402     
   6649.1691951328703     
   6520.9245678376064     
   6393.1537026141405     
   6265.8673853198588     
   6139.0780932509488     
   6012.8001540256801     
   5887.0499257375495     
   7526.1115650864267     
   7381.9062289527119     
   7238.1101618115772     
   7094.7305226657063     
   6951.7758988384621     
   6809.2564361597078     
   6667.1839873105664     
   6525.5722808159826     
   6384.4371135481069     
   2977.4320383432746     
   2958.7895793009061     
   2940.4847841026667     
   2922.5266921063835     
   2904.9244305264760     
   2887.6872058797680     
   2870.8242947050476     
   2854.3450335408747     
   2838.2588081502549     
   3278.7828316776931     
   3246.6647028313373     
   3215.0309013035521     
   3183.8987744530255     
   3153.2860862301377     
   3123.2110087109099     
   3093.6921110972121     
   3064.7483459636906     
   3036.3990325281993     
   3637.6813297168892     
   3590.6804482419157     
   3544.2502495348622     
   3498.4165114063931     
   3453.2060248189027     
   3408.6466138620644     
   3364.7671523171325     
   3321.5975761124887     
   3279.1688909019631     
   4038.9811262073986     
   3976.4607483850791     
   3914.5434359664578     
   3853.2613825393018     
   3792.6484816793927     
   3732.7404070495077     
   3673.5746923661022     
   3615.1908102684547     
   3557.6302489220261     
   4471.4660522522108     
   4393.2056161011169     
   4315.5424407505134     
   4238.5124652583827     
   4162.1539273784629     
   4086.5075189368081     
   4011.6165490267954     
   3937.5271145613310     
   3864.2882774446666     
   4927.1319963952901     
   4833.1165081690815     
   4739.6687878128287     
   4646.8261025043321     
   4554.6284383548564     
   4463.1187269850179     
   4372.3430904415063     
   4282.3511053352640     
   4193.1960869076429     
   5400.3274828716421     
   5290.6353246387762     
   5181.4682401948503     
   5072.8629680987115     
   4964.8591931263591     
   4857.4998279135589     
   4750.8313234102334     
   4644.9040108576237     
   4539.7724781101097     
   5887.0499257375495     
   5761.7966258534052     
   5637.0193579026045     
   5512.7530330240179     
   5389.0355677889993     
   5265.9082004993461     
   5143.4158448672924     
   5021.6074856659898     
   4900.5366214363503     
   6384.4371135481069     
   6243.7484207270591     
   6103.4846294257277     
   5963.6779753661640     
   5824.3636285005778     
   5685.5800242825735     
   5547.3692381389874     
   5409.7774093173766     
   5272.8552211839460     
   2838.2588081502549     
   2822.5807432085103     
   2807.3241040347634     
   2792.4955023871307     
   2778.1015214103359     
   2764.1487045927825     
   2750.6435443256769     
   2737.5924700921132     
   2725.0018363182321     
   3036.3990325281993     
   3008.6690551387437     
   2981.5810336175959     
   2955.1513383010383     
   2929.3965653294649     
   2904.3335088114491     
   2879.9791298855198     
   2856.3505226023744     
   2833.4648765756988     
   3279.1688909019631     
   3237.5179568661047     
   3196.6795398668150     
   3156.6830373850603     
   3117.5588067889898     
   3079.3381431228458     
   3042.0532481402138     
   3005.7371896408549     
   2970.4238501682303     
   3557.6302489220261     
   3500.9411312328853     
   3445.1701718615591     
   3390.3598776416520     
   3336.5548981868019     
   3283.8020709175757     
   3232.1504541062932     
   3181.6513451606265     
   3132.3582810567750     
   3864.2882774446666     
   3791.9568364694114     
   3720.5891537377611     
   3650.2385037812610     
   3580.9616891541300     
   3512.8192243865506     
   3445.8755150927354     
   3380.1990279240349     
   3315.8624460876590     
   4193.1960869076429     
   4104.9403335335637     
   4017.6467439359744     
   3931.3759327491248     
   3846.1933512055052     
   3762.1696576461195     
   3679.3811041929412     
   3597.9099359937049     
   3517.8447978707459     
   4539.7724781101097     
   4435.5015755145660     
   4332.1577277869073     
   4229.8054108616598     
   4128.5149757876170     
   4028.3632153018712     
   3929.4339785664160     
   3831.8188344927862     
   3735.6177825167892     
   4900.5366214363503     
   4780.2682770643596     
   4660.8699220425724     
   4542.4069130009466     
   4424.9511646227293     
   4308.5818885547851     
   4193.3864169982526     
   4079.4611183028510     
   3966.9124112849240     
   5272.8552211839460     
   5136.6661178433023     
   5001.2767690151368     
   4866.7511184626474     
   4733.1599913216251     
   4600.5819612726164     
   4469.1043368190321     
   4338.8242823862929     
   4209.8500911974561     
   2725.0018363182321     
   2712.8743700808541     
   2701.2135887698773     
   2690.0268107272746     
   2679.3211300047851     
   2669.1033991924655     
   2659.3802125232182     
   2650.1578893462170     
   2641.4424580701507     
   2833.4648765756988     
   2811.3383364962715     
   2789.9908774166647     
   2769.4452605473616     
   2749.7238906126545     
   2730.8487377680540     
   2712.8412578071402     
   2695.7223112266270     
   2679.5120817914403     
   2970.4238501682303     
   2936.1496718212843     
   2902.9582926995167     
   2870.8951581369779     
   2840.0058431018660     
   2810.3358771495955     
   2781.9305535470080     
   2754.8347231497191     
   2729.0925740438179     
   3132.3582810567750     
   3084.3314312809548     
   3037.6419078026634     
   2992.3627200849141     
   2948.5685725098165     
   2906.3356297933924     
   2865.7412336051516     
   2826.8635670830399     
   2789.7812648088229     
   3315.8624460876590     
   3252.9489490164019     
   3191.5565358418880     
   3131.7867648240799     
   3073.7456660801831     
   3017.5436008365750     
   2963.2950308293407     
   2911.1181827451055     
   2861.1345925049036     
   3517.8447978707459     
   3439.2877647995579     
   3362.3592351831944     
   3287.1863699994215     
   3213.9045264163224     
   3142.6574559193368     
   3073.5973936068121     
   3006.8850048089880     
   2942.6891504489126     
   3735.6177825167892     
   3640.9456514032331     
   3547.9381511239872     
   3456.7421341779750     
   3367.5167952621896     
   3280.4344693496232     
   3195.6813588303371     
   3113.4581392032210     
   3033.9803791305749     
   3966.9124112849240     
   3855.8610245336245     
   3746.4497029465824     
   3638.8374115523288     
   3533.1994390446512     
   3429.7289918626461     
   3328.6388326360848     
   3230.1629115667051     
   3134.5579155721803     
   4209.8500911974561     
   4082.3017866264963     
   3956.3208179670173     
   3832.0701863168656     
   3709.7325422372783     
   3589.5126559190362     
   3471.6401209480828     
   3356.3722663293911     
   3243.9972227428284     
   7526.1115650864267     
   7381.9062289527119     
   7238.1101618115772     
   7094.7305226657063     
   6951.7758988384621     
   6809.2564361597078     
   6667.1839873105664     
   6525.5722808159826     
   6384.4371135481069     
   8152.7865828266958     
   7993.6624571848188     
   7834.9012698726283     
   7676.5093897643092     
   7518.4945705817281     
   7360.8660819170600     
   7203.6348590339503     
   7046.8136741504259     
   6890.4173323391115     
   8785.6454328294421     
   8611.7082124077770     
   8438.0894892749493     
   8264.7947421537719     
   8091.8307555883212     
   7919.2057467902023     
   7746.9295111025613     
   7575.0135888637842     
   7403.4714569230609     
   9423.6440254725949     
   9234.9888869699407     
   9046.6094469690433     
   8858.5103109503962     
   8670.6972877779990     
   8483.1775088448321     
   8295.9595650595456     
   8109.0536644198855     
   7922.4718134004497     
   10066.011832407627     
   9862.7246996693830     
   9659.6718755215607     
   9456.8571895123805     
   9254.2855577214777     
   9051.9630918593302     
   8849.8972249753624     
   8648.0968563906245     
   8446.5725189440345     
   10712.173906901011     
   10494.332759226343     
   10276.685745624336     
   10059.236073599490     
   9841.9879126534670     
   9624.9464919043530     
   9408.1182127677366     
   9191.5107791170249     
   8975.1333477854296     
   11361.697677991617     
   11129.373745426094     
   10897.204841955327     
   10665.193747758063     
   10433.344077914146     
   10201.660367804590     
   9970.1481718351515     
   9738.8141776513876     
   9507.6663384237254     
   12014.255947321779     
   11767.514746117944     
   11520.890439615607     
   11274.385605632198     
   11028.003531204095     
   10781.748285556305     
   10535.624804565030     
   10289.638988606395     
   10043.797816046161     
   12669.600689860114     
   12408.502897038621     
   12147.484778737673     
   11886.548958381558     
   11625.698647506062     
   11364.937706481651     
   11104.270714893939     
   10843.703053187477     
   10583.240997488489     
   6384.4371135481069     
   6243.7484207270591     
   6103.4846294257277     
   5963.6779753661640     
   5824.3636285005778     
   5685.5800242825735     
   5547.3692381389874     
   5409.7774093173766     
   5272.8552211839460     
   6890.4173323391115     
   6734.4169391413870     
   6578.7907470543241     
   6423.5678364056730     
   6268.7800556903767     
   6114.4623510149586     
   5960.6531416616872     
   5807.3947490603223     
   5654.7338877008560     
   7403.4714569230609     
   7232.2759590381511     
   7061.4058918535648     
   6890.8869778278977     
   6720.7474773506046     
   6551.0185032283589     
   6381.7343815885724     
   6212.9330670775653     
   6044.6566217164045     
   7922.4718134004497     
   7736.1893106793968     
   7550.1863272953260     
   7364.4851967061722     
   7179.1105216561909     
   6994.0894643426873     
   6809.4520811802549     
   6625.2317101378057     
   6441.4654202414422     
   8446.5725189440345     
   8245.3027647416875     
   8044.2700204638386     
   7843.4933173719810     
   7642.9936686185620     
   7442.7943290018393     
   7242.9210959224392     
   7043.4026592096934     
   6844.2710091242843     
   8975.1333477854296     
   8758.9685588742705     
   8543.0019860566117     
   8327.2495262577595     
   8111.7287668705058     
   7896.4592116904178     
   7681.4625435902763     
   7466.7629309880331     
   7252.3873867257607     
   9507.6663384237254     
   9276.6922217061165     
   9045.8814222340461     
   8815.2469263295206     
   8584.8031262573204     
   8354.5660110715016     
   8124.5533891175128     
   7894.7851484175153     
   7665.2835625883854     
   10043.797816046161     
   9798.0946049899540     
   9552.5238098223181     
   9307.0957687388654     
   9061.8219563331513     
   8816.7151397567559     
   8571.7895612021657     
   8327.0611519850718     
   8082.5477847389548     
   10583.240997488489     
   10322.884408706539     
   10062.633391992982     
   9802.4959269861793     
   9542.4808811278708     
   9282.5981328313665     
   9022.8587156906724     
   8763.2749880112151     
   8503.8608329652816     
   5272.8552211839460     
   5136.6661178433023     
   5001.2767690151368     
   4866.7511184626474     
   4733.1599913216251     
   4600.5819612726164     
   4469.1043368190321     
   4338.8242823862929     
   4209.8500911974561     
   5654.7338877008560     
   5502.7311945260290     
   5351.4511910314923     
   5200.9547114323695     
   5051.3094845165333     
   4902.5910785096403     
   4754.8839928345969     
   4608.2829208306994     
   4462.8942110946809     
   6044.6566217164045     
   5876.9619978673427     
   5709.9105172210457     
   5543.5586845238777     
   5377.9696677228731     
   5213.2142721073769     
   5049.3720802155331     
   4886.5327886643117     
   4724.7977790923605     
   6441.4654202414422     
   6258.2058332683373     
   6075.5102625223617     
   5893.4301019623254     
   5712.0229931750828     
   5531.3537862564326     
   5351.4956757586679     
   5172.5315479385599     
   4994.5555836849035     
   6844.2710091242843     
   6645.5739411320446     
   6447.3641137741297     
   6249.6873696881221     
   6052.5952552918279     
   5856.1459340557240     
   5660.4052752071711     
   5465.4481568488354     
   5271.3600321687272     
   7252.3873867257607     
   7038.3784713373698     
   6824.7836390966149     
   6611.6429989023072     
   6399.0017394741881     
   6186.9109693879864     
   5975.4287253348457     
   5764.6211880685460     
   5554.5641560544373     
   7665.2835625883854     
   7436.0855887631114     
   7207.2329745217558     
   6978.7601049974410     
   6750.7057807927777     
   6523.1139673973084     
   6296.0346997398947     
   6069.5251798367844     
   5843.6511162140150     
   8082.5477847389548     
   7838.2804509986436     
   7594.2946997394038     
   7350.6193441692249     
   7107.2869400775289     
   6864.3344345550677     
   6621.8039526230405     
   6379.7437566567323     
   6138.2094237635465     
   8503.8608329652816     
   8244.6408966523886     
   7985.6440219144515     
   7726.8937056445493     
   7468.4165309475875     
   7210.2427112756086     
   6952.4067527494644     
   6694.9482653639134     
   6437.9129631121305     
   4209.8500911974561     
   4082.3017866264963     
   3956.3208179670173     
   3832.0701863168656     
   3709.7325422372783     
   3589.5126559190362     
   3471.6401209480828     
   3356.3722663293911     
   3243.9972227428284     
   4462.8942110946809     
   4318.8315850395938     
   4176.2281975767719     
   4035.2439855163611     
   3896.0608354306432     
   3758.8858700408409     
   3623.9552027245518     
   3491.5381902576250     
   3361.9421915256789     
   4724.7977790923605     
   4564.2704360964372     
   4405.0707844276440     
   4247.3502594758902     
   4091.2833603159174     
   3937.0715752739943     
   3784.9480132785202     
   3635.1828477111276     
   3488.0896769924971     
   4994.5555836849035     
   4817.6582962345692     
   4641.9435260710225     
   4467.5500977479660     
   4294.6398766016819     
   4123.4020936064580     
   3954.0585792021948     
   3786.8700965818953     
   3622.1439934273071     
   5271.3600321687272     
   5078.2173652195870     
   4886.1064087794630     
   4695.1506029184848     
   4505.4954172953985     
   4317.3128145879573     
   4130.8067642760798     
   3946.2200730455324     
   3763.8428625988627     
   5554.5641560544373     
   5345.3200447258751     
   5136.9575759833606     
   4929.5832719978962     
   4723.3238883726217     
   4518.3307691177242     
   4314.7853176059725     
   4112.9059052161911     
   3912.9566375920249     
   5843.6511162140150     
   5618.4618729555405     
   5394.0099497685242     
   5170.3845111266774     
   4947.6925976856410     
   4726.0631635466380     
   4505.6522182671924     
   4286.6494231424713     
   4069.2866144686323     
   6138.2094237635465     
   5897.2390914063690     
   5656.8713945108912     
   5417.1786295835082     
   5178.2482716780751     
   4940.1865363272309     
   4703.1229672103300     
   4467.2163975443036     
   4232.6627686159045     
   6437.9129631121305     
   6181.3302586175651     
   5925.2281416998012     
   5669.6632981244829     
   5414.7047569740898     
   5160.4368766266989     
   4906.9632255191455     
   4654.4116778526577     
   4402.9411783019568     
   12669.600689860114     
   12408.502897038621     
   12147.484778737673     
   11886.548958381558     
   11625.698647506062     
   11364.937706481651     
   11104.270714893939     
   10843.703053187477     
   10583.240997488489     
   13327.560594566154     
   13052.156014445944     
   12776.796717068402     
   12501.485350235447     
   12226.225032194989     
   11951.019400225889     
   11675.872667043952     
   11400.789686339756     
   11125.776029013636     
   13988.014440375686     
   13698.341283132067     
   13408.683959630676     
   13119.044874980784     
   12829.426790814878     
   12539.832862048957     
   12250.266679633516     
   11960.732320305306     
   11671.234404547777     
   14650.863177737521     
   14346.954505680347     
   14043.037484974464     
   13739.114060444066     
   13435.186427946612     
   13131.257060244132     
   12827.328737123820     
   12523.404580487208     
   12219.488095271239     
   15316.036955143894     
   14997.920919598837     
   14679.778001904180     
   14361.609513633233     
   14043.416924834441     
   13725.201880439779     
   13406.966219360071     
   13088.711996723794     
   12770.441509808345     
   15983.489202064695     
   15651.189238101866     
   15318.849937822273     
   14986.471847492447     
   14654.055596547561     
   14321.601906347556     
   13989.111600332095     
   13656.585615813474     
   13324.025017693828     
   16653.192076450945     
   16306.727062069571     
   15960.216806913531     
   15613.660997908868     
   15267.059351245420     
   14920.411615589774     
   14573.717575781948     
   14226.977057099051     
   13880.189930184682     
   17325.132924957979     
   16964.517310560757     
   16603.857604324417     
   16243.152575546470     
   15882.400994272257     
   15521.601631301904     
   15160.753258238823     
   14799.854647586006     
   14438.904572898824     
   17999.311503399607     
   17624.555416550964     
   17249.763971825399     
   16874.934996526787     
   16500.066319409325     
   16125.155769986204     
   15750.201178008248     
   15375.200373144249     
   15000.151184895323     
   10583.240997488489     
   10322.884408706539     
   10062.633391992982     
   9802.4959269861793     
   9542.4808811278708     
   9282.5981328313665     
   9022.8587156906724     
   8763.2749880112151     
   8503.8608329652816     
   11125.776029013636     
   10850.838532431968     
   10575.983608724389     
   10301.217232537287     
   10026.546046437154     
   9751.9774542491868     
   9477.5197305206311     
   9203.1821494298383     
   8928.9751372638311     
   11671.234404547777     
   11381.786593433701     
   11092.401860353611     
   10803.084566928521     
   10513.839555981940     
   10224.672219147626     
   9935.5885762694852     
   9646.5953690436363     
   9357.7001719508371     
   12219.488095271239     
   11915.599214970664     
   11611.757260721188     
   11307.965355144024     
   11004.226947874338     
   10700.545861677250     
   10396.926346674953     
   10093.373144380639     
   9789.8915636545717     
   12770.441509808345     
   12452.179994726492     
   12133.952424311950     
   11815.761038307093     
   11497.608280771639     
   11179.496828957379     
   10861.429627300649     
   10543.409927610164     
   10225.441336791102     
   13324.025017693828     
   12991.458940419296     
   12658.916818373824     
   12326.400346971206     
   11993.911333431499     
   11661.451712583043     
   11329.023565492689     
   10996.629141519359     
   10664.270884537402     
   13880.189930184682     
   13533.387376142184     
   13186.601597456389     
   12839.834066678362     
   12493.086304354994     
   12146.359885782529     
   11799.656448991984     
   11452.977704226894     
   11106.325445239874     
   14438.904572898824     
   14077.933952303694     
   13716.975552239393     
   13356.030927323531     
   12995.101643463444     
   12634.189279390588     
   12273.295428507370     
   11912.421701113508     
   11551.569727094016     
   15000.151184895323     
   14625.081492083513     
   14250.021904258867     
   13874.974347056186     
   13499.940746131908     
   13124.923027083651     
   12749.923115410549     
   12374.942936523459     
   11999.984415815874     
   8503.8608329652816     
   8244.6408966523886     
   7985.6440219144515     
   7726.8937056445493     
   7468.4165309475875     
   7210.2427112756086     
   6952.4067527494644     
   6694.9482653639134     
   6437.9129631121305     
   8928.9751372638311     
   8654.9166925722948     
   8381.0284430704342     
   8107.3288476179177     
   7833.8388225206245     
   7560.5821807948223     
   7287.5861685159462     
   7014.8821240035968     
   6742.5062936342692     
   9357.7001719508371     
   9068.9143101076843     
   8780.2519316407434     
   8491.7267764011540     
   8203.3544523737255     
   7915.1527732823952     
   7627.1421718694246     
   7339.3462092570517     
   7051.7922073053951     
   9789.8915636545717     
   9486.4864968417987     
   9183.1646806770859     
   8879.9355478517828     
   8576.8098681146384     
   8273.7999919931517     
   7970.9201497659815     
   7668.1868207845955     
   7365.6191931285093     
   10225.441336791102     
   9907.5228216652322     
   9589.6541017779637     
   9271.8407904016531     
   8954.0893803383642     
   8636.4074053007862     
   8318.8036382181454     
   8001.2883366595624     
   7683.8735489033834     
   10664.270884537402     
   10331.942610032054     
   9999.6377352967502     
   9667.3586045940956     
   9335.1080701658266     
   9002.8895858826691     
   8670.7073225048844     
   8338.5663105614167     
   8006.4726188407949     
   11106.325445239874     
   10759.689377778484     
   10413.057648259422     
   10066.429934546761     
   9719.8061469359600     
   9373.1864711266044     
   9026.5714212341591     
   8679.9619056463816     
   8333.3593094622229     
   11551.569727094016     
   11190.726411934871     
   10829.875975358920     
   10469.016075235204     
   10108.144430328348     
   9747.2588315438934     
   9386.3571559527682     
   9025.4373843724443     
   8664.4976235428421     
   11999.984415815874     
   11625.033236238511     
   11250.071344624108     
   10875.095062169908     
   10500.100709743190     
   10125.084607771056     
   9750.0430763713612     
   9374.9724357897048     
   8999.8690072332975     
   6437.9129631121305     
   6181.3302586175651     
   5925.2281416998012     
   5669.6632981244829     
   5414.7047569740898     
   5160.4368766266989     
   4906.9632255191455     
   4654.4116778526577     
   4402.9411783019568     
   6742.5062936342692     
   6470.4821868305235     
   6198.8309710950734     
   5927.5956955559313     
   5656.8289994705956     
   5386.5954883903687     
   5116.9748447036563     
   4848.0659462328967     
   4579.9923872882409     
   7051.7922073053951     
   6764.5003418236602     
   6477.4886359362226     
   6190.7889132661212     
   5904.4400798974111     
   5618.4899122069082     
   5332.9974105052652     
   5048.0359359503273     
   4763.6974480129365     
   7365.6191931285093     
   7063.2363276174965     
   6761.0563176967644     
   6459.1023387032492     
   6157.4024650896308     
   5855.9909248655686     
   5554.9097582894265     
   5254.2110398063533     
   4953.9598973755856     
   7683.8735489033834     
   7366.5790098681773     
   7049.4255489579828     
   6732.4303589441897     
   6415.6137258458484     
   6098.9998297114516     
   5782.6178072563753     
   5466.5031810850696     
   5150.6998107719128     
   8006.4726188407949     
   7674.4479521531321     
   7342.5179233951530     
   7010.6964326697989     
   6678.9990756981897     
   6347.4435872607273     
   6016.0504321101553     
   5684.8436030176063     
   5353.8517148262181     
   8333.3593094622229     
   7986.7880580749134     
   7640.2799220451170     
   7293.8481701563906     
   6947.5067891930084     
   6601.2706756178786     
   6255.1558939818278     
   5909.1800292550834     
   5563.3626737080913     
   8664.4976235428421     
   8303.5651828823284     
   7942.6786474564342     
   7581.8532447565049     
   7221.1043587476806     
   6860.4475783672242     
   6499.8987684053973     
   6139.4741719333242     
   5779.1905579865661     
   8999.8690072332975     
   8624.7625260178065     
   8249.6982965165716     
   7874.6959892982886     
   7499.7752693976545     
   7124.9558081135974     
   6750.2573095580274     
   6375.6995580132307     
   6001.3024951712596     
 </DataArray>
 </PointData>
 </Piece>
 <Piece  NumberOfPoints="          2592 "  NumberOfCells="         2048 ">
 <Points>
 <DataArray  type="Float64" NumberOfComponents="3"  format="ascii" >
  -5.0000000000000000        0.0000000000000000        0.0000000000000000     
  -4.8437500000000000        0.0000000000000000        0.0000000000000000     
  -4.6875000000000000        0.0000000000000000        0.0000000000000000     
  -4.5312500000000009        0.0000000000000000        0.0000000000000000     
  -4.3750000000000009        0.0000000000000000        0.0000000000000000     
  -4.2187500000000000        0.0000000000000000        0.0000000000000000     
  -4.0625000000000000        0.0000000000000000        0.0000000000000000     
  -3.9062500000000000        0.0000000000000000        0.0000000000000000     
  -3.7500000000000004        0.0000000000000000        0.0000000000000000     
  -5.0000000000000000        6.2499999999999993E-002   0.0000000000000000     
  -4.8437500000000000        6.2499999999999986E-002   0.0000000000000000     
  -4.6875000000000009        6.2500000000000000E-002   0.0000000000000000     
  -4.5312500000000000        6.2499999999999986E-002   0.0000000000000000     
  -4.3750000000000000        6.2499999999999993E-002   0.0000000000000000     
  -4.2187500000000000        6.2499999999999993E-002   0.0000000000000000     
  -4.0625000000000000        6.2499999999999993E-002   0.0000000000000000     
  -3.9062500000000000        6.2499999999999979E-002   0.0000000000000000     
  -3.7499999999999996        6.2499999999999986E-002   0.0000000000000000     
  -5.0000000000000000       0.12499999999999999        0.0000000000000000     
  -4.8437500000000000       0.12499999999999999        0.0000000000000000     
  -4.6875000000000000       0.12499999999999999        0.0000000000000000     
  -4.5312500000000000       0.12499999999999997        0.0000000000000000     
  -4.3750000000000000       0.12500000000000000        0.0000000000000000     
  -4.2187500000000000       0.12499999999999999        0.0000000000000000     
  -4.0625000000000000       0.12499999999999997        0.0000000000000000     
  -3.9062500000000000       0.12500000000000000        0.0000000000000000     
  -3.7500000000000004       0.12500000000000000        0.0000000000000000     
  -5.0000000000000000       0.18750000000000000        0.0000000000000000     
  -4.8437500000000000       0.18750000000000000        0.0000000000000000     
  -4.6875000000000000       0.18750000000000000        0.0000000000000000     
  -4.5312500000000000       0.18750000000000000        0.0000000000000000     
  -4.3750000000000000       0.18750000000000000        0.0000000000000000     
  -4.2187500000000000       0.18750000000000000        0.0000000000000000     
  -4.0625000000000000       0.18750000000000000        0.0000000000000000     
  -3.9062500000000000       0.18750000000000000        0.0000000000000000     
  -3.7500000000000000       0.18750000000000000        0.0000000000000000     
  -5.0000000000000000       0.25000000000000000        0.0000000000000000     
  -4.8437500000000000       0.25000000000000000        0.0000000000000000     
  -4.6875000000000000       0.25000000000000000        0.0000000000000000     
  -4.5312500000000000       0.25000000000000000        0.0000000000000000     
  -4.3750000000000000       0.24999999999999997        0.0000000000000000     
  -4.2187500000000000       0.24999999999999994        0.0000000000000000     
  -4.0625000000000000       0.24999999999999997        0.0000000000000000     
  -3.9062500000000004       0.24999999999999997        0.0000000000000000     
  -3.7500000000000000       0.25000000000000000        0.0000000000000000     
  -5.0000000000000000       0.31250000000000000        0.0000000000000000     
  -4.8437500000000000       0.31250000000000000        0.0000000000000000     
  -4.6875000000000000       0.31250000000000000        0.0000000000000000     
  -4.5312500000000000       0.31250000000000006        0.0000000000000000     
  -4.3750000000000000       0.31250000000000000        0.0000000000000000     
  -4.2187500000000000       0.31250000000000000        0.0000000000000000     
  -4.0625000000000000       0.31250000000000006        0.0000000000000000     
  -3.9062499999999996       0.31249999999999994        0.0000000000000000     
  -3.7500000000000000       0.31250000000000000        0.0000000000000000     
  -5.0000000000000000       0.37500000000000000        0.0000000000000000     
  -4.8437500000000000       0.37500000000000000        0.0000000000000000     
  -4.6875000000000000       0.37500000000000000        0.0000000000000000     
  -4.5312500000000000       0.37500000000000000        0.0000000000000000     
  -4.3750000000000000       0.37500000000000000        0.0000000000000000     
  -4.2187500000000000       0.37500000000000000        0.0000000000000000     
  -4.0625000000000000       0.37500000000000000        0.0000000000000000     
  -3.9062500000000000       0.37500000000000000        0.0000000000000000     
  -3.7500000000000000       0.37500000000000000        0.0000000000000000     
  -5.0000000000000000       0.43749999999999994        0.0000000000000000     
  -4.8437499999999991       0.43750000000000000        0.0000000000000000     
  -4.6875000000000000       0.43750000000000000        0.0000000000000000     
  -4.5312500000000009       0.43750000000000006        0.0000000000000000     
  -4.3750000000000000       0.43750000000000006        0.0000000000000000     
  -4.2187500000000000       0.43749999999999994        0.0000000000000000     
  -4.0625000000000009       0.43750000000000000        0.0000000000000000     
  -3.9062500000000000       0.43750000000000011        0.0000000000000000     
  -3.7500000000000000       0.43750000000000006        0.0000000000000000     
  -5.0000000000000009       0.50000000000000000        0.0000000000000000     
  -4.8437500000000009       0.50000000000000000        0.0000000000000000     
  -4.6875000000000000       0.50000000000000011        0.0000000000000000     
  -4.5312500000000000       0.50000000000000000        0.0000000000000000     
  -4.3750000000000009       0.49999999999999994        0.0000000000000000     
  -4.2187500000000000       0.50000000000000011        0.0000000000000000     
  -4.0625000000000000       0.50000000000000000        0.0000000000000000     
  -3.9062500000000009       0.50000000000000000        0.0000000000000000     
  -3.7500000000000000       0.49999999999999994        0.0000000000000000     
  -3.7500000000000004        0.0000000000000000        0.0000000000000000     
  -3.5937499999999996        0.0000000000000000        0.0000000000000000     
  -3.4375000000000000        0.0000000000000000        0.0000000000000000     
  -3.2812500000000004        0.0000000000000000        0.0000000000000000     
  -3.1249999999999996        0.0000000000000000        0.0000000000000000     
  -2.9687500000000004        0.0000000000000000        0.0000000000000000     
  -2.8125000000000000        0.0000000000000000        0.0000000000000000     
  -2.6562499999999996        0.0000000000000000        0.0000000000000000     
  -2.5000000000000004        0.0000000000000000        0.0000000000000000     
  -3.7499999999999996        6.2499999999999986E-002   0.0000000000000000     
  -3.5937500000000000        6.2499999999999993E-002   0.0000000000000000     
  -3.4375000000000000        6.2499999999999993E-002   0.0000000000000000     
  -3.2812500000000004        6.2500000000000000E-002   0.0000000000000000     
  -3.1249999999999996        6.2499999999999986E-002   0.0000000000000000     
  -2.9687500000000004        6.2500000000000000E-002   0.0000000000000000     
  -2.8125000000000004        6.2500000000000014E-002   0.0000000000000000     
  -2.6562500000000000        6.2499999999999993E-002   0.0000000000000000     
  -2.5000000000000004        6.2500000000000000E-002   0.0000000000000000     
  -3.7500000000000004       0.12500000000000000        0.0000000000000000     
  -3.5937500000000000       0.12499999999999999        0.0000000000000000     
  -3.4374999999999996       0.12499999999999999        0.0000000000000000     
  -3.2812499999999996       0.12499999999999999        0.0000000000000000     
  -3.1250000000000000       0.12499999999999999        0.0000000000000000     
  -2.9687500000000004       0.12500000000000000        0.0000000000000000     
  -2.8125000000000000       0.12499999999999999        0.0000000000000000     
  -2.6562500000000000       0.12499999999999999        0.0000000000000000     
  -2.5000000000000000       0.12500000000000000        0.0000000000000000     
  -3.7500000000000000       0.18750000000000000        0.0000000000000000     
  -3.5937499999999996       0.18750000000000000        0.0000000000000000     
  -3.4375000000000000       0.18750000000000003        0.0000000000000000     
  -3.2812500000000000       0.18750000000000000        0.0000000000000000     
  -3.1249999999999996       0.18750000000000000        0.0000000000000000     
  -2.9687500000000009       0.18750000000000003        0.0000000000000000     
  -2.8125000000000000       0.18750000000000000        0.0000000000000000     
  -2.6562499999999996       0.18750000000000000        0.0000000000000000     
  -2.5000000000000004       0.18750000000000006        0.0000000000000000     
  -3.7500000000000000       0.25000000000000000        0.0000000000000000     
  -3.5937499999999996       0.24999999999999994        0.0000000000000000     
  -3.4374999999999996       0.24999999999999994        0.0000000000000000     
  -3.2812500000000000       0.25000000000000000        0.0000000000000000     
  -3.1250000000000004       0.24999999999999994        0.0000000000000000     
  -2.9687500000000000       0.24999999999999997        0.0000000000000000     
  -2.8125000000000000       0.25000000000000000        0.0000000000000000     
  -2.6562500000000004       0.24999999999999994        0.0000000000000000     
  -2.5000000000000000       0.24999999999999997        0.0000000000000000     
  -3.7500000000000000       0.31250000000000000        0.0000000000000000     
  -3.5937500000000000       0.31250000000000000        0.0000000000000000     
  -3.4375000000000000       0.31250000000000000        0.0000000000000000     
  -3.2812500000000000       0.31249999999999994        0.0000000000000000     
  -3.1250000000000000       0.31250000000000000        0.0000000000000000     
  -2.9687500000000000       0.31250000000000000        0.0000000000000000     
  -2.8125000000000000       0.31250000000000006        0.0000000000000000     
  -2.6562500000000000       0.31250000000000000        0.0000000000000000     
  -2.5000000000000000       0.31250000000000000        0.0000000000000000     
  -3.7500000000000000       0.37500000000000000        0.0000000000000000     
  -3.5937499999999996       0.37500000000000000        0.0000000000000000     
  -3.4375000000000000       0.37500000000000000        0.0000000000000000     
  -3.2812500000000000       0.37500000000000000        0.0000000000000000     
  -3.1249999999999996       0.37500000000000000        0.0000000000000000     
  -2.9687500000000000       0.37500000000000006        0.0000000000000000     
  -2.8125000000000000       0.37500000000000000        0.0000000000000000     
  -2.6562499999999996       0.37500000000000000        0.0000000000000000     
  -2.5000000000000004       0.37500000000000006        0.0000000000000000     
  -3.7500000000000000       0.43750000000000006        0.0000000000000000     
  -3.5937500000000009       0.43749999999999994        0.0000000000000000     
  -3.4375000000000000       0.43750000000000006        0.0000000000000000     
  -3.2812500000000000       0.43749999999999994        0.0000000000000000     
  -3.1250000000000009       0.43749999999999994        0.0000000000000000     
  -2.9687500000000004       0.43750000000000006        0.0000000000000000     
  -2.8125000000000000       0.43749999999999994        0.0000000000000000     
  -2.6562500000000000       0.43750000000000000        0.0000000000000000     
  -2.5000000000000000       0.43750000000000000        0.0000000000000000     
  -3.7500000000000000       0.49999999999999994        0.0000000000000000     
  -3.5937499999999996       0.50000000000000011        0.0000000000000000     
  -3.4375000000000009       0.50000000000000011        0.0000000000000000     
  -3.2812500000000000       0.50000000000000000        0.0000000000000000     
  -3.1249999999999996       0.50000000000000011        0.0000000000000000     
  -2.9687500000000000       0.50000000000000000        0.0000000000000000     
  -2.8125000000000004       0.50000000000000000        0.0000000000000000     
  -2.6562500000000004       0.50000000000000011        0.0000000000000000     
  -2.5000000000000004       0.50000000000000011        0.0000000000000000     
  -2.5000000000000004        0.0000000000000000        0.0000000000000000     
  -2.3437500000000000        0.0000000000000000        0.0000000000000000     
  -2.1875000000000000        0.0000000000000000        0.0000000000000000     
  -2.0312500000000004        0.0000000000000000        0.0000000000000000     
  -1.8750000000000004        0.0000000000000000        0.0000000000000000     
  -1.7187500000000004        0.0000000000000000        0.0000000000000000     
  -1.5625000000000002        0.0000000000000000        0.0000000000000000     
  -1.4062500000000000        0.0000000000000000        0.0000000000000000     
  -1.2500000000000002        0.0000000000000000        0.0000000000000000     
  -2.5000000000000004        6.2500000000000000E-002   0.0000000000000000     
  -2.3437500000000004        6.2500000000000000E-002   0.0000000000000000     
  -2.1875000000000000        6.2499999999999993E-002   0.0000000000000000     
  -2.0312500000000004        6.2500000000000000E-002   0.0000000000000000     
  -1.8750000000000002        6.2500000000000000E-002   0.0000000000000000     
  -1.7187500000000002        6.2500000000000014E-002   0.0000000000000000     
  -1.5625000000000004        6.2500000000000000E-002   0.0000000000000000     
  -1.4062500000000004        6.2500000000000000E-002   0.0000000000000000     
  -1.2500000000000002        6.2500000000000000E-002   0.0000000000000000     
  -2.5000000000000000       0.12500000000000000        0.0000000000000000     
  -2.3437500000000000       0.12499999999999997        0.0000000000000000     
  -2.1875000000000000       0.12499999999999999        0.0000000000000000     
  -2.0312500000000000       0.12500000000000000        0.0000000000000000     
  -1.8750000000000000       0.12499999999999999        0.0000000000000000     
  -1.7187500000000002       0.12500000000000000        0.0000000000000000     
  -1.5625000000000002       0.12500000000000000        0.0000000000000000     
  -1.4062500000000000       0.12499999999999997        0.0000000000000000     
  -1.2500000000000000       0.12500000000000000        0.0000000000000000     
  -2.5000000000000004       0.18750000000000006        0.0000000000000000     
  -2.3437500000000000       0.18750000000000000        0.0000000000000000     
  -2.1875000000000000       0.18750000000000003        0.0000000000000000     
  -2.0312500000000004       0.18750000000000000        0.0000000000000000     
  -1.8750000000000000       0.18750000000000000        0.0000000000000000     
  -1.7187500000000002       0.18750000000000003        0.0000000000000000     
  -1.5625000000000002       0.18750000000000003        0.0000000000000000     
  -1.4062500000000000       0.18750000000000000        0.0000000000000000     
  -1.2500000000000002       0.18750000000000006        0.0000000000000000     
  -2.5000000000000000       0.24999999999999997        0.0000000000000000     
  -2.3437500000000004       0.25000000000000000        0.0000000000000000     
  -2.1874999999999996       0.24999999999999994        0.0000000000000000     
  -2.0312500000000000       0.24999999999999994        0.0000000000000000     
  -1.8750000000000004       0.24999999999999997        0.0000000000000000     
  -1.7187500000000002       0.24999999999999997        0.0000000000000000     
  -1.5624999999999998       0.24999999999999994        0.0000000000000000     
  -1.4062500000000000       0.25000000000000000        0.0000000000000000     
  -1.2499999999999998       0.24999999999999997        0.0000000000000000     
  -2.5000000000000000       0.31250000000000000        0.0000000000000000     
  -2.3437499999999996       0.31250000000000006        0.0000000000000000     
  -2.1875000000000000       0.31250000000000000        0.0000000000000000     
  -2.0312500000000004       0.31250000000000000        0.0000000000000000     
  -1.8749999999999996       0.31250000000000006        0.0000000000000000     
  -1.7187500000000002       0.31250000000000000        0.0000000000000000     
  -1.5625000000000002       0.31250000000000006        0.0000000000000000     
  -1.4062500000000000       0.31250000000000006        0.0000000000000000     
  -1.2500000000000002       0.31250000000000000        0.0000000000000000     
  -2.5000000000000004       0.37500000000000006        0.0000000000000000     
  -2.3437500000000000       0.37500000000000000        0.0000000000000000     
  -2.1875000000000000       0.37500000000000000        0.0000000000000000     
  -2.0312500000000000       0.37500000000000000        0.0000000000000000     
  -1.8749999999999996       0.37500000000000000        0.0000000000000000     
  -1.7187500000000002       0.37500000000000006        0.0000000000000000     
  -1.5625000000000000       0.37500000000000000        0.0000000000000000     
  -1.4062500000000000       0.37500000000000000        0.0000000000000000     
  -1.2500000000000002       0.37500000000000006        0.0000000000000000     
  -2.5000000000000000       0.43750000000000000        0.0000000000000000     
  -2.3437500000000000       0.43749999999999994        0.0000000000000000     
  -2.1875000000000000       0.43750000000000006        0.0000000000000000     
  -2.0312500000000000       0.43750000000000000        0.0000000000000000     
  -1.8750000000000004       0.43750000000000000        0.0000000000000000     
  -1.7187500000000000       0.43750000000000006        0.0000000000000000     
  -1.5624999999999998       0.43750000000000000        0.0000000000000000     
  -1.4062500000000004       0.43749999999999994        0.0000000000000000     
  -1.2499999999999998       0.43750000000000000        0.0000000000000000     
  -2.5000000000000004       0.50000000000000011        0.0000000000000000     
  -2.3437500000000000       0.50000000000000011        0.0000000000000000     
  -2.1875000000000009       0.50000000000000011        0.0000000000000000     
  -2.0312500000000000       0.50000000000000000        0.0000000000000000     
  -1.8750000000000002       0.50000000000000000        0.0000000000000000     
  -1.7187500000000002       0.50000000000000000        0.0000000000000000     
  -1.5624999999999998       0.50000000000000000        0.0000000000000000     
  -1.4062500000000002       0.50000000000000011        0.0000000000000000     
  -1.2500000000000002       0.50000000000000011        0.0000000000000000     
  -1.2500000000000002        0.0000000000000000        0.0000000000000000     
  -1.0937500000000000        0.0000000000000000        0.0000000000000000     
 -0.93749999999999989        0.0000000000000000        0.0000000000000000     
 -0.78125000000000022        0.0000000000000000        0.0000000000000000     
 -0.62500000000000022        0.0000000000000000        0.0000000000000000     
 -0.46875000000000006        0.0000000000000000        0.0000000000000000     
 -0.31250000000000006        0.0000000000000000        0.0000000000000000     
 -0.15625000000000000        0.0000000000000000        0.0000000000000000     
   0.0000000000000000        0.0000000000000000        0.0000000000000000     
  -1.2500000000000002        6.2500000000000000E-002   0.0000000000000000     
  -1.0937500000000002        6.2500000000000000E-002   0.0000000000000000     
 -0.93749999999999989        6.2499999999999993E-002   0.0000000000000000     
 -0.78125000000000011        6.2500000000000000E-002   0.0000000000000000     
 -0.62500000000000000        6.2500000000000000E-002   0.0000000000000000     
 -0.46875000000000006        6.2500000000000014E-002   0.0000000000000000     
 -0.31250000000000006        6.2500000000000000E-002   0.0000000000000000     
 -0.15625000000000000        6.2500000000000000E-002   0.0000000000000000     
   0.0000000000000000        6.2500000000000000E-002   0.0000000000000000     
  -1.2500000000000000       0.12500000000000000        0.0000000000000000     
  -1.0937500000000000       0.12499999999999997        0.0000000000000000     
 -0.93749999999999989       0.12499999999999999        0.0000000000000000     
 -0.78125000000000011       0.12500000000000000        0.0000000000000000     
 -0.62499999999999989       0.12499999999999999        0.0000000000000000     
 -0.46875000000000006       0.12500000000000000        0.0000000000000000     
 -0.31250000000000000       0.12500000000000000        0.0000000000000000     
 -0.15625000000000000       0.12499999999999997        0.0000000000000000     
   0.0000000000000000       0.12500000000000000        0.0000000000000000     
  -1.2500000000000002       0.18750000000000006        0.0000000000000000     
  -1.0937500000000000       0.18750000000000000        0.0000000000000000     
 -0.93750000000000011       0.18750000000000003        0.0000000000000000     
 -0.78125000000000011       0.18750000000000000        0.0000000000000000     
 -0.62500000000000000       0.18750000000000000        0.0000000000000000     
 -0.46875000000000011       0.18750000000000003        0.0000000000000000     
 -0.31250000000000006       0.18750000000000003        0.0000000000000000     
 -0.15625000000000003       0.18750000000000000        0.0000000000000000     
   0.0000000000000000       0.18750000000000006        0.0000000000000000     
  -1.2499999999999998       0.24999999999999997        0.0000000000000000     
  -1.0937500000000002       0.25000000000000000        0.0000000000000000     
 -0.93749999999999989       0.24999999999999994        0.0000000000000000     
 -0.78124999999999989       0.24999999999999994        0.0000000000000000     
 -0.62499999999999989       0.24999999999999997        0.0000000000000000     
 -0.46875000000000006       0.24999999999999997        0.0000000000000000     
 -0.31249999999999994       0.24999999999999994        0.0000000000000000     
 -0.15624999999999997       0.25000000000000000        0.0000000000000000     
   0.0000000000000000       0.24999999999999997        0.0000000000000000     
  -1.2500000000000002       0.31250000000000000        0.0000000000000000     
  -1.0937500000000000       0.31250000000000006        0.0000000000000000     
 -0.93750000000000000       0.31250000000000000        0.0000000000000000     
 -0.78125000000000011       0.31250000000000000        0.0000000000000000     
 -0.62500000000000000       0.31250000000000006        0.0000000000000000     
 -0.46875000000000000       0.31250000000000000        0.0000000000000000     
 -0.31250000000000006       0.31250000000000006        0.0000000000000000     
 -0.15625000000000000       0.31250000000000006        0.0000000000000000     
   0.0000000000000000       0.31250000000000000        0.0000000000000000     
  -1.2500000000000002       0.37500000000000006        0.0000000000000000     
  -1.0937499999999998       0.37500000000000000        0.0000000000000000     
 -0.93750000000000011       0.37500000000000000        0.0000000000000000     
 -0.78125000000000011       0.37500000000000000        0.0000000000000000     
 -0.62500000000000000       0.37500000000000000        0.0000000000000000     
 -0.46875000000000000       0.37500000000000006        0.0000000000000000     
 -0.31250000000000000       0.37500000000000000        0.0000000000000000     
 -0.15625000000000003       0.37500000000000000        0.0000000000000000     
   0.0000000000000000       0.37500000000000006        0.0000000000000000     
  -1.2499999999999998       0.43750000000000000        0.0000000000000000     
  -1.0937500000000002       0.43749999999999994        0.0000000000000000     
 -0.93750000000000011       0.43750000000000006        0.0000000000000000     
 -0.78124999999999989       0.43750000000000000        0.0000000000000000     
 -0.62500000000000000       0.43750000000000000        0.0000000000000000     
 -0.46875000000000000       0.43750000000000006        0.0000000000000000     
 -0.31249999999999989       0.43750000000000000        0.0000000000000000     
 -0.15625000000000000       0.43749999999999994        0.0000000000000000     
   0.0000000000000000       0.43750000000000000        0.0000000000000000     
  -1.2500000000000002       0.50000000000000011        0.0000000000000000     
  -1.0937500000000000       0.50000000000000011        0.0000000000000000     
 -0.93750000000000022       0.50000000000000011        0.0000000000000000     
 -0.78125000000000000       0.50000000000000000        0.0000000000000000     
 -0.62500000000000011       0.50000000000000000        0.0000000000000000     
 -0.46875000000000006       0.50000000000000000        0.0000000000000000     
 -0.31250000000000000       0.50000000000000000        0.0000000000000000     
 -0.15625000000000003       0.50000000000000011        0.0000000000000000     
   0.0000000000000000       0.50000000000000011        0.0000000000000000     
   0.0000000000000000        0.0000000000000000        0.0000000000000000     
  0.15624999999999997        0.0000000000000000        0.0000000000000000     
  0.31249999999999994        0.0000000000000000        0.0000000000000000     
  0.46875000000000011        0.0000000000000000        0.0000000000000000     
  0.62500000000000022        0.0000000000000000        0.0000000000000000     
  0.78125000000000022        0.0000000000000000        0.0000000000000000     
  0.93750000000000011        0.0000000000000000        0.0000000000000000     
   1.0937499999999998        0.0000000000000000        0.0000000000000000     
   1.2500000000000002        0.0000000000000000        0.0000000000000000     
   0.0000000000000000        6.2500000000000000E-002   0.0000000000000000     
  0.15625000000000003        6.2500000000000000E-002   0.0000000000000000     
  0.31249999999999994        6.2499999999999993E-002   0.0000000000000000     
  0.46875000000000006        6.2500000000000000E-002   0.0000000000000000     
  0.62500000000000011        6.2500000000000000E-002   0.0000000000000000     
  0.78125000000000011        6.2500000000000014E-002   0.0000000000000000     
  0.93750000000000022        6.2500000000000000E-002   0.0000000000000000     
   1.0937500000000002        6.2500000000000000E-002   0.0000000000000000     
   1.2500000000000002        6.2500000000000000E-002   0.0000000000000000     
   0.0000000000000000       0.12500000000000000        0.0000000000000000     
  0.15625000000000000       0.12499999999999997        0.0000000000000000     
  0.31249999999999994       0.12499999999999999        0.0000000000000000     
  0.46875000000000006       0.12500000000000000        0.0000000000000000     
  0.62499999999999989       0.12499999999999999        0.0000000000000000     
  0.78125000000000011       0.12500000000000000        0.0000000000000000     
  0.93750000000000000       0.12500000000000000        0.0000000000000000     
   1.0937500000000000       0.12499999999999997        0.0000000000000000     
   1.2500000000000000       0.12500000000000000        0.0000000000000000     
   0.0000000000000000       0.18750000000000006        0.0000000000000000     
  0.15625000000000000       0.18750000000000000        0.0000000000000000     
  0.31250000000000000       0.18750000000000003        0.0000000000000000     
  0.46875000000000011       0.18750000000000000        0.0000000000000000     
  0.62500000000000000       0.18750000000000000        0.0000000000000000     
  0.78125000000000011       0.18750000000000003        0.0000000000000000     
  0.93750000000000011       0.18750000000000003        0.0000000000000000     
   1.0937500000000000       0.18750000000000000        0.0000000000000000     
   1.2500000000000004       0.18750000000000006        0.0000000000000000     
   0.0000000000000000       0.24999999999999997        0.0000000000000000     
  0.15625000000000003       0.25000000000000000        0.0000000000000000     
  0.31249999999999989       0.24999999999999994        0.0000000000000000     
  0.46874999999999994       0.24999999999999994        0.0000000000000000     
  0.62500000000000011       0.24999999999999997        0.0000000000000000     
  0.78125000000000022       0.24999999999999997        0.0000000000000000     
  0.93749999999999989       0.24999999999999994        0.0000000000000000     
   1.0937500000000002       0.25000000000000000        0.0000000000000000     
   1.2500000000000000       0.24999999999999997        0.0000000000000000     
   0.0000000000000000       0.31250000000000000        0.0000000000000000     
  0.15624999999999997       0.31250000000000006        0.0000000000000000     
  0.31250000000000000       0.31250000000000000        0.0000000000000000     
  0.46875000000000006       0.31250000000000000        0.0000000000000000     
  0.62499999999999989       0.31250000000000006        0.0000000000000000     
  0.78125000000000022       0.31250000000000000        0.0000000000000000     
  0.93750000000000011       0.31250000000000006        0.0000000000000000     
   1.0937499999999998       0.31250000000000006        0.0000000000000000     
   1.2500000000000000       0.31250000000000000        0.0000000000000000     
   0.0000000000000000       0.37500000000000006        0.0000000000000000     
  0.15625000000000003       0.37500000000000000        0.0000000000000000     
  0.31250000000000000       0.37500000000000000        0.0000000000000000     
  0.46875000000000000       0.37500000000000000        0.0000000000000000     
  0.62500000000000000       0.37500000000000000        0.0000000000000000     
  0.78125000000000022       0.37500000000000006        0.0000000000000000     
  0.93750000000000022       0.37500000000000000        0.0000000000000000     
   1.0937499999999998       0.37500000000000000        0.0000000000000000     
   1.2500000000000002       0.37500000000000006        0.0000000000000000     
   0.0000000000000000       0.43750000000000000        0.0000000000000000     
  0.15625000000000000       0.43749999999999994        0.0000000000000000     
  0.31250000000000000       0.43750000000000006        0.0000000000000000     
  0.46874999999999989       0.43750000000000000        0.0000000000000000     
  0.62500000000000000       0.43750000000000000        0.0000000000000000     
  0.78125000000000011       0.43750000000000006        0.0000000000000000     
  0.93749999999999989       0.43750000000000000        0.0000000000000000     
   1.0937500000000004       0.43749999999999994        0.0000000000000000     
   1.2500000000000000       0.43750000000000000        0.0000000000000000     
   0.0000000000000000       0.50000000000000011        0.0000000000000000     
  0.15625000000000000       0.50000000000000011        0.0000000000000000     
  0.31250000000000011       0.50000000000000011        0.0000000000000000     
  0.46875000000000006       0.50000000000000000        0.0000000000000000     
  0.62500000000000011       0.50000000000000000        0.0000000000000000     
  0.78125000000000000       0.50000000000000000        0.0000000000000000     
  0.93750000000000000       0.50000000000000000        0.0000000000000000     
   1.0937500000000002       0.50000000000000011        0.0000000000000000     
   1.2500000000000000       0.50000000000000011        0.0000000000000000     
   1.2500000000000002        0.0000000000000000        0.0000000000000000     
   1.4062500000000000        0.0000000000000000        0.0000000000000000     
   1.5624999999999998        0.0000000000000000        0.0000000000000000     
   1.7187500000000004        0.0000000000000000        0.0000000000000000     
   1.8750000000000004        0.0000000000000000        0.0000000000000000     
   2.0312500000000004        0.0000000000000000        0.0000000000000000     
   2.1875000000000004        0.0000000000000000        0.0000000000000000     
   2.3437500000000000        0.0000000000000000        0.0000000000000000     
   2.5000000000000004        0.0000000000000000        0.0000000000000000     
   1.2500000000000002        6.2500000000000000E-002   0.0000000000000000     
   1.4062500000000002        6.2500000000000000E-002   0.0000000000000000     
   1.5625000000000000        6.2499999999999993E-002   0.0000000000000000     
   1.7187500000000002        6.2500000000000000E-002   0.0000000000000000     
   1.8750000000000002        6.2500000000000000E-002   0.0000000000000000     
   2.0312500000000000        6.2500000000000014E-002   0.0000000000000000     
   2.1875000000000004        6.2500000000000000E-002   0.0000000000000000     
   2.3437500000000004        6.2500000000000000E-002   0.0000000000000000     
   2.5000000000000004        6.2500000000000000E-002   0.0000000000000000     
   1.2500000000000000       0.12500000000000000        0.0000000000000000     
   1.4062500000000000       0.12499999999999997        0.0000000000000000     
   1.5624999999999998       0.12499999999999999        0.0000000000000000     
   1.7187500000000002       0.12500000000000000        0.0000000000000000     
   1.8750000000000000       0.12499999999999999        0.0000000000000000     
   2.0312500000000004       0.12500000000000000        0.0000000000000000     
   2.1875000000000000       0.12500000000000000        0.0000000000000000     
   2.3437500000000000       0.12499999999999997        0.0000000000000000     
   2.5000000000000000       0.12500000000000000        0.0000000000000000     
   1.2500000000000004       0.18750000000000006        0.0000000000000000     
   1.4062500000000000       0.18750000000000000        0.0000000000000000     
   1.5625000000000000       0.18750000000000003        0.0000000000000000     
   1.7187500000000004       0.18750000000000000        0.0000000000000000     
   1.8749999999999998       0.18750000000000000        0.0000000000000000     
   2.0312500000000004       0.18750000000000003        0.0000000000000000     
   2.1875000000000004       0.18750000000000003        0.0000000000000000     
   2.3437500000000000       0.18750000000000000        0.0000000000000000     
   2.5000000000000004       0.18750000000000006        0.0000000000000000     
   1.2500000000000000       0.24999999999999997        0.0000000000000000     
   1.4062500000000002       0.25000000000000000        0.0000000000000000     
   1.5624999999999998       0.24999999999999994        0.0000000000000000     
   1.7187499999999996       0.24999999999999994        0.0000000000000000     
   1.8750000000000002       0.24999999999999997        0.0000000000000000     
   2.0312500000000000       0.24999999999999997        0.0000000000000000     
   2.1874999999999996       0.24999999999999994        0.0000000000000000     
   2.3437500000000000       0.25000000000000000        0.0000000000000000     
   2.4999999999999996       0.24999999999999997        0.0000000000000000     
   1.2500000000000000       0.31250000000000000        0.0000000000000000     
   1.4062500000000000       0.31250000000000006        0.0000000000000000     
   1.5624999999999998       0.31250000000000000        0.0000000000000000     
   1.7187500000000004       0.31250000000000000        0.0000000000000000     
   1.8749999999999998       0.31250000000000006        0.0000000000000000     
   2.0312500000000004       0.31250000000000000        0.0000000000000000     
   2.1875000000000004       0.31250000000000006        0.0000000000000000     
   2.3437500000000000       0.31250000000000006        0.0000000000000000     
   2.5000000000000004       0.31250000000000000        0.0000000000000000     
   1.2500000000000002       0.37500000000000006        0.0000000000000000     
   1.4062500000000000       0.37500000000000000        0.0000000000000000     
   1.5625000000000000       0.37500000000000000        0.0000000000000000     
   1.7187500000000000       0.37500000000000000        0.0000000000000000     
   1.8749999999999996       0.37500000000000000        0.0000000000000000     
   2.0312500000000004       0.37500000000000006        0.0000000000000000     
   2.1875000000000004       0.37500000000000000        0.0000000000000000     
   2.3437500000000000       0.37500000000000000        0.0000000000000000     
   2.5000000000000004       0.37500000000000006        0.0000000000000000     
   1.2500000000000000       0.43750000000000000        0.0000000000000000     
   1.4062500000000002       0.43749999999999994        0.0000000000000000     
   1.5625000000000002       0.43750000000000006        0.0000000000000000     
   1.7187499999999996       0.43750000000000000        0.0000000000000000     
   1.8750000000000004       0.43750000000000000        0.0000000000000000     
   2.0312500000000000       0.43750000000000006        0.0000000000000000     
   2.1874999999999996       0.43750000000000000        0.0000000000000000     
   2.3437500000000000       0.43749999999999994        0.0000000000000000     
   2.4999999999999996       0.43750000000000000        0.0000000000000000     
   1.2500000000000000       0.50000000000000011        0.0000000000000000     
   1.4062500000000000       0.50000000000000011        0.0000000000000000     
   1.5625000000000004       0.50000000000000011        0.0000000000000000     
   1.7187500000000000       0.50000000000000000        0.0000000000000000     
   1.8750000000000000       0.50000000000000000        0.0000000000000000     
   2.0312500000000000       0.50000000000000000        0.0000000000000000     
   2.1875000000000004       0.50000000000000000        0.0000000000000000     
   2.3437500000000004       0.50000000000000011        0.0000000000000000     
   2.5000000000000004       0.50000000000000011        0.0000000000000000     
   2.5000000000000004        0.0000000000000000        0.0000000000000000     
   2.6562499999999996        0.0000000000000000        0.0000000000000000     
   2.8125000000000000        0.0000000000000000        0.0000000000000000     
   2.9687500000000004        0.0000000000000000        0.0000000000000000     
   3.1249999999999996        0.0000000000000000        0.0000000000000000     
   3.2812500000000004        0.0000000000000000        0.0000000000000000     
   3.4375000000000004        0.0000000000000000        0.0000000000000000     
   3.5937499999999996        0.0000000000000000        0.0000000000000000     
   3.7500000000000000        0.0000000000000000        0.0000000000000000     
   2.5000000000000004        6.2500000000000000E-002   0.0000000000000000     
   2.6562500000000004        6.2500000000000000E-002   0.0000000000000000     
   2.8125000000000000        6.2499999999999993E-002   0.0000000000000000     
   2.9687500000000004        6.2500000000000000E-002   0.0000000000000000     
   3.1250000000000009        6.2500000000000000E-002   0.0000000000000000     
   3.2812500000000004        6.2500000000000014E-002   0.0000000000000000     
   3.4375000000000009        6.2500000000000000E-002   0.0000000000000000     
   3.5937500000000009        6.2500000000000014E-002   0.0000000000000000     
   3.7500000000000004        6.2500000000000000E-002   0.0000000000000000     
   2.5000000000000000       0.12500000000000000        0.0000000000000000     
   2.6562500000000000       0.12499999999999999        0.0000000000000000     
   2.8125000000000000       0.12499999999999999        0.0000000000000000     
   2.9687500000000000       0.12500000000000000        0.0000000000000000     
   3.1250000000000000       0.12499999999999999        0.0000000000000000     
   3.2812500000000004       0.12500000000000000        0.0000000000000000     
   3.4375000000000000       0.12500000000000000        0.0000000000000000     
   3.5937499999999996       0.12499999999999999        0.0000000000000000     
   3.7500000000000000       0.12500000000000000        0.0000000000000000     
   2.5000000000000004       0.18750000000000006        0.0000000000000000     
   2.6562499999999996       0.18750000000000000        0.0000000000000000     
   2.8125000000000000       0.18750000000000000        0.0000000000000000     
   2.9687500000000004       0.18750000000000000        0.0000000000000000     
   3.1249999999999996       0.18750000000000000        0.0000000000000000     
   3.2812500000000000       0.18750000000000000        0.0000000000000000     
   3.4375000000000004       0.18750000000000003        0.0000000000000000     
   3.5937499999999996       0.18750000000000000        0.0000000000000000     
   3.7500000000000000       0.18750000000000000        0.0000000000000000     
   2.4999999999999996       0.24999999999999997        0.0000000000000000     
   2.6562500000000009       0.25000000000000000        0.0000000000000000     
   2.8125000000000000       0.24999999999999997        0.0000000000000000     
   2.9687499999999996       0.24999999999999994        0.0000000000000000     
   3.1250000000000013       0.24999999999999997        0.0000000000000000     
   3.2812500000000000       0.25000000000000000        0.0000000000000000     
   3.4374999999999996       0.24999999999999994        0.0000000000000000     
   3.5937500000000013       0.24999999999999997        0.0000000000000000     
   3.7500000000000004       0.25000000000000000        0.0000000000000000     
   2.5000000000000004       0.31250000000000000        0.0000000000000000     
   2.6562499999999996       0.31250000000000006        0.0000000000000000     
   2.8125000000000000       0.31250000000000000        0.0000000000000000     
   2.9687500000000004       0.31250000000000000        0.0000000000000000     
   3.1250000000000000       0.31250000000000011        0.0000000000000000     
   3.2812500000000009       0.31250000000000000        0.0000000000000000     
   3.4375000000000004       0.31250000000000006        0.0000000000000000     
   3.5937500000000000       0.31250000000000006        0.0000000000000000     
   3.7500000000000004       0.31250000000000000        0.0000000000000000     
   2.5000000000000004       0.37500000000000006        0.0000000000000000     
   2.6562499999999996       0.37500000000000000        0.0000000000000000     
   2.8125000000000000       0.37500000000000000        0.0000000000000000     
   2.9687500000000000       0.37500000000000000        0.0000000000000000     
   3.1249999999999996       0.37500000000000000        0.0000000000000000     
   3.2812500000000000       0.37500000000000000        0.0000000000000000     
   3.4375000000000009       0.37500000000000000        0.0000000000000000     
   3.5937499999999996       0.37500000000000000        0.0000000000000000     
   3.7500000000000000       0.37500000000000000        0.0000000000000000     
   2.4999999999999996       0.43750000000000000        0.0000000000000000     
   2.6562500000000009       0.43750000000000000        0.0000000000000000     
   2.8125000000000000       0.43749999999999989        0.0000000000000000     
   2.9687499999999996       0.43750000000000000        0.0000000000000000     
   3.1250000000000009       0.43750000000000000        0.0000000000000000     
   3.2812500000000000       0.43750000000000000        0.0000000000000000     
   3.4374999999999996       0.43750000000000000        0.0000000000000000     
   3.5937500000000013       0.43750000000000006        0.0000000000000000     
   3.7500000000000004       0.43750000000000000        0.0000000000000000     
   2.5000000000000004       0.50000000000000011        0.0000000000000000     
   2.6562500000000004       0.50000000000000011        0.0000000000000000     
   2.8125000000000000       0.50000000000000000        0.0000000000000000     
   2.9687500000000004       0.50000000000000000        0.0000000000000000     
   3.1249999999999996       0.50000000000000000        0.0000000000000000     
   3.2812500000000000       0.50000000000000000        0.0000000000000000     
   3.4375000000000000       0.50000000000000000        0.0000000000000000     
   3.5937500000000000       0.50000000000000000        0.0000000000000000     
   3.7500000000000009       0.50000000000000011        0.0000000000000000     
   3.7500000000000000        0.0000000000000000        0.0000000000000000     
   3.9062500000000009        0.0000000000000000        0.0000000000000000     
   4.0625000000000000        0.0000000000000000        0.0000000000000000     
   4.2187500000000009        0.0000000000000000        0.0000000000000000     
   4.3750000000000000        0.0000000000000000        0.0000000000000000     
   4.5312500000000009        0.0000000000000000        0.0000000000000000     
   4.6875000000000009        0.0000000000000000        0.0000000000000000     
   4.8437499999999991        0.0000000000000000        0.0000000000000000     
   5.0000000000000000        0.0000000000000000        0.0000000000000000     
   3.7500000000000004        6.2500000000000000E-002   0.0000000000000000     
   3.9062500000000004        6.2500000000000000E-002   0.0000000000000000     
   4.0625000000000000        6.2499999999999993E-002   0.0000000000000000     
   4.2187500000000000        6.2500000000000000E-002   0.0000000000000000     
   4.3750000000000009        6.2500000000000000E-002   0.0000000000000000     
   4.5312500000000000        6.2499999999999986E-002   0.0000000000000000     
   4.6874999999999991        6.2499999999999986E-002   0.0000000000000000     
   4.8437500000000000        6.2499999999999986E-002   0.0000000000000000     
   5.0000000000000000        6.2499999999999993E-002   0.0000000000000000     
   3.7500000000000000       0.12500000000000000        0.0000000000000000     
   3.9062500000000004       0.12500000000000000        0.0000000000000000     
   4.0625000000000000       0.12499999999999997        0.0000000000000000     
   4.2187500000000000       0.12500000000000000        0.0000000000000000     
   4.3750000000000000       0.12499999999999997        0.0000000000000000     
   4.5312500000000000       0.12499999999999999        0.0000000000000000     
   4.6875000000000000       0.12499999999999999        0.0000000000000000     
   4.8437500000000000       0.12499999999999999        0.0000000000000000     
   5.0000000000000000       0.12499999999999999        0.0000000000000000     
   3.7500000000000000       0.18750000000000000        0.0000000000000000     
   3.9062500000000000       0.18750000000000000        0.0000000000000000     
   4.0625000000000000       0.18750000000000000        0.0000000000000000     
   4.2187500000000000       0.18750000000000000        0.0000000000000000     
   4.3750000000000000       0.18750000000000000        0.0000000000000000     
   4.5312500000000000       0.18750000000000000        0.0000000000000000     
   4.6875000000000000       0.18750000000000000        0.0000000000000000     
   4.8437500000000000       0.18750000000000000        0.0000000000000000     
   5.0000000000000000       0.18750000000000000        0.0000000000000000     
   3.7500000000000004       0.25000000000000000        0.0000000000000000     
   3.9062500000000004       0.24999999999999994        0.0000000000000000     
   4.0625000000000009       0.25000000000000006        0.0000000000000000     
   4.2187500000000000       0.25000000000000000        0.0000000000000000     
   4.3750000000000018       0.25000000000000006        0.0000000000000000     
   4.5312500000000000       0.25000000000000000        0.0000000000000000     
   4.6874999999999991       0.24999999999999994        0.0000000000000000     
   4.8437500000000000       0.24999999999999994        0.0000000000000000     
   5.0000000000000000       0.25000000000000000        0.0000000000000000     
   3.7500000000000004       0.31250000000000000        0.0000000000000000     
   3.9062499999999996       0.31250000000000006        0.0000000000000000     
   4.0625000000000000       0.31250000000000000        0.0000000000000000     
   4.2187500000000000       0.31250000000000000        0.0000000000000000     
   4.3749999999999991       0.31250000000000000        0.0000000000000000     
   4.5312500000000000       0.31250000000000000        0.0000000000000000     
   4.6875000000000000       0.31250000000000000        0.0000000000000000     
   4.8437500000000000       0.31249999999999994        0.0000000000000000     
   5.0000000000000000       0.31250000000000000        0.0000000000000000     
   3.7500000000000000       0.37500000000000000        0.0000000000000000     
   3.9062500000000000       0.37500000000000000        0.0000000000000000     
   4.0625000000000000       0.37500000000000000        0.0000000000000000     
   4.2187500000000000       0.37500000000000000        0.0000000000000000     
   4.3750000000000009       0.37500000000000000        0.0000000000000000     
   4.5312500000000000       0.37500000000000000        0.0000000000000000     
   4.6875000000000000       0.37500000000000000        0.0000000000000000     
   4.8437500000000000       0.37500000000000000        0.0000000000000000     
   5.0000000000000000       0.37500000000000000        0.0000000000000000     
   3.7500000000000004       0.43750000000000000        0.0000000000000000     
   3.9062500000000000       0.43750000000000006        0.0000000000000000     
   4.0625000000000009       0.43750000000000000        0.0000000000000000     
   4.2187500000000000       0.43750000000000011        0.0000000000000000     
   4.3750000000000018       0.43750000000000011        0.0000000000000000     
   4.5312500000000009       0.43750000000000000        0.0000000000000000     
   4.6875000000000000       0.43750000000000000        0.0000000000000000     
   4.8437500000000000       0.43750000000000000        0.0000000000000000     
   5.0000000000000000       0.43749999999999994        0.0000000000000000     
   3.7500000000000009       0.50000000000000011        0.0000000000000000     
   3.9062500000000004       0.50000000000000000        0.0000000000000000     
   4.0625000000000000       0.50000000000000000        0.0000000000000000     
   4.2187500000000009       0.50000000000000011        0.0000000000000000     
   4.3750000000000000       0.50000000000000000        0.0000000000000000     
   4.5312500000000000       0.50000000000000011        0.0000000000000000     
   4.6875000000000009       0.50000000000000011        0.0000000000000000     
   4.8437500000000009       0.50000000000000000        0.0000000000000000     
   5.0000000000000009       0.50000000000000000        0.0000000000000000     
  -5.0000000000000009       0.50000000000000000        0.0000000000000000     
  -4.8437500000000009       0.50000000000000000        0.0000000000000000     
  -4.6875000000000000       0.50000000000000011        0.0000000000000000     
  -4.5312500000000000       0.50000000000000000        0.0000000000000000     
  -4.3750000000000009       0.49999999999999994        0.0000000000000000     
  -4.2187500000000000       0.50000000000000011        0.0000000000000000     
  -4.0625000000000000       0.50000000000000000        0.0000000000000000     
  -3.9062500000000009       0.50000000000000000        0.0000000000000000     
  -3.7500000000000000       0.49999999999999994        0.0000000000000000     
  -5.0000000000000000       0.56250000000000000        0.0000000000000000     
  -4.8437500000000000       0.56250000000000000        0.0000000000000000     
  -4.6875000000000000       0.56250000000000000        0.0000000000000000     
  -4.5312500000000000       0.56250000000000000        0.0000000000000000     
  -4.3750000000000000       0.56249999999999989        0.0000000000000000     
  -4.2187500000000000       0.56250000000000000        0.0000000000000000     
  -4.0625000000000000       0.56250000000000000        0.0000000000000000     
  -3.9062500000000000       0.56249999999999989        0.0000000000000000     
  -3.7500000000000000       0.56250000000000000        0.0000000000000000     
  -4.9999999999999991       0.62500000000000000        0.0000000000000000     
  -4.8437500000000009       0.62500000000000011        0.0000000000000000     
  -4.6875000000000000       0.62500000000000000        0.0000000000000000     
  -4.5312500000000000       0.62500000000000000        0.0000000000000000     
  -4.3750000000000009       0.62499999999999989        0.0000000000000000     
  -4.2187500000000009       0.62500000000000000        0.0000000000000000     
  -4.0625000000000009       0.62500000000000011        0.0000000000000000     
  -3.9062500000000004       0.62499999999999989        0.0000000000000000     
  -3.7500000000000000       0.62500000000000000        0.0000000000000000     
  -5.0000000000000009       0.68750000000000011        0.0000000000000000     
  -4.8437500000000000       0.68750000000000011        0.0000000000000000     
  -4.6875000000000000       0.68750000000000000        0.0000000000000000     
  -4.5312500000000009       0.68749999999999989        0.0000000000000000     
  -4.3750000000000009       0.68750000000000033        0.0000000000000000     
  -4.2187500000000009       0.68750000000000000        0.0000000000000000     
  -4.0625000000000009       0.68750000000000000        0.0000000000000000     
  -3.9062500000000004       0.68750000000000011        0.0000000000000000     
  -3.7500000000000000       0.68749999999999989        0.0000000000000000     
  -5.0000000000000000       0.75000000000000000        0.0000000000000000     
  -4.8437500000000000       0.74999999999999989        0.0000000000000000     
  -4.6875000000000009       0.75000000000000011        0.0000000000000000     
  -4.5312500000000009       0.75000000000000011        0.0000000000000000     
  -4.3750000000000000       0.74999999999999989        0.0000000000000000     
  -4.2187500000000000       0.75000000000000011        0.0000000000000000     
  -4.0624999999999991       0.75000000000000000        0.0000000000000000     
  -3.9062500000000009       0.74999999999999989        0.0000000000000000     
  -3.7500000000000000       0.75000000000000000        0.0000000000000000     
  -5.0000000000000009       0.81250000000000011        0.0000000000000000     
  -4.8437500000000009       0.81250000000000000        0.0000000000000000     
  -4.6875000000000000       0.81250000000000000        0.0000000000000000     
  -4.5312500000000009       0.81250000000000011        0.0000000000000000     
  -4.3750000000000009       0.81249999999999989        0.0000000000000000     
  -4.2187500000000009       0.81250000000000011        0.0000000000000000     
  -4.0625000000000009       0.81250000000000022        0.0000000000000000     
  -3.9062499999999996       0.81250000000000000        0.0000000000000000     
  -3.7500000000000004       0.81250000000000000        0.0000000000000000     
  -5.0000000000000000       0.87499999999999989        0.0000000000000000     
  -4.8437500000000009       0.87500000000000022        0.0000000000000000     
  -4.6875000000000000       0.87500000000000000        0.0000000000000000     
  -4.5312500000000000       0.87499999999999989        0.0000000000000000     
  -4.3750000000000009       0.87500000000000011        0.0000000000000000     
  -4.2187500000000000       0.87500000000000011        0.0000000000000000     
  -4.0625000000000009       0.87499999999999989        0.0000000000000000     
  -3.9062500000000004       0.87500000000000022        0.0000000000000000     
  -3.7499999999999996       0.87499999999999989        0.0000000000000000     
  -5.0000000000000000       0.93750000000000000        0.0000000000000000     
  -4.8437500000000000       0.93749999999999978        0.0000000000000000     
  -4.6875000000000000       0.93750000000000011        0.0000000000000000     
  -4.5312500000000009       0.93750000000000011        0.0000000000000000     
  -4.3750000000000009       0.93750000000000000        0.0000000000000000     
  -4.2187500000000000       0.93749999999999989        0.0000000000000000     
  -4.0625000000000009       0.93750000000000011        0.0000000000000000     
  -3.9062500000000004       0.93750000000000000        0.0000000000000000     
  -3.7500000000000004       0.93750000000000011        0.0000000000000000     
  -5.0000000000000018        1.0000000000000000        0.0000000000000000     
  -4.8437500000000000       0.99999999999999978        0.0000000000000000     
  -4.6875000000000000        1.0000000000000002        0.0000000000000000     
  -4.5312500000000009        1.0000000000000002        0.0000000000000000     
  -4.3750000000000009        1.0000000000000000        0.0000000000000000     
  -4.2187500000000000        1.0000000000000002        0.0000000000000000     
  -4.0625000000000009        1.0000000000000000        0.0000000000000000     
  -3.9062499999999996        1.0000000000000000        0.0000000000000000     
  -3.7500000000000009        1.0000000000000000        0.0000000000000000     
  -3.7500000000000000       0.49999999999999994        0.0000000000000000     
  -3.5937499999999996       0.50000000000000011        0.0000000000000000     
  -3.4375000000000009       0.50000000000000011        0.0000000000000000     
  -3.2812500000000000       0.50000000000000000        0.0000000000000000     
  -3.1249999999999996       0.50000000000000011        0.0000000000000000     
  -2.9687500000000000       0.50000000000000000        0.0000000000000000     
  -2.8125000000000004       0.50000000000000000        0.0000000000000000     
  -2.6562500000000004       0.50000000000000011        0.0000000000000000     
  -2.5000000000000004       0.50000000000000011        0.0000000000000000     
  -3.7500000000000000       0.56250000000000000        0.0000000000000000     
  -3.5937500000000004       0.56249999999999989        0.0000000000000000     
  -3.4375000000000000       0.56250000000000000        0.0000000000000000     
  -3.2812500000000000       0.56250000000000011        0.0000000000000000     
  -3.1250000000000004       0.56249999999999989        0.0000000000000000     
  -2.9687500000000000       0.56250000000000000        0.0000000000000000     
  -2.8125000000000000       0.56250000000000000        0.0000000000000000     
  -2.6562500000000004       0.56249999999999989        0.0000000000000000     
  -2.5000000000000000       0.56250000000000000        0.0000000000000000     
  -3.7500000000000000       0.62500000000000000        0.0000000000000000     
  -3.5937500000000009       0.62500000000000000        0.0000000000000000     
  -3.4375000000000000       0.62500000000000000        0.0000000000000000     
  -3.2812500000000009       0.62500000000000022        0.0000000000000000     
  -3.1250000000000000       0.62500000000000000        0.0000000000000000     
  -2.9687500000000000       0.62500000000000000        0.0000000000000000     
  -2.8125000000000004       0.62500000000000011        0.0000000000000000     
  -2.6562500000000000       0.62500000000000000        0.0000000000000000     
  -2.5000000000000000       0.62500000000000000        0.0000000000000000     
  -3.7500000000000000       0.68749999999999989        0.0000000000000000     
  -3.5937500000000000       0.68750000000000011        0.0000000000000000     
  -3.4375000000000004       0.68750000000000011        0.0000000000000000     
  -3.2812500000000000       0.68749999999999989        0.0000000000000000     
  -3.1250000000000000       0.68750000000000011        0.0000000000000000     
  -2.9687500000000000       0.68750000000000000        0.0000000000000000     
  -2.8124999999999996       0.68749999999999989        0.0000000000000000     
  -2.6562499999999996       0.68750000000000011        0.0000000000000000     
  -2.5000000000000000       0.68750000000000000        0.0000000000000000     
  -3.7500000000000000       0.75000000000000000        0.0000000000000000     
  -3.5937500000000004       0.74999999999999989        0.0000000000000000     
  -3.4374999999999996       0.74999999999999989        0.0000000000000000     
  -3.2812499999999996       0.74999999999999989        0.0000000000000000     
  -3.1250000000000004       0.74999999999999989        0.0000000000000000     
  -2.9687500000000000       0.75000000000000000        0.0000000000000000     
  -2.8125000000000000       0.74999999999999989        0.0000000000000000     
  -2.6562500000000004       0.74999999999999989        0.0000000000000000     
  -2.5000000000000000       0.75000000000000000        0.0000000000000000     
  -3.7500000000000004       0.81250000000000000        0.0000000000000000     
  -3.5937500000000000       0.81250000000000022        0.0000000000000000     
  -3.4375000000000000       0.81250000000000000        0.0000000000000000     
  -3.2812500000000004       0.81250000000000000        0.0000000000000000     
  -3.1249999999999996       0.81250000000000000        0.0000000000000000     
  -2.9687500000000000       0.81250000000000000        0.0000000000000000     
  -2.8125000000000004       0.81250000000000011        0.0000000000000000     
  -2.6562499999999996       0.81249999999999989        0.0000000000000000     
  -2.5000000000000000       0.81250000000000000        0.0000000000000000     
  -3.7499999999999996       0.87499999999999989        0.0000000000000000     
  -3.5937500000000004       0.87500000000000022        0.0000000000000000     
  -3.4375000000000009       0.87500000000000022        0.0000000000000000     
  -3.2812499999999996       0.87499999999999989        0.0000000000000000     
  -3.1250000000000000       0.87500000000000022        0.0000000000000000     
  -2.9687500000000009       0.87500000000000033        0.0000000000000000     
  -2.8124999999999996       0.87499999999999978        0.0000000000000000     
  -2.6562500000000000       0.87500000000000022        0.0000000000000000     
  -2.5000000000000004       0.87500000000000011        0.0000000000000000     
  -3.7500000000000004       0.93750000000000011        0.0000000000000000     
  -3.5937500000000004       0.93749999999999978        0.0000000000000000     
  -3.4375000000000000       0.93749999999999989        0.0000000000000000     
  -3.2812499999999996       0.93750000000000000        0.0000000000000000     
  -3.1250000000000004       0.93749999999999989        0.0000000000000000     
  -2.9687499999999996       0.93749999999999989        0.0000000000000000     
  -2.8125000000000004       0.93750000000000011        0.0000000000000000     
  -2.6562500000000004       0.93749999999999989        0.0000000000000000     
  -2.5000000000000000       0.93749999999999989        0.0000000000000000     
  -3.7500000000000009        1.0000000000000000        0.0000000000000000     
  -3.5937500000000004        1.0000000000000002        0.0000000000000000     
  -3.4375000000000009        1.0000000000000000        0.0000000000000000     
  -3.2812500000000000        1.0000000000000000        0.0000000000000000     
  -3.1249999999999996        1.0000000000000000        0.0000000000000000     
  -2.9687500000000000        1.0000000000000000        0.0000000000000000     
  -2.8125000000000009        1.0000000000000000        0.0000000000000000     
  -2.6562499999999996        1.0000000000000000        0.0000000000000000     
  -2.5000000000000004        1.0000000000000002        0.0000000000000000     
  -2.5000000000000004       0.50000000000000011        0.0000000000000000     
  -2.3437500000000000       0.50000000000000011        0.0000000000000000     
  -2.1875000000000009       0.50000000000000011        0.0000000000000000     
  -2.0312500000000000       0.50000000000000000        0.0000000000000000     
  -1.8750000000000002       0.50000000000000000        0.0000000000000000     
  -1.7187500000000002       0.50000000000000000        0.0000000000000000     
  -1.5624999999999998       0.50000000000000000        0.0000000000000000     
  -1.4062500000000002       0.50000000000000011        0.0000000000000000     
  -1.2500000000000002       0.50000000000000011        0.0000000000000000     
  -2.5000000000000000       0.56250000000000000        0.0000000000000000     
  -2.3437500000000000       0.56249999999999989        0.0000000000000000     
  -2.1875000000000000       0.56250000000000000        0.0000000000000000     
  -2.0312500000000000       0.56250000000000000        0.0000000000000000     
  -1.8750000000000000       0.56249999999999989        0.0000000000000000     
  -1.7187500000000000       0.56250000000000000        0.0000000000000000     
  -1.5625000000000000       0.56250000000000000        0.0000000000000000     
  -1.4062500000000000       0.56249999999999989        0.0000000000000000     
  -1.2500000000000000       0.56250000000000000        0.0000000000000000     
  -2.5000000000000000       0.62500000000000000        0.0000000000000000     
  -2.3437500000000004       0.62500000000000011        0.0000000000000000     
  -2.1875000000000000       0.62500000000000000        0.0000000000000000     
  -2.0312500000000000       0.62500000000000000        0.0000000000000000     
  -1.8749999999999998       0.62500000000000011        0.0000000000000000     
  -1.7187500000000000       0.62500000000000000        0.0000000000000000     
  -1.5625000000000002       0.62500000000000000        0.0000000000000000     
  -1.4062500000000000       0.62500000000000011        0.0000000000000000     
  -1.2500000000000000       0.62500000000000000        0.0000000000000000     
  -2.5000000000000000       0.68750000000000000        0.0000000000000000     
  -2.3437500000000000       0.68750000000000000        0.0000000000000000     
  -2.1875000000000004       0.68750000000000011        0.0000000000000000     
  -2.0312500000000000       0.68750000000000000        0.0000000000000000     
  -1.8750000000000002       0.68750000000000011        0.0000000000000000     
  -1.7187500000000000       0.68750000000000000        0.0000000000000000     
  -1.5624999999999998       0.68750000000000000        0.0000000000000000     
  -1.4062500000000002       0.68750000000000000        0.0000000000000000     
  -1.2500000000000000       0.68750000000000000        0.0000000000000000     
  -2.5000000000000000       0.75000000000000000        0.0000000000000000     
  -2.3437500000000000       0.74999999999999989        0.0000000000000000     
  -2.1875000000000000       0.74999999999999989        0.0000000000000000     
  -2.0312500000000000       0.75000000000000000        0.0000000000000000     
  -1.8749999999999996       0.74999999999999978        0.0000000000000000     
  -1.7187500000000000       0.75000000000000000        0.0000000000000000     
  -1.5625000000000000       0.75000000000000000        0.0000000000000000     
  -1.4062500000000000       0.74999999999999989        0.0000000000000000     
  -1.2500000000000000       0.75000000000000000        0.0000000000000000     
  -2.5000000000000000       0.81250000000000000        0.0000000000000000     
  -2.3437500000000000       0.81250000000000022        0.0000000000000000     
  -2.1875000000000000       0.81250000000000000        0.0000000000000000     
  -2.0312500000000000       0.81250000000000000        0.0000000000000000     
  -1.8750000000000000       0.81250000000000022        0.0000000000000000     
  -1.7187500000000000       0.81250000000000000        0.0000000000000000     
  -1.5625000000000002       0.81250000000000000        0.0000000000000000     
  -1.4062500000000002       0.81250000000000011        0.0000000000000000     
  -1.2500000000000000       0.81250000000000000        0.0000000000000000     
  -2.5000000000000004       0.87500000000000011        0.0000000000000000     
  -2.3437500000000004       0.87500000000000000        0.0000000000000000     
  -2.1875000000000004       0.87500000000000022        0.0000000000000000     
  -2.0312500000000004       0.87500000000000000        0.0000000000000000     
  -1.8750000000000002       0.87499999999999989        0.0000000000000000     
  -1.7187500000000004       0.87500000000000033        0.0000000000000000     
  -1.5625000000000002       0.87500000000000011        0.0000000000000000     
  -1.4062500000000002       0.87500000000000011        0.0000000000000000     
  -1.2500000000000002       0.87500000000000011        0.0000000000000000     
  -2.5000000000000000       0.93749999999999989        0.0000000000000000     
  -2.3437500000000004       0.93750000000000000        0.0000000000000000     
  -2.1875000000000000       0.93749999999999989        0.0000000000000000     
  -2.0312500000000000       0.93750000000000000        0.0000000000000000     
  -1.8750000000000000       0.93750000000000000        0.0000000000000000     
  -1.7187499999999998       0.93749999999999989        0.0000000000000000     
  -1.5624999999999998       0.93750000000000000        0.0000000000000000     
  -1.4062500000000000       0.93750000000000000        0.0000000000000000     
  -1.2500000000000000       0.93749999999999989        0.0000000000000000     
  -2.5000000000000004        1.0000000000000002        0.0000000000000000     
  -2.3437500000000004        1.0000000000000002        0.0000000000000000     
  -2.1875000000000004        1.0000000000000000        0.0000000000000000     
  -2.0312500000000000        1.0000000000000000        0.0000000000000000     
  -1.8749999999999998        1.0000000000000002        0.0000000000000000     
  -1.7187500000000000        1.0000000000000000        0.0000000000000000     
  -1.5625000000000002        1.0000000000000000        0.0000000000000000     
  -1.4062499999999998        1.0000000000000002        0.0000000000000000     
  -1.2500000000000002        1.0000000000000002        0.0000000000000000     
  -1.2500000000000002       0.50000000000000011        0.0000000000000000     
  -1.0937500000000000       0.50000000000000011        0.0000000000000000     
 -0.93750000000000022       0.50000000000000011        0.0000000000000000     
 -0.78125000000000000       0.50000000000000000        0.0000000000000000     
 -0.62500000000000011       0.50000000000000000        0.0000000000000000     
 -0.46875000000000006       0.50000000000000000        0.0000000000000000     
 -0.31250000000000000       0.50000000000000000        0.0000000000000000     
 -0.15625000000000003       0.50000000000000011        0.0000000000000000     
   0.0000000000000000       0.50000000000000011        0.0000000000000000     
  -1.2500000000000000       0.56250000000000000        0.0000000000000000     
  -1.0937500000000000       0.56249999999999989        0.0000000000000000     
 -0.93750000000000000       0.56250000000000000        0.0000000000000000     
 -0.78125000000000000       0.56250000000000000        0.0000000000000000     
 -0.62499999999999989       0.56249999999999989        0.0000000000000000     
 -0.46874999999999989       0.56250000000000000        0.0000000000000000     
 -0.31249999999999994       0.56250000000000000        0.0000000000000000     
 -0.15624999999999997       0.56249999999999989        0.0000000000000000     
   0.0000000000000000       0.56250000000000000        0.0000000000000000     
  -1.2500000000000000       0.62500000000000000        0.0000000000000000     
  -1.0937500000000002       0.62500000000000011        0.0000000000000000     
 -0.93750000000000000       0.62500000000000000        0.0000000000000000     
 -0.78125000000000000       0.62500000000000000        0.0000000000000000     
 -0.62500000000000000       0.62500000000000011        0.0000000000000000     
 -0.46875000000000000       0.62500000000000000        0.0000000000000000     
 -0.31249999999999994       0.62500000000000000        0.0000000000000000     
 -0.15625000000000003       0.62500000000000011        0.0000000000000000     
   0.0000000000000000       0.62500000000000000        0.0000000000000000     
  -1.2500000000000000       0.68750000000000000        0.0000000000000000     
  -1.0937499999999998       0.68750000000000000        0.0000000000000000     
 -0.93750000000000022       0.68750000000000011        0.0000000000000000     
 -0.78125000000000000       0.68750000000000000        0.0000000000000000     
 -0.62500000000000011       0.68750000000000011        0.0000000000000000     
 -0.46875000000000000       0.68750000000000000        0.0000000000000000     
 -0.31250000000000000       0.68750000000000000        0.0000000000000000     
 -0.15625000000000006       0.68750000000000000        0.0000000000000000     
   0.0000000000000000       0.68750000000000000        0.0000000000000000     
  -1.2500000000000000       0.75000000000000000        0.0000000000000000     
  -1.0937500000000002       0.74999999999999989        0.0000000000000000     
 -0.93750000000000000       0.74999999999999989        0.0000000000000000     
 -0.78125000000000000       0.75000000000000000        0.0000000000000000     
 -0.62499999999999978       0.74999999999999978        0.0000000000000000     
 -0.46874999999999989       0.75000000000000000        0.0000000000000000     
 -0.31249999999999994       0.75000000000000000        0.0000000000000000     
 -0.15624999999999997       0.74999999999999989        0.0000000000000000     
   0.0000000000000000       0.75000000000000000        0.0000000000000000     
  -1.2500000000000000       0.81250000000000000        0.0000000000000000     
  -1.0937500000000000       0.81250000000000022        0.0000000000000000     
 -0.93750000000000000       0.81250000000000000        0.0000000000000000     
 -0.78125000000000000       0.81250000000000000        0.0000000000000000     
 -0.62500000000000011       0.81250000000000022        0.0000000000000000     
 -0.46875000000000000       0.81250000000000000        0.0000000000000000     
 -0.31250000000000000       0.81250000000000000        0.0000000000000000     
 -0.15625000000000000       0.81250000000000011        0.0000000000000000     
   0.0000000000000000       0.81250000000000000        0.0000000000000000     
  -1.2500000000000002       0.87500000000000011        0.0000000000000000     
  -1.0937500000000000       0.87500000000000000        0.0000000000000000     
 -0.93750000000000033       0.87500000000000022        0.0000000000000000     
 -0.78125000000000000       0.87500000000000000        0.0000000000000000     
 -0.62500000000000011       0.87499999999999989        0.0000000000000000     
 -0.46875000000000017       0.87500000000000033        0.0000000000000000     
 -0.31250000000000006       0.87500000000000011        0.0000000000000000     
 -0.15625000000000006       0.87500000000000011        0.0000000000000000     
   0.0000000000000000       0.87500000000000011        0.0000000000000000     
  -1.2500000000000000       0.93749999999999989        0.0000000000000000     
  -1.0937500000000004       0.93750000000000000        0.0000000000000000     
 -0.93749999999999989       0.93749999999999989        0.0000000000000000     
 -0.78125000000000000       0.93750000000000000        0.0000000000000000     
 -0.62499999999999989       0.93750000000000000        0.0000000000000000     
 -0.46874999999999994       0.93749999999999989        0.0000000000000000     
 -0.31249999999999994       0.93750000000000000        0.0000000000000000     
 -0.15624999999999997       0.93750000000000000        0.0000000000000000     
   0.0000000000000000       0.93749999999999989        0.0000000000000000     
  -1.2500000000000002        1.0000000000000002        0.0000000000000000     
  -1.0937500000000002        1.0000000000000002        0.0000000000000000     
 -0.93750000000000011        1.0000000000000000        0.0000000000000000     
 -0.78125000000000000        1.0000000000000000        0.0000000000000000     
 -0.62500000000000000        1.0000000000000002        0.0000000000000000     
 -0.46875000000000000        1.0000000000000000        0.0000000000000000     
 -0.31250000000000000        1.0000000000000000        0.0000000000000000     
 -0.15624999999999997        1.0000000000000002        0.0000000000000000     
   0.0000000000000000        1.0000000000000002        0.0000000000000000     
   0.0000000000000000       0.50000000000000011        0.0000000000000000     
  0.15625000000000000       0.50000000000000011        0.0000000000000000     
  0.31250000000000011       0.50000000000000011        0.0000000000000000     
  0.46875000000000006       0.50000000000000000        0.0000000000000000     
  0.62500000000000011       0.50000000000000000        0.0000000000000000     
  0.78125000000000000       0.50000000000000000        0.0000000000000000     
  0.93750000000000000       0.50000000000000000        0.0000000000000000     
   1.0937500000000002       0.50000000000000011        0.0000000000000000     
   1.2500000000000000       0.50000000000000011        0.0000000000000000     
   0.0000000000000000       0.56250000000000000        0.0000000000000000     
  0.15625000000000000       0.56249999999999989        0.0000000000000000     
  0.31249999999999989       0.56250000000000000        0.0000000000000000     
  0.46874999999999994       0.56250000000000000        0.0000000000000000     
  0.62499999999999989       0.56249999999999989        0.0000000000000000     
  0.78125000000000000       0.56250000000000000        0.0000000000000000     
  0.93750000000000000       0.56250000000000000        0.0000000000000000     
   1.0937500000000000       0.56249999999999989        0.0000000000000000     
   1.2500000000000000       0.56250000000000000        0.0000000000000000     
   0.0000000000000000       0.62500000000000000        0.0000000000000000     
  0.15625000000000006       0.62500000000000011        0.0000000000000000     
  0.31250000000000000       0.62500000000000000        0.0000000000000000     
  0.46875000000000000       0.62500000000000000        0.0000000000000000     
  0.62500000000000000       0.62500000000000011        0.0000000000000000     
  0.78125000000000000       0.62500000000000000        0.0000000000000000     
  0.93750000000000011       0.62500000000000000        0.0000000000000000     
   1.0937500000000002       0.62500000000000011        0.0000000000000000     
   1.2500000000000000       0.62500000000000000        0.0000000000000000     
   0.0000000000000000       0.68750000000000000        0.0000000000000000     
  0.15625000000000008       0.68750000000000000        0.0000000000000000     
  0.31250000000000011       0.68750000000000011        0.0000000000000000     
  0.46875000000000000       0.68750000000000000        0.0000000000000000     
  0.62500000000000011       0.68750000000000011        0.0000000000000000     
  0.78125000000000000       0.68750000000000000        0.0000000000000000     
  0.93750000000000000       0.68750000000000000        0.0000000000000000     
   1.0937499999999996       0.68750000000000000        0.0000000000000000     
   1.2500000000000000       0.68750000000000000        0.0000000000000000     
   0.0000000000000000       0.75000000000000000        0.0000000000000000     
  0.15624999999999997       0.74999999999999989        0.0000000000000000     
  0.31249999999999994       0.74999999999999989        0.0000000000000000     
  0.46874999999999989       0.75000000000000000        0.0000000000000000     
  0.62499999999999978       0.74999999999999978        0.0000000000000000     
  0.78125000000000000       0.75000000000000000        0.0000000000000000     
  0.93750000000000000       0.75000000000000000        0.0000000000000000     
   1.0937500000000002       0.74999999999999989        0.0000000000000000     
   1.2500000000000000       0.75000000000000000        0.0000000000000000     
   0.0000000000000000       0.81250000000000000        0.0000000000000000     
  0.15625000000000000       0.81250000000000022        0.0000000000000000     
  0.31250000000000000       0.81250000000000000        0.0000000000000000     
  0.46875000000000000       0.81250000000000000        0.0000000000000000     
  0.62500000000000011       0.81250000000000022        0.0000000000000000     
  0.78125000000000000       0.81250000000000000        0.0000000000000000     
  0.93750000000000011       0.81250000000000000        0.0000000000000000     
   1.0937500000000002       0.81250000000000011        0.0000000000000000     
   1.2500000000000000       0.81250000000000000        0.0000000000000000     
   0.0000000000000000       0.87500000000000011        0.0000000000000000     
  0.15625000000000006       0.87500000000000000        0.0000000000000000     
  0.31250000000000000       0.87500000000000022        0.0000000000000000     
  0.46875000000000000       0.87500000000000000        0.0000000000000000     
  0.62500000000000022       0.87499999999999989        0.0000000000000000     
  0.78125000000000022       0.87500000000000033        0.0000000000000000     
  0.93750000000000011       0.87500000000000011        0.0000000000000000     
   1.0937499999999998       0.87500000000000011        0.0000000000000000     
   1.2500000000000002       0.87500000000000011        0.0000000000000000     
   0.0000000000000000       0.93749999999999989        0.0000000000000000     
  0.15624999999999997       0.93750000000000000        0.0000000000000000     
  0.31249999999999994       0.93749999999999989        0.0000000000000000     
  0.46874999999999994       0.93750000000000000        0.0000000000000000     
  0.62500000000000000       0.93750000000000000        0.0000000000000000     
  0.78125000000000000       0.93749999999999989        0.0000000000000000     
  0.93750000000000000       0.93750000000000000        0.0000000000000000     
   1.0937500000000004       0.93750000000000000        0.0000000000000000     
   1.2500000000000000       0.93749999999999989        0.0000000000000000     
   0.0000000000000000        1.0000000000000002        0.0000000000000000     
  0.15624999999999997        1.0000000000000002        0.0000000000000000     
  0.31250000000000000        1.0000000000000000        0.0000000000000000     
  0.46875000000000000        1.0000000000000000        0.0000000000000000     
  0.62499999999999989        1.0000000000000002        0.0000000000000000     
  0.78125000000000000        1.0000000000000000        0.0000000000000000     
  0.93750000000000022        1.0000000000000000        0.0000000000000000     
   1.0937500000000002        1.0000000000000002        0.0000000000000000     
   1.2500000000000002        1.0000000000000002        0.0000000000000000     
   1.2500000000000000       0.50000000000000011        0.0000000000000000     
   1.4062500000000000       0.50000000000000011        0.0000000000000000     
   1.5625000000000004       0.50000000000000011        0.0000000000000000     
   1.7187500000000000       0.50000000000000000        0.0000000000000000     
   1.8750000000000000       0.50000000000000000        0.0000000000000000     
   2.0312500000000000       0.50000000000000000        0.0000000000000000     
   2.1875000000000004       0.50000000000000000        0.0000000000000000     
   2.3437500000000004       0.50000000000000011        0.0000000000000000     
   2.5000000000000004       0.50000000000000011        0.0000000000000000     
   1.2500000000000000       0.56250000000000000        0.0000000000000000     
   1.4062500000000000       0.56249999999999989        0.0000000000000000     
   1.5625000000000000       0.56250000000000000        0.0000000000000000     
   1.7187499999999998       0.56250000000000000        0.0000000000000000     
   1.8750000000000000       0.56249999999999989        0.0000000000000000     
   2.0312500000000000       0.56250000000000000        0.0000000000000000     
   2.1875000000000000       0.56250000000000000        0.0000000000000000     
   2.3437500000000000       0.56249999999999989        0.0000000000000000     
   2.5000000000000000       0.56250000000000000        0.0000000000000000     
   1.2500000000000000       0.62500000000000000        0.0000000000000000     
   1.4062500000000000       0.62500000000000011        0.0000000000000000     
   1.5625000000000000       0.62500000000000000        0.0000000000000000     
   1.7187500000000000       0.62500000000000000        0.0000000000000000     
   1.8750000000000000       0.62500000000000011        0.0000000000000000     
   2.0312500000000000       0.62500000000000000        0.0000000000000000     
   2.1875000000000000       0.62500000000000000        0.0000000000000000     
   2.3437500000000004       0.62500000000000011        0.0000000000000000     
   2.5000000000000004       0.62500000000000000        0.0000000000000000     
   1.2500000000000000       0.68750000000000000        0.0000000000000000     
   1.4062500000000000       0.68750000000000000        0.0000000000000000     
   1.5625000000000004       0.68750000000000011        0.0000000000000000     
   1.7187500000000000       0.68750000000000000        0.0000000000000000     
   1.8750000000000000       0.68750000000000011        0.0000000000000000     
   2.0312500000000000       0.68750000000000000        0.0000000000000000     
   2.1875000000000000       0.68750000000000000        0.0000000000000000     
   2.3437500000000000       0.68750000000000000        0.0000000000000000     
   2.5000000000000000       0.68750000000000000        0.0000000000000000     
   1.2500000000000000       0.75000000000000000        0.0000000000000000     
   1.4062500000000000       0.74999999999999989        0.0000000000000000     
   1.5624999999999998       0.74999999999999989        0.0000000000000000     
   1.7187499999999998       0.75000000000000000        0.0000000000000000     
   1.8750000000000000       0.74999999999999978        0.0000000000000000     
   2.0312500000000000       0.75000000000000000        0.0000000000000000     
   2.1874999999999996       0.75000000000000000        0.0000000000000000     
   2.3437500000000000       0.74999999999999989        0.0000000000000000     
   2.5000000000000000       0.75000000000000000        0.0000000000000000     
   1.2500000000000000       0.81250000000000000        0.0000000000000000     
   1.4062500000000000       0.81250000000000022        0.0000000000000000     
   1.5625000000000000       0.81250000000000000        0.0000000000000000     
   1.7187500000000000       0.81250000000000000        0.0000000000000000     
   1.8750000000000000       0.81250000000000022        0.0000000000000000     
   2.0312500000000004       0.81250000000000000        0.0000000000000000     
   2.1875000000000000       0.81250000000000000        0.0000000000000000     
   2.3437500000000000       0.81250000000000011        0.0000000000000000     
   2.5000000000000004       0.81250000000000000        0.0000000000000000     
   1.2500000000000002       0.87500000000000011        0.0000000000000000     
   1.4062500000000002       0.87500000000000000        0.0000000000000000     
   1.5625000000000004       0.87500000000000022        0.0000000000000000     
   1.7187500000000000       0.87500000000000000        0.0000000000000000     
   1.8750000000000000       0.87499999999999989        0.0000000000000000     
   2.0312500000000004       0.87500000000000033        0.0000000000000000     
   2.1875000000000000       0.87500000000000011        0.0000000000000000     
   2.3437500000000004       0.87500000000000011        0.0000000000000000     
   2.5000000000000004       0.87500000000000011        0.0000000000000000     
   1.2500000000000000       0.93749999999999989        0.0000000000000000     
   1.4062500000000000       0.93750000000000000        0.0000000000000000     
   1.5625000000000000       0.93749999999999989        0.0000000000000000     
   1.7187499999999998       0.93750000000000000        0.0000000000000000     
   1.8750000000000002       0.93750000000000000        0.0000000000000000     
   2.0312500000000000       0.93749999999999989        0.0000000000000000     
   2.1875000000000000       0.93750000000000000        0.0000000000000000     
   2.3437500000000004       0.93750000000000000        0.0000000000000000     
   2.5000000000000000       0.93749999999999989        0.0000000000000000     
   1.2500000000000002        1.0000000000000002        0.0000000000000000     
   1.4062499999999998        1.0000000000000002        0.0000000000000000     
   1.5625000000000004        1.0000000000000000        0.0000000000000000     
   1.7187500000000000        1.0000000000000000        0.0000000000000000     
   1.8750000000000000        1.0000000000000002        0.0000000000000000     
   2.0312500000000004        1.0000000000000000        0.0000000000000000     
   2.1875000000000004        1.0000000000000000        0.0000000000000000     
   2.3437500000000004        1.0000000000000002        0.0000000000000000     
   2.5000000000000004        1.0000000000000002        0.0000000000000000     
   2.5000000000000004       0.50000000000000011        0.0000000000000000     
   2.6562500000000004       0.50000000000000011        0.0000000000000000     
   2.8125000000000000       0.50000000000000000        0.0000000000000000     
   2.9687500000000004       0.50000000000000000        0.0000000000000000     
   3.1249999999999996       0.50000000000000000        0.0000000000000000     
   3.2812500000000000       0.50000000000000000        0.0000000000000000     
   3.4375000000000000       0.50000000000000000        0.0000000000000000     
   3.5937500000000000       0.50000000000000000        0.0000000000000000     
   3.7500000000000009       0.50000000000000011        0.0000000000000000     
   2.5000000000000000       0.56250000000000000        0.0000000000000000     
   2.6562500000000004       0.56249999999999989        0.0000000000000000     
   2.8125000000000000       0.56250000000000000        0.0000000000000000     
   2.9687499999999996       0.56250000000000000        0.0000000000000000     
   3.1250000000000004       0.56249999999999989        0.0000000000000000     
   3.2812500000000000       0.56250000000000011        0.0000000000000000     
   3.4375000000000000       0.56250000000000000        0.0000000000000000     
   3.5937500000000004       0.56249999999999989        0.0000000000000000     
   3.7500000000000000       0.56250000000000011        0.0000000000000000     
   2.5000000000000004       0.62500000000000000        0.0000000000000000     
   2.6562500000000000       0.62500000000000011        0.0000000000000000     
   2.8125000000000000       0.62500000000000000        0.0000000000000000     
   2.9687500000000000       0.62500000000000000        0.0000000000000000     
   3.1250000000000000       0.62500000000000011        0.0000000000000000     
   3.2812500000000000       0.62500000000000000        0.0000000000000000     
   3.4375000000000000       0.62500000000000000        0.0000000000000000     
   3.5937500000000004       0.62500000000000011        0.0000000000000000     
   3.7500000000000000       0.62500000000000000        0.0000000000000000     
   2.5000000000000000       0.68750000000000000        0.0000000000000000     
   2.6562499999999996       0.68750000000000000        0.0000000000000000     
   2.8125000000000000       0.68750000000000000        0.0000000000000000     
   2.9687500000000000       0.68750000000000000        0.0000000000000000     
   3.1250000000000000       0.68750000000000000        0.0000000000000000     
   3.2812500000000000       0.68750000000000000        0.0000000000000000     
   3.4375000000000000       0.68750000000000000        0.0000000000000000     
   3.5937500000000000       0.68750000000000000        0.0000000000000000     
   3.7500000000000000       0.68750000000000000        0.0000000000000000     
   2.5000000000000000       0.75000000000000000        0.0000000000000000     
   2.6562500000000009       0.75000000000000000        0.0000000000000000     
   2.8125000000000000       0.75000000000000011        0.0000000000000000     
   2.9687499999999996       0.75000000000000000        0.0000000000000000     
   3.1250000000000009       0.75000000000000000        0.0000000000000000     
   3.2812500000000004       0.75000000000000011        0.0000000000000000     
   3.4374999999999996       0.75000000000000000        0.0000000000000000     
   3.5937500000000013       0.74999999999999989        0.0000000000000000     
   3.7500000000000000       0.75000000000000011        0.0000000000000000     
   2.5000000000000004       0.81250000000000000        0.0000000000000000     
   2.6562500000000000       0.81250000000000011        0.0000000000000000     
   2.8125000000000000       0.81250000000000022        0.0000000000000000     
   2.9687500000000000       0.81250000000000000        0.0000000000000000     
   3.1250000000000000       0.81250000000000011        0.0000000000000000     
   3.2812500000000000       0.81250000000000011        0.0000000000000000     
   3.4375000000000000       0.81250000000000000        0.0000000000000000     
   3.5937500000000000       0.81250000000000000        0.0000000000000000     
   3.7500000000000004       0.81250000000000011        0.0000000000000000     
   2.5000000000000004       0.87500000000000011        0.0000000000000000     
   2.6562500000000000       0.87500000000000011        0.0000000000000000     
   2.8124999999999996       0.87499999999999989        0.0000000000000000     
   2.9687500000000004       0.87500000000000000        0.0000000000000000     
   3.1250000000000000       0.87500000000000011        0.0000000000000000     
   3.2812500000000000       0.87499999999999989        0.0000000000000000     
   3.4375000000000004       0.87500000000000011        0.0000000000000000     
   3.5937500000000000       0.87500000000000022        0.0000000000000000     
   3.7500000000000000       0.87499999999999989        0.0000000000000000     
   2.5000000000000000       0.93749999999999989        0.0000000000000000     
   2.6562500000000009       0.93750000000000000        0.0000000000000000     
   2.8125000000000000       0.93750000000000011        0.0000000000000000     
   2.9687499999999996       0.93750000000000000        0.0000000000000000     
   3.1250000000000009       0.93750000000000000        0.0000000000000000     
   3.2812500000000000       0.93750000000000011        0.0000000000000000     
   3.4375000000000000       0.93749999999999989        0.0000000000000000     
   3.5937500000000013       0.93750000000000000        0.0000000000000000     
   3.7499999999999996       0.93749999999999989        0.0000000000000000     
   2.5000000000000004        1.0000000000000002        0.0000000000000000     
   2.6562500000000004        1.0000000000000000        0.0000000000000000     
   2.8125000000000004        1.0000000000000002        0.0000000000000000     
   2.9687500000000000        1.0000000000000000        0.0000000000000000     
   3.1250000000000000        1.0000000000000000        0.0000000000000000     
   3.2812500000000004        1.0000000000000002        0.0000000000000000     
   3.4375000000000009        1.0000000000000000        0.0000000000000000     
   3.5937500000000004        1.0000000000000000        0.0000000000000000     
   3.7500000000000004        1.0000000000000002        0.0000000000000000     
   3.7500000000000009       0.50000000000000011        0.0000000000000000     
   3.9062500000000004       0.50000000000000000        0.0000000000000000     
   4.0625000000000000       0.50000000000000000        0.0000000000000000     
   4.2187500000000009       0.50000000000000011        0.0000000000000000     
   4.3750000000000000       0.50000000000000000        0.0000000000000000     
   4.5312500000000000       0.50000000000000011        0.0000000000000000     
   4.6875000000000009       0.50000000000000011        0.0000000000000000     
   4.8437500000000009       0.50000000000000000        0.0000000000000000     
   5.0000000000000009       0.50000000000000000        0.0000000000000000     
   3.7500000000000000       0.56250000000000011        0.0000000000000000     
   3.9062500000000000       0.56249999999999989        0.0000000000000000     
   4.0625000000000000       0.56250000000000000        0.0000000000000000     
   4.2187500000000000       0.56250000000000000        0.0000000000000000     
   4.3750000000000009       0.56250000000000000        0.0000000000000000     
   4.5312500000000000       0.56250000000000000        0.0000000000000000     
   4.6875000000000000       0.56250000000000000        0.0000000000000000     
   4.8437500000000000       0.56249999999999989        0.0000000000000000     
   5.0000000000000000       0.56250000000000000        0.0000000000000000     
   3.7500000000000000       0.62500000000000000        0.0000000000000000     
   3.9062500000000000       0.62500000000000011        0.0000000000000000     
   4.0625000000000000       0.62500000000000000        0.0000000000000000     
   4.2187500000000009       0.62500000000000000        0.0000000000000000     
   4.3750000000000009       0.62500000000000022        0.0000000000000000     
   4.5312500000000000       0.62500000000000000        0.0000000000000000     
   4.6875000000000000       0.62500000000000000        0.0000000000000000     
   4.8437500000000009       0.62500000000000011        0.0000000000000000     
   4.9999999999999991       0.62500000000000000        0.0000000000000000     
   3.7500000000000000       0.68750000000000000        0.0000000000000000     
   3.9062500000000000       0.68750000000000000        0.0000000000000000     
   4.0625000000000009       0.68749999999999989        0.0000000000000000     
   4.2187500000000009       0.68750000000000011        0.0000000000000000     
   4.3750000000000009       0.68750000000000000        0.0000000000000000     
   4.5312500000000000       0.68750000000000000        0.0000000000000000     
   4.6875000000000000       0.68750000000000000        0.0000000000000000     
   4.8437500000000009       0.68750000000000022        0.0000000000000000     
   5.0000000000000009       0.68750000000000011        0.0000000000000000     
   3.7500000000000000       0.75000000000000011        0.0000000000000000     
   3.9062500000000000       0.75000000000000000        0.0000000000000000     
   4.0625000000000009       0.75000000000000011        0.0000000000000000     
   4.2187500000000000       0.75000000000000011        0.0000000000000000     
   4.3750000000000000       0.74999999999999978        0.0000000000000000     
   4.5312500000000000       0.75000000000000000        0.0000000000000000     
   4.6875000000000000       0.75000000000000000        0.0000000000000000     
   4.8437500000000009       0.74999999999999989        0.0000000000000000     
   5.0000000000000000       0.75000000000000000        0.0000000000000000     
   3.7500000000000004       0.81250000000000011        0.0000000000000000     
   3.9062500000000013       0.81250000000000022        0.0000000000000000     
   4.0625000000000009       0.81250000000000011        0.0000000000000000     
   4.2187500000000000       0.81250000000000011        0.0000000000000000     
   4.3750000000000000       0.81249999999999989        0.0000000000000000     
   4.5312500000000009       0.81250000000000011        0.0000000000000000     
   4.6875000000000009       0.81250000000000011        0.0000000000000000     
   4.8437500000000000       0.81250000000000011        0.0000000000000000     
   5.0000000000000009       0.81250000000000011        0.0000000000000000     
   3.7500000000000000       0.87499999999999989        0.0000000000000000     
   3.9062500000000009       0.87500000000000011        0.0000000000000000     
   4.0625000000000000       0.87499999999999989        0.0000000000000000     
   4.2187500000000000       0.87500000000000011        0.0000000000000000     
   4.3750000000000018       0.87500000000000022        0.0000000000000000     
   4.5312500000000000       0.87499999999999978        0.0000000000000000     
   4.6875000000000009       0.87500000000000000        0.0000000000000000     
   4.8437500000000000       0.87500000000000033        0.0000000000000000     
   5.0000000000000000       0.87499999999999989        0.0000000000000000     
   3.7499999999999996       0.93749999999999989        0.0000000000000000     
   3.9062500000000004       0.93750000000000000        0.0000000000000000     
   4.0625000000000000       0.93750000000000000        0.0000000000000000     
   4.2187500000000000       0.93749999999999989        0.0000000000000000     
   4.3750000000000009       0.93750000000000000        0.0000000000000000     
   4.5312500000000000       0.93749999999999989        0.0000000000000000     
   4.6875000000000009       0.93750000000000011        0.0000000000000000     
   4.8437500000000009       0.93750000000000011        0.0000000000000000     
   5.0000000000000000       0.93750000000000000        0.0000000000000000     
   3.7500000000000004        1.0000000000000002        0.0000000000000000     
   3.9062500000000000       0.99999999999999978        0.0000000000000000     
   4.0625000000000009        1.0000000000000002        0.0000000000000000     
   4.2187500000000000        1.0000000000000002        0.0000000000000000     
   4.3750000000000009        1.0000000000000000        0.0000000000000000     
   4.5312500000000009        1.0000000000000002        0.0000000000000000     
   4.6875000000000009        1.0000000000000002        0.0000000000000000     
   4.8437500000000000       0.99999999999999978        0.0000000000000000     
   5.0000000000000018        1.0000000000000000        0.0000000000000000     
  -5.0000000000000018        1.0000000000000000        0.0000000000000000     
  -4.8437500000000000       0.99999999999999978        0.0000000000000000     
  -4.6875000000000000        1.0000000000000002        0.0000000000000000     
  -4.5312500000000009        1.0000000000000002        0.0000000000000000     
  -4.3750000000000009        1.0000000000000000        0.0000000000000000     
  -4.2187500000000000        1.0000000000000002        0.0000000000000000     
  -4.0625000000000009        1.0000000000000000        0.0000000000000000     
  -3.9062499999999996        1.0000000000000000        0.0000000000000000     
  -3.7500000000000009        1.0000000000000000        0.0000000000000000     
  -5.0000000000000000        1.0625000000000000        0.0000000000000000     
  -4.8437500000000009        1.0625000000000000        0.0000000000000000     
  -4.6875000000000000        1.0625000000000002        0.0000000000000000     
  -4.5312500000000000        1.0625000000000000        0.0000000000000000     
  -4.3750000000000009        1.0625000000000000        0.0000000000000000     
  -4.2187500000000000        1.0625000000000002        0.0000000000000000     
  -4.0625000000000009        1.0625000000000000        0.0000000000000000     
  -3.9062500000000013        1.0624999999999998        0.0000000000000000     
  -3.7500000000000000        1.0625000000000002        0.0000000000000000     
  -5.0000000000000000        1.1250000000000000        0.0000000000000000     
  -4.8437500000000000        1.1250000000000000        0.0000000000000000     
  -4.6875000000000000        1.1250000000000000        0.0000000000000000     
  -4.5312500000000000        1.1250000000000000        0.0000000000000000     
  -4.3750000000000009        1.1250000000000000        0.0000000000000000     
  -4.2187500000000009        1.1250000000000000        0.0000000000000000     
  -4.0625000000000009        1.1250000000000002        0.0000000000000000     
  -3.9062499999999996        1.1250000000000000        0.0000000000000000     
  -3.7500000000000000        1.1250000000000000        0.0000000000000000     
  -5.0000000000000009        1.1875000000000002        0.0000000000000000     
  -4.8437500000000000        1.1875000000000000        0.0000000000000000     
  -4.6875000000000000        1.1875000000000000        0.0000000000000000     
  -4.5312500000000009        1.1875000000000000        0.0000000000000000     
  -4.3750000000000009        1.1875000000000000        0.0000000000000000     
  -4.2187500000000009        1.1875000000000000        0.0000000000000000     
  -4.0625000000000009        1.1875000000000000        0.0000000000000000     
  -3.9062499999999996        1.1875000000000000        0.0000000000000000     
  -3.7500000000000009        1.1875000000000000        0.0000000000000000     
  -5.0000000000000000        1.2500000000000000        0.0000000000000000     
  -4.8437500000000009        1.2500000000000000        0.0000000000000000     
  -4.6875000000000000        1.2500000000000000        0.0000000000000000     
  -4.5312500000000000        1.2500000000000000        0.0000000000000000     
  -4.3750000000000018        1.2500000000000000        0.0000000000000000     
  -4.2187500000000000        1.2500000000000002        0.0000000000000000     
  -4.0625000000000009        1.2500000000000000        0.0000000000000000     
  -3.9062500000000009        1.2500000000000000        0.0000000000000000     
  -3.7499999999999991        1.2500000000000002        0.0000000000000000     
  -5.0000000000000009        1.3125000000000000        0.0000000000000000     
  -4.8437500000000000        1.3125000000000000        0.0000000000000000     
  -4.6875000000000000        1.3125000000000002        0.0000000000000000     
  -4.5312500000000000        1.3125000000000000        0.0000000000000000     
  -4.3750000000000000        1.3124999999999998        0.0000000000000000     
  -4.2187500000000009        1.3125000000000002        0.0000000000000000     
  -4.0625000000000000        1.3125000000000002        0.0000000000000000     
  -3.9062500000000013        1.3125000000000000        0.0000000000000000     
  -3.7500000000000004        1.3125000000000000        0.0000000000000000     
  -5.0000000000000009        1.3750000000000002        0.0000000000000000     
  -4.8437500000000009        1.3750000000000004        0.0000000000000000     
  -4.6875000000000009        1.3750000000000000        0.0000000000000000     
  -4.5312500000000000        1.3750000000000002        0.0000000000000000     
  -4.3750000000000009        1.3750000000000000        0.0000000000000000     
  -4.2187500000000009        1.3750000000000002        0.0000000000000000     
  -4.0625000000000000        1.3750000000000002        0.0000000000000000     
  -3.9062499999999991        1.3750000000000000        0.0000000000000000     
  -3.7500000000000000        1.3750000000000000        0.0000000000000000     
  -5.0000000000000000        1.4375000000000000        0.0000000000000000     
  -4.8437500000000009        1.4375000000000000        0.0000000000000000     
  -4.6875000000000000        1.4375000000000000        0.0000000000000000     
  -4.5312500000000000        1.4375000000000000        0.0000000000000000     
  -4.3750000000000009        1.4375000000000000        0.0000000000000000     
  -4.2187500000000000        1.4374999999999998        0.0000000000000000     
  -4.0625000000000000        1.4375000000000000        0.0000000000000000     
  -3.9062500000000018        1.4375000000000000        0.0000000000000000     
  -3.7499999999999991        1.4375000000000000        0.0000000000000000     
  -5.0000000000000000        1.5000000000000002        0.0000000000000000     
  -4.8437500000000000        1.4999999999999998        0.0000000000000000     
  -4.6875000000000000        1.5000000000000002        0.0000000000000000     
  -4.5312500000000009        1.5000000000000002        0.0000000000000000     
  -4.3750000000000000        1.5000000000000000        0.0000000000000000     
  -4.2187500000000009        1.5000000000000002        0.0000000000000000     
  -4.0625000000000000        1.5000000000000002        0.0000000000000000     
  -3.9062499999999996        1.4999999999999996        0.0000000000000000     
  -3.7500000000000013        1.5000000000000002        0.0000000000000000     
  -3.7500000000000009        1.0000000000000000        0.0000000000000000     
  -3.5937500000000004        1.0000000000000002        0.0000000000000000     
  -3.4375000000000009        1.0000000000000000        0.0000000000000000     
  -3.2812500000000000        1.0000000000000000        0.0000000000000000     
  -3.1249999999999996        1.0000000000000000        0.0000000000000000     
  -2.9687500000000000        1.0000000000000000        0.0000000000000000     
  -2.8125000000000009        1.0000000000000000        0.0000000000000000     
  -2.6562499999999996        1.0000000000000000        0.0000000000000000     
  -2.5000000000000004        1.0000000000000002        0.0000000000000000     
  -3.7500000000000000        1.0625000000000002        0.0000000000000000     
  -3.5937500000000009        1.0625000000000000        0.0000000000000000     
  -3.4375000000000004        1.0625000000000002        0.0000000000000000     
  -3.2812499999999991        1.0625000000000002        0.0000000000000000     
  -3.1250000000000009        1.0625000000000000        0.0000000000000000     
  -2.9687500000000000        1.0625000000000002        0.0000000000000000     
  -2.8125000000000000        1.0625000000000002        0.0000000000000000     
  -2.6562500000000009        1.0625000000000000        0.0000000000000000     
  -2.5000000000000000        1.0625000000000000        0.0000000000000000     
  -3.7500000000000000        1.1250000000000000        0.0000000000000000     
  -3.5937500000000009        1.1250000000000000        0.0000000000000000     
  -3.4375000000000000        1.1249999999999998        0.0000000000000000     
  -3.2812500000000009        1.1250000000000004        0.0000000000000000     
  -3.1250000000000000        1.1250000000000000        0.0000000000000000     
  -2.9687500000000000        1.1250000000000000        0.0000000000000000     
  -2.8125000000000004        1.1250000000000002        0.0000000000000000     
  -2.6562500000000004        1.1250000000000000        0.0000000000000000     
  -2.5000000000000000        1.1250000000000000        0.0000000000000000     
  -3.7500000000000009        1.1875000000000000        0.0000000000000000     
  -3.5937499999999996        1.1875000000000000        0.0000000000000000     
  -3.4375000000000000        1.1875000000000000        0.0000000000000000     
  -3.2812500000000000        1.1875000000000000        0.0000000000000000     
  -3.1249999999999996        1.1874999999999998        0.0000000000000000     
  -2.9687500000000000        1.1875000000000000        0.0000000000000000     
  -2.8125000000000004        1.1875000000000000        0.0000000000000000     
  -2.6562499999999996        1.1874999999999998        0.0000000000000000     
  -2.4999999999999996        1.1874999999999998        0.0000000000000000     
  -3.7499999999999991        1.2500000000000002        0.0000000000000000     
  -3.5937500000000013        1.2500000000000000        0.0000000000000000     
  -3.4375000000000004        1.2500000000000002        0.0000000000000000     
  -3.2812499999999996        1.2500000000000002        0.0000000000000000     
  -3.1250000000000009        1.2500000000000000        0.0000000000000000     
  -2.9687500000000004        1.2500000000000002        0.0000000000000000     
  -2.8125000000000000        1.2500000000000002        0.0000000000000000     
  -2.6562500000000004        1.2500000000000000        0.0000000000000000     
  -2.5000000000000000        1.2500000000000000        0.0000000000000000     
  -3.7500000000000004        1.3125000000000000        0.0000000000000000     
  -3.5937499999999996        1.3125000000000000        0.0000000000000000     
  -3.4375000000000000        1.3125000000000000        0.0000000000000000     
  -3.2812500000000000        1.3125000000000000        0.0000000000000000     
  -3.1250000000000000        1.3125000000000000        0.0000000000000000     
  -2.9687500000000000        1.3125000000000000        0.0000000000000000     
  -2.8125000000000004        1.3125000000000002        0.0000000000000000     
  -2.6562500000000000        1.3125000000000000        0.0000000000000000     
  -2.5000000000000000        1.3125000000000000        0.0000000000000000     
  -3.7500000000000000        1.3750000000000000        0.0000000000000000     
  -3.5937500000000004        1.3750000000000002        0.0000000000000000     
  -3.4375000000000000        1.3750000000000000        0.0000000000000000     
  -3.2812500000000009        1.3750000000000000        0.0000000000000000     
  -3.1249999999999996        1.3750000000000000        0.0000000000000000     
  -2.9687500000000000        1.3750000000000000        0.0000000000000000     
  -2.8125000000000004        1.3750000000000000        0.0000000000000000     
  -2.6562499999999996        1.3749999999999998        0.0000000000000000     
  -2.4999999999999996        1.3749999999999998        0.0000000000000000     
  -3.7499999999999991        1.4375000000000000        0.0000000000000000     
  -3.5937500000000009        1.4375000000000000        0.0000000000000000     
  -3.4375000000000000        1.4375000000000000        0.0000000000000000     
  -3.2812499999999991        1.4375000000000000        0.0000000000000000     
  -3.1250000000000009        1.4375000000000000        0.0000000000000000     
  -2.9687500000000000        1.4375000000000000        0.0000000000000000     
  -2.8124999999999996        1.4375000000000002        0.0000000000000000     
  -2.6562500000000009        1.4375000000000000        0.0000000000000000     
  -2.5000000000000000        1.4375000000000000        0.0000000000000000     
  -3.7500000000000013        1.5000000000000002        0.0000000000000000     
  -3.5937500000000000        1.5000000000000002        0.0000000000000000     
  -3.4375000000000000        1.5000000000000000        0.0000000000000000     
  -3.2812500000000004        1.5000000000000002        0.0000000000000000     
  -3.1250000000000000        1.5000000000000002        0.0000000000000000     
  -2.9687500000000000        1.5000000000000000        0.0000000000000000     
  -2.8125000000000004        1.4999999999999998        0.0000000000000000     
  -2.6562500000000000        1.5000000000000002        0.0000000000000000     
  -2.5000000000000000        1.5000000000000000        0.0000000000000000     
  -2.5000000000000004        1.0000000000000002        0.0000000000000000     
  -2.3437500000000004        1.0000000000000002        0.0000000000000000     
  -2.1875000000000004        1.0000000000000000        0.0000000000000000     
  -2.0312500000000000        1.0000000000000000        0.0000000000000000     
  -1.8749999999999998        1.0000000000000002        0.0000000000000000     
  -1.7187500000000000        1.0000000000000000        0.0000000000000000     
  -1.5625000000000002        1.0000000000000000        0.0000000000000000     
  -1.4062499999999998        1.0000000000000002        0.0000000000000000     
  -1.2500000000000002        1.0000000000000002        0.0000000000000000     
  -2.5000000000000000        1.0625000000000000        0.0000000000000000     
  -2.3437500000000004        1.0625000000000000        0.0000000000000000     
  -2.1875000000000000        1.0625000000000002        0.0000000000000000     
  -2.0312500000000000        1.0625000000000002        0.0000000000000000     
  -1.8750000000000004        1.0625000000000000        0.0000000000000000     
  -1.7187500000000002        1.0625000000000002        0.0000000000000000     
  -1.5625000000000000        1.0625000000000002        0.0000000000000000     
  -1.4062500000000004        1.0625000000000000        0.0000000000000000     
  -1.2500000000000002        1.0625000000000000        0.0000000000000000     
  -2.5000000000000000        1.1250000000000000        0.0000000000000000     
  -2.3437500000000004        1.1250000000000002        0.0000000000000000     
  -2.1875000000000000        1.1249999999999998        0.0000000000000000     
  -2.0312500000000004        1.1250000000000000        0.0000000000000000     
  -1.8749999999999998        1.1250000000000002        0.0000000000000000     
  -1.7187500000000000        1.1250000000000000        0.0000000000000000     
  -1.5625000000000002        1.1250000000000000        0.0000000000000000     
  -1.4062500000000002        1.1250000000000002        0.0000000000000000     
  -1.2500000000000002        1.1250000000000000        0.0000000000000000     
  -2.4999999999999996        1.1874999999999998        0.0000000000000000     
  -2.3437500000000004        1.1875000000000000        0.0000000000000000     
  -2.1875000000000000        1.1875000000000000        0.0000000000000000     
  -2.0312500000000000        1.1874999999999998        0.0000000000000000     
  -1.8750000000000002        1.1875000000000002        0.0000000000000000     
  -1.7187499999999998        1.1875000000000000        0.0000000000000000     
  -1.5625000000000000        1.1874999999999998        0.0000000000000000     
  -1.4062500000000000        1.1875000000000002        0.0000000000000000     
  -1.2499999999999998        1.1874999999999998        0.0000000000000000     
  -2.5000000000000000        1.2500000000000000        0.0000000000000000     
  -2.3437500000000004        1.2500000000000000        0.0000000000000000     
  -2.1875000000000000        1.2500000000000002        0.0000000000000000     
  -2.0312500000000004        1.2500000000000002        0.0000000000000000     
  -1.8750000000000004        1.2499999999999998        0.0000000000000000     
  -1.7187500000000002        1.2500000000000002        0.0000000000000000     
  -1.5625000000000000        1.2500000000000002        0.0000000000000000     
  -1.4062500000000004        1.2499999999999998        0.0000000000000000     
  -1.2500000000000000        1.2500000000000000        0.0000000000000000     
  -2.5000000000000000        1.3125000000000000        0.0000000000000000     
  -2.3437500000000004        1.3125000000000002        0.0000000000000000     
  -2.1875000000000000        1.3125000000000000        0.0000000000000000     
  -2.0312499999999996        1.3125000000000000        0.0000000000000000     
  -1.8750000000000002        1.3125000000000002        0.0000000000000000     
  -1.7187500000000000        1.3125000000000000        0.0000000000000000     
  -1.5625000000000002        1.3125000000000000        0.0000000000000000     
  -1.4062500000000000        1.3125000000000002        0.0000000000000000     
  -1.2500000000000000        1.3125000000000000        0.0000000000000000     
  -2.4999999999999996        1.3749999999999998        0.0000000000000000     
  -2.3437500000000004        1.3750000000000002        0.0000000000000000     
  -2.1875000000000004        1.3750000000000000        0.0000000000000000     
  -2.0312499999999996        1.3750000000000000        0.0000000000000000     
  -1.8749999999999998        1.3749999999999998        0.0000000000000000     
  -1.7187499999999998        1.3750000000000000        0.0000000000000000     
  -1.5625000000000000        1.3750000000000000        0.0000000000000000     
  -1.4062500000000000        1.3750000000000000        0.0000000000000000     
  -1.2499999999999998        1.3749999999999998        0.0000000000000000     
  -2.5000000000000000        1.4375000000000000        0.0000000000000000     
  -2.3437500000000004        1.4375000000000000        0.0000000000000000     
  -2.1875000000000000        1.4375000000000000        0.0000000000000000     
  -2.0312500000000000        1.4375000000000000        0.0000000000000000     
  -1.8750000000000004        1.4375000000000000        0.0000000000000000     
  -1.7187500000000000        1.4375000000000000        0.0000000000000000     
  -1.5625000000000000        1.4375000000000000        0.0000000000000000     
  -1.4062500000000004        1.4375000000000000        0.0000000000000000     
  -1.2500000000000000        1.4375000000000000        0.0000000000000000     
  -2.5000000000000000        1.5000000000000000        0.0000000000000000     
  -2.3437500000000004        1.5000000000000007        0.0000000000000000     
  -2.1875000000000000        1.5000000000000000        0.0000000000000000     
  -2.0312500000000000        1.4999999999999998        0.0000000000000000     
  -1.8750000000000002        1.5000000000000007        0.0000000000000000     
  -1.7187500000000000        1.5000000000000000        0.0000000000000000     
  -1.5625000000000002        1.4999999999999996        0.0000000000000000     
  -1.4062500000000000        1.5000000000000004        0.0000000000000000     
  -1.2500000000000000        1.5000000000000000        0.0000000000000000     
  -1.2500000000000002        1.0000000000000002        0.0000000000000000     
  -1.0937500000000002        1.0000000000000002        0.0000000000000000     
 -0.93750000000000011        1.0000000000000000        0.0000000000000000     
 -0.78125000000000000        1.0000000000000000        0.0000000000000000     
 -0.62500000000000000        1.0000000000000002        0.0000000000000000     
 -0.46875000000000000        1.0000000000000000        0.0000000000000000     
 -0.31250000000000000        1.0000000000000000        0.0000000000000000     
 -0.15624999999999997        1.0000000000000002        0.0000000000000000     
   0.0000000000000000        1.0000000000000002        0.0000000000000000     
  -1.2500000000000002        1.0625000000000000        0.0000000000000000     
  -1.0937500000000002        1.0625000000000000        0.0000000000000000     
 -0.93750000000000011        1.0625000000000002        0.0000000000000000     
 -0.78125000000000011        1.0625000000000002        0.0000000000000000     
 -0.62500000000000011        1.0625000000000000        0.0000000000000000     
 -0.46875000000000000        1.0625000000000002        0.0000000000000000     
 -0.31250000000000006        1.0625000000000002        0.0000000000000000     
 -0.15625000000000000        1.0625000000000000        0.0000000000000000     
   0.0000000000000000        1.0625000000000000        0.0000000000000000     
  -1.2500000000000002        1.1250000000000000        0.0000000000000000     
  -1.0937500000000002        1.1250000000000002        0.0000000000000000     
 -0.93750000000000000        1.1249999999999998        0.0000000000000000     
 -0.78125000000000000        1.1250000000000000        0.0000000000000000     
 -0.62500000000000000        1.1250000000000002        0.0000000000000000     
 -0.46875000000000000        1.1250000000000000        0.0000000000000000     
 -0.31250000000000000        1.1250000000000000        0.0000000000000000     
 -0.15625000000000003        1.1250000000000002        0.0000000000000000     
   0.0000000000000000        1.1250000000000000        0.0000000000000000     
  -1.2499999999999998        1.1874999999999998        0.0000000000000000     
  -1.0937500000000002        1.1875000000000000        0.0000000000000000     
 -0.93750000000000000        1.1875000000000000        0.0000000000000000     
 -0.78124999999999989        1.1874999999999998        0.0000000000000000     
 -0.62500000000000000        1.1875000000000002        0.0000000000000000     
 -0.46875000000000000        1.1875000000000000        0.0000000000000000     
 -0.31249999999999994        1.1874999999999998        0.0000000000000000     
 -0.15624999999999997        1.1875000000000002        0.0000000000000000     
   0.0000000000000000        1.1874999999999998        0.0000000000000000     
  -1.2500000000000000        1.2500000000000000        0.0000000000000000     
  -1.0937500000000000        1.2500000000000000        0.0000000000000000     
 -0.93750000000000000        1.2500000000000002        0.0000000000000000     
 -0.78125000000000011        1.2500000000000002        0.0000000000000000     
 -0.62500000000000011        1.2499999999999998        0.0000000000000000     
 -0.46875000000000000        1.2500000000000002        0.0000000000000000     
 -0.31250000000000006        1.2500000000000002        0.0000000000000000     
 -0.15625000000000003        1.2499999999999998        0.0000000000000000     
   0.0000000000000000        1.2500000000000000        0.0000000000000000     
  -1.2500000000000000        1.3125000000000000        0.0000000000000000     
  -1.0937500000000000        1.3125000000000002        0.0000000000000000     
 -0.93750000000000000        1.3125000000000000        0.0000000000000000     
 -0.78125000000000000        1.3125000000000000        0.0000000000000000     
 -0.62500000000000000        1.3125000000000002        0.0000000000000000     
 -0.46875000000000000        1.3125000000000000        0.0000000000000000     
 -0.31249999999999994        1.3125000000000000        0.0000000000000000     
 -0.15625000000000003        1.3125000000000002        0.0000000000000000     
   0.0000000000000000        1.3125000000000000        0.0000000000000000     
  -1.2499999999999998        1.3749999999999998        0.0000000000000000     
  -1.0937500000000002        1.3750000000000002        0.0000000000000000     
 -0.93750000000000011        1.3750000000000000        0.0000000000000000     
 -0.78124999999999989        1.3750000000000000        0.0000000000000000     
 -0.62500000000000000        1.3749999999999998        0.0000000000000000     
 -0.46875000000000000        1.3750000000000000        0.0000000000000000     
 -0.31249999999999994        1.3750000000000000        0.0000000000000000     
 -0.15625000000000000        1.3750000000000000        0.0000000000000000     
   0.0000000000000000        1.3749999999999998        0.0000000000000000     
  -1.2500000000000000        1.4375000000000000        0.0000000000000000     
  -1.0937500000000000        1.4375000000000000        0.0000000000000000     
 -0.93750000000000000        1.4375000000000000        0.0000000000000000     
 -0.78125000000000011        1.4375000000000000        0.0000000000000000     
 -0.62500000000000022        1.4375000000000000        0.0000000000000000     
 -0.46874999999999994        1.4375000000000000        0.0000000000000000     
 -0.31250000000000000        1.4375000000000000        0.0000000000000000     
 -0.15625000000000003        1.4375000000000000        0.0000000000000000     
   0.0000000000000000        1.4375000000000000        0.0000000000000000     
  -1.2500000000000000        1.5000000000000000        0.0000000000000000     
  -1.0937500000000002        1.5000000000000007        0.0000000000000000     
 -0.93750000000000000        1.5000000000000000        0.0000000000000000     
 -0.78125000000000000        1.4999999999999998        0.0000000000000000     
 -0.62500000000000000        1.5000000000000007        0.0000000000000000     
 -0.46875000000000000        1.5000000000000000        0.0000000000000000     
 -0.31250000000000000        1.4999999999999996        0.0000000000000000     
 -0.15625000000000000        1.5000000000000004        0.0000000000000000     
   0.0000000000000000        1.5000000000000000        0.0000000000000000     
   0.0000000000000000        1.0000000000000002        0.0000000000000000     
  0.15624999999999997        1.0000000000000002        0.0000000000000000     
  0.31250000000000000        1.0000000000000000        0.0000000000000000     
  0.46875000000000000        1.0000000000000000        0.0000000000000000     
  0.62499999999999989        1.0000000000000002        0.0000000000000000     
  0.78125000000000000        1.0000000000000000        0.0000000000000000     
  0.93750000000000022        1.0000000000000000        0.0000000000000000     
   1.0937500000000002        1.0000000000000002        0.0000000000000000     
   1.2500000000000002        1.0000000000000002        0.0000000000000000     
   0.0000000000000000        1.0625000000000000        0.0000000000000000     
  0.15625000000000006        1.0625000000000000        0.0000000000000000     
  0.31250000000000006        1.0625000000000002        0.0000000000000000     
  0.46875000000000006        1.0625000000000002        0.0000000000000000     
  0.62500000000000011        1.0625000000000000        0.0000000000000000     
  0.78125000000000011        1.0625000000000002        0.0000000000000000     
  0.93750000000000022        1.0625000000000002        0.0000000000000000     
   1.0937500000000002        1.0625000000000000        0.0000000000000000     
   1.2500000000000002        1.0625000000000000        0.0000000000000000     
   0.0000000000000000        1.1250000000000000        0.0000000000000000     
  0.15625000000000006        1.1250000000000002        0.0000000000000000     
  0.31249999999999989        1.1249999999999998        0.0000000000000000     
  0.46875000000000000        1.1250000000000000        0.0000000000000000     
  0.62500000000000000        1.1250000000000002        0.0000000000000000     
  0.78125000000000000        1.1250000000000000        0.0000000000000000     
  0.93750000000000011        1.1250000000000000        0.0000000000000000     
   1.0937500000000002        1.1250000000000002        0.0000000000000000     
   1.2500000000000000        1.1250000000000000        0.0000000000000000     
   0.0000000000000000        1.1874999999999998        0.0000000000000000     
  0.15624999999999997        1.1875000000000000        0.0000000000000000     
  0.31250000000000000        1.1875000000000000        0.0000000000000000     
  0.46874999999999989        1.1874999999999998        0.0000000000000000     
  0.62499999999999989        1.1875000000000002        0.0000000000000000     
  0.78125000000000000        1.1875000000000000        0.0000000000000000     
  0.93750000000000000        1.1874999999999998        0.0000000000000000     
   1.0937500000000000        1.1875000000000002        0.0000000000000000     
   1.2499999999999998        1.1874999999999998        0.0000000000000000     
   0.0000000000000000        1.2500000000000000        0.0000000000000000     
  0.15625000000000003        1.2500000000000000        0.0000000000000000     
  0.31250000000000006        1.2500000000000002        0.0000000000000000     
  0.46875000000000006        1.2500000000000002        0.0000000000000000     
  0.62500000000000011        1.2499999999999998        0.0000000000000000     
  0.78125000000000022        1.2500000000000002        0.0000000000000000     
  0.93750000000000022        1.2500000000000002        0.0000000000000000     
   1.0937500000000000        1.2499999999999998        0.0000000000000000     
   1.2500000000000000        1.2500000000000000        0.0000000000000000     
   0.0000000000000000        1.3125000000000000        0.0000000000000000     
  0.15625000000000000        1.3125000000000002        0.0000000000000000     
  0.31250000000000000        1.3125000000000000        0.0000000000000000     
  0.46875000000000000        1.3125000000000000        0.0000000000000000     
  0.62500000000000011        1.3125000000000002        0.0000000000000000     
  0.78125000000000000        1.3125000000000000        0.0000000000000000     
  0.93750000000000000        1.3125000000000000        0.0000000000000000     
   1.0937500000000002        1.3125000000000002        0.0000000000000000     
   1.2500000000000000        1.3125000000000000        0.0000000000000000     
   0.0000000000000000        1.3749999999999998        0.0000000000000000     
  0.15625000000000003        1.3750000000000002        0.0000000000000000     
  0.31250000000000006        1.3750000000000000        0.0000000000000000     
  0.46874999999999989        1.3750000000000000        0.0000000000000000     
  0.62499999999999989        1.3749999999999998        0.0000000000000000     
  0.78125000000000000        1.3750000000000000        0.0000000000000000     
  0.93749999999999989        1.3750000000000000        0.0000000000000000     
   1.0937500000000002        1.3750000000000000        0.0000000000000000     
   1.2499999999999998        1.3749999999999998        0.0000000000000000     
   0.0000000000000000        1.4375000000000000        0.0000000000000000     
  0.15625000000000003        1.4375000000000000        0.0000000000000000     
  0.31249999999999994        1.4375000000000000        0.0000000000000000     
  0.46874999999999994        1.4375000000000000        0.0000000000000000     
  0.62500000000000011        1.4375000000000000        0.0000000000000000     
  0.78125000000000000        1.4375000000000000        0.0000000000000000     
  0.93750000000000000        1.4375000000000000        0.0000000000000000     
   1.0937500000000000        1.4375000000000000        0.0000000000000000     
   1.2500000000000000        1.4375000000000000        0.0000000000000000     
   0.0000000000000000        1.5000000000000000        0.0000000000000000     
  0.15624999999999997        1.5000000000000007        0.0000000000000000     
  0.31249999999999994        1.5000000000000000        0.0000000000000000     
  0.46875000000000000        1.4999999999999998        0.0000000000000000     
  0.62500000000000011        1.5000000000000007        0.0000000000000000     
  0.78125000000000000        1.5000000000000000        0.0000000000000000     
  0.93750000000000000        1.4999999999999996        0.0000000000000000     
   1.0937500000000002        1.5000000000000004        0.0000000000000000     
   1.2500000000000000        1.5000000000000000        0.0000000000000000     
   1.2500000000000002        1.0000000000000002        0.0000000000000000     
   1.4062499999999998        1.0000000000000002        0.0000000000000000     
   1.5625000000000004        1.0000000000000000        0.0000000000000000     
   1.7187500000000000        1.0000000000000000        0.0000000000000000     
   1.8750000000000000        1.0000000000000002        0.0000000000000000     
   2.0312500000000004        1.0000000000000000        0.0000000000000000     
   2.1875000000000004        1.0000000000000000        0.0000000000000000     
   2.3437500000000004        1.0000000000000002        0.0000000000000000     
   2.5000000000000004        1.0000000000000002        0.0000000000000000     
   1.2500000000000002        1.0625000000000000        0.0000000000000000     
   1.4062500000000002        1.0625000000000000        0.0000000000000000     
   1.5625000000000002        1.0625000000000002        0.0000000000000000     
   1.7187500000000002        1.0625000000000002        0.0000000000000000     
   1.8750000000000004        1.0625000000000000        0.0000000000000000     
   2.0312500000000000        1.0625000000000002        0.0000000000000000     
   2.1875000000000000        1.0625000000000002        0.0000000000000000     
   2.3437500000000004        1.0625000000000000        0.0000000000000000     
   2.5000000000000000        1.0625000000000000        0.0000000000000000     
   1.2500000000000000        1.1250000000000000        0.0000000000000000     
   1.4062500000000000        1.1250000000000002        0.0000000000000000     
   1.5624999999999998        1.1249999999999998        0.0000000000000000     
   1.7187500000000000        1.1250000000000000        0.0000000000000000     
   1.8750000000000000        1.1250000000000002        0.0000000000000000     
   2.0312500000000000        1.1250000000000000        0.0000000000000000     
   2.1875000000000000        1.1250000000000000        0.0000000000000000     
   2.3437500000000004        1.1250000000000002        0.0000000000000000     
   2.5000000000000004        1.1250000000000000        0.0000000000000000     
   1.2499999999999998        1.1874999999999998        0.0000000000000000     
   1.4062499999999998        1.1875000000000000        0.0000000000000000     
   1.5625000000000000        1.1875000000000000        0.0000000000000000     
   1.7187499999999996        1.1874999999999998        0.0000000000000000     
   1.8750000000000000        1.1875000000000002        0.0000000000000000     
   2.0312500000000000        1.1875000000000000        0.0000000000000000     
   2.1874999999999996        1.1874999999999998        0.0000000000000000     
   2.3437500000000000        1.1875000000000002        0.0000000000000000     
   2.4999999999999996        1.1874999999999998        0.0000000000000000     
   1.2500000000000000        1.2500000000000000        0.0000000000000000     
   1.4062500000000004        1.2500000000000000        0.0000000000000000     
   1.5624999999999998        1.2500000000000002        0.0000000000000000     
   1.7187500000000002        1.2500000000000002        0.0000000000000000     
   1.8750000000000004        1.2499999999999998        0.0000000000000000     
   2.0312500000000000        1.2500000000000002        0.0000000000000000     
   2.1875000000000000        1.2500000000000002        0.0000000000000000     
   2.3437500000000000        1.2499999999999998        0.0000000000000000     
   2.5000000000000000        1.2500000000000000        0.0000000000000000     
   1.2500000000000000        1.3125000000000000        0.0000000000000000     
   1.4062500000000000        1.3125000000000002        0.0000000000000000     
   1.5625000000000000        1.3125000000000000        0.0000000000000000     
   1.7187500000000000        1.3125000000000000        0.0000000000000000     
   1.8750000000000000        1.3125000000000002        0.0000000000000000     
   2.0312500000000004        1.3125000000000000        0.0000000000000000     
   2.1875000000000000        1.3125000000000000        0.0000000000000000     
   2.3437500000000000        1.3125000000000002        0.0000000000000000     
   2.5000000000000000        1.3125000000000000        0.0000000000000000     
   1.2499999999999998        1.3749999999999998        0.0000000000000000     
   1.4062500000000000        1.3750000000000002        0.0000000000000000     
   1.5625000000000000        1.3750000000000000        0.0000000000000000     
   1.7187499999999996        1.3750000000000000        0.0000000000000000     
   1.8749999999999998        1.3749999999999998        0.0000000000000000     
   2.0312500000000004        1.3750000000000000        0.0000000000000000     
   2.1874999999999996        1.3750000000000000        0.0000000000000000     
   2.3437500000000000        1.3750000000000000        0.0000000000000000     
   2.4999999999999996        1.3749999999999998        0.0000000000000000     
   1.2500000000000000        1.4375000000000000        0.0000000000000000     
   1.4062500000000004        1.4375000000000000        0.0000000000000000     
   1.5625000000000000        1.4375000000000000        0.0000000000000000     
   1.7187500000000000        1.4375000000000000        0.0000000000000000     
   1.8750000000000004        1.4375000000000000        0.0000000000000000     
   2.0312500000000000        1.4375000000000000        0.0000000000000000     
   2.1874999999999996        1.4375000000000000        0.0000000000000000     
   2.3437500000000000        1.4375000000000000        0.0000000000000000     
   2.5000000000000000        1.4375000000000000        0.0000000000000000     
   1.2500000000000000        1.5000000000000000        0.0000000000000000     
   1.4062499999999998        1.5000000000000007        0.0000000000000000     
   1.5625000000000004        1.5000000000000000        0.0000000000000000     
   1.7187500000000002        1.4999999999999998        0.0000000000000000     
   1.8750000000000000        1.5000000000000007        0.0000000000000000     
   2.0312500000000004        1.5000000000000000        0.0000000000000000     
   2.1875000000000004        1.4999999999999996        0.0000000000000000     
   2.3437500000000000        1.5000000000000004        0.0000000000000000     
   2.5000000000000000        1.5000000000000000        0.0000000000000000     
   2.5000000000000004        1.0000000000000002        0.0000000000000000     
   2.6562500000000004        1.0000000000000000        0.0000000000000000     
   2.8125000000000004        1.0000000000000002        0.0000000000000000     
   2.9687500000000000        1.0000000000000000        0.0000000000000000     
   3.1250000000000000        1.0000000000000000        0.0000000000000000     
   3.2812500000000004        1.0000000000000002        0.0000000000000000     
   3.4375000000000009        1.0000000000000000        0.0000000000000000     
   3.5937500000000004        1.0000000000000000        0.0000000000000000     
   3.7500000000000004        1.0000000000000002        0.0000000000000000     
   2.5000000000000000        1.0625000000000000        0.0000000000000000     
   2.6562500000000009        1.0625000000000000        0.0000000000000000     
   2.8124999999999996        1.0625000000000002        0.0000000000000000     
   2.9687500000000000        1.0625000000000002        0.0000000000000000     
   3.1250000000000009        1.0625000000000000        0.0000000000000000     
   3.2812499999999996        1.0625000000000002        0.0000000000000000     
   3.4375000000000004        1.0625000000000002        0.0000000000000000     
   3.5937500000000009        1.0625000000000000        0.0000000000000000     
   3.7499999999999996        1.0625000000000002        0.0000000000000000     
   2.5000000000000004        1.1250000000000000        0.0000000000000000     
   2.6562500000000000        1.1250000000000002        0.0000000000000000     
   2.8124999999999996        1.1249999999999998        0.0000000000000000     
   2.9687500000000000        1.1250000000000000        0.0000000000000000     
   3.1250000000000000        1.1250000000000002        0.0000000000000000     
   3.2812500000000000        1.1250000000000000        0.0000000000000000     
   3.4375000000000000        1.1249999999999998        0.0000000000000000     
   3.5937500000000004        1.1250000000000002        0.0000000000000000     
   3.7500000000000000        1.1250000000000000        0.0000000000000000     
   2.4999999999999996        1.1874999999999998        0.0000000000000000     
   2.6562500000000000        1.1875000000000002        0.0000000000000000     
   2.8125000000000004        1.1875000000000000        0.0000000000000000     
   2.9687499999999996        1.1874999999999998        0.0000000000000000     
   3.1249999999999996        1.1875000000000000        0.0000000000000000     
   3.2812500000000004        1.1875000000000000        0.0000000000000000     
   3.4374999999999996        1.1874999999999998        0.0000000000000000     
   3.5937500000000000        1.1875000000000002        0.0000000000000000     
   3.7500000000000004        1.1875000000000000        0.0000000000000000     
   2.5000000000000000        1.2500000000000000        0.0000000000000000     
   2.6562500000000004        1.2500000000000000        0.0000000000000000     
   2.8124999999999996        1.2500000000000002        0.0000000000000000     
   2.9687500000000004        1.2500000000000002        0.0000000000000000     
   3.1250000000000009        1.2500000000000000        0.0000000000000000     
   3.2812499999999996        1.2500000000000002        0.0000000000000000     
   3.4375000000000004        1.2500000000000002        0.0000000000000000     
   3.5937500000000009        1.2500000000000000        0.0000000000000000     
   3.7499999999999996        1.2500000000000002        0.0000000000000000     
   2.5000000000000000        1.3125000000000000        0.0000000000000000     
   2.6562500000000000        1.3125000000000002        0.0000000000000000     
   2.8125000000000000        1.3125000000000000        0.0000000000000000     
   2.9687500000000000        1.3125000000000000        0.0000000000000000     
   3.1250000000000000        1.3125000000000002        0.0000000000000000     
   3.2812500000000000        1.3125000000000000        0.0000000000000000     
   3.4375000000000000        1.3125000000000000        0.0000000000000000     
   3.5937500000000000        1.3125000000000002        0.0000000000000000     
   3.7500000000000000        1.3125000000000000        0.0000000000000000     
   2.4999999999999996        1.3749999999999998        0.0000000000000000     
   2.6562499999999996        1.3749999999999998        0.0000000000000000     
   2.8125000000000004        1.3750000000000002        0.0000000000000000     
   2.9687499999999996        1.3750000000000000        0.0000000000000000     
   3.1249999999999996        1.3749999999999998        0.0000000000000000     
   3.2812500000000009        1.3750000000000002        0.0000000000000000     
   3.4375000000000000        1.3750000000000002        0.0000000000000000     
   3.5937499999999996        1.3750000000000000        0.0000000000000000     
   3.7500000000000004        1.3750000000000000        0.0000000000000000     
   2.5000000000000000        1.4375000000000000        0.0000000000000000     
   2.6562500000000009        1.4375000000000000        0.0000000000000000     
   2.8125000000000000        1.4375000000000004        0.0000000000000000     
   2.9687500000000000        1.4375000000000000        0.0000000000000000     
   3.1250000000000009        1.4375000000000000        0.0000000000000000     
   3.2812499999999996        1.4375000000000002        0.0000000000000000     
   3.4375000000000000        1.4375000000000000        0.0000000000000000     
   3.5937500000000013        1.4375000000000000        0.0000000000000000     
   3.7499999999999996        1.4375000000000002        0.0000000000000000     
   2.5000000000000000        1.5000000000000000        0.0000000000000000     
   2.6562500000000000        1.5000000000000004        0.0000000000000000     
   2.8125000000000004        1.5000000000000000        0.0000000000000000     
   2.9687500000000000        1.4999999999999998        0.0000000000000000     
   3.1250000000000000        1.5000000000000004        0.0000000000000000     
   3.2812500000000004        1.5000000000000002        0.0000000000000000     
   3.4375000000000000        1.4999999999999996        0.0000000000000000     
   3.5937500000000000        1.5000000000000002        0.0000000000000000     
   3.7500000000000004        1.5000000000000002        0.0000000000000000     
   3.7500000000000004        1.0000000000000002        0.0000000000000000     
   3.9062500000000000       0.99999999999999978        0.0000000000000000     
   4.0625000000000009        1.0000000000000002        0.0000000000000000     
   4.2187500000000000        1.0000000000000002        0.0000000000000000     
   4.3750000000000009        1.0000000000000000        0.0000000000000000     
   4.5312500000000009        1.0000000000000002        0.0000000000000000     
   4.6875000000000009        1.0000000000000002        0.0000000000000000     
   4.8437500000000000       0.99999999999999978        0.0000000000000000     
   5.0000000000000018        1.0000000000000000        0.0000000000000000     
   3.7499999999999996        1.0625000000000002        0.0000000000000000     
   3.9062500000000009        1.0624999999999998        0.0000000000000000     
   4.0625000000000000        1.0625000000000000        0.0000000000000000     
   4.2187500000000009        1.0625000000000002        0.0000000000000000     
   4.3750000000000009        1.0625000000000000        0.0000000000000000     
   4.5312500000000009        1.0625000000000002        0.0000000000000000     
   4.6875000000000000        1.0625000000000002        0.0000000000000000     
   4.8437500000000009        1.0625000000000000        0.0000000000000000     
   5.0000000000000000        1.0625000000000000        0.0000000000000000     
   3.7500000000000000        1.1250000000000000        0.0000000000000000     
   3.9062500000000000        1.1250000000000002        0.0000000000000000     
   4.0625000000000000        1.1250000000000000        0.0000000000000000     
   4.2187500000000009        1.1250000000000000        0.0000000000000000     
   4.3750000000000009        1.1250000000000004        0.0000000000000000     
   4.5312500000000000        1.1249999999999998        0.0000000000000000     
   4.6875000000000009        1.1250000000000000        0.0000000000000000     
   4.8437500000000009        1.1250000000000000        0.0000000000000000     
   5.0000000000000000        1.1250000000000000        0.0000000000000000     
   3.7500000000000004        1.1875000000000000        0.0000000000000000     
   3.9062500000000000        1.1875000000000002        0.0000000000000000     
   4.0625000000000009        1.1875000000000000        0.0000000000000000     
   4.2187500000000009        1.1875000000000000        0.0000000000000000     
   4.3750000000000009        1.1875000000000002        0.0000000000000000     
   4.5312500000000000        1.1875000000000000        0.0000000000000000     
   4.6875000000000000        1.1874999999999998        0.0000000000000000     
   4.8437500000000000        1.1875000000000000        0.0000000000000000     
   5.0000000000000009        1.1875000000000002        0.0000000000000000     
   3.7499999999999996        1.2500000000000002        0.0000000000000000     
   3.9062500000000013        1.2500000000000000        0.0000000000000000     
   4.0625000000000009        1.2500000000000002        0.0000000000000000     
   4.2187500000000009        1.2500000000000002        0.0000000000000000     
   4.3750000000000009        1.2500000000000002        0.0000000000000000     
   4.5312500000000009        1.2500000000000002        0.0000000000000000     
   4.6875000000000000        1.2499999999999998        0.0000000000000000     
   4.8437500000000009        1.2499999999999998        0.0000000000000000     
   5.0000000000000000        1.2500000000000000        0.0000000000000000     
   3.7500000000000000        1.3125000000000000        0.0000000000000000     
   3.9062500000000013        1.3125000000000004        0.0000000000000000     
   4.0625000000000009        1.3125000000000000        0.0000000000000000     
   4.2187500000000009        1.3125000000000002        0.0000000000000000     
   4.3750000000000009        1.3124999999999998        0.0000000000000000     
   4.5312500000000009        1.3125000000000000        0.0000000000000000     
   4.6875000000000000        1.3125000000000002        0.0000000000000000     
   4.8437500000000009        1.3125000000000000        0.0000000000000000     
   5.0000000000000009        1.3125000000000000        0.0000000000000000     
   3.7500000000000004        1.3750000000000000        0.0000000000000000     
   3.9062499999999996        1.3750000000000000        0.0000000000000000     
   4.0625000000000009        1.3750000000000002        0.0000000000000000     
   4.2187500000000000        1.3750000000000002        0.0000000000000000     
   4.3750000000000027        1.3750000000000004        0.0000000000000000     
   4.5312500000000018        1.3750000000000004        0.0000000000000000     
   4.6875000000000000        1.3750000000000000        0.0000000000000000     
   4.8437499999999991        1.3750000000000000        0.0000000000000000     
   5.0000000000000009        1.3750000000000002        0.0000000000000000     
   3.7499999999999996        1.4375000000000002        0.0000000000000000     
   3.9062500000000004        1.4374999999999996        0.0000000000000000     
   4.0625000000000009        1.4375000000000000        0.0000000000000000     
   4.2187499999999991        1.4374999999999996        0.0000000000000000     
   4.3750000000000018        1.4375000000000000        0.0000000000000000     
   4.5312500000000009        1.4375000000000000        0.0000000000000000     
   4.6875000000000000        1.4375000000000000        0.0000000000000000     
   4.8437500000000009        1.4375000000000000        0.0000000000000000     
   5.0000000000000000        1.4375000000000000        0.0000000000000000     
   3.7500000000000004        1.5000000000000002        0.0000000000000000     
   3.9062500000000000        1.5000000000000000        0.0000000000000000     
   4.0625000000000009        1.5000000000000000        0.0000000000000000     
   4.2187500000000009        1.5000000000000002        0.0000000000000000     
   4.3750000000000000        1.4999999999999996        0.0000000000000000     
   4.5312500000000009        1.5000000000000000        0.0000000000000000     
   4.6875000000000009        1.5000000000000002        0.0000000000000000     
   4.8437500000000000        1.4999999999999998        0.0000000000000000     
   5.0000000000000000        1.5000000000000002        0.0000000000000000     
  -5.0000000000000000        1.5000000000000002        0.0000000000000000     
  -4.8437500000000000        1.4999999999999998        0.0000000000000000     
  -4.6875000000000000        1.5000000000000002        0.0000000000000000     
  -4.5312500000000009        1.5000000000000002        0.0000000000000000     
  -4.3750000000000000        1.5000000000000000        0.0000000000000000     
  -4.2187500000000009        1.5000000000000002        0.0000000000000000     
  -4.0625000000000000        1.5000000000000002        0.0000000000000000     
  -3.9062499999999996        1.4999999999999996        0.0000000000000000     
  -3.7500000000000013        1.5000000000000002        0.0000000000000000     
  -5.0000000000000000        1.5624999999999998        0.0000000000000000     
  -4.8437500000000009        1.5625000000000002        0.0000000000000000     
  -4.6875000000000000        1.5625000000000000        0.0000000000000000     
  -4.5312500000000009        1.5625000000000000        0.0000000000000000     
  -4.3750000000000000        1.5625000000000002        0.0000000000000000     
  -4.2187500000000000        1.5625000000000002        0.0000000000000000     
  -4.0625000000000009        1.5624999999999998        0.0000000000000000     
  -3.9062500000000004        1.5625000000000002        0.0000000000000000     
  -3.7499999999999996        1.5625000000000000        0.0000000000000000     
  -5.0000000000000000        1.6250000000000000        0.0000000000000000     
  -4.8437500000000000        1.6250000000000000        0.0000000000000000     
  -4.6875000000000000        1.6250000000000000        0.0000000000000000     
  -4.5312500000000000        1.6250000000000000        0.0000000000000000     
  -4.3750000000000009        1.6250000000000000        0.0000000000000000     
  -4.2187500000000000        1.6250000000000000        0.0000000000000000     
  -4.0625000000000000        1.6250000000000000        0.0000000000000000     
  -3.9062500000000000        1.6250000000000000        0.0000000000000000     
  -3.7500000000000000        1.6250000000000000        0.0000000000000000     
  -5.0000000000000000        1.6875000000000000        0.0000000000000000     
  -4.8437500000000009        1.6874999999999998        0.0000000000000000     
  -4.6875000000000000        1.6875000000000002        0.0000000000000000     
  -4.5312500000000000        1.6875000000000000        0.0000000000000000     
  -4.3750000000000009        1.6874999999999998        0.0000000000000000     
  -4.2187500000000009        1.6875000000000002        0.0000000000000000     
  -4.0625000000000000        1.6875000000000000        0.0000000000000000     
  -3.9062500000000000        1.6875000000000002        0.0000000000000000     
  -3.7500000000000000        1.6874999999999998        0.0000000000000000     
  -5.0000000000000000        1.7499999999999998        0.0000000000000000     
  -4.8437500000000000        1.7500000000000004        0.0000000000000000     
  -4.6875000000000000        1.7499999999999998        0.0000000000000000     
  -4.5312500000000000        1.7499999999999998        0.0000000000000000     
  -4.3750000000000000        1.7500000000000002        0.0000000000000000     
  -4.2187500000000000        1.7499999999999998        0.0000000000000000     
  -4.0625000000000009        1.7500000000000000        0.0000000000000000     
  -3.9062500000000004        1.7500000000000000        0.0000000000000000     
  -3.7499999999999987        1.7499999999999998        0.0000000000000000     
  -5.0000000000000000        1.8125000000000000        0.0000000000000000     
  -4.8437500000000000        1.8125000000000000        0.0000000000000000     
  -4.6875000000000000        1.8125000000000000        0.0000000000000000     
  -4.5312500000000000        1.8125000000000000        0.0000000000000000     
  -4.3750000000000009        1.8125000000000000        0.0000000000000000     
  -4.2187500000000000        1.8125000000000000        0.0000000000000000     
  -4.0625000000000000        1.8125000000000000        0.0000000000000000     
  -3.9062500000000000        1.8125000000000000        0.0000000000000000     
  -3.7499999999999996        1.8125000000000000        0.0000000000000000     
  -5.0000000000000000        1.8750000000000000        0.0000000000000000     
  -4.8437500000000000        1.8749999999999996        0.0000000000000000     
  -4.6875000000000000        1.8750000000000000        0.0000000000000000     
  -4.5312500000000000        1.8750000000000000        0.0000000000000000     
  -4.3750000000000000        1.8750000000000000        0.0000000000000000     
  -4.2187500000000000        1.8750000000000000        0.0000000000000000     
  -4.0625000000000000        1.8750000000000000        0.0000000000000000     
  -3.9062499999999996        1.8749999999999998        0.0000000000000000     
  -3.7500000000000000        1.8750000000000000        0.0000000000000000     
  -5.0000000000000000        1.9374999999999998        0.0000000000000000     
  -4.8437500000000000        1.9375000000000000        0.0000000000000000     
  -4.6875000000000000        1.9374999999999998        0.0000000000000000     
  -4.5312500000000000        1.9375000000000000        0.0000000000000000     
  -4.3750000000000000        1.9375000000000002        0.0000000000000000     
  -4.2187500000000000        1.9374999999999998        0.0000000000000000     
  -4.0625000000000000        1.9375000000000000        0.0000000000000000     
  -3.9062500000000000        1.9375000000000000        0.0000000000000000     
  -3.7499999999999996        1.9375000000000000        0.0000000000000000     
  -5.0000000000000000        2.0000000000000000        0.0000000000000000     
  -4.8437500000000000        2.0000000000000000        0.0000000000000000     
  -4.6875000000000000        2.0000000000000000        0.0000000000000000     
  -4.5312500000000009        2.0000000000000000        0.0000000000000000     
  -4.3750000000000009        2.0000000000000000        0.0000000000000000     
  -4.2187500000000000        2.0000000000000000        0.0000000000000000     
  -4.0625000000000000        2.0000000000000000        0.0000000000000000     
  -3.9062500000000000        2.0000000000000000        0.0000000000000000     
  -3.7500000000000004        2.0000000000000000        0.0000000000000000     
  -3.7500000000000013        1.5000000000000002        0.0000000000000000     
  -3.5937500000000000        1.5000000000000002        0.0000000000000000     
  -3.4375000000000000        1.5000000000000000        0.0000000000000000     
  -3.2812500000000004        1.5000000000000002        0.0000000000000000     
  -3.1250000000000000        1.5000000000000002        0.0000000000000000     
  -2.9687500000000000        1.5000000000000000        0.0000000000000000     
  -2.8125000000000004        1.4999999999999998        0.0000000000000000     
  -2.6562500000000000        1.5000000000000002        0.0000000000000000     
  -2.5000000000000000        1.5000000000000000        0.0000000000000000     
  -3.7499999999999996        1.5625000000000000        0.0000000000000000     
  -3.5937500000000009        1.5625000000000002        0.0000000000000000     
  -3.4375000000000004        1.5625000000000002        0.0000000000000000     
  -3.2812499999999996        1.5624999999999998        0.0000000000000000     
  -3.1250000000000000        1.5625000000000002        0.0000000000000000     
  -2.9687500000000004        1.5625000000000002        0.0000000000000000     
  -2.8125000000000000        1.5625000000000002        0.0000000000000000     
  -2.6562500000000004        1.5625000000000000        0.0000000000000000     
  -2.5000000000000004        1.5625000000000002        0.0000000000000000     
  -3.7500000000000000        1.6250000000000000        0.0000000000000000     
  -3.5937500000000000        1.6250000000000000        0.0000000000000000     
  -3.4375000000000000        1.6250000000000000        0.0000000000000000     
  -3.2812500000000000        1.6250000000000000        0.0000000000000000     
  -3.1250000000000000        1.6250000000000000        0.0000000000000000     
  -2.9687500000000000        1.6250000000000000        0.0000000000000000     
  -2.8125000000000000        1.6250000000000000        0.0000000000000000     
  -2.6562500000000000        1.6250000000000000        0.0000000000000000     
  -2.5000000000000000        1.6250000000000000        0.0000000000000000     
  -3.7500000000000000        1.6874999999999998        0.0000000000000000     
  -3.5937500000000000        1.6875000000000000        0.0000000000000000     
  -3.4374999999999996        1.6874999999999996        0.0000000000000000     
  -3.2812500000000000        1.6874999999999998        0.0000000000000000     
  -3.1249999999999996        1.6875000000000002        0.0000000000000000     
  -2.9687499999999996        1.6874999999999998        0.0000000000000000     
  -2.8125000000000000        1.6875000000000000        0.0000000000000000     
  -2.6562500000000000        1.6875000000000002        0.0000000000000000     
  -2.5000000000000000        1.6874999999999998        0.0000000000000000     
  -3.7499999999999987        1.7499999999999998        0.0000000000000000     
  -3.5937500000000004        1.7500000000000000        0.0000000000000000     
  -3.4375000000000004        1.7500000000000004        0.0000000000000000     
  -3.2812499999999987        1.7500000000000000        0.0000000000000000     
  -3.1250000000000004        1.7500000000000000        0.0000000000000000     
  -2.9687500000000004        1.7500000000000007        0.0000000000000000     
  -2.8125000000000000        1.7500000000000000        0.0000000000000000     
  -2.6562500000000004        1.7499999999999998        0.0000000000000000     
  -2.5000000000000004        1.7500000000000007        0.0000000000000000     
  -3.7499999999999996        1.8125000000000000        0.0000000000000000     
  -3.5937500000000000        1.8125000000000000        0.0000000000000000     
  -3.4375000000000000        1.8125000000000000        0.0000000000000000     
  -3.2812500000000000        1.8125000000000000        0.0000000000000000     
  -3.1250000000000000        1.8125000000000000        0.0000000000000000     
  -2.9687500000000000        1.8125000000000000        0.0000000000000000     
  -2.8125000000000000        1.8125000000000000        0.0000000000000000     
  -2.6562500000000000        1.8125000000000000        0.0000000000000000     
  -2.5000000000000000        1.8125000000000000        0.0000000000000000     
  -3.7500000000000000        1.8750000000000000        0.0000000000000000     
  -3.5937500000000000        1.8750000000000002        0.0000000000000000     
  -3.4375000000000000        1.8749999999999998        0.0000000000000000     
  -3.2812500000000000        1.8750000000000000        0.0000000000000000     
  -3.1250000000000000        1.8750000000000002        0.0000000000000000     
  -2.9687500000000000        1.8749999999999998        0.0000000000000000     
  -2.8125000000000000        1.8750000000000000        0.0000000000000000     
  -2.6562499999999996        1.8750000000000000        0.0000000000000000     
  -2.5000000000000000        1.8749999999999998        0.0000000000000000     
  -3.7499999999999996        1.9375000000000000        0.0000000000000000     
  -3.5937500000000004        1.9374999999999998        0.0000000000000000     
  -3.4375000000000000        1.9375000000000002        0.0000000000000000     
  -3.2812499999999996        1.9375000000000000        0.0000000000000000     
  -3.1250000000000004        1.9374999999999998        0.0000000000000000     
  -2.9687500000000000        1.9375000000000004        0.0000000000000000     
  -2.8125000000000004        1.9375000000000002        0.0000000000000000     
  -2.6562499999999996        1.9374999999999998        0.0000000000000000     
  -2.4999999999999996        1.9374999999999998        0.0000000000000000     
  -3.7500000000000004        2.0000000000000000        0.0000000000000000     
  -3.5937499999999996        2.0000000000000000        0.0000000000000000     
  -3.4375000000000000        2.0000000000000000        0.0000000000000000     
  -3.2812500000000004        2.0000000000000004        0.0000000000000000     
  -3.1249999999999996        2.0000000000000000        0.0000000000000000     
  -2.9687500000000004        2.0000000000000004        0.0000000000000000     
  -2.8125000000000000        2.0000000000000000        0.0000000000000000     
  -2.6562499999999996        2.0000000000000000        0.0000000000000000     
  -2.5000000000000004        2.0000000000000004        0.0000000000000000     
  -2.5000000000000000        1.5000000000000000        0.0000000000000000     
  -2.3437500000000004        1.5000000000000007        0.0000000000000000     
  -2.1875000000000000        1.5000000000000000        0.0000000000000000     
  -2.0312500000000000        1.4999999999999998        0.0000000000000000     
  -1.8750000000000002        1.5000000000000007        0.0000000000000000     
  -1.7187500000000000        1.5000000000000000        0.0000000000000000     
  -1.5625000000000002        1.4999999999999996        0.0000000000000000     
  -1.4062500000000000        1.5000000000000004        0.0000000000000000     
  -1.2500000000000000        1.5000000000000000        0.0000000000000000     
  -2.5000000000000004        1.5625000000000002        0.0000000000000000     
  -2.3437500000000004        1.5624999999999998        0.0000000000000000     
  -2.1875000000000000        1.5625000000000002        0.0000000000000000     
  -2.0312500000000000        1.5625000000000002        0.0000000000000000     
  -1.8750000000000000        1.5624999999999998        0.0000000000000000     
  -1.7187500000000002        1.5625000000000002        0.0000000000000000     
  -1.5625000000000000        1.5625000000000002        0.0000000000000000     
  -1.4062500000000004        1.5624999999999996        0.0000000000000000     
  -1.2500000000000002        1.5625000000000002        0.0000000000000000     
  -2.5000000000000000        1.6250000000000000        0.0000000000000000     
  -2.3437500000000000        1.6250000000000000        0.0000000000000000     
  -2.1875000000000000        1.6250000000000000        0.0000000000000000     
  -2.0312500000000000        1.6250000000000000        0.0000000000000000     
  -1.8750000000000004        1.6250000000000002        0.0000000000000000     
  -1.7187500000000000        1.6250000000000000        0.0000000000000000     
  -1.5625000000000000        1.6250000000000000        0.0000000000000000     
  -1.4062500000000000        1.6250000000000000        0.0000000000000000     
  -1.2500000000000000        1.6250000000000000        0.0000000000000000     
  -2.5000000000000000        1.6874999999999998        0.0000000000000000     
  -2.3437499999999996        1.6875000000000000        0.0000000000000000     
  -2.1875000000000000        1.6874999999999996        0.0000000000000000     
  -2.0312500000000000        1.6875000000000002        0.0000000000000000     
  -1.8750000000000002        1.6875000000000007        0.0000000000000000     
  -1.7187499999999993        1.6874999999999993        0.0000000000000000     
  -1.5625000000000002        1.6875000000000002        0.0000000000000000     
  -1.4062499999999996        1.6875000000000000        0.0000000000000000     
  -1.2500000000000000        1.6874999999999998        0.0000000000000000     
  -2.5000000000000004        1.7500000000000007        0.0000000000000000     
  -2.3437500000000004        1.7500000000000000        0.0000000000000000     
  -2.1875000000000000        1.7500000000000004        0.0000000000000000     
  -2.0312500000000000        1.7500000000000007        0.0000000000000000     
  -1.8750000000000007        1.7500000000000002        0.0000000000000000     
  -1.7187500000000002        1.7500000000000007        0.0000000000000000     
  -1.5625000000000000        1.7500000000000004        0.0000000000000000     
  -1.4062500000000007        1.7500000000000000        0.0000000000000000     
  -1.2500000000000002        1.7500000000000007        0.0000000000000000     
  -2.5000000000000000        1.8125000000000000        0.0000000000000000     
  -2.3437500000000000        1.8125000000000000        0.0000000000000000     
  -2.1875000000000000        1.8125000000000000        0.0000000000000000     
  -2.0312500000000000        1.8125000000000000        0.0000000000000000     
  -1.8750000000000000        1.8125000000000000        0.0000000000000000     
  -1.7187500000000000        1.8125000000000000        0.0000000000000000     
  -1.5625000000000000        1.8125000000000000        0.0000000000000000     
  -1.4062500000000000        1.8125000000000000        0.0000000000000000     
  -1.2500000000000000        1.8125000000000000        0.0000000000000000     
  -2.5000000000000000        1.8749999999999998        0.0000000000000000     
  -2.3437499999999996        1.8750000000000004        0.0000000000000000     
  -2.1875000000000000        1.8749999999999996        0.0000000000000000     
  -2.0312500000000000        1.8749999999999996        0.0000000000000000     
  -1.8750000000000002        1.8750000000000007        0.0000000000000000     
  -1.7187500000000002        1.8749999999999998        0.0000000000000000     
  -1.5625000000000004        1.8749999999999998        0.0000000000000000     
  -1.4062500000000000        1.8750000000000002        0.0000000000000000     
  -1.2500000000000002        1.8749999999999998        0.0000000000000000     
  -2.4999999999999996        1.9374999999999998        0.0000000000000000     
  -2.3437500000000004        1.9374999999999998        0.0000000000000000     
  -2.1875000000000000        1.9375000000000002        0.0000000000000000     
  -2.0312500000000000        1.9375000000000000        0.0000000000000000     
  -1.8750000000000007        1.9375000000000002        0.0000000000000000     
  -1.7187499999999998        1.9375000000000004        0.0000000000000000     
  -1.5624999999999998        1.9375000000000004        0.0000000000000000     
  -1.4062500000000004        1.9374999999999998        0.0000000000000000     
  -1.2499999999999996        1.9374999999999998        0.0000000000000000     
  -2.5000000000000004        2.0000000000000004        0.0000000000000000     
  -2.3437500000000000        2.0000000000000000        0.0000000000000000     
  -2.1875000000000000        2.0000000000000000        0.0000000000000000     
  -2.0312500000000004        2.0000000000000004        0.0000000000000000     
  -1.8750000000000004        2.0000000000000004        0.0000000000000000     
  -1.7187500000000004        2.0000000000000004        0.0000000000000000     
  -1.5625000000000002        2.0000000000000004        0.0000000000000000     
  -1.4062500000000000        2.0000000000000000        0.0000000000000000     
  -1.2500000000000002        2.0000000000000004        0.0000000000000000     
  -1.2500000000000000        1.5000000000000000        0.0000000000000000     
  -1.0937500000000002        1.5000000000000007        0.0000000000000000     
 -0.93750000000000000        1.5000000000000000        0.0000000000000000     
 -0.78125000000000000        1.4999999999999998        0.0000000000000000     
 -0.62500000000000000        1.5000000000000007        0.0000000000000000     
 -0.46875000000000000        1.5000000000000000        0.0000000000000000     
 -0.31250000000000000        1.4999999999999996        0.0000000000000000     
 -0.15625000000000000        1.5000000000000004        0.0000000000000000     
   0.0000000000000000        1.5000000000000000        0.0000000000000000     
  -1.2500000000000002        1.5625000000000002        0.0000000000000000     
  -1.0937500000000000        1.5624999999999998        0.0000000000000000     
 -0.93750000000000000        1.5625000000000002        0.0000000000000000     
 -0.78125000000000011        1.5625000000000002        0.0000000000000000     
 -0.62500000000000011        1.5624999999999998        0.0000000000000000     
 -0.46875000000000000        1.5625000000000002        0.0000000000000000     
 -0.31250000000000000        1.5625000000000002        0.0000000000000000     
 -0.15625000000000003        1.5624999999999996        0.0000000000000000     
   0.0000000000000000        1.5625000000000002        0.0000000000000000     
  -1.2500000000000000        1.6250000000000000        0.0000000000000000     
  -1.0937500000000000        1.6250000000000000        0.0000000000000000     
 -0.93750000000000000        1.6250000000000000        0.0000000000000000     
 -0.78125000000000000        1.6250000000000000        0.0000000000000000     
 -0.62500000000000011        1.6250000000000002        0.0000000000000000     
 -0.46874999999999994        1.6250000000000000        0.0000000000000000     
 -0.31249999999999994        1.6250000000000000        0.0000000000000000     
 -0.15625000000000000        1.6250000000000000        0.0000000000000000     
   0.0000000000000000        1.6250000000000000        0.0000000000000000     
  -1.2500000000000000        1.6874999999999998        0.0000000000000000     
  -1.0937499999999998        1.6875000000000000        0.0000000000000000     
 -0.93750000000000000        1.6874999999999996        0.0000000000000000     
 -0.78125000000000000        1.6875000000000002        0.0000000000000000     
 -0.62500000000000000        1.6875000000000007        0.0000000000000000     
 -0.46874999999999989        1.6874999999999993        0.0000000000000000     
 -0.31250000000000006        1.6875000000000002        0.0000000000000000     
 -0.15624999999999994        1.6875000000000000        0.0000000000000000     
   0.0000000000000000        1.6874999999999998        0.0000000000000000     
  -1.2500000000000002        1.7500000000000007        0.0000000000000000     
  -1.0937500000000002        1.7500000000000000        0.0000000000000000     
 -0.93750000000000011        1.7500000000000004        0.0000000000000000     
 -0.78125000000000022        1.7500000000000007        0.0000000000000000     
 -0.62500000000000022        1.7500000000000002        0.0000000000000000     
 -0.46875000000000006        1.7500000000000007        0.0000000000000000     
 -0.31250000000000000        1.7500000000000004        0.0000000000000000     
 -0.15625000000000006        1.7500000000000000        0.0000000000000000     
   0.0000000000000000        1.7500000000000007        0.0000000000000000     
  -1.2500000000000000        1.8125000000000000        0.0000000000000000     
  -1.0937500000000000        1.8125000000000000        0.0000000000000000     
 -0.93750000000000000        1.8125000000000000        0.0000000000000000     
 -0.78125000000000000        1.8125000000000000        0.0000000000000000     
 -0.62500000000000000        1.8125000000000000        0.0000000000000000     
 -0.46874999999999989        1.8125000000000000        0.0000000000000000     
 -0.31249999999999994        1.8125000000000000        0.0000000000000000     
 -0.15625000000000000        1.8125000000000000        0.0000000000000000     
   0.0000000000000000        1.8125000000000000        0.0000000000000000     
  -1.2500000000000002        1.8749999999999998        0.0000000000000000     
  -1.0937499999999998        1.8750000000000004        0.0000000000000000     
 -0.93750000000000000        1.8749999999999996        0.0000000000000000     
 -0.78125000000000011        1.8749999999999996        0.0000000000000000     
 -0.62500000000000011        1.8750000000000007        0.0000000000000000     
 -0.46875000000000006        1.8749999999999998        0.0000000000000000     
 -0.31250000000000006        1.8749999999999998        0.0000000000000000     
 -0.15625000000000000        1.8750000000000002        0.0000000000000000     
   0.0000000000000000        1.8749999999999998        0.0000000000000000     
  -1.2499999999999996        1.9374999999999998        0.0000000000000000     
  -1.0937500000000000        1.9374999999999998        0.0000000000000000     
 -0.93750000000000000        1.9375000000000002        0.0000000000000000     
 -0.78124999999999989        1.9375000000000000        0.0000000000000000     
 -0.62500000000000022        1.9375000000000002        0.0000000000000000     
 -0.46874999999999989        1.9375000000000004        0.0000000000000000     
 -0.31249999999999994        1.9375000000000004        0.0000000000000000     
 -0.15625000000000003        1.9374999999999998        0.0000000000000000     
   0.0000000000000000        1.9374999999999998        0.0000000000000000     
  -1.2500000000000002        2.0000000000000004        0.0000000000000000     
  -1.0937500000000000        2.0000000000000000        0.0000000000000000     
 -0.93749999999999989        2.0000000000000000        0.0000000000000000     
 -0.78125000000000022        2.0000000000000004        0.0000000000000000     
 -0.62500000000000022        2.0000000000000004        0.0000000000000000     
 -0.46875000000000006        2.0000000000000004        0.0000000000000000     
 -0.31250000000000006        2.0000000000000004        0.0000000000000000     
 -0.15625000000000000        2.0000000000000000        0.0000000000000000     
   0.0000000000000000        2.0000000000000004        0.0000000000000000     
   0.0000000000000000        1.5000000000000000        0.0000000000000000     
  0.15624999999999997        1.5000000000000007        0.0000000000000000     
  0.31249999999999994        1.5000000000000000        0.0000000000000000     
  0.46875000000000000        1.4999999999999998        0.0000000000000000     
  0.62500000000000011        1.5000000000000007        0.0000000000000000     
  0.78125000000000000        1.5000000000000000        0.0000000000000000     
  0.93750000000000000        1.4999999999999996        0.0000000000000000     
   1.0937500000000002        1.5000000000000004        0.0000000000000000     
   1.2500000000000000        1.5000000000000000        0.0000000000000000     
   0.0000000000000000        1.5625000000000002        0.0000000000000000     
  0.15625000000000006        1.5624999999999998        0.0000000000000000     
  0.31250000000000006        1.5625000000000002        0.0000000000000000     
  0.46875000000000000        1.5625000000000002        0.0000000000000000     
  0.62500000000000000        1.5624999999999998        0.0000000000000000     
  0.78125000000000022        1.5625000000000002        0.0000000000000000     
  0.93750000000000011        1.5625000000000002        0.0000000000000000     
   1.0937500000000002        1.5624999999999996        0.0000000000000000     
   1.2500000000000002        1.5625000000000002        0.0000000000000000     
   0.0000000000000000        1.6250000000000000        0.0000000000000000     
  0.15625000000000000        1.6250000000000000        0.0000000000000000     
  0.31249999999999994        1.6250000000000000        0.0000000000000000     
  0.46874999999999994        1.6250000000000000        0.0000000000000000     
  0.62500000000000011        1.6250000000000002        0.0000000000000000     
  0.78125000000000000        1.6250000000000000        0.0000000000000000     
  0.93750000000000000        1.6250000000000000        0.0000000000000000     
   1.0937500000000000        1.6250000000000000        0.0000000000000000     
   1.2500000000000000        1.6250000000000000        0.0000000000000000     
   0.0000000000000000        1.6874999999999998        0.0000000000000000     
  0.15624999999999997        1.6875000000000000        0.0000000000000000     
  0.31249999999999994        1.6874999999999996        0.0000000000000000     
  0.46875000000000006        1.6875000000000002        0.0000000000000000     
  0.62500000000000011        1.6875000000000007        0.0000000000000000     
  0.78124999999999967        1.6874999999999993        0.0000000000000000     
  0.93750000000000011        1.6875000000000002        0.0000000000000000     
   1.0937499999999998        1.6875000000000000        0.0000000000000000     
   1.2500000000000000        1.6874999999999998        0.0000000000000000     
   0.0000000000000000        1.7500000000000007        0.0000000000000000     
  0.15625000000000006        1.7500000000000000        0.0000000000000000     
  0.31250000000000000        1.7500000000000004        0.0000000000000000     
  0.46875000000000006        1.7500000000000007        0.0000000000000000     
  0.62500000000000022        1.7500000000000002        0.0000000000000000     
  0.78125000000000022        1.7500000000000007        0.0000000000000000     
  0.93750000000000011        1.7500000000000004        0.0000000000000000     
   1.0937500000000002        1.7500000000000000        0.0000000000000000     
   1.2500000000000002        1.7500000000000007        0.0000000000000000     
   0.0000000000000000        1.8125000000000000        0.0000000000000000     
  0.15625000000000000        1.8125000000000000        0.0000000000000000     
  0.31249999999999994        1.8125000000000000        0.0000000000000000     
  0.46874999999999989        1.8125000000000000        0.0000000000000000     
  0.62500000000000000        1.8125000000000000        0.0000000000000000     
  0.78125000000000000        1.8125000000000000        0.0000000000000000     
  0.93750000000000000        1.8125000000000000        0.0000000000000000     
   1.0937500000000000        1.8125000000000000        0.0000000000000000     
   1.2500000000000000        1.8125000000000000        0.0000000000000000     
   0.0000000000000000        1.8749999999999998        0.0000000000000000     
  0.15624999999999997        1.8750000000000004        0.0000000000000000     
  0.31249999999999994        1.8749999999999996        0.0000000000000000     
  0.46875000000000006        1.8749999999999996        0.0000000000000000     
  0.62500000000000011        1.8750000000000007        0.0000000000000000     
  0.78125000000000011        1.8749999999999998        0.0000000000000000     
  0.93750000000000011        1.8749999999999998        0.0000000000000000     
   1.0937499999999998        1.8750000000000002        0.0000000000000000     
   1.2500000000000000        1.8749999999999998        0.0000000000000000     
   0.0000000000000000        1.9374999999999998        0.0000000000000000     
  0.15625000000000003        1.9374999999999998        0.0000000000000000     
  0.31249999999999994        1.9375000000000002        0.0000000000000000     
  0.46874999999999983        1.9375000000000000        0.0000000000000000     
  0.62500000000000022        1.9375000000000002        0.0000000000000000     
  0.78125000000000000        1.9375000000000004        0.0000000000000000     
  0.93750000000000000        1.9375000000000004        0.0000000000000000     
   1.0937500000000002        1.9374999999999998        0.0000000000000000     
   1.2499999999999996        1.9374999999999998        0.0000000000000000     
   0.0000000000000000        2.0000000000000004        0.0000000000000000     
  0.15624999999999997        2.0000000000000000        0.0000000000000000     
  0.31249999999999994        2.0000000000000000        0.0000000000000000     
  0.46875000000000011        2.0000000000000004        0.0000000000000000     
  0.62500000000000022        2.0000000000000004        0.0000000000000000     
  0.78125000000000022        2.0000000000000004        0.0000000000000000     
  0.93750000000000011        2.0000000000000004        0.0000000000000000     
   1.0937499999999998        2.0000000000000000        0.0000000000000000     
   1.2500000000000002        2.0000000000000004        0.0000000000000000     
   1.2500000000000000        1.5000000000000000        0.0000000000000000     
   1.4062499999999998        1.5000000000000007        0.0000000000000000     
   1.5625000000000004        1.5000000000000000        0.0000000000000000     
   1.7187500000000002        1.4999999999999998        0.0000000000000000     
   1.8750000000000000        1.5000000000000007        0.0000000000000000     
   2.0312500000000004        1.5000000000000000        0.0000000000000000     
   2.1875000000000004        1.4999999999999996        0.0000000000000000     
   2.3437500000000000        1.5000000000000004        0.0000000000000000     
   2.5000000000000000        1.5000000000000000        0.0000000000000000     
   1.2500000000000002        1.5625000000000002        0.0000000000000000     
   1.4062500000000004        1.5624999999999998        0.0000000000000000     
   1.5625000000000000        1.5625000000000002        0.0000000000000000     
   1.7187500000000002        1.5625000000000002        0.0000000000000000     
   1.8750000000000002        1.5624999999999998        0.0000000000000000     
   2.0312500000000004        1.5625000000000002        0.0000000000000000     
   2.1875000000000000        1.5625000000000002        0.0000000000000000     
   2.3437500000000000        1.5624999999999996        0.0000000000000000     
   2.5000000000000004        1.5625000000000002        0.0000000000000000     
   1.2500000000000000        1.6250000000000000        0.0000000000000000     
   1.4062500000000000        1.6250000000000000        0.0000000000000000     
   1.5625000000000000        1.6250000000000000        0.0000000000000000     
   1.7187500000000000        1.6250000000000000        0.0000000000000000     
   1.8750000000000004        1.6250000000000002        0.0000000000000000     
   2.0312500000000000        1.6250000000000000        0.0000000000000000     
   2.1875000000000000        1.6250000000000000        0.0000000000000000     
   2.3437500000000000        1.6250000000000000        0.0000000000000000     
   2.5000000000000000        1.6250000000000000        0.0000000000000000     
   1.2500000000000000        1.6874999999999998        0.0000000000000000     
   1.4062499999999993        1.6875000000000000        0.0000000000000000     
   1.5624999999999998        1.6874999999999996        0.0000000000000000     
   1.7187500000000000        1.6875000000000002        0.0000000000000000     
   1.8750000000000000        1.6875000000000007        0.0000000000000000     
   2.0312499999999996        1.6874999999999993        0.0000000000000000     
   2.1875000000000004        1.6875000000000002        0.0000000000000000     
   2.3437499999999996        1.6875000000000000        0.0000000000000000     
   2.5000000000000000        1.6874999999999998        0.0000000000000000     
   1.2500000000000002        1.7500000000000007        0.0000000000000000     
   1.4062500000000007        1.7500000000000000        0.0000000000000000     
   1.5624999999999998        1.7500000000000004        0.0000000000000000     
   1.7187500000000002        1.7500000000000007        0.0000000000000000     
   1.8750000000000007        1.7500000000000002        0.0000000000000000     
   2.0312500000000000        1.7500000000000007        0.0000000000000000     
   2.1875000000000000        1.7500000000000004        0.0000000000000000     
   2.3437500000000004        1.7500000000000000        0.0000000000000000     
   2.5000000000000009        1.7500000000000007        0.0000000000000000     
   1.2500000000000000        1.8125000000000000        0.0000000000000000     
   1.4062500000000000        1.8125000000000000        0.0000000000000000     
   1.5625000000000000        1.8125000000000000        0.0000000000000000     
   1.7187499999999998        1.8125000000000000        0.0000000000000000     
   1.8750000000000000        1.8125000000000000        0.0000000000000000     
   2.0312500000000000        1.8125000000000000        0.0000000000000000     
   2.1875000000000000        1.8125000000000000        0.0000000000000000     
   2.3437500000000000        1.8125000000000000        0.0000000000000000     
   2.5000000000000000        1.8125000000000000        0.0000000000000000     
   1.2500000000000000        1.8749999999999998        0.0000000000000000     
   1.4062500000000000        1.8750000000000004        0.0000000000000000     
   1.5624999999999998        1.8749999999999996        0.0000000000000000     
   1.7187500000000000        1.8749999999999996        0.0000000000000000     
   1.8750000000000004        1.8750000000000007        0.0000000000000000     
   2.0312500000000004        1.8749999999999998        0.0000000000000000     
   2.1875000000000009        1.8749999999999998        0.0000000000000000     
   2.3437500000000000        1.8750000000000002        0.0000000000000000     
   2.5000000000000004        1.8749999999999998        0.0000000000000000     
   1.2499999999999996        1.9374999999999998        0.0000000000000000     
   1.4062500000000002        1.9374999999999998        0.0000000000000000     
   1.5625000000000000        1.9375000000000002        0.0000000000000000     
   1.7187499999999996        1.9375000000000000        0.0000000000000000     
   1.8750000000000007        1.9375000000000002        0.0000000000000000     
   2.0312500000000004        1.9375000000000004        0.0000000000000000     
   2.1874999999999996        1.9375000000000004        0.0000000000000000     
   2.3437500000000004        1.9374999999999998        0.0000000000000000     
   2.4999999999999991        1.9374999999999998        0.0000000000000000     
   1.2500000000000002        2.0000000000000004        0.0000000000000000     
   1.4062500000000000        2.0000000000000000        0.0000000000000000     
   1.5624999999999998        2.0000000000000000        0.0000000000000000     
   1.7187500000000004        2.0000000000000004        0.0000000000000000     
   1.8750000000000004        2.0000000000000004        0.0000000000000000     
   2.0312500000000004        2.0000000000000004        0.0000000000000000     
   2.1875000000000004        2.0000000000000004        0.0000000000000000     
   2.3437500000000000        2.0000000000000000        0.0000000000000000     
   2.5000000000000004        2.0000000000000004        0.0000000000000000     
   2.5000000000000000        1.5000000000000000        0.0000000000000000     
   2.6562500000000000        1.5000000000000004        0.0000000000000000     
   2.8125000000000004        1.5000000000000000        0.0000000000000000     
   2.9687500000000000        1.4999999999999998        0.0000000000000000     
   3.1250000000000000        1.5000000000000004        0.0000000000000000     
   3.2812500000000004        1.5000000000000002        0.0000000000000000     
   3.4375000000000000        1.4999999999999996        0.0000000000000000     
   3.5937500000000000        1.5000000000000002        0.0000000000000000     
   3.7500000000000004        1.5000000000000002        0.0000000000000000     
   2.5000000000000004        1.5625000000000002        0.0000000000000000     
   2.6562500000000004        1.5625000000000000        0.0000000000000000     
   2.8124999999999996        1.5625000000000000        0.0000000000000000     
   2.9687500000000004        1.5625000000000002        0.0000000000000000     
   3.1250000000000004        1.5625000000000000        0.0000000000000000     
   3.2812499999999996        1.5625000000000000        0.0000000000000000     
   3.4375000000000004        1.5625000000000002        0.0000000000000000     
   3.5937500000000009        1.5625000000000002        0.0000000000000000     
   3.7500000000000004        1.5625000000000000        0.0000000000000000     
   2.5000000000000000        1.6250000000000000        0.0000000000000000     
   2.6562500000000000        1.6250000000000000        0.0000000000000000     
   2.8125000000000000        1.6250000000000000        0.0000000000000000     
   2.9687500000000000        1.6250000000000000        0.0000000000000000     
   3.1250000000000000        1.6250000000000000        0.0000000000000000     
   3.2812500000000004        1.6250000000000002        0.0000000000000000     
   3.4375000000000000        1.6250000000000000        0.0000000000000000     
   3.5937500000000000        1.6250000000000000        0.0000000000000000     
   3.7500000000000000        1.6250000000000000        0.0000000000000000     
   2.5000000000000000        1.6874999999999998        0.0000000000000000     
   2.6562499999999996        1.6874999999999998        0.0000000000000000     
   2.8125000000000004        1.6875000000000002        0.0000000000000000     
   2.9687500000000000        1.6875000000000002        0.0000000000000000     
   3.1249999999999991        1.6874999999999998        0.0000000000000000     
   3.2812500000000013        1.6875000000000002        0.0000000000000000     
   3.4375000000000004        1.6875000000000002        0.0000000000000000     
   3.5937499999999996        1.6874999999999998        0.0000000000000000     
   3.7500000000000004        1.6875000000000002        0.0000000000000000     
   2.5000000000000009        1.7500000000000007        0.0000000000000000     
   2.6562500000000004        1.7500000000000000        0.0000000000000000     
   2.8125000000000004        1.7499999999999998        0.0000000000000000     
   2.9687500000000004        1.7500000000000007        0.0000000000000000     
   3.1250000000000004        1.7500000000000002        0.0000000000000000     
   3.2812499999999991        1.7499999999999998        0.0000000000000000     
   3.4375000000000004        1.7500000000000004        0.0000000000000000     
   3.5937500000000009        1.7500000000000000        0.0000000000000000     
   3.7500000000000004        1.7500000000000002        0.0000000000000000     
   2.5000000000000000        1.8125000000000000        0.0000000000000000     
   2.6562500000000000        1.8125000000000000        0.0000000000000000     
   2.8125000000000000        1.8125000000000000        0.0000000000000000     
   2.9687500000000004        1.8125000000000004        0.0000000000000000     
   3.1250000000000000        1.8125000000000000        0.0000000000000000     
   3.2812500000000000        1.8125000000000000        0.0000000000000000     
   3.4375000000000000        1.8125000000000000        0.0000000000000000     
   3.5937500000000000        1.8125000000000000        0.0000000000000000     
   3.7500000000000004        1.8125000000000000        0.0000000000000000     
   2.5000000000000004        1.8749999999999998        0.0000000000000000     
   2.6562499999999996        1.8749999999999998        0.0000000000000000     
   2.8125000000000004        1.8750000000000002        0.0000000000000000     
   2.9687500000000004        1.8749999999999996        0.0000000000000000     
   3.1250000000000000        1.8750000000000000        0.0000000000000000     
   3.2812500000000004        1.8750000000000002        0.0000000000000000     
   3.4375000000000004        1.8749999999999996        0.0000000000000000     
   3.5937499999999996        1.8750000000000000        0.0000000000000000     
   3.7500000000000004        1.8750000000000002        0.0000000000000000     
   2.4999999999999991        1.9374999999999998        0.0000000000000000     
   2.6562500000000004        1.9375000000000000        0.0000000000000000     
   2.8125000000000000        1.9374999999999998        0.0000000000000000     
   2.9687499999999991        1.9375000000000000        0.0000000000000000     
   3.1250000000000009        1.9375000000000000        0.0000000000000000     
   3.2812500000000000        1.9375000000000000        0.0000000000000000     
   3.4374999999999996        1.9375000000000004        0.0000000000000000     
   3.5937500000000013        1.9375000000000000        0.0000000000000000     
   3.7500000000000000        1.9375000000000000        0.0000000000000000     
   2.5000000000000004        2.0000000000000004        0.0000000000000000     
   2.6562499999999996        2.0000000000000000        0.0000000000000000     
   2.8125000000000000        2.0000000000000000        0.0000000000000000     
   2.9687500000000004        2.0000000000000004        0.0000000000000000     
   3.1249999999999996        2.0000000000000000        0.0000000000000000     
   3.2812500000000004        2.0000000000000004        0.0000000000000000     
   3.4375000000000004        2.0000000000000004        0.0000000000000000     
   3.5937499999999996        2.0000000000000000        0.0000000000000000     
   3.7500000000000000        2.0000000000000000        0.0000000000000000     
   3.7500000000000004        1.5000000000000002        0.0000000000000000     
   3.9062500000000000        1.5000000000000000        0.0000000000000000     
   4.0625000000000009        1.5000000000000000        0.0000000000000000     
   4.2187500000000009        1.5000000000000002        0.0000000000000000     
   4.3750000000000000        1.4999999999999996        0.0000000000000000     
   4.5312500000000009        1.5000000000000000        0.0000000000000000     
   4.6875000000000009        1.5000000000000002        0.0000000000000000     
   4.8437500000000000        1.4999999999999998        0.0000000000000000     
   5.0000000000000000        1.5000000000000002        0.0000000000000000     
   3.7500000000000004        1.5625000000000000        0.0000000000000000     
   3.9062500000000018        1.5625000000000004        0.0000000000000000     
   4.0625000000000000        1.5624999999999998        0.0000000000000000     
   4.2187500000000009        1.5625000000000004        0.0000000000000000     
   4.3750000000000009        1.5625000000000004        0.0000000000000000     
   4.5312500000000009        1.5625000000000000        0.0000000000000000     
   4.6875000000000000        1.5625000000000000        0.0000000000000000     
   4.8437500000000000        1.5625000000000002        0.0000000000000000     
   5.0000000000000000        1.5624999999999998        0.0000000000000000     
   3.7500000000000000        1.6250000000000000        0.0000000000000000     
   3.9062500000000004        1.6250000000000000        0.0000000000000000     
   4.0625000000000009        1.6250000000000004        0.0000000000000000     
   4.2187500000000000        1.6250000000000000        0.0000000000000000     
   4.3750000000000000        1.6250000000000000        0.0000000000000000     
   4.5312500000000000        1.6250000000000000        0.0000000000000000     
   4.6875000000000000        1.6250000000000000        0.0000000000000000     
   4.8437500000000000        1.6250000000000000        0.0000000000000000     
   5.0000000000000000        1.6250000000000000        0.0000000000000000     
   3.7500000000000004        1.6875000000000002        0.0000000000000000     
   3.9062500000000004        1.6875000000000002        0.0000000000000000     
   4.0625000000000000        1.6875000000000000        0.0000000000000000     
   4.2187500000000009        1.6875000000000002        0.0000000000000000     
   4.3750000000000009        1.6874999999999998        0.0000000000000000     
   4.5312500000000000        1.6875000000000000        0.0000000000000000     
   4.6875000000000009        1.6875000000000002        0.0000000000000000     
   4.8437499999999991        1.6874999999999996        0.0000000000000000     
   5.0000000000000000        1.6875000000000000        0.0000000000000000     
   3.7500000000000004        1.7500000000000002        0.0000000000000000     
   3.9062500000000018        1.7500000000000004        0.0000000000000000     
   4.0625000000000000        1.7499999999999998        0.0000000000000000     
   4.2187500000000000        1.7500000000000000        0.0000000000000000     
   4.3750000000000000        1.7500000000000002        0.0000000000000000     
   4.5312500000000009        1.7500000000000000        0.0000000000000000     
   4.6875000000000000        1.7499999999999998        0.0000000000000000     
   4.8437500000000000        1.7500000000000004        0.0000000000000000     
   5.0000000000000000        1.7499999999999998        0.0000000000000000     
   3.7500000000000004        1.8125000000000000        0.0000000000000000     
   3.9062500000000004        1.8125000000000002        0.0000000000000000     
   4.0625000000000000        1.8125000000000000        0.0000000000000000     
   4.2187500000000000        1.8125000000000000        0.0000000000000000     
   4.3750000000000000        1.8125000000000000        0.0000000000000000     
   4.5312500000000000        1.8125000000000000        0.0000000000000000     
   4.6875000000000000        1.8125000000000000        0.0000000000000000     
   4.8437500000000000        1.8125000000000000        0.0000000000000000     
   5.0000000000000000        1.8125000000000000        0.0000000000000000     
   3.7500000000000004        1.8750000000000002        0.0000000000000000     
   3.9062500000000004        1.8749999999999998        0.0000000000000000     
   4.0624999999999991        1.8750000000000000        0.0000000000000000     
   4.2187500000000000        1.8750000000000000        0.0000000000000000     
   4.3750000000000000        1.8750000000000000        0.0000000000000000     
   4.5312500000000000        1.8749999999999998        0.0000000000000000     
   4.6875000000000000        1.8750000000000000        0.0000000000000000     
   4.8437500000000000        1.8749999999999996        0.0000000000000000     
   5.0000000000000000        1.8750000000000000        0.0000000000000000     
   3.7500000000000000        1.9375000000000000        0.0000000000000000     
   3.9062500000000004        1.9375000000000000        0.0000000000000000     
   4.0625000000000000        1.9375000000000000        0.0000000000000000     
   4.2187499999999991        1.9374999999999998        0.0000000000000000     
   4.3750000000000009        1.9375000000000000        0.0000000000000000     
   4.5312500000000000        1.9375000000000000        0.0000000000000000     
   4.6875000000000000        1.9374999999999998        0.0000000000000000     
   4.8437500000000000        1.9375000000000000        0.0000000000000000     
   5.0000000000000000        1.9374999999999998        0.0000000000000000     
   3.7500000000000000        2.0000000000000000        0.0000000000000000     
   3.9062500000000009        2.0000000000000000        0.0000000000000000     
   4.0625000000000000        2.0000000000000000        0.0000000000000000     
   4.2187500000000009        2.0000000000000004        0.0000000000000000     
   4.3750000000000000        2.0000000000000000        0.0000000000000000     
   4.5312500000000009        2.0000000000000000        0.0000000000000000     
   4.6875000000000009        2.0000000000000000        0.0000000000000000     
   4.8437499999999991        2.0000000000000000        0.0000000000000000     
   5.0000000000000000        2.0000000000000000        0.0000000000000000     
 </DataArray>
 </Points>
 <Cells>
 <DataArray  type="Int32"  Name="connectivity"  format="ascii">
           0           1          10           9
           1           2          11          10
           2           3          12          11
           3           4          13          12
           4           5          14          13
           5           6          15          14
           6           7          16          15
           7           8          17          16
           9          10          19          18
          10          11          20          19
          11          12          21          20
          12          13          22          21
          13          14          23          22
          14          15          24          23
          15          16          25          24
          16          17          26          25
          18          19          28          27
          19          20          29          28
          20          21          30          29
          21          22          31          30
          22          23          32          31
          23          24          33          32
          24          25          34          33
          25          26          35          34
          27          28          37          36
          28          29          38          37
          29          30          39          38
          30          31          40          39
          31          32          41          40
          32          33          42          41
          33          34          43          42
          34          35          44          43
          36          37          46          45
          37          38          47          46
          38          39          48          47
          39          40          49          48
          40          41          50          49
          41          42          51          50
          42          43          52          51
          43          44          53          52
          45          46          55          54
          46          47          56          55
          47          48          57          56
          48          49          58          57
          49          50          59          58
          50          51          60          59
          51          52          61          60
          52          53          62          61
          54          55          64          63
          55          56          65          64
          56          57          66          65
          57          58          67          66
          58          59          68          67
          59          60          69          68
          60          61          70          69
          61          62          71          70
          63          64          73          72
          64          65          74          73
          65          66          75          74
          66          67          76          75
          67          68          77          76
          68          69          78          77
          69          70          79          78
          70          71          80          79
          81          82          91          90
          82          83          92          91
          83          84          93          92
          84          85          94          93
          85          86          95          94
          86          87          96          95
          87          88          97          96
          88          89          98          97
          90          91         100          99
          91          92         101         100
          92          93         102         101
          93          94         103         102
          94          95         104         103
          95          96         105         104
          96          97         106         105
          97          98         107         106
          99         100         109         108
         100         101         110         109
         101         102         111         110
         102         103         112         111
         103         104         113         112
         104         105         114         113
         105         106         115         114
         106         107         116         115
         108         109         118         117
         109         110         119         118
         110         111         120         119
         111         112         121         120
         112         113         122         121
         113         114         123         122
         114         115         124         123
         115         116         125         124
         117         118         127         126
         118         119         128         127
         119         120         129         128
         120         121         130         129
         121         122         131         130
         122         123         132         131
         123         124         133         132
         124         125         134         133
         126         127         136         135
         127         128         137         136
         128         129         138         137
         129         130         139         138
         130         131         140         139
         131         132         141         140
         132         133         142         141
         133         134         143         142
         135         136         145         144
         136         137         146         145
         137         138         147         146
         138         139         148         147
         139         140         149         148
         140         141         150         149
         141         142         151         150
         142         143         152         151
         144         145         154         153
         145         146         155         154
         146         147         156         155
         147         148         157         156
         148         149         158         157
         149         150         159         158
         150         151         160         159
         151         152         161         160
         162         163         172         171
         163         164         173         172
         164         165         174         173
         165         166         175         174
         166         167         176         175
         167         168         177         176
         168         169         178         177
         169         170         179         178
         171         172         181         180
         172         173         182         181
         173         174         183         182
         174         175         184         183
         175         176         185         184
         176         177         186         185
         177         178         187         186
         178         179         188         187
         180         181         190         189
         181         182         191         190
         182         183         192         191
         183         184         193         192
         184         185         194         193
         185         186         195         194
         186         187         196         195
         187         188         197         196
         189         190         199         198
         190         191         200         199
         191         192         201         200
         192         193         202         201
         193         194         203         202
         194         195         204         203
         195         196         205         204
         196         197         206         205
         198         199         208         207
         199         200         209         208
         200         201         210         209
         201         202         211         210
         202         203         212         211
         203         204         213         212
         204         205         214         213
         205         206         215         214
         207         208         217         216
         208         209         218         217
         209         210         219         218
         210         211         220         219
         211         212         221         220
         212         213         222         221
         213         214         223         222
         214         215         224         223
         216         217         226         225
         217         218         227         226
         218         219         228         227
         219         220         229         228
         220         221         230         229
         221         222         231         230
         222         223         232         231
         223         224         233         232
         225         226         235         234
         226         227         236         235
         227         228         237         236
         228         229         238         237
         229         230         239         238
         230         231         240         239
         231         232         241         240
         232         233         242         241
         243         244         253         252
         244         245         254         253
         245         246         255         254
         246         247         256         255
         247         248         257         256
         248         249         258         257
         249         250         259         258
         250         251         260         259
         252         253         262         261
         253         254         263         262
         254         255         264         263
         255         256         265         264
         256         257         266         265
         257         258         267         266
         258         259         268         267
         259         260         269         268
         261         262         271         270
         262         263         272         271
         263         264         273         272
         264         265         274         273
         265         266         275         274
         266         267         276         275
         267         268         277         276
         268         269         278         277
         270         271         280         279
         271         272         281         280
         272         273         282         281
         273         274         283         282
         274         275         284         283
         275         276         285         284
         276         277         286         285
         277         278         287         286
         279         280         289         288
         280         281         290         289
         281         282         291         290
         282         283         292         291
         283         284         293         292
         284         285         294         293
         285         286         295         294
         286         287         296         295
         288         289         298         297
         289         290         299         298
         290         291         300         299
         291         292         301         300
         292         293         302         301
         293         294         303         302
         294         295         304         303
         295         296         305         304
         297         298         307         306
         298         299         308         307
         299         300         309         308
         300         301         310         309
         301         302         311         310
         302         303         312         311
         303         304         313         312
         304         305         314         313
         306         307         316         315
         307         308         317         316
         308         309         318         317
         309         310         319         318
         310         311         320         319
         311         312         321         320
         312         313         322         321
         313         314         323         322
         324         325         334         333
         325         326         335         334
         326         327         336         335
         327         328         337         336
         328         329         338         337
         329         330         339         338
         330         331         340         339
         331         332         341         340
         333         334         343         342
         334         335         344         343
         335         336         345         344
         336         337         346         345
         337         338         347         346
         338         339         348         347
         339         340         349         348
         340         341         350         349
         342         343         352         351
         343         344         353         352
         344         345         354         353
         345         346         355         354
         346         347         356         355
         347         348         357         356
         348         349         358         357
         349         350         359         358
         351         352         361         360
         352         353         362         361
         353         354         363         362
         354         355         364         363
         355         356         365         364
         356         357         366         365
         357         358         367         366
         358         359         368         367
         360         361         370         369
         361         362         371         370
         362         363         372         371
         363         364         373         372
         364         365         374         373
         365         366         375         374
         366         367         376         375
         367         368         377         376
         369         370         379         378
         370         371         380         379
         371         372         381         380
         372         373         382         381
         373         374         383         382
         374         375         384         383
         375         376         385         384
         376         377         386         385
         378         379         388         387
         379         380         389         388
         380         381         390         389
         381         382         391         390
         382         383         392         391
         383         384         393         392
         384         385         394         393
         385         386         395         394
         387         388         397         396
         388         389         398         397
         389         390         399         398
         390         391         400         399
         391         392         401         400
         392         393         402         401
         393         394         403         402
         394         395         404         403
         405         406         415         414
         406         407         416         415
         407         408         417         416
         408         409         418         417
         409         410         419         418
         410         411         420         419
         411         412         421         420
         412         413         422         421
         414         415         424         423
         415         416         425         424
         416         417         426         425
         417         418         427         426
         418         419         428         427
         419         420         429         428
         420         421         430         429
         421         422         431         430
         423         424         433         432
         424         425         434         433
         425         426         435         434
         426         427         436         435
         427         428         437         436
         428         429         438         437
         429         430         439         438
         430         431         440         439
         432         433         442         441
         433         434         443         442
         434         435         444         443
         435         436         445         444
         436         437         446         445
         437         438         447         446
         438         439         448         447
         439         440         449         448
         441         442         451         450
         442         443         452         451
         443         444         453         452
         444         445         454         453
         445         446         455         454
         446         447         456         455
         447         448         457         456
         448         449         458         457
         450         451         460         459
         451         452         461         460
         452         453         462         461
         453         454         463         462
         454         455         464         463
         455         456         465         464
         456         457         466         465
         457         458         467         466
         459         460         469         468
         460         461         470         469
         461         462         471         470
         462         463         472         471
         463         464         473         472
         464         465         474         473
         465         466         475         474
         466         467         476         475
         468         469         478         477
         469         470         479         478
         470         471         480         479
         471         472         481         480
         472         473         482         481
         473         474         483         482
         474         475         484         483
         475         476         485         484
         486         487         496         495
         487         488         497         496
         488         489         498         497
         489         490         499         498
         490         491         500         499
         491         492         501         500
         492         493         502         501
         493         494         503         502
         495         496         505         504
         496         497         506         505
         497         498         507         506
         498         499         508         507
         499         500         509         508
         500         501         510         509
         501         502         511         510
         502         503         512         511
         504         505         514         513
         505         506         515         514
         506         507         516         515
         507         508         517         516
         508         509         518         517
         509         510         519         518
         510         511         520         519
         511         512         521         520
         513         514         523         522
         514         515         524         523
         515         516         525         524
         516         517         526         525
         517         518         527         526
         518         519         528         527
         519         520         529         528
         520         521         530         529
         522         523         532         531
         523         524         533         532
         524         525         534         533
         525         526         535         534
         526         527         536         535
         527         528         537         536
         528         529         538         537
         529         530         539         538
         531         532         541         540
         532         533         542         541
         533         534         543         542
         534         535         544         543
         535         536         545         544
         536         537         546         545
         537         538         547         546
         538         539         548         547
         540         541         550         549
         541         542         551         550
         542         543         552         551
         543         544         553         552
         544         545         554         553
         545         546         555         554
         546         547         556         555
         547         548         557         556
         549         550         559         558
         550         551         560         559
         551         552         561         560
         552         553         562         561
         553         554         563         562
         554         555         564         563
         555         556         565         564
         556         557         566         565
         567         568         577         576
         568         569         578         577
         569         570         579         578
         570         571         580         579
         571         572         581         580
         572         573         582         581
         573         574         583         582
         574         575         584         583
         576         577         586         585
         577         578         587         586
         578         579         588         587
         579         580         589         588
         580         581         590         589
         581         582         591         590
         582         583         592         591
         583         584         593         592
         585         586         595         594
         586         587         596         595
         587         588         597         596
         588         589         598         597
         589         590         599         598
         590         591         600         599
         591         592         601         600
         592         593         602         601
         594         595         604         603
         595         596         605         604
         596         597         606         605
         597         598         607         606
         598         599         608         607
         599         600         609         608
         600         601         610         609
         601         602         611         610
         603         604         613         612
         604         605         614         613
         605         606         615         614
         606         607         616         615
         607         608         617         616
         608         609         618         617
         609         610         619         618
         610         611         620         619
         612         613         622         621
         613         614         623         622
         614         615         624         623
         615         616         625         624
         616         617         626         625
         617         618         627         626
         618         619         628         627
         619         620         629         628
         621         622         631         630
         622         623         632         631
         623         624         633         632
         624         625         634         633
         625         626         635         634
         626         627         636         635
         627         628         637         636
         628         629         638         637
         630         631         640         639
         631         632         641         640
         632         633         642         641
         633         634         643         642
         634         635         644         643
         635         636         645         644
         636         637         646         645
         637         638         647         646
         648         649         658         657
         649         650         659         658
         650         651         660         659
         651         652         661         660
         652         653         662         661
         653         654         663         662
         654         655         664         663
         655         656         665         664
         657         658         667         666
         658         659         668         667
         659         660         669         668
         660         661         670         669
         661         662         671         670
         662         663         672         671
         663         664         673         672
         664         665         674         673
         666         667         676         675
         667         668         677         676
         668         669         678         677
         669         670         679         678
         670         671         680         679
         671         672         681         680
         672         673         682         681
         673         674         683         682
         675         676         685         684
         676         677         686         685
         677         678         687         686
         678         679         688         687
         679         680         689         688
         680         681         690         689
         681         682         691         690
         682         683         692         691
         684         685         694         693
         685         686         695         694
         686         687         696         695
         687         688         697         696
         688         689         698         697
         689         690         699         698
         690         691         700         699
         691         692         701         700
         693         694         703         702
         694         695         704         703
         695         696         705         704
         696         697         706         705
         697         698         707         706
         698         699         708         707
         699         700         709         708
         700         701         710         709
         702         703         712         711
         703         704         713         712
         704         705         714         713
         705         706         715         714
         706         707         716         715
         707         708         717         716
         708         709         718         717
         709         710         719         718
         711         712         721         720
         712         713         722         721
         713         714         723         722
         714         715         724         723
         715         716         725         724
         716         717         726         725
         717         718         727         726
         718         719         728         727
         729         730         739         738
         730         731         740         739
         731         732         741         740
         732         733         742         741
         733         734         743         742
         734         735         744         743
         735         736         745         744
         736         737         746         745
         738         739         748         747
         739         740         749         748
         740         741         750         749
         741         742         751         750
         742         743         752         751
         743         744         753         752
         744         745         754         753
         745         746         755         754
         747         748         757         756
         748         749         758         757
         749         750         759         758
         750         751         760         759
         751         752         761         760
         752         753         762         761
         753         754         763         762
         754         755         764         763
         756         757         766         765
         757         758         767         766
         758         759         768         767
         759         760         769         768
         760         761         770         769
         761         762         771         770
         762         763         772         771
         763         764         773         772
         765         766         775         774
         766         767         776         775
         767         768         777         776
         768         769         778         777
         769         770         779         778
         770         771         780         779
         771         772         781         780
         772         773         782         781
         774         775         784         783
         775         776         785         784
         776         777         786         785
         777         778         787         786
         778         779         788         787
         779         780         789         788
         780         781         790         789
         781         782         791         790
         783         784         793         792
         784         785         794         793
         785         786         795         794
         786         787         796         795
         787         788         797         796
         788         789         798         797
         789         790         799         798
         790         791         800         799
         792         793         802         801
         793         794         803         802
         794         795         804         803
         795         796         805         804
         796         797         806         805
         797         798         807         806
         798         799         808         807
         799         800         809         808
         810         811         820         819
         811         812         821         820
         812         813         822         821
         813         814         823         822
         814         815         824         823
         815         816         825         824
         816         817         826         825
         817         818         827         826
         819         820         829         828
         820         821         830         829
         821         822         831         830
         822         823         832         831
         823         824         833         832
         824         825         834         833
         825         826         835         834
         826         827         836         835
         828         829         838         837
         829         830         839         838
         830         831         840         839
         831         832         841         840
         832         833         842         841
         833         834         843         842
         834         835         844         843
         835         836         845         844
         837         838         847         846
         838         839         848         847
         839         840         849         848
         840         841         850         849
         841         842         851         850
         842         843         852         851
         843         844         853         852
         844         845         854         853
         846         847         856         855
         847         848         857         856
         848         849         858         857
         849         850         859         858
         850         851         860         859
         851         852         861         860
         852         853         862         861
         853         854         863         862
         855         856         865         864
         856         857         866         865
         857         858         867         866
         858         859         868         867
         859         860         869         868
         860         861         870         869
         861         862         871         870
         862         863         872         871
         864         865         874         873
         865         866         875         874
         866         867         876         875
         867         868         877         876
         868         869         878         877
         869         870         879         878
         870         871         880         879
         871         872         881         880
         873         874         883         882
         874         875         884         883
         875         876         885         884
         876         877         886         885
         877         878         887         886
         878         879         888         887
         879         880         889         888
         880         881         890         889
         891         892         901         900
         892         893         902         901
         893         894         903         902
         894         895         904         903
         895         896         905         904
         896         897         906         905
         897         898         907         906
         898         899         908         907
         900         901         910         909
         901         902         911         910
         902         903         912         911
         903         904         913         912
         904         905         914         913
         905         906         915         914
         906         907         916         915
         907         908         917         916
         909         910         919         918
         910         911         920         919
         911         912         921         920
         912         913         922         921
         913         914         923         922
         914         915         924         923
         915         916         925         924
         916         917         926         925
         918         919         928         927
         919         920         929         928
         920         921         930         929
         921         922         931         930
         922         923         932         931
         923         924         933         932
         924         925         934         933
         925         926         935         934
         927         928         937         936
         928         929         938         937
         929         930         939         938
         930         931         940         939
         931         932         941         940
         932         933         942         941
         933         934         943         942
         934         935         944         943
         936         937         946         945
         937         938         947         946
         938         939         948         947
         939         940         949         948
         940         941         950         949
         941         942         951         950
         942         943         952         951
         943         944         953         952
         945         946         955         954
         946         947         956         955
         947         948         957         956
         948         949         958         957
         949         950         959         958
         950         951         960         959
         951         952         961         960
         952         953         962         961
         954         955         964         963
         955         956         965         964
         956         957         966         965
         957         958         967         966
         958         959         968         967
         959         960         969         968
         960         961         970         969
         961         962         971         970
         972         973         982         981
         973         974         983         982
         974         975         984         983
         975         976         985         984
         976         977         986         985
         977         978         987         986
         978         979         988         987
         979         980         989         988
         981         982         991         990
         982         983         992         991
         983         984         993         992
         984         985         994         993
         985         986         995         994
         986         987         996         995
         987         988         997         996
         988         989         998         997
         990         991        1000         999
         991         992        1001        1000
         992         993        1002        1001
         993         994        1003        1002
         994         995        1004        1003
         995         996        1005        1004
         996         997        1006        1005
         997         998        1007        1006
         999        1000        1009        1008
        1000        1001        1010        1009
        1001        1002        1011        1010
        1002        1003        1012        1011
        1003        1004        1013        1012
        1004        1005        1014        1013
        1005        1006        1015        1014
        1006        1007        1016        1015
        1008        1009        1018        1017
        1009        1010        1019        1018
        1010        1011        1020        1019
        1011        1012        1021        1020
        1012        1013        1022        1021
        1013        1014        1023        1022
        1014        1015        1024        1023
        1015        1016        1025        1024
        1017        1018        1027        1026
        1018        1019        1028        1027
        1019        1020        1029        1028
        1020        1021        1030        1029
        1021        1022        1031        1030
        1022        1023        1032        1031
        1023        1024        1033        1032
        1024        1025        1034        1033
        1026        1027        1036        1035
        1027        1028        1037        1036
        1028        1029        1038        1037
        1029        1030        1039        1038
        1030        1031        1040        1039
        1031        1032        1041        1040
        1032        1033        1042        1041
        1033        1034        1043        1042
        1035        1036        1045        1044
        1036        1037        1046        1045
        1037        1038        1047        1046
        1038        1039        1048        1047
        1039        1040        1049        1048
        1040        1041        1050        1049
        1041        1042        1051        1050
        1042        1043        1052        1051
        1053        1054        1063        1062
        1054        1055        1064        1063
        1055        1056        1065        1064
        1056        1057        1066        1065
        1057        1058        1067        1066
        1058        1059        1068        1067
        1059        1060        1069        1068
        1060        1061        1070        1069
        1062        1063        1072        1071
        1063        1064        1073        1072
        1064        1065        1074        1073
        1065        1066        1075        1074
        1066        1067        1076        1075
        1067        1068        1077        1076
        1068        1069        1078        1077
        1069        1070        1079        1078
        1071        1072        1081        1080
        1072        1073        1082        1081
        1073        1074        1083        1082
        1074        1075        1084        1083
        1075        1076        1085        1084
        1076        1077        1086        1085
        1077        1078        1087        1086
        1078        1079        1088        1087
        1080        1081        1090        1089
        1081        1082        1091        1090
        1082        1083        1092        1091
        1083        1084        1093        1092
        1084        1085        1094        1093
        1085        1086        1095        1094
        1086        1087        1096        1095
        1087        1088        1097        1096
        1089        1090        1099        1098
        1090        1091        1100        1099
        1091        1092        1101        1100
        1092        1093        1102        1101
        1093        1094        1103        1102
        1094        1095        1104        1103
        1095        1096        1105        1104
        1096        1097        1106        1105
        1098        1099        1108        1107
        1099        1100        1109        1108
        1100        1101        1110        1109
        1101        1102        1111        1110
        1102        1103        1112        1111
        1103        1104        1113        1112
        1104        1105        1114        1113
        1105        1106        1115        1114
        1107        1108        1117        1116
        1108        1109        1118        1117
        1109        1110        1119        1118
        1110        1111        1120        1119
        1111        1112        1121        1120
        1112        1113        1122        1121
        1113        1114        1123        1122
        1114        1115        1124        1123
        1116        1117        1126        1125
        1117        1118        1127        1126
        1118        1119        1128        1127
        1119        1120        1129        1128
        1120        1121        1130        1129
        1121        1122        1131        1130
        1122        1123        1132        1131
        1123        1124        1133        1132
        1134        1135        1144        1143
        1135        1136        1145        1144
        1136        1137        1146        1145
        1137        1138        1147        1146
        1138        1139        1148        1147
        1139        1140        1149        1148
        1140        1141        1150        1149
        1141        1142        1151        1150
        1143        1144        1153        1152
        1144        1145        1154        1153
        1145        1146        1155        1154
        1146        1147        1156        1155
        1147        1148        1157        1156
        1148        1149        1158        1157
        1149        1150        1159        1158
        1150        1151        1160        1159
        1152        1153        1162        1161
        1153        1154        1163        1162
        1154        1155        1164        1163
        1155        1156        1165        1164
        1156        1157        1166        1165
        1157        1158        1167        1166
        1158        1159        1168        1167
        1159        1160        1169        1168
        1161        1162        1171        1170
        1162        1163        1172        1171
        1163        1164        1173        1172
        1164        1165        1174        1173
        1165        1166        1175        1174
        1166        1167        1176        1175
        1167        1168        1177        1176
        1168        1169        1178        1177
        1170        1171        1180        1179
        1171        1172        1181        1180
        1172        1173        1182        1181
        1173        1174        1183        1182
        1174        1175        1184        1183
        1175        1176        1185        1184
        1176        1177        1186        1185
        1177        1178        1187        1186
        1179        1180        1189        1188
        1180        1181        1190        1189
        1181        1182        1191        1190
        1182        1183        1192        1191
        1183        1184        1193        1192
        1184        1185        1194        1193
        1185        1186        1195        1194
        1186        1187        1196        1195
        1188        1189        1198        1197
        1189        1190        1199        1198
        1190        1191        1200        1199
        1191        1192        1201        1200
        1192        1193        1202        1201
        1193        1194        1203        1202
        1194        1195        1204        1203
        1195        1196        1205        1204
        1197        1198        1207        1206
        1198        1199        1208        1207
        1199        1200        1209        1208
        1200        1201        1210        1209
        1201        1202        1211        1210
        1202        1203        1212        1211
        1203        1204        1213        1212
        1204        1205        1214        1213
        1215        1216        1225        1224
        1216        1217        1226        1225
        1217        1218        1227        1226
        1218        1219        1228        1227
        1219        1220        1229        1228
        1220        1221        1230        1229
        1221        1222        1231        1230
        1222        1223        1232        1231
        1224        1225        1234        1233
        1225        1226        1235        1234
        1226        1227        1236        1235
        1227        1228        1237        1236
        1228        1229        1238        1237
        1229        1230        1239        1238
        1230        1231        1240        1239
        1231        1232        1241        1240
        1233        1234        1243        1242
        1234        1235        1244        1243
        1235        1236        1245        1244
        1236        1237        1246        1245
        1237        1238        1247        1246
        1238        1239        1248        1247
        1239        1240        1249        1248
        1240        1241        1250        1249
        1242        1243        1252        1251
        1243        1244        1253        1252
        1244        1245        1254        1253
        1245        1246        1255        1254
        1246        1247        1256        1255
        1247        1248        1257        1256
        1248        1249        1258        1257
        1249        1250        1259        1258
        1251        1252        1261        1260
        1252        1253        1262        1261
        1253        1254        1263        1262
        1254        1255        1264        1263
        1255        1256        1265        1264
        1256        1257        1266        1265
        1257        1258        1267        1266
        1258        1259        1268        1267
        1260        1261        1270        1269
        1261        1262        1271        1270
        1262        1263        1272        1271
        1263        1264        1273        1272
        1264        1265        1274        1273
        1265        1266        1275        1274
        1266        1267        1276        1275
        1267        1268        1277        1276
        1269        1270        1279        1278
        1270        1271        1280        1279
        1271        1272        1281        1280
        1272        1273        1282        1281
        1273        1274        1283        1282
        1274        1275        1284        1283
        1275        1276        1285        1284
        1276        1277        1286        1285
        1278        1279        1288        1287
        1279        1280        1289        1288
        1280        1281        1290        1289
        1281        1282        1291        1290
        1282        1283        1292        1291
        1283        1284        1293        1292
        1284        1285        1294        1293
        1285        1286        1295        1294
        1296        1297        1306        1305
        1297        1298        1307        1306
        1298        1299        1308        1307
        1299        1300        1309        1308
        1300        1301        1310        1309
        1301        1302        1311        1310
        1302        1303        1312        1311
        1303        1304        1313        1312
        1305        1306        1315        1314
        1306        1307        1316        1315
        1307        1308        1317        1316
        1308        1309        1318        1317
        1309        1310        1319        1318
        1310        1311        1320        1319
        1311        1312        1321        1320
        1312        1313        1322        1321
        1314        1315        1324        1323
        1315        1316        1325        1324
        1316        1317        1326        1325
        1317        1318        1327        1326
        1318        1319        1328        1327
        1319        1320        1329        1328
        1320        1321        1330        1329
        1321        1322        1331        1330
        1323        1324        1333        1332
        1324        1325        1334        1333
        1325        1326        1335        1334
        1326        1327        1336        1335
        1327        1328        1337        1336
        1328        1329        1338        1337
        1329        1330        1339        1338
        1330        1331        1340        1339
        1332        1333        1342        1341
        1333        1334        1343        1342
        1334        1335        1344        1343
        1335        1336        1345        1344
        1336        1337        1346        1345
        1337        1338        1347        1346
        1338        1339        1348        1347
        1339        1340        1349        1348
        1341        1342        1351        1350
        1342        1343        1352        1351
        1343        1344        1353        1352
        1344        1345        1354        1353
        1345        1346        1355        1354
        1346        1347        1356        1355
        1347        1348        1357        1356
        1348        1349        1358        1357
        1350        1351        1360        1359
        1351        1352        1361        1360
        1352        1353        1362        1361
        1353        1354        1363        1362
        1354        1355        1364        1363
        1355        1356        1365        1364
        1356        1357        1366        1365
        1357        1358        1367        1366
        1359        1360        1369        1368
        1360        1361        1370        1369
        1361        1362        1371        1370
        1362        1363        1372        1371
        1363        1364        1373        1372
        1364        1365        1374        1373
        1365        1366        1375        1374
        1366        1367        1376        1375
        1377        1378        1387        1386
        1378        1379        1388        1387
        1379        1380        1389        1388
        1380        1381        1390        1389
        1381        1382        1391        1390
        1382        1383        1392        1391
        1383        1384        1393        1392
        1384        1385        1394        1393
        1386        1387        1396        1395
        1387        1388        1397        1396
        1388        1389        1398        1397
        1389        1390        1399        1398
        1390        1391        1400        1399
        1391        1392        1401        1400
        1392        1393        1402        1401
        1393        1394        1403        1402
        1395        1396        1405        1404
        1396        1397        1406        1405
        1397        1398        1407        1406
        1398        1399        1408        1407
        1399        1400        1409        1408
        1400        1401        1410        1409
        1401        1402        1411        1410
        1402        1403        1412        1411
        1404        1405        1414        1413
        1405        1406        1415        1414
        1406        1407        1416        1415
        1407        1408        1417        1416
        1408        1409        1418        1417
        1409        1410        1419        1418
        1410        1411        1420        1419
        1411        1412        1421        1420
        1413        1414        1423        1422
        1414        1415        1424        1423
        1415        1416        1425        1424
        1416        1417        1426        1425
        1417        1418        1427        1426
        1418        1419        1428        1427
        1419        1420        1429        1428
        1420        1421        1430        1429
        1422        1423        1432        1431
        1423        1424        1433        1432
        1424        1425        1434        1433
        1425        1426        1435        1434
        1426        1427        1436        1435
        1427        1428        1437        1436
        1428        1429        1438        1437
        1429        1430        1439        1438
        1431        1432        1441        1440
        1432        1433        1442        1441
        1433        1434        1443        1442
        1434        1435        1444        1443
        1435        1436        1445        1444
        1436        1437        1446        1445
        1437        1438        1447        1446
        1438        1439        1448        1447
        1440        1441        1450        1449
        1441        1442        1451        1450
        1442        1443        1452        1451
        1443        1444        1453        1452
        1444        1445        1454        1453
        1445        1446        1455        1454
        1446        1447        1456        1455
        1447        1448        1457        1456
        1458        1459        1468        1467
        1459        1460        1469        1468
        1460        1461        1470        1469
        1461        1462        1471        1470
        1462        1463        1472        1471
        1463        1464        1473        1472
        1464        1465        1474        1473
        1465        1466        1475        1474
        1467        1468        1477        1476
        1468        1469        1478        1477
        1469        1470        1479        1478
        1470        1471        1480        1479
        1471        1472        1481        1480
        1472        1473        1482        1481
        1473        1474        1483        1482
        1474        1475        1484        1483
        1476        1477        1486        1485
        1477        1478        1487        1486
        1478        1479        1488        1487
        1479        1480        1489        1488
        1480        1481        1490        1489
        1481        1482        1491        1490
        1482        1483        1492        1491
        1483        1484        1493        1492
        1485        1486        1495        1494
        1486        1487        1496        1495
        1487        1488        1497        1496
        1488        1489        1498        1497
        1489        1490        1499        1498
        1490        1491        1500        1499
        1491        1492        1501        1500
        1492        1493        1502        1501
        1494        1495        1504        1503
        1495        1496        1505        1504
        1496        1497        1506        1505
        1497        1498        1507        1506
        1498        1499        1508        1507
        1499        1500        1509        1508
        1500        1501        1510        1509
        1501        1502        1511        1510
        1503        1504        1513        1512
        1504        1505        1514        1513
        1505        1506        1515        1514
        1506        1507        1516        1515
        1507        1508        1517        1516
        1508        1509        1518        1517
        1509        1510        1519        1518
        1510        1511        1520        1519
        1512        1513        1522        1521
        1513        1514        1523        1522
        1514        1515        1524        1523
        1515        1516        1525        1524
        1516        1517        1526        1525
        1517        1518        1527        1526
        1518        1519        1528        1527
        1519        1520        1529        1528
        1521        1522        1531        1530
        1522        1523        1532        1531
        1523        1524        1533        1532
        1524        1525        1534        1533
        1525        1526        1535        1534
        1526        1527        1536        1535
        1527        1528        1537        1536
        1528        1529        1538        1537
        1539        1540        1549        1548
        1540        1541        1550        1549
        1541        1542        1551        1550
        1542        1543        1552        1551
        1543        1544        1553        1552
        1544        1545        1554        1553
        1545        1546        1555        1554
        1546        1547        1556        1555
        1548        1549        1558        1557
        1549        1550        1559        1558
        1550        1551        1560        1559
        1551        1552        1561        1560
        1552        1553        1562        1561
        1553        1554        1563        1562
        1554        1555        1564        1563
        1555        1556        1565        1564
        1557        1558        1567        1566
        1558        1559        1568        1567
        1559        1560        1569        1568
        1560        1561        1570        1569
        1561        1562        1571        1570
        1562        1563        1572        1571
        1563        1564        1573        1572
        1564        1565        1574        1573
        1566        1567        1576        1575
        1567        1568        1577        1576
        1568        1569        1578        1577
        1569        1570        1579        1578
        1570        1571        1580        1579
        1571        1572        1581        1580
        1572        1573        1582        1581
        1573        1574        1583        1582
        1575        1576        1585        1584
        1576        1577        1586        1585
        1577        1578        1587        1586
        1578        1579        1588        1587
        1579        1580        1589        1588
        1580        1581        1590        1589
        1581        1582        1591        1590
        1582        1583        1592        1591
        1584        1585        1594        1593
        1585        1586        1595        1594
        1586        1587        1596        1595
        1587        1588        1597        1596
        1588        1589        1598        1597
        1589        1590        1599        1598
        1590        1591        1600        1599
        1591        1592        1601        1600
        1593        1594        1603        1602
        1594        1595        1604        1603
        1595        1596        1605        1604
        1596        1597        1606        1605
        1597        1598        1607        1606
        1598        1599        1608        1607
        1599        1600        1609        1608
        1600        1601        1610        1609
        1602        1603        1612        1611
        1603        1604        1613        1612
        1604        1605        1614        1613
        1605        1606        1615        1614
        1606        1607        1616        1615
        1607        1608        1617        1616
        1608        1609        1618        1617
        1609        1610        1619        1618
        1620        1621        1630        1629
        1621        1622        1631        1630
        1622        1623        1632        1631
        1623        1624        1633        1632
        1624        1625        1634        1633
        1625        1626        1635        1634
        1626        1627        1636        1635
        1627        1628        1637        1636
        1629        1630        1639        1638
        1630        1631        1640        1639
        1631        1632        1641        1640
        1632        1633        1642        1641
        1633        1634        1643        1642
        1634        1635        1644        1643
        1635        1636        1645        1644
        1636        1637        1646        1645
        1638        1639        1648        1647
        1639        1640        1649        1648
        1640        1641        1650        1649
        1641        1642        1651        1650
        1642        1643        1652        1651
        1643        1644        1653        1652
        1644        1645        1654        1653
        1645        1646        1655        1654
        1647        1648        1657        1656
        1648        1649        1658        1657
        1649        1650        1659        1658
        1650        1651        1660        1659
        1651        1652        1661        1660
        1652        1653        1662        1661
        1653        1654        1663        1662
        1654        1655        1664        1663
        1656        1657        1666        1665
        1657        1658        1667        1666
        1658        1659        1668        1667
        1659        1660        1669        1668
        1660        1661        1670        1669
        1661        1662        1671        1670
        1662        1663        1672        1671
        1663        1664        1673        1672
        1665        1666        1675        1674
        1666        1667        1676        1675
        1667        1668        1677        1676
        1668        1669        1678        1677
        1669        1670        1679        1678
        1670        1671        1680        1679
        1671        1672        1681        1680
        1672        1673        1682        1681
        1674        1675        1684        1683
        1675        1676        1685        1684
        1676        1677        1686        1685
        1677        1678        1687        1686
        1678        1679        1688        1687
        1679        1680        1689        1688
        1680        1681        1690        1689
        1681        1682        1691        1690
        1683        1684        1693        1692
        1684        1685        1694        1693
        1685        1686        1695        1694
        1686        1687        1696        1695
        1687        1688        1697        1696
        1688        1689        1698        1697
        1689        1690        1699        1698
        1690        1691        1700        1699
        1701        1702        1711        1710
        1702        1703        1712        1711
        1703        1704        1713        1712
        1704        1705        1714        1713
        1705        1706        1715        1714
        1706        1707        1716        1715
        1707        1708        1717        1716
        1708        1709        1718        1717
        1710        1711        1720        1719
        1711        1712        1721        1720
        1712        1713        1722        1721
        1713        1714        1723        1722
        1714        1715        1724        1723
        1715        1716        1725        1724
        1716        1717        1726        1725
        1717        1718        1727        1726
        1719        1720        1729        1728
        1720        1721        1730        1729
        1721        1722        1731        1730
        1722        1723        1732        1731
        1723        1724        1733        1732
        1724        1725        1734        1733
        1725        1726        1735        1734
        1726        1727        1736        1735
        1728        1729        1738        1737
        1729        1730        1739        1738
        1730        1731        1740        1739
        1731        1732        1741        1740
        1732        1733        1742        1741
        1733        1734        1743        1742
        1734        1735        1744        1743
        1735        1736        1745        1744
        1737        1738        1747        1746
        1738        1739        1748        1747
        1739        1740        1749        1748
        1740        1741        1750        1749
        1741        1742        1751        1750
        1742        1743        1752        1751
        1743        1744        1753        1752
        1744        1745        1754        1753
        1746        1747        1756        1755
        1747        1748        1757        1756
        1748        1749        1758        1757
        1749        1750        1759        1758
        1750        1751        1760        1759
        1751        1752        1761        1760
        1752        1753        1762        1761
        1753        1754        1763        1762
        1755        1756        1765        1764
        1756        1757        1766        1765
        1757        1758        1767        1766
        1758        1759        1768        1767
        1759        1760        1769        1768
        1760        1761        1770        1769
        1761        1762        1771        1770
        1762        1763        1772        1771
        1764        1765        1774        1773
        1765        1766        1775        1774
        1766        1767        1776        1775
        1767        1768        1777        1776
        1768        1769        1778        1777
        1769        1770        1779        1778
        1770        1771        1780        1779
        1771        1772        1781        1780
        1782        1783        1792        1791
        1783        1784        1793        1792
        1784        1785        1794        1793
        1785        1786        1795        1794
        1786        1787        1796        1795
        1787        1788        1797        1796
        1788        1789        1798        1797
        1789        1790        1799        1798
        1791        1792        1801        1800
        1792        1793        1802        1801
        1793        1794        1803        1802
        1794        1795        1804        1803
        1795        1796        1805        1804
        1796        1797        1806        1805
        1797        1798        1807        1806
        1798        1799        1808        1807
        1800        1801        1810        1809
        1801        1802        1811        1810
        1802        1803        1812        1811
        1803        1804        1813        1812
        1804        1805        1814        1813
        1805        1806        1815        1814
        1806        1807        1816        1815
        1807        1808        1817        1816
        1809        1810        1819        1818
        1810        1811        1820        1819
        1811        1812        1821        1820
        1812        1813        1822        1821
        1813        1814        1823        1822
        1814        1815        1824        1823
        1815        1816        1825        1824
        1816        1817        1826        1825
        1818        1819        1828        1827
        1819        1820        1829        1828
        1820        1821        1830        1829
        1821        1822        1831        1830
        1822        1823        1832        1831
        1823        1824        1833        1832
        1824        1825        1834        1833
        1825        1826        1835        1834
        1827        1828        1837        1836
        1828        1829        1838        1837
        1829        1830        1839        1838
        1830        1831        1840        1839
        1831        1832        1841        1840
        1832        1833        1842        1841
        1833        1834        1843        1842
        1834        1835        1844        1843
        1836        1837        1846        1845
        1837        1838        1847        1846
        1838        1839        1848        1847
        1839        1840        1849        1848
        1840        1841        1850        1849
        1841        1842        1851        1850
        1842        1843        1852        1851
        1843        1844        1853        1852
        1845        1846        1855        1854
        1846        1847        1856        1855
        1847        1848        1857        1856
        1848        1849        1858        1857
        1849        1850        1859        1858
        1850        1851        1860        1859
        1851        1852        1861        1860
        1852        1853        1862        1861
        1863        1864        1873        1872
        1864        1865        1874        1873
        1865        1866        1875        1874
        1866        1867        1876        1875
        1867        1868        1877        1876
        1868        1869        1878        1877
        1869        1870        1879        1878
        1870        1871        1880        1879
        1872        1873        1882        1881
        1873        1874        1883        1882
        1874        1875        1884        1883
        1875        1876        1885        1884
        1876        1877        1886        1885
        1877        1878        1887        1886
        1878        1879        1888        1887
        1879        1880        1889        1888
        1881        1882        1891        1890
        1882        1883        1892        1891
        1883        1884        1893        1892
        1884        1885        1894        1893
        1885        1886        1895        1894
        1886        1887        1896        1895
        1887        1888        1897        1896
        1888        1889        1898        1897
        1890        1891        1900        1899
        1891        1892        1901        1900
        1892        1893        1902        1901
        1893        1894        1903        1902
        1894        1895        1904        1903
        1895        1896        1905        1904
        1896        1897        1906        1905
        1897        1898        1907        1906
        1899        1900        1909        1908
        1900        1901        1910        1909
        1901        1902        1911        1910
        1902        1903        1912        1911
        1903        1904        1913        1912
        1904        1905        1914        1913
        1905        1906        1915        1914
        1906        1907        1916        1915
        1908        1909        1918        1917
        1909        1910        1919        1918
        1910        1911        1920        1919
        1911        1912        1921        1920
        1912        1913        1922        1921
        1913        1914        1923        1922
        1914        1915        1924        1923
        1915        1916        1925        1924
        1917        1918        1927        1926
        1918        1919        1928        1927
        1919        1920        1929        1928
        1920        1921        1930        1929
        1921        1922        1931        1930
        1922        1923        1932        1931
        1923        1924        1933        1932
        1924        1925        1934        1933
        1926        1927        1936        1935
        1927        1928        1937        1936
        1928        1929        1938        1937
        1929        1930        1939        1938
        1930        1931        1940        1939
        1931        1932        1941        1940
        1932        1933        1942        1941
        1933        1934        1943        1942
        1944        1945        1954        1953
        1945        1946        1955        1954
        1946        1947        1956        1955
        1947        1948        1957        1956
        1948        1949        1958        1957
        1949        1950        1959        1958
        1950        1951        1960        1959
        1951        1952        1961        1960
        1953        1954        1963        1962
        1954        1955        1964        1963
        1955        1956        1965        1964
        1956        1957        1966        1965
        1957        1958        1967        1966
        1958        1959        1968        1967
        1959        1960        1969        1968
        1960        1961        1970        1969
        1962        1963        1972        1971
        1963        1964        1973        1972
        1964        1965        1974        1973
        1965        1966        1975        1974
        1966        1967        1976        1975
        1967        1968        1977        1976
        1968        1969        1978        1977
        1969        1970        1979        1978
        1971        1972        1981        1980
        1972        1973        1982        1981
        1973        1974        1983        1982
        1974        1975        1984        1983
        1975        1976        1985        1984
        1976        1977        1986        1985
        1977        1978        1987        1986
        1978        1979        1988        1987
        1980        1981        1990        1989
        1981        1982        1991        1990
        1982        1983        1992        1991
        1983        1984        1993        1992
        1984        1985        1994        1993
        1985        1986        1995        1994
        1986        1987        1996        1995
        1987        1988        1997        1996
        1989        1990        1999        1998
        1990        1991        2000        1999
        1991        1992        2001        2000
        1992        1993        2002        2001
        1993        1994        2003        2002
        1994        1995        2004        2003
        1995        1996        2005        2004
        1996        1997        2006        2005
        1998        1999        2008        2007
        1999        2000        2009        2008
        2000        2001        2010        2009
        2001        2002        2011        2010
        2002        2003        2012        2011
        2003        2004        2013        2012
        2004        2005        2014        2013
        2005        2006        2015        2014
        2007        2008        2017        2016
        2008        2009        2018        2017
        2009        2010        2019        2018
        2010        2011        2020        2019
        2011        2012        2021        2020
        2012        2013        2022        2021
        2013        2014        2023        2022
        2014        2015        2024        2023
        2025        2026        2035        2034
        2026        2027        2036        2035
        2027        2028        2037        2036
        2028        2029        2038        2037
        2029        2030        2039        2038
        2030        2031        2040        2039
        2031        2032        2041        2040
        2032        2033        2042        2041
        2034        2035        2044        2043
        2035        2036        2045        2044
        2036        2037        2046        2045
        2037        2038        2047        2046
        2038        2039        2048        2047
        2039        2040        2049        2048
        2040        2041        2050        2049
        2041        2042        2051        2050
        2043        2044        2053        2052
        2044        2045        2054        2053
        2045        2046        2055        2054
        2046        2047        2056        2055
        2047        2048        2057        2056
        2048        2049        2058        2057
        2049        2050        2059        2058
        2050        2051        2060        2059
        2052        2053        2062        2061
        2053        2054        2063        2062
        2054        2055        2064        2063
        2055        2056        2065        2064
        2056        2057        2066        2065
        2057        2058        2067        2066
        2058        2059        2068        2067
        2059        2060        2069        2068
        2061        2062        2071        2070
        2062        2063        2072        2071
        2063        2064        2073        2072
        2064        2065        2074        2073
        2065        2066        2075        2074
        2066        2067        2076        2075
        2067        2068        2077        2076
        2068        2069        2078        2077
        2070        2071        2080        2079
        2071        2072        2081        2080
        2072        2073        2082        2081
        2073        2074        2083        2082
        2074        2075        2084        2083
        2075        2076        2085        2084
        2076        2077        2086        2085
        2077        2078        2087        2086
        2079        2080        2089        2088
        2080        2081        2090        2089
        2081        2082        2091        2090
        2082        2083        2092        2091
        2083        2084        2093        2092
        2084        2085        2094        2093
        2085        2086        2095        2094
        2086        2087        2096        2095
        2088        2089        2098        2097
        2089        2090        2099        2098
        2090        2091        2100        2099
        2091        2092        2101        2100
        2092        2093        2102        2101
        2093        2094        2103        2102
        2094        2095        2104        2103
        2095        2096        2105        2104
        2106        2107        2116        2115
        2107        2108        2117        2116
        2108        2109        2118        2117
        2109        2110        2119        2118
        2110        2111        2120        2119
        2111        2112        2121        2120
        2112        2113        2122        2121
        2113        2114        2123        2122
        2115        2116        2125        2124
        2116        2117        2126        2125
        2117        2118        2127        2126
        2118        2119        2128        2127
        2119        2120        2129        2128
        2120        2121        2130        2129
        2121        2122        2131        2130
        2122        2123        2132        2131
        2124        2125        2134        2133
        2125        2126        2135        2134
        2126        2127        2136        2135
        2127        2128        2137        2136
        2128        2129        2138        2137
        2129        2130        2139        2138
        2130        2131        2140        2139
        2131        2132        2141        2140
        2133        2134        2143        2142
        2134        2135        2144        2143
        2135        2136        2145        2144
        2136        2137        2146        2145
        2137        2138        2147        2146
        2138        2139        2148        2147
        2139        2140        2149        2148
        2140        2141        2150        2149
        2142        2143        2152        2151
        2143        2144        2153        2152
        2144        2145        2154        2153
        2145        2146        2155        2154
        2146        2147        2156        2155
        2147        2148        2157        2156
        2148        2149        2158        2157
        2149        2150        2159        2158
        2151        2152        2161        2160
        2152        2153        2162        2161
        2153        2154        2163        2162
        2154        2155        2164        2163
        2155        2156        2165        2164
        2156        2157        2166        2165
        2157        2158        2167        2166
        2158        2159        2168        2167
        2160        2161        2170        2169
        2161        2162        2171        2170
        2162        2163        2172        2171
        2163        2164        2173        2172
        2164        2165        2174        2173
        2165        2166        2175        2174
        2166        2167        2176        2175
        2167        2168        2177        2176
        2169        2170        2179        2178
        2170        2171        2180        2179
        2171        2172        2181        2180
        2172        2173        2182        2181
        2173        2174        2183        2182
        2174        2175        2184        2183
        2175        2176        2185        2184
        2176        2177        2186        2185
        2187        2188        2197        2196
        2188        2189        2198        2197
        2189        2190        2199        2198
        2190        2191        2200        2199
        2191        2192        2201        2200
        2192        2193        2202        2201
        2193        2194        2203        2202
        2194        2195        2204        2203
        2196        2197        2206        2205
        2197        2198        2207        2206
        2198        2199        2208        2207
        2199        2200        2209        2208
        2200        2201        2210        2209
        2201        2202        2211        2210
        2202        2203        2212        2211
        2203        2204        2213        2212
        2205        2206        2215        2214
        2206        2207        2216        2215
        2207        2208        2217        2216
        2208        2209        2218        2217
        2209        2210        2219        2218
        2210        2211        2220        2219
        2211        2212        2221        2220
        2212        2213        2222        2221
        2214        2215        2224        2223
        2215        2216        2225        2224
        2216        2217        2226        2225
        2217        2218        2227        2226
        2218        2219        2228        2227
        2219        2220        2229        2228
        2220        2221        2230        2229
        2221        2222        2231        2230
        2223        2224        2233        2232
        2224        2225        2234        2233
        2225        2226        2235        2234
        2226        2227        2236        2235
        2227        2228        2237        2236
        2228        2229        2238        2237
        2229        2230        2239        2238
        2230        2231        2240        2239
        2232        2233        2242        2241
        2233        2234        2243        2242
        2234        2235        2244        2243
        2235        2236        2245        2244
        2236        2237        2246        2245
        2237        2238        2247        2246
        2238        2239        2248        2247
        2239        2240        2249        2248
        2241        2242        2251        2250
        2242        2243        2252        2251
        2243        2244        2253        2252
        2244        2245        2254        2253
        2245        2246        2255        2254
        2246        2247        2256        2255
        2247        2248        2257        2256
        2248        2249        2258        2257
        2250        2251        2260        2259
        2251        2252        2261        2260
        2252        2253        2262        2261
        2253        2254        2263        2262
        2254        2255        2264        2263
        2255        2256        2265        2264
        2256        2257        2266        2265
        2257        2258        2267        2266
        2268        2269        2278        2277
        2269        2270        2279        2278
        2270        2271        2280        2279
        2271        2272        2281        2280
        2272        2273        2282        2281
        2273        2274        2283        2282
        2274        2275        2284        2283
        2275        2276        2285        2284
        2277        2278        2287        2286
        2278        2279        2288        2287
        2279        2280        2289        2288
        2280        2281        2290        2289
        2281        2282        2291        2290
        2282        2283        2292        2291
        2283        2284        2293        2292
        2284        2285        2294        2293
        2286        2287        2296        2295
        2287        2288        2297        2296
        2288        2289        2298        2297
        2289        2290        2299        2298
        2290        2291        2300        2299
        2291        2292        2301        2300
        2292        2293        2302        2301
        2293        2294        2303        2302
        2295        2296        2305        2304
        2296        2297        2306        2305
        2297        2298        2307        2306
        2298        2299        2308        2307
        2299        2300        2309        2308
        2300        2301        2310        2309
        2301        2302        2311        2310
        2302        2303        2312        2311
        2304        2305        2314        2313
        2305        2306        2315        2314
        2306        2307        2316        2315
        2307        2308        2317        2316
        2308        2309        2318        2317
        2309        2310        2319        2318
        2310        2311        2320        2319
        2311        2312        2321        2320
        2313        2314        2323        2322
        2314        2315        2324        2323
        2315        2316        2325        2324
        2316        2317        2326        2325
        2317        2318        2327        2326
        2318        2319        2328        2327
        2319        2320        2329        2328
        2320        2321        2330        2329
        2322        2323        2332        2331
        2323        2324        2333        2332
        2324        2325        2334        2333
        2325        2326        2335        2334
        2326        2327        2336        2335
        2327        2328        2337        2336
        2328        2329        2338        2337
        2329        2330        2339        2338
        2331        2332        2341        2340
        2332        2333        2342        2341
        2333        2334        2343        2342
        2334        2335        2344        2343
        2335        2336        2345        2344
        2336        2337        2346        2345
        2337        2338        2347        2346
        2338        2339        2348        2347
        2349        2350        2359        2358
        2350        2351        2360        2359
        2351        2352        2361        2360
        2352        2353        2362        2361
        2353        2354        2363        2362
        2354        2355        2364        2363
        2355        2356        2365        2364
        2356        2357        2366        2365
        2358        2359        2368        2367
        2359        2360        2369        2368
        2360        2361        2370        2369
        2361        2362        2371        2370
        2362        2363        2372        2371
        2363        2364        2373        2372
        2364        2365        2374        2373
        2365        2366        2375        2374
        2367        2368        2377        2376
        2368        2369        2378        2377
        2369        2370        2379        2378
        2370        2371        2380        2379
        2371        2372        2381        2380
        2372        2373        2382        2381
        2373        2374        2383        2382
        2374        2375        2384        2383
        2376        2377        2386        2385
        2377        2378        2387        2386
        2378        2379        2388        2387
        2379        2380        2389        2388
        2380        2381        2390        2389
        2381        2382        2391        2390
        2382        2383        2392        2391
        2383        2384        2393        2392
        2385        2386        2395        2394
        2386        2387        2396        2395
        2387        2388        2397        2396
        2388        2389        2398        2397
        2389        2390        2399        2398
        2390        2391        2400        2399
        2391        2392        2401        2400
        2392        2393        2402        2401
        2394        2395        2404        2403
        2395        2396        2405        2404
        2396        2397        2406        2405
        2397        2398        2407        2406
        2398        2399        2408        2407
        2399        2400        2409        2408
        2400        2401        2410        2409
        2401        2402        2411        2410
        2403        2404        2413        2412
        2404        2405        2414        2413
        2405        2406        2415        2414
        2406        2407        2416        2415
        2407        2408        2417        2416
        2408        2409        2418        2417
        2409        2410        2419        2418
        2410        2411        2420        2419
        2412        2413        2422        2421
        2413        2414        2423        2422
        2414        2415        2424        2423
        2415        2416        2425        2424
        2416        2417        2426        2425
        2417        2418        2427        2426
        2418        2419        2428        2427
        2419        2420        2429        2428
        2430        2431        2440        2439
        2431        2432        2441        2440
        2432        2433        2442        2441
        2433        2434        2443        2442
        2434        2435        2444        2443
        2435        2436        2445        2444
        2436        2437        2446        2445
        2437        2438        2447        2446
        2439        2440        2449        2448
        2440        2441        2450        2449
        2441        2442        2451        2450
        2442        2443        2452        2451
        2443        2444        2453        2452
        2444        2445        2454        2453
        2445        2446        2455        2454
        2446        2447        2456        2455
        2448        2449        2458        2457
        2449        2450        2459        2458
        2450        2451        2460        2459
        2451        2452        2461        2460
        2452        2453        2462        2461
        2453        2454        2463        2462
        2454        2455        2464        2463
        2455        2456        2465        2464
        2457        2458        2467        2466
        2458        2459        2468        2467
        2459        2460        2469        2468
        2460        2461        2470        2469
        2461        2462        2471        2470
        2462        2463        2472        2471
        2463        2464        2473        2472
        2464        2465        2474        2473
        2466        2467        2476        2475
        2467        2468        2477        2476
        2468        2469        2478        2477
        2469        2470        2479        2478
        2470        2471        2480        2479
        2471        2472        2481        2480
        2472        2473        2482        2481
        2473        2474        2483        2482
        2475        2476        2485        2484
        2476        2477        2486        2485
        2477        2478        2487        2486
        2478        2479        2488        2487
        2479        2480        2489        2488
        2480        2481        2490        2489
        2481        2482        2491        2490
        2482        2483        2492        2491
        2484        2485        2494        2493
        2485        2486        2495        2494
        2486        2487        2496        2495
        2487        2488        2497        2496
        2488        2489        2498        2497
        2489        2490        2499        2498
        2490        2491        2500        2499
        2491        2492        2501        2500
        2493        2494        2503        2502
        2494        2495        2504        2503
        2495        2496        2505        2504
        2496        2497        2506        2505
        2497        2498        2507        2506
        2498        2499        2508        2507
        2499        2500        2509        2508
        2500        2501        2510        2509
        2511        2512        2521        2520
        2512        2513        2522        2521
        2513        2514        2523        2522
        2514        2515        2524        2523
        2515        2516        2525        2524
        2516        2517        2526        2525
        2517        2518        2527        2526
        2518        2519        2528        2527
        2520        2521        2530        2529
        2521        2522        2531        2530
        2522        2523        2532        2531
        2523        2524        2533        2532
        2524        2525        2534        2533
        2525        2526        2535        2534
        2526        2527        2536        2535
        2527        2528        2537        2536
        2529        2530        2539        2538
        2530        2531        2540        2539
        2531        2532        2541        2540
        2532        2533        2542        2541
        2533        2534        2543        2542
        2534        2535        2544        2543
        2535        2536        2545        2544
        2536        2537        2546        2545
        2538        2539        2548        2547
        2539        2540        2549        2548
        2540        2541        2550        2549
        2541        2542        2551        2550
        2542        2543        2552        2551
        2543        2544        2553        2552
        2544        2545        2554        2553
        2545        2546        2555        2554
        2547        2548        2557        2556
        2548        2549        2558        2557
        2549        2550        2559        2558
        2550        2551        2560        2559
        2551        2552        2561        2560
        2552        2553        2562        2561
        2553        2554        2563        2562
        2554        2555        2564        2563
        2556        2557        2566        2565
        2557        2558        2567        2566
        2558        2559        2568        2567
        2559        2560        2569        2568
        2560        2561        2570        2569
        2561        2562        2571        2570
        2562        2563        2572        2571
        2563        2564        2573        2572
        2565        2566        2575        2574
        2566        2567        2576        2575
        2567        2568        2577        2576
        2568        2569        2578        2577
        2569        2570        2579        2578
        2570        2571        2580        2579
        2571        2572        2581        2580
        2572        2573        2582        2581
        2574        2575        2584        2583
        2575        2576        2585        2584
        2576        2577        2586        2585
        2577        2578        2587        2586
        2578        2579        2588        2587
        2579        2580        2589        2588
        2580        2581        2590        2589
        2581        2582        2591        2590
 </DataArray>
 <DataArray  type="Int32"  Name="offsets"  format="ascii"> 
           4
           8
          12
          16
          20
          24
          28
          32
          36
          40
          44
          48
          52
          56
          60
          64
          68
          72
          76
          80
          84
          88
          92
          96
         100
         104
         108
         112
         116
         120
         124
         128
         132
         136
         140
         144
         148
         152
         156
         160
         164
         168
         172
         176
         180
         184
         188
         192
         196
         200
         204
         208
         212
         216
         220
         224
         228
         232
         236
         240
         244
         248
         252
         256
         260
         264
         268
         272
         276
         280
         284
         288
         292
         296
         300
         304
         308
         312
         316
         320
         324
         328
         332
         336
         340
         344
         348
         352
         356
         360
         364
         368
         372
         376
         380
         384
         388
         392
         396
         400
         404
         408
         412
         416
         420
         424
         428
         432
         436
         440
         444
         448
         452
         456
         460
         464
         468
         472
         476
         480
         484
         488
         492
         496
         500
         504
         508
         512
         516
         520
         524
         528
         532
         536
         540
         544
         548
         552
         556
         560
         564
         568
         572
         576
         580
         584
         588
         592
         596
         600
         604
         608
         612
         616
         620
         624
         628
         632
         636
         640
         644
         648
         652
         656
         660
         664
         668
         672
         676
         680
         684
         688
         692
         696
         700
         704
         708
         712
         716
         720
         724
         728
         732
         736
         740
         744
         748
         752
         756
         760
         764
         768
         772
         776
         780
         784
         788
         792
         796
         800
         804
         808
         812
         816
         820
         824
         828
         832
         836
         840
         844
         848
         852
         856
         860
         864
         868
         872
         876
         880
         884
         888
         892
         896
         900
         904
         908
         912
         916
         920
         924
         928
         932
         936
         940
         944
         948
         952
         956
         960
         964
         968
         972
         976
         980
         984
         988
         992
         996
        1000
        1004
        1008
        1012
        1016
        1020
        1024
        1028
        1032
        1036
        1040
        1044
        1048
        1052
        1056
        1060
        1064
        1068
        1072
        1076
        1080
        1084
        1088
        1092
        1096
        1100
        1104
        1108
        1112
        1116
        1120
        1124
        1128
        1132
        1136
        1140
        1144
        1148
        1152
        1156
        1160
        1164
        1168
        1172
        1176
        1180
        1184
        1188
        1192
        1196
        1200
        1204
        1208
        1212
        1216
        1220
        1224
        1228
        1232
        1236
        1240
        1244
        1248
        1252
        1256
        1260
        1264
        1268
        1272
        1276
        1280
        1284
        1288
        1292
        1296
        1300
        1304
        1308
        1312
        1316
        1320
        1324
        1328
        1332
        1336
        1340
        1344
        1348
        1352
        1356
        1360
        1364
        1368
        1372
        1376
        1380
        1384
        1388
        1392
        1396
        1400
        1404
        1408
        1412
        1416
        1420
        1424
        1428
        1432
        1436
        1440
        1444
        1448
        1452
        1456
        1460
        1464
        1468
        1472
        1476
        1480
        1484
        1488
        1492
        1496
        1500
        1504
        1508
        1512
        1516
        1520
        1524
        1528
        1532
        1536
        1540
        1544
        1548
        1552
        1556
        1560
        1564
        1568
        1572
        1576
        1580
        1584
        1588
        1592
        1596
        1600
        1604
        1608
        1612
        1616
        1620
        1624
        1628
        1632
        1636
        1640
        1644
        1648
        1652
        1656
        1660
        1664
        1668
        1672
        1676
        1680
        1684
        1688
        1692
        1696
        1700
        1704
        1708
        1712
        1716
        1720
        1724
        1728
        1732
        1736
        1740
        1744
        1748
        1752
        1756
        1760
        1764
        1768
        1772
        1776
        1780
        1784
        1788
        1792
        1796
        1800
        1804
        1808
        1812
        1816
        1820
        1824
        1828
        1832
        1836
        1840
        1844
        1848
        1852
        1856
        1860
        1864
        1868
        1872
        1876
        1880
        1884
        1888
        1892
        1896
        1900
        1904
        1908
        1912
        1916
        1920
        1924
        1928
        1932
        1936
        1940
        1944
        1948
        1952
        1956
        1960
        1964
        1968
        1972
        1976
        1980
        1984
        1988
        1992
        1996
        2000
        2004
        2008
        2012
        2016
        2020
        2024
        2028
        2032
        2036
        2040
        2044
        2048
        2052
        2056
        2060
        2064
        2068
        2072
        2076
        2080
        2084
        2088
        2092
        2096
        2100
        2104
        2108
        2112
        2116
        2120
        2124
        2128
        2132
        2136
        2140
        2144
        2148
        2152
        2156
        2160
        2164
        2168
        2172
        2176
        2180
        2184
        2188
        2192
        2196
        2200
        2204
        2208
        2212
        2216
        2220
        2224
        2228
        2232
        2236
        2240
        2244
        2248
        2252
        2256
        2260
        2264
        2268
        2272
        2276
        2280
        2284
        2288
        2292
        2296
        2300
        2304
        2308
        2312
        2316
        2320
        2324
        2328
        2332
        2336
        2340
        2344
        2348
        2352
        2356
        2360
        2364
        2368
        2372
        2376
        2380
        2384
        2388
        2392
        2396
        2400
        2404
        2408
        2412
        2416
        2420
        2424
        2428
        2432
        2436
        2440
        2444
        2448
        2452
        2456
        2460
        2464
        2468
        2472
        2476
        2480
        2484
        2488
        2492
        2496
        2500
        2504
        2508
        2512
        2516
        2520
        2524
        2528
        2532
        2536
        2540
        2544
        2548
        2552
        2556
        2560
        2564
        2568
        2572
        2576
        2580
        2584
        2588
        2592
        2596
        2600
        2604
        2608
        2612
        2616
        2620
        2624
        2628
        2632
        2636
        2640
        2644
        2648
        2652
        2656
        2660
        2664
        2668
        2672
        2676
        2680
        2684
        2688
        2692
        2696
        2700
        2704
        2708
        2712
        2716
        2720
        2724
        2728
        2732
        2736
        2740
        2744
        2748
        2752
        2756
        2760
        2764
        2768
        2772
        2776
        2780
        2784
        2788
        2792
        2796
        2800
        2804
        2808
        2812
        2816
        2820
        2824
        2828
        2832
        2836
        2840
        2844
        2848
        2852
        2856
        2860
        2864
        2868
        2872
        2876
        2880
        2884
        2888
        2892
        2896
        2900
        2904
        2908
        2912
        2916
        2920
        2924
        2928
        2932
        2936
        2940
        2944
        2948
        2952
        2956
        2960
        2964
        2968
        2972
        2976
        2980
        2984
        2988
        2992
        2996
        3000
        3004
        3008
        3012
        3016
        3020
        3024
        3028
        3032
        3036
        3040
        3044
        3048
        3052
        3056
        3060
        3064
        3068
        3072
        3076
        3080
        3084
        3088
        3092
        3096
        3100
        3104
        3108
        3112
        3116
        3120
        3124
        3128
        3132
        3136
        3140
        3144
        3148
        3152
        3156
        3160
        3164
        3168
        3172
        3176
        3180
        3184
        3188
        3192
        3196
        3200
        3204
        3208
        3212
        3216
        3220
        3224
        3228
        3232
        3236
        3240
        3244
        3248
        3252
        3256
        3260
        3264
        3268
        3272
        3276
        3280
        3284
        3288
        3292
        3296
        3300
        3304
        3308
        3312
        3316
        3320
        3324
        3328
        3332
        3336
        3340
        3344
        3348
        3352
        3356
        3360
        3364
        3368
        3372
        3376
        3380
        3384
        3388
        3392
        3396
        3400
        3404
        3408
        3412
        3416
        3420
        3424
        3428
        3432
        3436
        3440
        3444
        3448
        3452
        3456
        3460
        3464
        3468
        3472
        3476
        3480
        3484
        3488
        3492
        3496
        3500
        3504
        3508
        3512
        3516
        3520
        3524
        3528
        3532
        3536
        3540
        3544
        3548
        3552
        3556
        3560
        3564
        3568
        3572
        3576
        3580
        3584
        3588
        3592
        3596
        3600
        3604
        3608
        3612
        3616
        3620
        3624
        3628
        3632
        3636
        3640
        3644
        3648
        3652
        3656
        3660
        3664
        3668
        3672
        3676
        3680
        3684
        3688
        3692
        3696
        3700
        3704
        3708
        3712
        3716
        3720
        3724
        3728
        3732
        3736
        3740
        3744
        3748
        3752
        3756
        3760
        3764
        3768
        3772
        3776
        3780
        3784
        3788
        3792
        3796
        3800
        3804
        3808
        3812
        3816
        3820
        3824
        3828
        3832
        3836
        3840
        3844
        3848
        3852
        3856
        3860
        3864
        3868
        3872
        3876
        3880
        3884
        3888
        3892
        3896
        3900
        3904
        3908
        3912
        3916
        3920
        3924
        3928
        3932
        3936
        3940
        3944
        3948
        3952
        3956
        3960
        3964
        3968
        3972
        3976
        3980
        3984
        3988
        3992
        3996
        4000
        4004
        4008
        4012
        4016
        4020
        4024
        4028
        4032
        4036
        4040
        4044
        4048
        4052
        4056
        4060
        4064
        4068
        4072
        4076
        4080
        4084
        4088
        4092
        4096
        4100
        4104
        4108
        4112
        4116
        4120
        4124
        4128
        4132
        4136
        4140
        4144
        4148
        4152
        4156
        4160
        4164
        4168
        4172
        4176
        4180
        4184
        4188
        4192
        4196
        4200
        4204
        4208
        4212
        4216
        4220
        4224
        4228
        4232
        4236
        4240
        4244
        4248
        4252
        4256
        4260
        4264
        4268
        4272
        4276
        4280
        4284
        4288
        4292
        4296
        4300
        4304
        4308
        4312
        4316
        4320
        4324
        4328
        4332
        4336
        4340
        4344
        4348
        4352
        4356
        4360
        4364
        4368
        4372
        4376
        4380
        4384
        4388
        4392
        4396
        4400
        4404
        4408
        4412
        4416
        4420
        4424
        4428
        4432
        4436
        4440
        4444
        4448
        4452
        4456
        4460
        4464
        4468
        4472
        4476
        4480
        4484
        4488
        4492
        4496
        4500
        4504
        4508
        4512
        4516
        4520
        4524
        4528
        4532
        4536
        4540
        4544
        4548
        4552
        4556
        4560
        4564
        4568
        4572
        4576
        4580
        4584
        4588
        4592
        4596
        4600
        4604
        4608
        4612
        4616
        4620
        4624
        4628
        4632
        4636
        4640
        4644
        4648
        4652
        4656
        4660
        4664
        4668
        4672
        4676
        4680
        4684
        4688
        4692
        4696
        4700
        4704
        4708
        4712
        4716
        4720
        4724
        4728
        4732
        4736
        4740
        4744
        4748
        4752
        4756
        4760
        4764
        4768
        4772
        4776
        4780
        4784
        4788
        4792
        4796
        4800
        4804
        4808
        4812
        4816
        4820
        4824
        4828
        4832
        4836
        4840
        4844
        4848
        4852
        4856
        4860
        4864
        4868
        4872
        4876
        4880
        4884
        4888
        4892
        4896
        4900
        4904
        4908
        4912
        4916
        4920
        4924
        4928
        4932
        4936
        4940
        4944
        4948
        4952
        4956
        4960
        4964
        4968
        4972
        4976
        4980
        4984
        4988
        4992
        4996
        5000
        5004
        5008
        5012
        5016
        5020
        5024
        5028
        5032
        5036
        5040
        5044
        5048
        5052
        5056
        5060
        5064
        5068
        5072
        5076
        5080
        5084
        5088
        5092
        5096
        5100
        5104
        5108
        5112
        5116
        5120
        5124
        5128
        5132
        5136
        5140
        5144
        5148
        5152
        5156
        5160
        5164
        5168
        5172
        5176
        5180
        5184
        5188
        5192
        5196
        5200
        5204
        5208
        5212
        5216
        5220
        5224
        5228
        5232
        5236
        5240
        5244
        5248
        5252
        5256
        5260
        5264
        5268
        5272
        5276
        5280
        5284
        5288
        5292
        5296
        5300
        5304
        5308
        5312
        5316
        5320
        5324
        5328
        5332
        5336
        5340
        5344
        5348
        5352
        5356
        5360
        5364
        5368
        5372
        5376
        5380
        5384
        5388
        5392
        5396
        5400
        5404
        5408
        5412
        5416
        5420
        5424
        5428
        5432
        5436
        5440
        5444
        5448
        5452
        5456
        5460
        5464
        5468
        5472
        5476
        5480
        5484
        5488
        5492
        5496
        5500
        5504
        5508
        5512
        5516
        5520
        5524
        5528
        5532
        5536
        5540
        5544
        5548
        5552
        5556
        5560
        5564
        5568
        5572
        5576
        5580
        5584
        5588
        5592
        5596
        5600
        5604
        5608
        5612
        5616
        5620
        5624
        5628
        5632
        5636
        5640
        5644
        5648
        5652
        5656
        5660
        5664
        5668
        5672
        5676
        5680
        5684
        5688
        5692
        5696
        5700
        5704
        5708
        5712
        5716
        5720
        5724
        5728
        5732
        5736
        5740
        5744
        5748
        5752
        5756
        5760
        5764
        5768
        5772
        5776
        5780
        5784
        5788
        5792
        5796
        5800
        5804
        5808
        5812
        5816
        5820
        5824
        5828
        5832
        5836
        5840
        5844
        5848
        5852
        5856
        5860
        5864
        5868
        5872
        5876
        5880
        5884
        5888
        5892
        5896
        5900
        5904
        5908
        5912
        5916
        5920
        5924
        5928
        5932
        5936
        5940
        5944
        5948
        5952
        5956
        5960
        5964
        5968
        5972
        5976
        5980
        5984
        5988
        5992
        5996
        6000
        6004
        6008
        6012
        6016
        6020
        6024
        6028
        6032
        6036
        6040
        6044
        6048
        6052
        6056
        6060
        6064
        6068
        6072
        6076
        6080
        6084
        6088
        6092
        6096
        6100
        6104
        6108
        6112
        6116
        6120
        6124
        6128
        6132
        6136
        6140
        6144
        6148
        6152
        6156
        6160
        6164
        6168
        6172
        6176
        6180
        6184
        6188
        6192
        6196
        6200
        6204
        6208
        6212
        6216
        6220
        6224
        6228
        6232
        6236
        6240
        6244
        6248
        6252
        6256
        6260
        6264
        6268
        6272
        6276
        6280
        6284
        6288
        6292
        6296
        6300
        6304
        6308
        6312
        6316
        6320
        6324
        6328
        6332
        6336
        6340
        6344
        6348
        6352
        6356
        6360
        6364
        6368
        6372
        6376
        6380
        6384
        6388
        6392
        6396
        6400
        6404
        6408
        6412
        6416
        6420
        6424
        6428
        6432
        6436
        6440
        6444
        6448
        6452
        6456
        6460
        6464
        6468
        6472
        6476
        6480
        6484
        6488
        6492
        6496
        6500
        6504
        6508
        6512
        6516
        6520
        6524
        6528
        6532
        6536
        6540
        6544
        6548
        6552
        6556
        6560
        6564
        6568
        6572
        6576
        6580
        6584
        6588
        6592
        6596
        6600
        6604
        6608
        6612
        6616
        6620
        6624
        6628
        6632
        6636
        6640
        6644
        6648
        6652
        6656
        6660
        6664
        6668
        6672
        6676
        6680
        6684
        6688
        6692
        6696
        6700
        6704
        6708
        6712
        6716
        6720
        6724
        6728
        6732
        6736
        6740
        6744
        6748
        6752
        6756
        6760
        6764
        6768
        6772
        6776
        6780
        6784
        6788
        6792
        6796
        6800
        6804
        6808
        6812
        6816
        6820
        6824
        6828
        6832
        6836
        6840
        6844
        6848
        6852
        6856
        6860
        6864
        6868
        6872
        6876
        6880
        6884
        6888
        6892
        6896
        6900
        6904
        6908
        6912
        6916
        6920
        6924
        6928
        6932
        6936
        6940
        6944
        6948
        6952
        6956
        6960
        6964
        6968
        6972
        6976
        6980
        6984
        6988
        6992
        6996
        7000
        7004
        7008
        7012
        7016
        7020
        7024
        7028
        7032
        7036
        7040
        7044
        7048
        7052
        7056
        7060
        7064
        7068
        7072
        7076
        7080
        7084
        7088
        7092
        7096
        7100
        7104
        7108
        7112
        7116
        7120
        7124
        7128
        7132
        7136
        7140
        7144
        7148
        7152
        7156
        7160
        7164
        7168
        7172
        7176
        7180
        7184
        7188
        7192
        7196
        7200
        7204
        7208
        7212
        7216
        7220
        7224
        7228
        7232
        7236
        7240
        7244
        7248
        7252
        7256
        7260
        7264
        7268
        7272
        7276
        7280
        7284
        7288
        7292
        7296
        7300
        7304
        7308
        7312
        7316
        7320
        7324
        7328
        7332
        7336
        7340
        7344
        7348
        7352
        7356
        7360
        7364
        7368
        7372
        7376
        7380
        7384
        7388
        7392
        7396
        7400
        7404
        7408
        7412
        7416
        7420
        7424
        7428
        7432
        7436
        7440
        7444
        7448
        7452
        7456
        7460
        7464
        7468
        7472
        7476
        7480
        7484
        7488
        7492
        7496
        7500
        7504
        7508
        7512
        7516
        7520
        7524
        7528
        7532
        7536
        7540
        7544
        7548
        7552
        7556
        7560
        7564
        7568
        7572
        7576
        7580
        7584
        7588
        7592
        7596
        7600
        7604
        7608
        7612
        7616
        7620
        7624
        7628
        7632
        7636
        7640
        7644
        7648
        7652
        7656
        7660
        7664
        7668
        7672
        7676
        7680
        7684
        7688
        7692
        7696
        7700
        7704
        7708
        7712
        7716
        7720
        7724
        7728
        7732
        7736
        7740
        7744
        7748
        7752
        7756
        7760
        7764
        7768
        7772
        7776
        7780
        7784
        7788
        7792
        7796
        7800
        7804
        7808
        7812
        7816
        7820
        7824
        7828
        7832
        7836
        7840
        7844
        7848
        7852
        7856
        7860
        7864
        7868
        7872
        7876
        7880
        7884
        7888
        7892
        7896
        7900
        7904
        7908
        7912
        7916
        7920
        7924
        7928
        7932
        7936
        7940
        7944
        7948
        7952
        7956
        7960
        7964
        7968
        7972
        7976
        7980
        7984
        7988
        7992
        7996
        8000
        8004
        8008
        8012
        8016
        8020
        8024
        8028
        8032
        8036
        8040
        8044
        8048
        8052
        8056
        8060
        8064
        8068
        8072
        8076
        8080
        8084
        8088
        8092
        8096
        8100
        8104
        8108
        8112
        8116
        8120
        8124
        8128
        8132
        8136
        8140
        8144
        8148
        8152
        8156
        8160
        8164
        8168
        8172
        8176
        8180
        8184
        8188
        8192
 </DataArray>
 <DataArray  type="UInt8"  Name="types"  format="ascii">
 9
 9
 9
 9
 9
 9
 9
 9
 9
 9
 9
 9
 9
 9
 9
 9
 9
 9
 9
 9
 9
 9
 9
 9
 9
 9
 9
 9
 9
 9
 9
 9
 9
 9
 9
 9
 9
 9
 9
 9
 9
 9
 9
 9
 9
 9
 9
 9
 9
 9
 9
 9
 9
 9
 9
 9
 9
 9
 9
 9
 9
 9
 9
 9
 9
 9
 9
 9
 9
 9
 9
 9
 9
 9
 9
 9
 9
 9
 9
 9
 9
 9
 9
 9
 9
 9
 9
 9
 9
 9
 9
 9
 9
 9
 9
 9
 9
 9
 9
 9
 9
 9
 9
 9
 9
 9
 9
 9
 9
 9
 9
 9
 9
 9
 9
 9
 9
 9
 9
 9
 9
 9
 9
 9
 9
 9
 9
 9
 9
 9
 9
 9
 9
 9
 9
 9
 9
 9
 9
 9
 9
 9
 9
 9
 9
 9
 9
 9
 9
 9
 9
 9
 9
 9
 9
 9
 9
 9
 9
 9
 9
 9
 9
 9
 9
 9
 9
 9
 9
 9
 9
 9
 9
 9
 9
 9
 9
 9
 9
 9
 9
 9
 9
 9
 9
 9
 9
 9
 9
 9
 9
 9
 9
 9
 9
 9
 9
 9
 9
 9
 9
 9
 9
 9
 9
 9
 9
 9
 9
 9
 9
 9
 9
 9
 9
 9
 9
 9
 9
 9
 9
 9
 9
 9
 9
 9
 9
 9
 9
 9
 9
 9
 9
 9
 9
 9
 9
 9
 9
 9
 9
 9
 9
 9
 9
 9
 9
 9
 9
 9
 9
 9
 9
 9
 9
 9
 9
 9
 9
 9
 9
 9
 9
 9
 9
 9
 9
 9
 9
 9
 9
 9
 9
 9
 9
 9
 9
 9
 9
 9
 9
 9
 9
 9
 9
 9
 9
 9
 9
 9
 9
 9
 9
 9
 9
 9
 9
 9
 9
 9
 9
 9
 9
 9
 9
 9
 9
 9
 9
 9
 9
 9
 9
 9
 9
 9
 9
 9
 9
 9
 9
 9
 9
 9
 9
 9
 9
 9
 9
 9
 9
 9
 9
 9
 9
 9
 9
 9
 9
 9
 9
 9
 9
 9
 9
 9
 9
 9
 9
 9
 9
 9
 9
 9
 9
 9
 9
 9
 9
 9
 9
 9
 9
 9
 9
 9
 9
 9
 9
 9
 9
 9
 9
 9
 9
 9
 9
 9
 9
 9
 9
 9
 9
 9
 9
 9
 9
 9
 9
 9
 9
 9
 9
 9
 9
 9
 9
 9
 9
 9
 9
 9
 9
 9
 9
 9
 9
 9
 9
 9
 9
 9
 9
 9
 9
 9
 9
 9
 9
 9
 9
 9
 9
 9
 9
 9
 9
 9
 9
 9
 9
 9
 9
 9
 9
 9
 9
 9
 9
 9
 9
 9
 9
 9
 9
 9
 9
 9
 9
 9
 9
 9
 9
 9
 9
 9
 9
 9
 9
 9
 9
 9
 9
 9
 9
 9
 9
 9
 9
 9
 9
 9
 9
 9
 9
 9
 9
 9
 9
 9
 9
 9
 9
 9
 9
 9
 9
 9
 9
 9
 9
 9
 9
 9
 9
 9
 9
 9
 9
 9
 9
 9
 9
 9
 9
 9
 9
 9
 9
 9
 9
 9
 9
 9
 9
 9
 9
 9
 9
 9
 9
 9
 9
 9
 9
 9
 9
 9
 9
 9
 9
 9
 9
 9
 9
 9
 9
 9
 9
 9
 9
 9
 9
 9
 9
 9
 9
 9
 9
 9
 9
 9
 9
 9
 9
 9
 9
 9
 9
 9
 9
 9
 9
 9
 9
 9
 9
 9
 9
 9
 9
 9
 9
 9
 9
 9
 9
 9
 9
 9
 9
 9
 9
 9
 9
 9
 9
 9
 9
 9
 9
 9
 9
 9
 9
 9
 9
 9
 9
 9
 9
 9
 9
 9
 9
 9
 9
 9
 9
 9
 9
 9
 9
 9
 9
 9
 9
 9
 9
 9
 9
 9
 9
 9
 9
 9
 9
 9
 9
 9
 9
 9
 9
 9
 9
 9
 9
 9
 9
 9
 9
 9
 9
 9
 9
 9
 9
 9
 9
 9
 9
 9
 9
 9
 9
 9
 9
 9
 9
 9
 9
 9
 9
 9
 9
 9
 9
 9
 9
 9
 9
 9
 9
 9
 9
 9
 9
 9
 9
 9
 9
 9
 9
 9
 9
 9
 9
 9
 9
 9
 9
 9
 9
 9
 9
 9
 9
 9
 9
 9
 9
 9
 9
 9
 9
 9
 9
 9
 9
 9
 9
 9
 9
 9
 9
 9
 9
 9
 9
 9
 9
 9
 9
 9
 9
 9
 9
 9
 9
 9
 9
 9
 9
 9
 9
 9
 9
 9
 9
 9
 9
 9
 9
 9
 9
 9
 9
 9
 9
 9
 9
 9
 9
 9
 9
 9
 9
 9
 9
 9
 9
 9
 9
 9
 9
 9
 9
 9
 9
 9
 9
 9
 9
 9
 9
 9
 9
 9
 9
 9
 9
 9
 9
 9
 9
 9
 9
 9
 9
 9
 9
 9
 9
 9
 9
 9
 9
 9
 9
 9
 9
 9
 9
 9
 9
 9
 9
 9
 9
 9
 9
 9
 9
 9
 9
 9
 9
 9
 9
 9
 9
 9
 9
 9
 9
 9
 9
 9
 9
 9
 9
 9
 9
 9
 9
 9
 9
 9
 9
 9
 9
 9
 9
 9
 9
 9
 9
 9
 9
 9
 9
 9
 9
 9
 9
 9
 9
 9
 9
 9
 9
 9
 9
 9
 9
 9
 9
 9
 9
 9
 9
 9
 9
 9
 9
 9
 9
 9
 9
 9
 9
 9
 9
 9
 9
 9
 9
 9
 9
 9
 9
 9
 9
 9
 9
 9
 9
 9
 9
 9
 9
 9
 9
 9
 9
 9
 9
 9
 9
 9
 9
 9
 9
 9
 9
 9
 9
 9
 9
 9
 9
 9
 9
 9
 9
 9
 9
 9
 9
 9
 9
 9
 9
 9
 9
 9
 9
 9
 9
 9
 9
 9
 9
 9
 9
 9
 9
 9
 9
 9
 9
 9
 9
 9
 9
 9
 9
 9
 9
 9
 9
 9
 9
 9
 9
 9
 9
 9
 9
 9
 9
 9
 9
 9
 9
 9
 9
 9
 9
 9
 9
 9
 9
 9
 9
 9
 9
 9
 9
 9
 9
 9
 9
 9
 9
 9
 9
 9
 9
 9
 9
 9
 9
 9
 9
 9
 9
 9
 9
 9
 9
 9
 9
 9
 9
 9
 9
 9
 9
 9
 9
 9
 9
 9
 9
 9
 9
 9
 9
 9
 9
 9
 9
 9
 9
 9
 9
 9
 9
 9
 9
 9
 9
 9
 9
 9
 9
 9
 9
 9
 9
 9
 9
 9
 9
 9
 9
 9
 9
 9
 9
 9
 9
 9
 9
 9
 9
 9
 9
 9
 9
 9
 9
 9
 9
 9
 9
 9
 9
 9
 9
 9
 9
 9
 9
 9
 9
 9
 9
 9
 9
 9
 9
 9
 9
 9
 9
 9
 9
 9
 9
 9
 9
 9
 9
 9
 9
 9
 9
 9
 9
 9
 9
 9
 9
 9
 9
 9
 9
 9
 9
 9
 9
 9
 9
 9
 9
 9
 9
 9
 9
 9
 9
 9
 9
 9
 9
 9
 9
 9
 9
 9
 9
 9
 9
 9
 9
 9
 9
 9
 9
 9
 9
 9
 9
 9
 9
 9
 9
 9
 9
 9
 9
 9
 9
 9
 9
 9
 9
 9
 9
 9
 9
 9
 9
 9
 9
 9
 9
 9
 9
 9
 9
 9
 9
 9
 9
 9
 9
 9
 9
 9
 9
 9
 9
 9
 9
 9
 9
 9
 9
 9
 9
 9
 9
 9
 9
 9
 9
 9
 9
 9
 9
 9
 9
 9
 9
 9
 9
 9
 9
 9
 9
 9
 9
 9
 9
 9
 9
 9
 9
 9
 9
 9
 9
 9
 9
 9
 9
 9
 9
 9
 9
 9
 9
 9
 9
 9
 9
 9
 9
 9
 9
 9
 9
 9
 9
 9
 9
 9
 9
 9
 9
 9
 9
 9
 9
 9
 9
 9
 9
 9
 9
 9
 9
 9
 9
 9
 9
 9
 9
 9
 9
 9
 9
 9
 9
 9
 9
 9
 9
 9
 9
 9
 9
 9
 9
 9
 9
 9
 9
 9
 9
 9
 9
 9
 9
 9
 9
 9
 9
 9
 9
 9
 9
 9
 9
 9
 9
 9
 9
 9
 9
 9
 9
 9
 9
 9
 9
 9
 9
 9
 9
 9
 9
 9
 9
 9
 9
 9
 9
 9
 9
 9
 9
 9
 9
 9
 9
 9
 9
 9
 9
 9
 9
 9
 9
 9
 9
 9
 9
 9
 9
 9
 9
 9
 9
 9
 9
 9
 9
 9
 9
 9
 9
 9
 9
 9
 9
 9
 9
 9
 9
 9
 9
 9
 9
 9
 9
 9
 9
 9
 9
 9
 9
 9
 9
 9
 9
 9
 9
 9
 9
 9
 9
 9
 9
 9
 9
 9
 9
 9
 9
 9
 9
 9
 9
 9
 9
 9
 9
 9
 9
 9
 9
 9
 9
 9
 9
 9
 9
 9
 9
 9
 9
 9
 9
 9
 9
 9
 9
 9
 9
 9
 9
 9
 9
 9
 9
 9
 9
 9
 9
 9
 9
 9
 9
 9
 9
 9
 9
 9
 9
 9
 9
 9
 9
 9
 9
 9
 9
 9
 9
 9
 9
 9
 9
 9
 9
 9
 9
 9
 9
 9
 9
 9
 9
 9
 9
 9
 9
 9
 9
 9
 9
 9
 9
 9
 9
 9
 9
 9
 9
 9
 9
 9
 9
 9
 9
 9
 9
 9
 9
 9
 9
 9
 9
 9
 9
 9
 9
 9
 9
 9
 9
 9
 9
 9
 9
 9
 9
 9
 9
 9
 9
 9
 9
 9
 9
 9
 9
 9
 9
 9
 9
 9
 9
 9
 9
 9
 9
 9
 9
 9
 9
 9
 9
 9
 9
 9
 9
 9
 9
 9
 9
 9
 9
 9
 9
 9
 9
 9
 9
 9
 9
 9
 9
 9
 9
 9
 9
 9
 9
 9
 9
 9
 9
 9
 9
 9
 9
 9
 9
 9
 9
 9
 9
 9
 9
 9
 9
 9
 9
 9
 9
 9
 9
 9
 9
 9
 9
 9
 9
 9
 9
 9
 9
 9
 9
 9
 9
 9
 9
 9
 9
 9
 9
 9
 9
 9
 9
 9
 9
 9
 9
 9
 9
 9
 9
 9
 9
 9
 9
 9
 9
 9
 9
 9
 9
 9
 9
 9
 9
 9
 9
 9
 9
 9
 9
 9
 9
 9
 9
 9
 9
 9
 9
 9
 9
 9
 9
 9
 9
 9
 9
 9
 9
 9
 9
 9
 9
 9
 9
 9
 9
 9
 9
 9
 9
 9
 9
 9
 9
 9
 9
 9
 9
 9
 9
 9
 9
 9
 9
 9
 9
 9
 9
 9
 9
 9
 9
 9
 9
 9
 9
 9
 9
 9
 9
 9
 9
 9
 9
 9
 9
 9
 9
 9
 9
 9
 9
 9
 9
 9
 9
 9
 9
 9
 9
 9
 9
 9
 9
 9
 9
 9
 9
 9
 9
 9
 9
 9
 9
 9
 9
 9
 9
 9
 9
 9
 9
 9
 9
 9
 9
 9
 9
 9
 9
 9
 9
 9
 9
 9
 9
 9
 9
 9
 9
 9
 9
 9
 9
 9
 9
 9
 9
 9
 9
 9
 9
 9
 9
 9
 9
 9
 9
 9
 9
 9
 9
 9
 9
 9
 9
 9
 9
 9
 9
 9
 9
 9
 9
 9
 9
 9
 9
 9
 9
 9
 9
 9
 9
 9
 9
 9
 9
 9
 9
 9
 9
 9
 9
 9
 9
 9
 9
 9
 9
 9
 9
 9
 9
 9
 9
 9
 9
 9
 9
 9
 9
 9
 9
 9
 9
 9
 9
 9
 9
 9
 9
 9
 9
 9
 9
 9
 9
 9
 9
 9
 9
 9
 9
 9
 9
 9
 9
 9
 9
 9
 9
 9
 9
 9
 9
 9
 9
 9
 9
 9
 9
 9
 9
 9
 9
 9
 9
 9
 9
 9
 9
 9
 9
 9
 9
 9
 9
 9
 9
 9
 9
 9
 9
 9
 9
 9
 9
 9
 9
 9
 9
 9
 9
 9
 9
 9
 9
 9
 9
 9
 9
 9
 9
 9
 9
 9
 9
 9
 9
 9
 9
 9
 9
 9
 9
 9
 9
 9
 9
 9
 9
 9
 9
 9
 9
 9
 9
 9
 9
 9
 9
 9
 9
 9
 9
 9
 9
 9
 9
 9
 9
 9
 9
 9
 9
 9
 9
 9
 9
 9
 9
 9
 9
 9
 9
 9
 9
 9
 9
 9
 9
 9
 9
 9
 9
 9
 9
 9
 9
 9
 9
 9
 9
 9
 9
 9
 9
 9
 9
 9
 9
 9
 9
 9
 9
 9
 9
 9
 9
 9
 9
 9
 9
 9
 9
 9
 9
 9
 9
 9
 9
 9
 9
 9
 9
 9
 9
 9
 9
 9
 9
 9
 9
 9
 9
 9
 9
 9
 </DataArray>
 </Cells> 
 <PointData>
 <DataArray  type="Float64" Name="disp" NumberOfComponents="3" format="ascii">
   1.7568193597469677E-006   2.1465139796104788E-006   0.0000000000000000     
   1.8034471108078576E-006   2.2637603936092954E-006   0.0000000000000000     
   1.8495875906292219E-006   2.3839062997195827E-006   0.0000000000000000     
   1.8952406370856175E-006   2.5069211875982632E-006   0.0000000000000000     
   1.9404060880515997E-006   2.6327745469022593E-006   0.0000000000000000     
   1.9850837814017251E-006   2.7614358672884936E-006   0.0000000000000000     
   2.0292735550105516E-006   2.8928746384138891E-006   0.0000000000000000     
   2.0729752467526342E-006   3.0270603499353682E-006   0.0000000000000000     
   2.1161886945025299E-006   3.1639624915098542E-006   0.0000000000000000     
   1.7105937578578615E-006   2.1409615215650832E-006   0.0000000000000000     
   1.7560556870145879E-006   2.2582647473671763E-006   0.0000000000000000     
   1.8010425088925841E-006   2.3784677907565067E-006   0.0000000000000000     
   1.8455540711917336E-006   2.5015400883258975E-006   0.0000000000000000     
   1.8895902216119223E-006   2.6274510766681746E-006   0.0000000000000000     
   1.9331508078530341E-006   2.7561701923761621E-006   0.0000000000000000     
   1.9762356776149531E-006   2.8876668720426841E-006   0.0000000000000000     
   2.0188446785975645E-006   3.0219105522605647E-006   0.0000000000000000     
   2.0609776585007526E-006   3.1588706696226291E-006   0.0000000000000000     
   1.6645430966334807E-006   2.1355491213037413E-006   0.0000000000000000     
   1.7088392656502285E-006   2.2529079780977103E-006   0.0000000000000000     
   1.7526724764633379E-006   2.3731668877830602E-006   0.0000000000000000     
   1.7960425890217281E-006   2.4962952487358491E-006   0.0000000000000000     
   1.8389494632743168E-006   2.6222624593321345E-006   0.0000000000000000     
   1.8813929591700216E-006   2.7510379179479728E-006   0.0000000000000000     
   1.9233729366577619E-006   2.8825910229594223E-006   0.0000000000000000     
   1.9648892556864568E-006   3.0168911727425400E-006   0.0000000000000000     
   2.0059417762050223E-006   3.1539077656733854E-006   0.0000000000000000     
   1.6186628645255249E-006   2.1302768336799395E-006   0.0000000000000000     
   1.6617933337928446E-006   2.2476901053890190E-006   0.0000000000000000     
   1.7044729812439049E-006   2.3680035871473494E-006   0.0000000000000000     
   1.7467016809602064E-006   2.4911866519292264E-006   0.0000000000000000     
   1.7884793070232497E-006   2.6172086727089452E-006   0.0000000000000000     
   1.8298057335145356E-006   2.7460390224608011E-006   0.0000000000000000     
   1.8706808345155645E-006   2.8776470741590898E-006   0.0000000000000000     
   1.9111044841078370E-006   3.0120022007781053E-006   0.0000000000000000     
   1.9510765563728537E-006   3.1490737752921449E-006   0.0000000000000000     
   1.5729485499856950E-006   2.1251447135471652E-006   0.0000000000000000     
   1.6149133785205020E-006   2.2426111488292234E-006   0.0000000000000000     
   1.6564395111367039E-006   2.3629778851974766E-006   0.0000000000000000     
   1.6975268373917751E-006   2.4862142810071367E-006   0.0000000000000000     
   1.7381752468431903E-006   2.6122896946134154E-006   0.0000000000000000     
   1.7783846290484226E-006   2.7411734843715227E-006   0.0000000000000000     
   1.8181548735649459E-006   2.8728350086366712E-006   0.0000000000000000     
   1.8574858699502355E-006   3.0072436257640715E-006   0.0000000000000000     
   1.8963775077617643E-006   3.1443686941089349E-006   0.0000000000000000     
   1.5273956414656908E-006   2.1201528157589048E-006   0.0000000000000000     
   1.5681948869112645E-006   2.2376711280064434E-006   0.0000000000000000     
   1.6085675540441539E-006   2.3580897782815448E-006   0.0000000000000000     
   1.6485135487010405E-006   2.4813781190706883E-006   0.0000000000000000     
   1.6880327767186050E-006   2.6075055028603516E-006   0.0000000000000000     
   1.7271251439335294E-006   2.7364412821370141E-006   0.0000000000000000     
   1.7657905561824936E-006   2.8681548093871527E-006   0.0000000000000000     
   1.8040289193021800E-006   3.0026154370972477E-006   0.0000000000000000     
   1.8418401391292684E-006   3.1397925177537757E-006   0.0000000000000000     
   1.4819996274172124E-006   2.1153011951686444E-006   0.0000000000000000     
   1.5216333460431981E-006   2.2328700625088007E-006   0.0000000000000000     
   1.5608525978686755E-006   2.3533392627476594E-006   0.0000000000000000     
   1.5996573052726086E-006   2.4766781492209898E-006   0.0000000000000000     
   1.6380473906339633E-006   2.6028560752645637E-006   0.0000000000000000     
   1.6760227763317031E-006   2.7318423942141499E-006   0.0000000000000000     
   1.7135833847447932E-006   2.8636064594055198E-006   0.0000000000000000     
   1.7507291382521982E-006   2.9981176241744444E-006   0.0000000000000000     
   1.7874599592328826E-006   3.1353452418566946E-006   0.0000000000000000     
   1.4367559962919606E-006   2.1105899066298708E-006   0.0000000000000000     
   1.4752242429943683E-006   2.2282079719244169E-006   0.0000000000000000     
   1.5132901305126878E-006   2.3487263349439234E-006   0.0000000000000000     
   1.5509535974910870E-006   2.4721143545591504E-006   0.0000000000000000     
   1.5882145825737321E-006   2.5983413896408565E-006   0.0000000000000000     
   1.6250730244047914E-006   2.7273767990598062E-006   0.0000000000000000     
   1.6615288616284314E-006   2.8591899416867581E-006   0.0000000000000000     
   1.6975820328888193E-006   2.9937501763924729E-006   0.0000000000000000     
   1.7332324768301228E-006   3.1310268620477121E-006   0.0000000000000000     
   1.3916602365416353E-006   2.1060190049960711E-006   0.0000000000000000     
   1.4289630648428398E-006   2.2236848758414136E-006   0.0000000000000000     
   1.4658756398786112E-006   2.3442509912184404E-006   0.0000000000000000     
   1.5023979157410805E-006   2.4676867181862752E-006   0.0000000000000000     
   1.5385298465223801E-006   2.5939614238040397E-006   0.0000000000000000     
   1.5742713863146408E-006   2.7230444751308574E-006   0.0000000000000000     
   1.6096224892099938E-006   2.8549052392258504E-006   0.0000000000000000     
   1.6445831093005713E-006   2.9895130831481423E-006   0.0000000000000000     
   1.6791532006785041E-006   3.1268373739568540E-006   0.0000000000000000     
   2.1161886945025299E-006   3.1639624915098542E-006   0.0000000000000000     
   2.1589137659248071E-006   3.3035505428908376E-006   0.0000000000000000     
   2.2011504478440829E-006   3.4457939442180879E-006   0.0000000000000000     
   2.2428987568749870E-006   3.5906621257279455E-006   0.0000000000000000     
   2.2841587096321467E-006   3.7381245176567463E-006   0.0000000000000000     
   2.3249303227301924E-006   3.8881505502408308E-006   0.0000000000000000     
   2.3652136127837520E-006   4.0407096537165360E-006   0.0000000000000000     
   2.4050085964074560E-006   4.1957712583202024E-006   0.0000000000000000     
   2.4443152902159331E-006   4.3533047942881671E-006   0.0000000000000000     
   2.0609776585007526E-006   3.1588706696226291E-006   0.0000000000000000     
   2.1026344927874291E-006   3.2985166609215898E-006   0.0000000000000000     
   2.1438151679726168E-006   3.4408179637497150E-006   0.0000000000000000     
   2.1845196983343651E-006   3.5857440158991622E-006   0.0000000000000000     
   2.2247480981507247E-006   3.7332642551620856E-006   0.0000000000000000     
   2.2645003816997454E-006   3.8833481193306456E-006   0.0000000000000000     
   2.3037765632594768E-006   4.0359650461969949E-006   0.0000000000000000     
   2.3425766571079685E-006   4.1910844735532899E-006   0.0000000000000000     
   2.3809006775232726E-006   4.3486758391916917E-006   0.0000000000000000     
   2.0059417762050223E-006   3.1539077656733854E-006   0.0000000000000000     
   2.0465303833572374E-006   3.2936102075819612E-006   0.0000000000000000     
   2.0866550630663163E-006   3.4359679341140654E-006   0.0000000000000000     
   2.1263158264503339E-006   3.5809503883694463E-006   0.0000000000000000     
   2.1655126846273635E-006   3.7285270134478458E-006   0.0000000000000000     
   2.2042456487154798E-006   3.8786672524490113E-006   0.0000000000000000     
   2.2425147298327563E-006   4.0313405484726842E-006   0.0000000000000000     
   2.2803199390972661E-006   4.1865163446186141E-006   0.0000000000000000     
   2.3176612876270857E-006   4.3441640839865478E-006   0.0000000000000000     
   1.9510765563728537E-006   3.1490737752921449E-006   0.0000000000000000     
   1.9905969476223355E-006   3.2888311829309709E-006   0.0000000000000000     
   2.0296656430888836E-006   3.4312438579462138E-006   0.0000000000000000     
   2.0682826502353169E-006   3.5762812468449716E-006   0.0000000000000000     
   2.1064479765244593E-006   3.7239127961343461E-006   0.0000000000000000     
   2.1441616294191303E-006   3.8741079523214345E-006   0.0000000000000000     
   2.1814236163821496E-006   4.0268361619133348E-006   0.0000000000000000     
   2.2182339448763395E-006   4.1820668714171476E-006   0.0000000000000000     
   2.2545926223645207E-006   4.3397695273399707E-006   0.0000000000000000     
   1.8963775077617643E-006   3.1443686941089349E-006   0.0000000000000000     
   1.9348296955708286E-006   3.2841795870276374E-006   0.0000000000000000     
   1.9728424180040170E-006   3.4266457378812265E-006   0.0000000000000000     
   2.0104156787017403E-006   3.5717365950319123E-006   0.0000000000000000     
   2.0475494813044068E-006   3.7194216068419069E-006   0.0000000000000000     
   2.0842438294524295E-006   3.8696702216734207E-006   0.0000000000000000     
   2.1204987267862161E-006   4.0224518878886668E-006   0.0000000000000000     
   2.1563141769461783E-006   4.1777360538498528E-006   0.0000000000000000     
   2.1916901835727258E-006   4.3354921679191937E-006   0.0000000000000000     
   1.8418401391292684E-006   3.1397925177537757E-006   0.0000000000000000     
   1.8792241371908212E-006   3.2796554199309827E-006   0.0000000000000000     
   1.9161808977754193E-006   3.4221735765541792E-006   0.0000000000000000     
   1.9527104208620259E-006   3.5673164366364424E-006   0.0000000000000000     
   1.9888127064296029E-006   3.7150534491908486E-006   0.0000000000000000     
   2.0244877544571116E-006   3.8653540632304770E-006   0.0000000000000000     
   2.0597355649235135E-006   4.0181877277684012E-006   0.0000000000000000     
   2.0945561378077732E-006   4.1735238918177022E-006   0.0000000000000000     
   2.1289494730888506E-006   4.3313320043914563E-006   0.0000000000000000     
   1.7874599592328826E-006   3.1353452418566946E-006   0.0000000000000000     
   1.8237757824704165E-006   3.2752586817000250E-006   0.0000000000000000     
   1.8596765923667902E-006   3.4178273766001418E-006   0.0000000000000000     
   1.8951623857285999E-006   3.5630207753647338E-006   0.0000000000000000     
   1.9302331593624410E-006   3.7108083268014923E-006   0.0000000000000000     
   1.9648889100749110E-006   3.8611594797181074E-006   0.0000000000000000     
   1.9991296346726036E-006   4.0140436829222671E-006   0.0000000000000000     
   2.0329553299621150E-006   4.1694303852216624E-006   0.0000000000000000     
   2.0663659927500436E-006   4.3272890354239885E-006   0.0000000000000000     
   1.7332324768301228E-006   3.1310268620477121E-006   0.0000000000000000     
   1.7684801413977188E-006   3.2709893723937836E-006   0.0000000000000000     
   1.8033250117418297E-006   3.4136071406541854E-006   0.0000000000000000     
   1.8377670823138857E-006   3.5588496149229621E-006   0.0000000000000000     
   1.8718063475653183E-006   3.7066862432941574E-006   0.0000000000000000     
   1.9054428019475604E-006   3.8570864738618165E-006   0.0000000000000000     
   1.9386764399120418E-006   4.0100197547199848E-006   0.0000000000000000     
   1.9715072559101943E-006   4.1654555339627043E-006   0.0000000000000000     
   2.0039352443934510E-006   4.3233632596840238E-006   0.0000000000000000     
   1.6791532006785041E-006   3.1268373739568540E-006   0.0000000000000000     
   1.7133327239608335E-006   3.2668474920712792E-006   0.0000000000000000     
   1.7471216658642388E-006   3.4095128713513835E-006   0.0000000000000000     
   1.7805200196303079E-006   3.5548029590172986E-006   0.0000000000000000     
   1.8135277785006302E-006   3.7026872022891640E-006   0.0000000000000000     
   1.8461449357167941E-006   3.8531350483871124E-006   0.0000000000000000     
   1.8783714845203887E-006   4.0061159445312767E-006   0.0000000000000000     
   1.9102074181530025E-006   4.1615993379417962E-006   0.0000000000000000     
   1.9416527298562236E-006   4.3195546758388016E-006   0.0000000000000000     
   2.4443152902159331E-006   4.3533047942881671E-006   0.0000000000000000     
   2.4831337077467912E-006   4.5132797019461151E-006   0.0000000000000000     
   2.5214638502295640E-006   4.6756654619771270E-006   0.0000000000000000     
   2.5593057158167637E-006   4.8404315651536258E-006   0.0000000000000000     
   2.5966593026609013E-006   5.0075475022480363E-006   0.0000000000000000     
   2.6335246089144900E-006   5.1769827640327830E-006   0.0000000000000000     
   2.6699016327300412E-006   5.3487068412802924E-006   0.0000000000000000     
   2.7057903722600686E-006   5.5226892247629873E-006   0.0000000000000000     
   2.7411908256570843E-006   5.6988994052532959E-006   0.0000000000000000     
   2.3809006775232726E-006   4.3486758391916917E-006   0.0000000000000000     
   2.4187486357774680E-006   4.5087085893424955E-006   0.0000000000000000     
   2.4561205311187605E-006   4.6711522039885779E-006   0.0000000000000000     
   2.4930163597893880E-006   4.8359761715509585E-006   0.0000000000000000     
   2.5294361180315852E-006   5.0031499804506538E-006   0.0000000000000000     
   2.5653798020875902E-006   5.1726431191086833E-006   0.0000000000000000     
   2.6008474081996391E-006   5.3444250759460634E-006   0.0000000000000000     
   2.6358389326099675E-006   5.5184653393838147E-006   0.0000000000000000     
   2.6703543715608134E-006   5.6947333978429543E-006   0.0000000000000000     
   2.3176612876270857E-006   4.3441640839865478E-006   0.0000000000000000     
   2.3545387839374942E-006   4.5042532169581365E-006   0.0000000000000000     
   2.3909524261326056E-006   4.6667532230426907E-006   0.0000000000000000     
   2.4269022097137416E-006   4.8316335890314336E-006   0.0000000000000000     
   2.4623881301822204E-006   4.9988638017155802E-006   0.0000000000000000     
   2.4974101830393644E-006   5.1684133478863537E-006   0.0000000000000000     
   2.5319683637864927E-006   5.3402517143349722E-006   0.0000000000000000     
   2.5660626679249270E-006   5.5143483878526549E-006   0.0000000000000000     
   2.5996930909559872E-006   5.6906728552306249E-006   0.0000000000000000     
   2.2545926223645207E-006   4.3397695273399707E-006   0.0000000000000000     
   2.2904996543452453E-006   4.4999135827345345E-006   0.0000000000000000     
   2.3259550384599914E-006   4.6624685168361066E-006   0.0000000000000000     
   2.3609587703859697E-006   4.8274038154255846E-006   0.0000000000000000     
   2.3955108458003881E-006   4.9946889642838619E-006   0.0000000000000000     
   2.4296112603804594E-006   5.1642934491918429E-006   0.0000000000000000     
   2.4632600098033907E-006   5.3361867559304193E-006   0.0000000000000000     
   2.4964570897463921E-006   5.5103383702804921E-006   0.0000000000000000     
   2.5292024958866755E-006   5.6867177780229589E-006   0.0000000000000000     
   2.1916901835727258E-006   4.3354921679191937E-006   0.0000000000000000     
   2.2266267491190936E-006   4.4956896846131861E-006   0.0000000000000000     
   2.2611238712898065E-006   4.6582980830654611E-006   0.0000000000000000     
   2.2951815466022148E-006   4.8232868485639425E-006   0.0000000000000000     
   2.3287997715736706E-006   4.9906254663965469E-006   0.0000000000000000     
   2.3619785427215208E-006   5.1602834218511964E-006   0.0000000000000000     
   2.3947178565631178E-006   5.3322302002158069E-006   0.0000000000000000     
   2.4270177096158103E-006   5.5064352867783028E-006   0.0000000000000000     
   2.4588780983969470E-006   5.6828681668265985E-006   0.0000000000000000     
   2.1289494730888506E-006   4.3313320043914563E-006   0.0000000000000000     
   2.1629155703774129E-006   4.4915815205355834E-006   0.0000000000000000     
   2.1964544278109409E-006   4.6542419194273946E-006   0.0000000000000000     
   2.2295660431586242E-006   4.8192826862770423E-006   0.0000000000000000     
   2.2622504141896463E-006   4.9866733062946781E-006   0.0000000000000000     
   2.2945075386731966E-006   5.1563832646904603E-006   0.0000000000000000     
   2.3263374143784612E-006   5.3283820466745372E-006   0.0000000000000000     
   2.3577400390746244E-006   5.5026391374570645E-006   0.0000000000000000     
   2.3887154105308761E-006   5.6791240222481981E-006   0.0000000000000000     
   2.0663659927500436E-006   4.3272890354239885E-006   0.0000000000000000     
   2.0993616202385760E-006   4.4875890884432221E-006   0.0000000000000000     
   2.1319422112122870E-006   4.6503000236185432E-006   0.0000000000000000     
   2.1641077648513392E-006   4.8153913263954159E-006   0.0000000000000000     
   2.1958582803358993E-006   4.9828324822193043E-006   0.0000000000000000     
   2.2271937568461332E-006   5.1525929765356826E-006   0.0000000000000000     
   2.2581141935622052E-006   5.3246422947900108E-006   0.0000000000000000     
   2.2886195896642816E-006   5.4989499224277614E-006   0.0000000000000000     
   2.3187099443325290E-006   5.6754853448944019E-006   0.0000000000000000     
   2.0039352443934510E-006   4.3233632596840238E-006   0.0000000000000000     
   2.0359604008209583E-006   4.4837123862776004E-006   0.0000000000000000     
   2.0675827246827322E-006   4.6464723933355466E-006   0.0000000000000000     
   2.0988022164765044E-006   4.8116127667495926E-006   0.0000000000000000     
   2.1296188767000090E-006   4.9791029924114718E-006   0.0000000000000000     
   2.1600327058509759E-006   5.1489125562129061E-006   0.0000000000000000     
   2.1900437044271366E-006   5.3210109440456299E-006   0.0000000000000000     
   2.2196518729262272E-006   5.4953676418013726E-006   0.0000000000000000     
   2.2488572118459759E-006   5.6719521353718557E-006   0.0000000000000000     
   1.9416527298562236E-006   4.3195546758388016E-006   0.0000000000000000     
   1.9727074142429314E-006   4.4799514119802080E-006   0.0000000000000000     
   2.0033714714111690E-006   4.6427590262750427E-006   0.0000000000000000     
   2.0336449028302659E-006   4.8079470051701116E-006   0.0000000000000000     
   2.0635277099695561E-006   4.9754848351122228E-006   0.0000000000000000     
   2.0930198942983712E-006   5.1453420025481838E-006   0.0000000000000000     
   2.1221214572860445E-006   5.3174879939247968E-006   0.0000000000000000     
   2.1508324004019066E-006   5.4918922956888728E-006   0.0000000000000000     
   2.1791527251152898E-006   5.6685243942872155E-006   0.0000000000000000     
   2.7411908256570843E-006   5.6988994052532959E-006   0.0000000000000000     
   2.7761029916496848E-006   5.8773068723564814E-006   0.0000000000000000     
   2.8105268712708102E-006   6.0578811110091851E-006   0.0000000000000000     
   2.8444624661294864E-006   6.2405916049808858E-006   0.0000000000000000     
   2.8779097778347359E-006   6.4254078380410618E-006   0.0000000000000000     
   2.9108688079955856E-006   6.6122992939591946E-006   0.0000000000000000     
   2.9433395582210574E-006   6.8012354565047623E-006   0.0000000000000000     
   2.9753220301201785E-006   6.9921858094472438E-006   0.0000000000000000     
   3.0068162253019736E-006   7.1851198365561233E-006   0.0000000000000000     
   2.6703543715608134E-006   5.6947333978429543E-006   0.0000000000000000     
   2.7043937225904127E-006   5.8731987390010187E-006   0.0000000000000000     
   2.7379569884209992E-006   6.0538308475616093E-006   0.0000000000000000     
   2.7710441730708118E-006   6.2365992074848534E-006   0.0000000000000000     
   2.8036552805580828E-006   6.4214733027308702E-006   0.0000000000000000     
   2.8357903149010485E-006   6.6084226172597836E-006   0.0000000000000000     
   2.8674492801179441E-006   6.7974166350317144E-006   0.0000000000000000     
   2.8986321802270039E-006   6.9884248400067849E-006   0.0000000000000000     
   2.9293390192464644E-006   7.1814167161451192E-006   0.0000000000000000     
   2.5996930909559872E-006   5.6906728552306249E-006   0.0000000000000000     
   2.6328596299831221E-006   5.8691946027863602E-006   0.0000000000000000     
   2.6655622885183024E-006   6.0498831149423841E-006   0.0000000000000000     
   2.6978010716756248E-006   6.2327078756474850E-006   0.0000000000000000     
   2.7295759845691856E-006   6.4176383688504444E-006   0.0000000000000000     
   2.7608870323130838E-006   6.6046440785000496E-006   0.0000000000000000     
   2.7917342200214163E-006   6.7936944885450837E-006   0.0000000000000000     
   2.8221175528082805E-006   6.9847590829343290E-006   0.0000000000000000     
   2.8520370357877760E-006   7.1778073456165756E-006   0.0000000000000000     
   2.5292024958866755E-006   5.6867177780229589E-006   0.0000000000000000     
   2.5614962254806142E-006   5.8652944646046780E-006   0.0000000000000000     
   2.5933382821012539E-006   6.0460379141363709E-006   0.0000000000000000     
   2.6247286709008039E-006   6.2289176103947215E-006   0.0000000000000000     
   2.6556673970314737E-006   6.4139030371564068E-006   0.0000000000000000     
   2.6861544656454752E-006   6.6009636781981140E-006   0.0000000000000000     
   2.7161898818950161E-006   6.7900690172965218E-006   0.0000000000000000     
   2.7457736509323075E-006   6.9811885382283142E-006   0.0000000000000000     
   2.7749057779095601E-006   7.1742917247701750E-006   0.0000000000000000     
   2.4588780983969470E-006   5.6828681668265985E-006   0.0000000000000000     
   2.4902990207356849E-006   5.8614983253481368E-006   0.0000000000000000     
   2.5212804797083880E-006   6.0422952461284242E-006   0.0000000000000000     
   2.5518224797032281E-006   6.2252284126524943E-006   0.0000000000000000     
   2.5819250251083777E-006   6.4102673084053754E-006   0.0000000000000000     
   2.6115881203120057E-006   6.5973814168720967E-006   0.0000000000000000     
   2.6408117697022818E-006   6.7865402215376841E-006   0.0000000000000000     
   2.6695959776673802E-006   6.9777132058871769E-006   0.0000000000000000     
   2.6979407485954684E-006   7.1708698534055933E-006   0.0000000000000000     
   2.3887154105308761E-006   5.6791240222481981E-006   0.0000000000000000     
   2.4192635274011322E-006   5.8578061859089002E-006   0.0000000000000000     
   2.4493843918782406E-006   6.0386551119034036E-006   0.0000000000000000     
   2.4790780070397797E-006   6.2216402833467469E-006   0.0000000000000000     
   2.5083443759633258E-006   6.4067311833539693E-006   0.0000000000000000     
   2.5371835017264593E-006   6.5938972950401186E-006   0.0000000000000000     
   2.5655953874067557E-006   6.7831081015202290E-006   0.0000000000000000     
   2.5935800360817946E-006   6.9743330859093465E-006   0.0000000000000000     
   2.6211374508291549E-006   7.1675417313225106E-006   0.0000000000000000     
   2.3187099443325290E-006   5.6754853448944019E-006   0.0000000000000000     
   2.3483852571297545E-006   5.8542180471791396E-006   0.0000000000000000     
   2.3776455291493465E-006   6.0351175124461662E-006   0.0000000000000000     
   2.4064907618673351E-006   6.2181532234034141E-006   0.0000000000000000     
   2.4349209567597479E-006   6.4032946627588124E-006   0.0000000000000000     
   2.4629361153026195E-006   6.5905113132203019E-006   0.0000000000000000     
   2.4905362389719755E-006   6.7797726574958083E-006   0.0000000000000000     
   2.5177213292438492E-006   6.9710481782932613E-006   0.0000000000000000     
   2.5444913875942708E-006   7.1643073583206036E-006   0.0000000000000000     
   2.2488572118459759E-006   5.6719521353718557E-006   0.0000000000000000     
   2.2776597215743503E-006   5.8507339100510178E-006   0.0000000000000000     
   2.3060594020602403E-006   6.0316824487415689E-006   0.0000000000000000     
   2.3340562531427723E-006   6.2147672337484284E-006   0.0000000000000000     
   2.3616502746610753E-006   6.3999577473765238E-006   0.0000000000000000     
   2.3888414664542695E-006   6.5872234719307642E-006   0.0000000000000000     
   2.4156298283614815E-006   6.7765338897160688E-006   0.0000000000000000     
   2.4420153602218399E-006   6.9678584830373576E-006   0.0000000000000000     
   2.4679980618744666E-006   7.1611667341995448E-006   0.0000000000000000     
   2.1791527251152898E-006   5.6685243942872155E-006   0.0000000000000000     
   2.2070824323877156E-006   5.8473537754167002E-006   0.0000000000000000     
   2.2346215211494575E-006   6.0283499217744707E-006   0.0000000000000000     
   2.2617699898229759E-006   6.2114823153077398E-006   0.0000000000000000     
   2.2885278368307339E-006   6.3967204379637215E-006   0.0000000000000000     
   2.3148950605951930E-006   6.5840337716896286E-006   0.0000000000000000     
   2.3408716595388151E-006   6.7733917984326724E-006   0.0000000000000000     
   2.3664576320840627E-006   6.9647640001400676E-006   0.0000000000000000     
   2.3916529766533974E-006   7.1581198587590228E-006   0.0000000000000000     
   3.0068162253019736E-006   7.1851198365561233E-006   0.0000000000000000     
   3.0378221441682540E-006   7.3800070192414254E-006   0.0000000000000000     
   3.0683397822919905E-006   7.5768168294753811E-006   0.0000000000000000     
   3.0983691340389418E-006   7.7755187368707724E-006   0.0000000000000000     
   3.1279101937748630E-006   7.9760822110403701E-006   0.0000000000000000     
   3.1569629558655139E-006   8.1784767215969603E-006   0.0000000000000000     
   3.1855274146766518E-006   8.3826717381533155E-006   0.0000000000000000     
   3.2136035645740341E-006   8.5886367303222150E-006   0.0000000000000000     
   3.2411913999234199E-006   8.7963411677164432E-006   0.0000000000000000     
   2.9293390192464644E-006   7.1814167161451192E-006   0.0000000000000000     
   2.9595697990813328E-006   7.3763617453277931E-006   0.0000000000000000     
   2.9893245131837073E-006   7.5732294011197129E-006   0.0000000000000000     
   3.0186031528924616E-006   7.7719891550067509E-006   0.0000000000000000     
   3.0474057095464655E-006   7.9726104784747609E-006   0.0000000000000000     
   3.0757321744845906E-006   8.1750628430096137E-006   0.0000000000000000     
   3.1035825390457085E-006   8.3793157200971697E-006   0.0000000000000000     
   3.1309567945686902E-006   8.5853385812232964E-006   0.0000000000000000     
   3.1578549323924082E-006   8.7931008978738525E-006   0.0000000000000000     
   2.8520370357877760E-006   7.1778073456165756E-006   0.0000000000000000     
   2.8814926715521131E-006   7.3728087587520608E-006   0.0000000000000000     
   2.9104844526059736E-006   7.5697327973468532E-006   0.0000000000000000     
   2.9390123689321523E-006   7.7685489346184815E-006   0.0000000000000000     
   2.9670764105134414E-006   7.9692266437844618E-006   0.0000000000000000     
   2.9946765673326393E-006   8.1717353980623263E-006   0.0000000000000000     
   3.0218128293725398E-006   8.3760446706695943E-006   0.0000000000000000     
   3.0484851866159361E-006   8.5821239348237939E-006   0.0000000000000000     
   3.0746936290456263E-006   8.7899426637424479E-006   0.0000000000000000     
   2.7749057779095601E-006   7.1742917247701750E-006   0.0000000000000000     
   2.8035862654513705E-006   7.3693480592006823E-006   0.0000000000000000     
   2.8318151060718929E-006   7.5663270178060212E-006   0.0000000000000000     
   2.8595922897576659E-006   7.7651980753742680E-006   0.0000000000000000     
   2.8869178064952282E-006   7.9659307066935061E-006   0.0000000000000000     
   2.9137916462711229E-006   8.1684943865518170E-006   0.0000000000000000     
   2.9402137990718881E-006   8.3728585897372765E-006   0.0000000000000000     
   2.9661842548840643E-006   8.5789927910379676E-006   0.0000000000000000     
   2.9917030036941927E-006   8.7868664652419748E-006   0.0000000000000000     
   2.6979407485954684E-006   7.1708698534055933E-006   0.0000000000000000     
   2.7258460846498777E-006   7.3659796463601079E-006   0.0000000000000000     
   2.7533119790945660E-006   7.5630120621464302E-006   0.0000000000000000     
   2.7803384229686547E-006   7.7619365769424189E-006   0.0000000000000000     
   2.8069254073112602E-006   7.9627226669259255E-006   0.0000000000000000     
   2.8330729231615010E-006   8.1653398082748012E-006   0.0000000000000000     
   2.8587809615584953E-006   8.3697574771668948E-006   0.0000000000000000     
   2.8840495135413639E-006   8.5759451497800704E-006   0.0000000000000000     
   2.9088785701492211E-006   8.7838723022921683E-006   0.0000000000000000     
   2.6211374508291549E-006   7.1675417313225106E-006   0.0000000000000000     
   2.6482676330184068E-006   7.3627035199167823E-006   0.0000000000000000     
   2.6749705771870995E-006   7.5597879300173067E-006   0.0000000000000000     
   2.7012462761647748E-006   7.7587644389912430E-006   0.0000000000000000     
   2.7270947227809722E-006   7.9596025242057496E-006   0.0000000000000000     
   2.7525159098652360E-006   8.1622716630279995E-006   0.0000000000000000     
   2.7775098302471057E-006   8.3667413328251468E-006   0.0000000000000000     
   2.8020764767561239E-006   8.5729810109643490E-006   0.0000000000000000     
   2.8262158422218331E-006   8.7809601748127773E-006   0.0000000000000000     
   2.5444913875942708E-006   7.1643073583206036E-006   0.0000000000000000     
   2.5708464144277330E-006   7.3595196795571583E-006   0.0000000000000000     
   2.5967864058625955E-006   7.5566546210678605E-006   0.0000000000000000     
   2.6223113569456780E-006   7.7556816611890370E-006   0.0000000000000000     
   2.6474212627238016E-006   7.9565702782570103E-006   0.0000000000000000     
   2.6721161182437892E-006   8.1592899506081257E-006   0.0000000000000000     
   2.6963959185524598E-006   8.3638101565786974E-006   0.0000000000000000     
   2.7202606586966374E-006   8.5701003745050580E-006   0.0000000000000000     
   2.7437103337231423E-006   8.7781300827235435E-006   0.0000000000000000     
   2.4679980618744666E-006   7.1611667341995448E-006   0.0000000000000000     
   2.4935779327486299E-006   7.3564281249676830E-006   0.0000000000000000     
   2.5187549706341565E-006   7.5536121349473116E-006   0.0000000000000000     
   2.5435291729110172E-006   7.7526882432041097E-006   0.0000000000000000     
   2.5679005369591833E-006   7.9536259288037508E-006   0.0000000000000000     
   2.5918690601586189E-006   8.1563946708119021E-006   0.0000000000000000     
   2.6154347398892989E-006   8.3609639482942476E-006   0.0000000000000000     
   2.6385975735311913E-006   8.5673032403164591E-006   0.0000000000000000     
   2.6613575584642643E-006   8.7753820259442056E-006   0.0000000000000000     
   2.3916529766533974E-006   7.1581198587590228E-006   0.0000000000000000     
   2.4164576918518687E-006   7.3534288558348068E-006   0.0000000000000000     
   2.4408717770148872E-006   7.5506604713048843E-006   0.0000000000000000     
   2.4648952316604477E-006   7.7497841847047697E-006   0.0000000000000000     
   2.4885280553065503E-006   7.9507694755699876E-006   0.0000000000000000     
   2.5117702474711913E-006   8.1535858234360510E-006   0.0000000000000000     
   2.5346218076723678E-006   8.3582027078384809E-006   0.0000000000000000     
   2.5570827354280788E-006   8.5645896083127937E-006   0.0000000000000000     
   2.5791530302563197E-006   8.7727160043945089E-006   0.0000000000000000     
   3.2411913999234199E-006   8.7963411677164432E-006   0.0000000000000000     
   3.2682909179883101E-006   9.0057545261388285E-006   0.0000000000000000     
   3.2949021276231852E-006   9.2168463061524495E-006   0.0000000000000000     
   3.3210250405802703E-006   9.4295860145104354E-006   0.0000000000000000     
   3.3466596686117885E-006   9.6439431579659105E-006   0.0000000000000000     
   3.3718060234699656E-006   9.8598872432720058E-006   0.0000000000000000     
   3.3964641169070239E-006   1.0077387777181851E-005   0.0000000000000000     
   3.4206339606751901E-006   1.0296414266448578E-005   0.0000000000000000     
   3.4443155665266882E-006   1.0516936217825318E-005   0.0000000000000000     
   3.1578549323924082E-006   8.7931008978738525E-006   0.0000000000000000     
   3.1842769479386888E-006   9.0025721465271564E-006   0.0000000000000000     
   3.2102228529611864E-006   9.2137218236313162E-006   0.0000000000000000     
   3.2356926632965132E-006   9.4265194306269008E-006   0.0000000000000000     
   3.2606863947812756E-006   9.6409344689544676E-006   0.0000000000000000     
   3.2852040632520858E-006   9.8569364400545824E-006   0.0000000000000000     
   3.3092456845455533E-006   1.0074494845367803E-005   0.0000000000000000     
   3.3328112744982880E-006   1.0293579186334695E-005   0.0000000000000000     
   3.3559008489469003E-006   1.0514158964395823E-005   0.0000000000000000     
   3.0746936290456263E-006   8.7899426637424479E-006   0.0000000000000000     
   3.1004381512321010E-006   8.9994703345497322E-006   0.0000000000000000     
   3.1257187660966542E-006   9.2106764399964271E-006   0.0000000000000000     
   3.1505354911482725E-006   9.4235304767399710E-006   0.0000000000000000     
   3.1748883438959449E-006   9.6380019414377907E-006   0.0000000000000000     
   3.1987773418486635E-006   9.8540603307473280E-006   0.0000000000000000     
   3.2222025025154134E-006   1.0071675141326011E-005   0.0000000000000000     
   3.2451638434051864E-006   1.0290815869831270E-005   0.0000000000000000     
   3.2676613820269720E-006   1.0511452012920550E-005   0.0000000000000000     
   2.9917030036941927E-006   8.7868664652419748E-006   0.0000000000000000     
   3.0167700400265628E-006   8.9964490900777169E-006   0.0000000000000000     
   3.0413853765564787E-006   9.2077101550349990E-006   0.0000000000000000     
   3.0655490304969956E-006   9.4206191525439757E-006   0.0000000000000000     
   3.0892610190611642E-006   9.6351455750347912E-006   0.0000000000000000     
   3.1125213594620420E-006   9.8512589149376018E-006   0.0000000000000000     
   3.1353300689126806E-006   1.0068928664682549E-005   0.0000000000000000     
   3.1576871646261343E-006   1.0288124316699784E-005   0.0000000000000000     
   3.1795926638154600E-006   1.0508815363419460E-005   0.0000000000000000     
   2.9088785701492211E-006   8.7838723022921683E-006   0.0000000000000000     
   2.9332681264800861E-006   8.9935084129822634E-006   0.0000000000000000     
   2.9572181938675558E-006   9.2048229685342472E-006   0.0000000000000000     
   2.9807287877041275E-006   9.4177854577332492E-006   0.0000000000000000     
   3.0037999233823005E-006   9.6323653693643770E-006   0.0000000000000000     
   3.0264316162945687E-006   9.8485321922127549E-006   0.0000000000000000     
   3.0486238818334296E-006   1.0066255415063489E-005   0.0000000000000000     
   3.0703767353913803E-006   1.0285504526701705E-005   0.0000000000000000     
   3.0916901923609169E-006   1.0506249015912507E-005   0.0000000000000000     
   2.8262158422218331E-006   8.7809601748127773E-006   0.0000000000000000     
   2.8499279227506833E-006   8.9906483031345227E-006   0.0000000000000000     
   2.8732127275567768E-006   9.2020148802813902E-006   0.0000000000000000     
   2.8960702691311192E-006   9.4150293920021264E-006   0.0000000000000000     
   2.9185005599647190E-006   9.6296613240454613E-006   0.0000000000000000     
   2.9405036125485898E-006   9.8458801621601484E-006   0.0000000000000000     
   2.9620794393737364E-006   1.0063655392094916E-005   0.0000000000000000     
   2.9832280529311698E-006   1.0282956499598507E-005   0.0000000000000000     
   3.0039494657118993E-006   1.0503752970419662E-005   0.0000000000000000     
   2.7437103337231423E-006   8.7781300827235435E-006   0.0000000000000000     
   2.7667449409963721E-006   8.9878687604056527E-006   0.0000000000000000     
   2.7893644871510340E-006   9.1992858900636448E-006   0.0000000000000000     
   2.8115689811394127E-006   9.4123509550449350E-006   0.0000000000000000     
   2.8333584319137897E-006   9.6270334386969521E-006   0.0000000000000000     
   2.8547328484264499E-006   9.8433028243671315E-006   0.0000000000000000     
   2.8756922396296756E-006   1.0061128595402897E-005   0.0000000000000000     
   2.8962366144757517E-006   1.0280480235151663E-005   0.0000000000000000     
   2.9163659819169609E-006   1.0501327226960875E-005   0.0000000000000000     
   2.6613575584642643E-006   8.7753820259442056E-006   0.0000000000000000     
   2.6837146933751620E-006   8.9851697846668161E-006   0.0000000000000000     
   2.7056689821772227E-006   9.1966359976682211E-006   0.0000000000000000     
   2.7272204300904569E-006   9.4097501465560046E-006   0.0000000000000000     
   2.7483690423348791E-006   9.6244817129377642E-006   0.0000000000000000     
   2.7691148241304963E-006   9.8408001784210638E-006   0.0000000000000000     
   2.7894577806973244E-006   1.0058675024613497E-005   0.0000000000000000     
   2.8093979172553738E-006   1.0278075733122654E-005   0.0000000000000000     
   2.8289352390246552E-006   1.0498971785556109E-005   0.0000000000000000     
   2.5791530302563197E-006   8.7727160043945089E-006   0.0000000000000000     
   2.6008326920450704E-006   8.9825513757891591E-006   0.0000000000000000     
   2.6221217221622357E-006   9.1940652028823444E-006   0.0000000000000000     
   2.6430201223457003E-006   9.4072269662296849E-006   0.0000000000000000     
   2.6635278943333513E-006   9.6220061463867955E-006   0.0000000000000000     
   2.6836450398630749E-006   9.8383722239093011E-006   0.0000000000000000     
   2.7033715606727568E-006   1.0056294679352812E-005   0.0000000000000000     
   2.7227074585002830E-006   1.0275742993272949E-005   0.0000000000000000     
   2.7416527350835392E-006   1.0496686646225331E-005   0.0000000000000000     
   3.4443155665266882E-006   1.0516936217825318E-005   0.0000000000000000     
   3.4675089377597140E-006   1.0738923121430446E-005   0.0000000000000000     
   3.4902140438563557E-006   1.0962344400843349E-005   0.0000000000000000     
   3.5124308458446723E-006   1.1187169463008672E-005   0.0000000000000000     
   3.5341593047527215E-006   1.1413367714871035E-005   0.0000000000000000     
   3.5553993816085644E-006   1.1640908563375089E-005   0.0000000000000000     
   3.5761510374402593E-006   1.1869761415465460E-005   0.0000000000000000     
   3.5964142332758649E-006   1.2099895678086788E-005   0.0000000000000000     
   3.6161889301434430E-006   1.2331280758183711E-005   0.0000000000000000     
   3.3559008489469003E-006   1.0514158964395823E-005   0.0000000000000000     
   3.3785144140054247E-006   1.0736203667792665E-005   0.0000000000000000     
   3.4006519368975992E-006   1.0959682731970393E-005   0.0000000000000000     
   3.4223133751245894E-006   1.1184565579175101E-005   0.0000000000000000     
   3.4434986861875571E-006   1.1410821631652870E-005   0.0000000000000000     
   3.4642078275876646E-006   1.1638420311649794E-005   0.0000000000000000     
   3.4844407568260770E-006   1.1867331041411965E-005   0.0000000000000000     
   3.5041974314039567E-006   1.2097523243185468E-005   0.0000000000000000     
   3.5234778088224675E-006   1.2328966339216396E-005   0.0000000000000000     
   3.2676613820269720E-006   1.0511452012920550E-005   0.0000000000000000     
   3.2896951259788419E-006   1.0733553057147819E-005   0.0000000000000000     
   3.3112650432152119E-006   1.0957088448653248E-005   0.0000000000000000     
   3.3323710917795781E-006   1.1182027623473554E-005   0.0000000000000000     
   3.3530132297154366E-006   1.1408340017645439E-005   0.0000000000000000     
   3.3731914150662884E-006   1.1635995067205627E-005   0.0000000000000000     
   3.3929056058756276E-006   1.1864962208190822E-005   0.0000000000000000     
   3.4121557601869522E-006   1.2095210876637739E-005   0.0000000000000000     
   3.4309418360437626E-006   1.2326710508583094E-005   0.0000000000000000     
   3.1795926638154600E-006   1.0508815363419460E-005   0.0000000000000000     
   3.2010465744692521E-006   1.0730971289904643E-005   0.0000000000000000     
   3.2220488676782876E-006   1.0954561551750116E-005   0.0000000000000000     
   3.2425995053088865E-006   1.1179555597183572E-005   0.0000000000000000     
   3.2626984492273651E-006   1.1405922874432705E-005   0.0000000000000000     
   3.2823456613000447E-006   1.1633632831725221E-005   0.0000000000000000     
   3.3015411033932446E-006   1.1862654917288811E-005   0.0000000000000000     
   3.3202847373732813E-006   1.2092958579351174E-005   0.0000000000000000     
   3.3385765251064779E-006   1.2324513266140009E-005   0.0000000000000000     
   3.0916901923609169E-006   1.0506249015912507E-005   0.0000000000000000     
   3.1125642602659357E-006   1.0728458366471880E-005   0.0000000000000000     
   3.1329989151559209E-006   1.0952102042119191E-005   0.0000000000000000     
   3.1529941252117607E-006   1.1177149501584691E-005   0.0000000000000000     
   3.1725498586143415E-006   1.1403570203598621E-005   0.0000000000000000     
   3.1916660835445454E-006   1.1631333606891211E-005   0.0000000000000000     
   3.2103427681832591E-006   1.1860409170192697E-005   0.0000000000000000     
   3.2285798807113698E-006   1.2090766352233338E-005   0.0000000000000000     
   3.2463773893097591E-006   1.2322374611743350E-005   0.0000000000000000     
   3.0039494657118993E-006   1.0503752970419662E-005   0.0000000000000000     
   3.0242436841581744E-006   1.0726014287258251E-005   0.0000000000000000     
   3.0441106905172079E-006   1.0949709920618678E-005   0.0000000000000000     
   3.0635504609874546E-006   1.1174809337956464E-005   0.0000000000000000     
   3.0825629717673661E-006   1.1401282006727137E-005   0.0000000000000000     
   3.1011481990554001E-006   1.1629097394386232E-005   0.0000000000000000     
   3.1193061190500069E-006   1.1858224968389275E-005   0.0000000000000000     
   3.1370367079496409E-006   1.2088634196191792E-005   0.0000000000000000     
   3.1543399419527570E-006   1.2320294545249314E-005   0.0000000000000000     
   2.9163659819169609E-006   1.0501327226960875E-005   0.0000000000000000     
   2.9360803469352525E-006   1.0723639052672508E-005   0.0000000000000000     
   2.9553796986312415E-006   1.0947385188106768E-005   0.0000000000000000     
   2.9742640221352112E-006   1.1172535107578417E-005   0.0000000000000000     
   2.9927333025774423E-006   1.1399058285402213E-005   0.0000000000000000     
   3.0107875250882176E-006   1.1626924195892921E-005   0.0000000000000000     
   3.0284266747978166E-006   1.1856102313365297E-005   0.0000000000000000     
   3.0456507368365229E-006   1.2086562112134106E-005   0.0000000000000000     
   3.0624596963346181E-006   1.2318273066514109E-005   0.0000000000000000     
   2.8289352390246552E-006   1.0498971785556109E-005   0.0000000000000000     
   2.8480697493864509E-006   1.0721332663123379E-005   0.0000000000000000     
   2.8668014443671176E-006   1.0945127845441664E-005   0.0000000000000000     
   2.8851303181542817E-006   1.1170326811730096E-005   0.0000000000000000     
   2.9030563649355711E-006   1.1396899041207799E-005   0.0000000000000000     
   2.9205795788986086E-006   1.1624814013093907E-005   0.0000000000000000     
   2.9376999542310226E-006   1.1854041206607544E-005   0.0000000000000000     
   2.9544174851204424E-006   1.2084550100967848E-005   0.0000000000000000     
   2.9707321657544902E-006   1.2316310175393938E-005   0.0000000000000000     
   2.7416527350835392E-006   1.0496686646225331E-005   0.0000000000000000     
   2.7602073923010541E-006   1.0719095119019605E-005   0.0000000000000000     
   2.7783714325939315E-006   1.0942937893481565E-005   0.0000000000000000     
   2.7961448585439155E-006   1.1168184451691041E-005   0.0000000000000000     
   2.8135276727327511E-006   1.1394804275727855E-005   0.0000000000000000     
   2.8305198777421845E-006   1.1622766847671832E-005   0.0000000000000000     
   2.8471214761539603E-006   1.1852041649602799E-005   0.0000000000000000     
   2.8633324705498239E-006   1.2082598163600585E-005   0.0000000000000000     
   2.8791528635115225E-006   1.2314405871745009E-005   0.0000000000000000     
   3.6161889301434430E-006   1.2331280758183711E-005   0.0000000000000000     
   3.6354751282267267E-006   1.2563886109268104E-005   0.0000000000000000     
   3.6542729843321590E-006   1.2797681371120804E-005   0.0000000000000000     
   3.6725826944218608E-006   1.3032636230089886E-005   0.0000000000000000     
   3.6904044544579498E-006   1.3268720372523430E-005   0.0000000000000000     
   3.7077384604025455E-006   1.3505903484769514E-005   0.0000000000000000     
   3.7245849082177664E-006   1.3744155253176215E-005   0.0000000000000000     
   3.7409439938657332E-006   1.3983445364091607E-005   0.0000000000000000     
   3.7568159133085646E-006   1.4223743503863773E-005   0.0000000000000000     
   3.5234778088224675E-006   1.2328966339216396E-005   0.0000000000000000     
   3.5422818852192869E-006   1.2561629779666648E-005   0.0000000000000000     
   3.5606098112781525E-006   1.2795483126361364E-005   0.0000000000000000     
   3.5784617763193178E-006   1.3030495969041500E-005   0.0000000000000000     
   3.5958379696630323E-006   1.3266637897448003E-005   0.0000000000000000     
   3.6127385806295483E-006   1.3503878501321824E-005   0.0000000000000000     
   3.6291637985391196E-006   1.3742187370403920E-005   0.0000000000000000     
   3.6451138127119966E-006   1.3981534094435242E-005   0.0000000000000000     
   3.6605888124684327E-006   1.4221888263156735E-005   0.0000000000000000     
   3.4309418360437626E-006   1.2326710508583094E-005   0.0000000000000000     
   3.4492638273923252E-006   1.2559430551195761E-005   0.0000000000000000     
   3.4671218717899993E-006   1.2793340496173291E-005   0.0000000000000000     
   3.4845161426969126E-006   1.3028409846345404E-005   0.0000000000000000     
   3.5014468135731943E-006   1.3264608104541808E-005   0.0000000000000000     
   3.5179140578789753E-006   1.3501904773592231E-005   0.0000000000000000     
   3.5339180490743834E-006   1.3740269356326381E-005   0.0000000000000000     
   3.5494589606195485E-006   1.3979671355573977E-005   0.0000000000000000     
   3.5645369659745991E-006   1.4220080274164739E-005   0.0000000000000000     
   3.3385765251064779E-006   1.2324513266140009E-005   0.0000000000000000     
   3.3564164598445616E-006   1.2557288422304452E-005   0.0000000000000000     
   3.3738046603809151E-006   1.2791253478179410E-005   0.0000000000000000     
   3.3907412768943302E-006   1.3026377860521212E-005   0.0000000000000000     
   3.4072264595635985E-006   1.3262630996086209E-005   0.0000000000000000     
   3.4232603585675132E-006   1.3499982311630731E-005   0.0000000000000000     
   3.4388431240848652E-006   1.3738401233911128E-005   0.0000000000000000     
   3.4539749062944478E-006   1.3977857189683739E-005   0.0000000000000000     
   3.4686558553750535E-006   1.4218319605704903E-005   0.0000000000000000     
   3.2463773893097591E-006   1.2322374611743350E-005   0.0000000000000000     
   3.2637352876747155E-006   1.2555203391441738E-005   0.0000000000000000     
   3.2806536715641209E-006   1.2789222070002540E-005   0.0000000000000000     
   3.2971326622512565E-006   1.3024400010088542E-005   0.0000000000000000     
   3.3131723810094071E-006   1.3260706574362541E-005   0.0000000000000000     
   3.3287729491118509E-006   1.3498111125487330E-005   0.0000000000000000     
   3.3439344878318746E-006   1.3736583026125695E-005   0.0000000000000000     
   3.3586571184427575E-006   1.3976091638940436E-005   0.0000000000000000     
   3.3729409622177841E-006   1.4216606326594341E-005   0.0000000000000000     
   3.1543399419527570E-006   1.2320294545249314E-005   0.0000000000000000     
   3.1712158159815059E-006   1.2553175457056619E-005   0.0000000000000000     
   3.1876643998528319E-006   1.2787246269265503E-005   0.0000000000000000     
   3.2036857821073756E-006   1.3022476293567000E-005   0.0000000000000000     
   3.2192800512857775E-006   1.3258834841652157E-005   0.0000000000000000     
   3.2344472959286772E-006   1.3496291225212010E-005   0.0000000000000000     
   3.2491876045767173E-006   1.3734814755937602E-005   0.0000000000000000     
   3.2635010657705384E-006   1.3974374745519975E-005   0.0000000000000000     
   3.2773877680507816E-006   1.4214940505650171E-005   0.0000000000000000     
   3.0624596963346181E-006   1.2318273066514109E-005   0.0000000000000000     
   3.0788535498636532E-006   1.2551204617598114E-005   0.0000000000000000     
   3.0948323397602685E-006   1.2785326073591129E-005   0.0000000000000000     
   3.1103961198023730E-006   1.3020606709476211E-005   0.0000000000000000     
   3.1255449437678744E-006   1.3257015800236409E-005   0.0000000000000000     
   3.1402788654346813E-006   1.3494522620854782E-005   0.0000000000000000     
   3.1545979385807048E-006   1.3733096446314389E-005   0.0000000000000000     
   3.1685022169838523E-006   1.3972706551598281E-005   0.0000000000000000     
   3.1819917544220343E-006   1.4213322211689510E-005   0.0000000000000000     
   2.9707321657544902E-006   1.2316310175393938E-005   0.0000000000000000     
   2.9866439944198777E-006   1.2549290871515231E-005   0.0000000000000000     
   3.0021529857996493E-006   1.2783461480602239E-005   0.0000000000000000     
   3.0172591586759342E-006   1.3018791256335775E-005   0.0000000000000000     
   3.0319625318308594E-006   1.3255249452396650E-005   0.0000000000000000     
   3.0462631240465525E-006   1.3492805322465644E-005   0.0000000000000000     
   3.0601609541051439E-006   1.3731428120223583E-005   0.0000000000000000     
   3.0736560407887614E-006   1.3971087099351258E-005   0.0000000000000000     
   3.0867484028795328E-006   1.4211751513529477E-005   0.0000000000000000     
   2.8791528635115225E-006   1.2314405871745009E-005   0.0000000000000000     
   2.8945826547488967E-006   1.2547434217256971E-005   0.0000000000000000     
   2.9096218324841899E-006   1.2781652487921654E-005   0.0000000000000000     
   2.9242703820677419E-006   1.3017029932665320E-005   0.0000000000000000     
   2.9385282888498913E-006   1.3253535800414211E-005   0.0000000000000000     
   2.9523955381809788E-006   1.3491139340094591E-005   0.0000000000000000     
   2.9658721154113434E-006   1.3729809800632709E-005   0.0000000000000000     
   2.9789580058913262E-006   1.3969516430954825E-005   0.0000000000000000     
   2.9916531949712659E-006   1.4210228479987193E-005   0.0000000000000000     
   1.3916602365416353E-006   2.1060190049960711E-006   0.0000000000000000     
   1.4289630648428398E-006   2.2236848758414136E-006   0.0000000000000000     
   1.4658756398786112E-006   2.3442509912184404E-006   0.0000000000000000     
   1.5023979157410805E-006   2.4676867181862752E-006   0.0000000000000000     
   1.5385298465223801E-006   2.5939614238040397E-006   0.0000000000000000     
   1.5742713863146408E-006   2.7230444751308574E-006   0.0000000000000000     
   1.6096224892099938E-006   2.8549052392258504E-006   0.0000000000000000     
   1.6445831093005713E-006   2.9895130831481423E-006   0.0000000000000000     
   1.6791532006785041E-006   3.1268373739568540E-006   0.0000000000000000     
   1.3467078476588014E-006   2.1015885363336817E-006   0.0000000000000000     
   1.3828453092551137E-006   2.2193007902416473E-006   0.0000000000000000     
   1.4186046234125760E-006   2.3399132277688315E-006   0.0000000000000000     
   1.4539857584769807E-006   2.4633952250723793E-006   0.0000000000000000     
   1.4889886827941223E-006   2.5897161583094380E-006   0.0000000000000000     
   1.5236133647097921E-006   2.7188454036371515E-006   0.0000000000000000     
   1.5578597725697825E-006   2.8507523372126668E-006   0.0000000000000000     
   1.5917278747198864E-006   2.9854063351931286E-006   0.0000000000000000     
   1.6252176395058962E-006   3.1227767737356840E-006   0.0000000000000000     
   1.3018943732994842E-006   2.0972985115609408E-006   0.0000000000000000     
   1.3368665162514338E-006   2.2150557166819230E-006   0.0000000000000000     
   1.3714726167355599E-006   2.3357130401907775E-006   0.0000000000000000     
   1.4057126564323192E-006   2.4592398676630904E-006   0.0000000000000000     
   1.4395866170221673E-006   2.5856055846744421E-006   0.0000000000000000     
   1.4730944801855616E-006   2.7147795768004193E-006   0.0000000000000000     
   1.5062362276029580E-006   2.8467312296166030E-006   0.0000000000000000     
   1.5390118409548132E-006   2.9814299286985757E-006   0.0000000000000000     
   1.5714213019215830E-006   3.1188450596219227E-006   0.0000000000000000     
   1.2572153681605742E-006   2.0931489328090367E-006   0.0000000000000000     
   1.2910222364404817E-006   2.2109496531127815E-006   0.0000000000000000     
   1.3244751650122530E-006   2.3316504239294809E-006   0.0000000000000000     
   1.3575741484104086E-006   2.4552206402729404E-006   0.0000000000000000     
   1.3903191811694704E-006   2.5816296971569658E-006   0.0000000000000000     
   1.4227102578239598E-006   2.7108469895953617E-006   0.0000000000000000     
   1.4547473729083966E-006   2.8428419126019348E-006   0.0000000000000000     
   1.4864305209573035E-006   2.9775838611904887E-006   0.0000000000000000     
   1.5177596965052010E-006   3.1150422303748323E-006   0.0000000000000000     
   1.2126663869389611E-006   2.0891398022091555E-006   0.0000000000000000     
   1.2453080204309376E-006   2.2069825974847642E-006   0.0000000000000000     
   1.2776078134073442E-006   2.3277253744301387E-006   0.0000000000000000     
   1.3095657732145655E-006   2.4513375372164612E-006   0.0000000000000000     
   1.3411819071989880E-006   2.5777884900149155E-006   0.0000000000000000     
   1.3724562227069957E-006   2.7070476369966805E-006   0.0000000000000000     
   1.4033887270849746E-006   2.8390843823329402E-006   0.0000000000000000     
   1.4339794276793109E-006   2.9738681301948775E-006   0.0000000000000000     
   1.4642283318363877E-006   3.1113682847536718E-006   0.0000000000000000     
   1.1682429843315350E-006   2.0852711218924876E-006   0.0000000000000000     
   1.1997194188314815E-006   2.2031545477484128E-006   0.0000000000000000     
   1.2308661070855223E-006   2.3239378871379514E-006   0.0000000000000000     
   1.2616830696481045E-006   2.4475905528081873E-006   0.0000000000000000     
   1.2921703270736749E-006   2.5740819575062019E-006   0.0000000000000000     
   1.3223278999166812E-006   2.7033815139790777E-006   0.0000000000000000     
   1.3521558087315692E-006   2.8354586349738997E-006   0.0000000000000000     
   1.3816540740727861E-006   2.9702827332377462E-006   0.0000000000000000     
   1.4108227164947796E-006   3.1078232215177035E-006   0.0000000000000000     
   1.1239407150351861E-006   2.0815428939902187E-006   0.0000000000000000     
   1.1542519822507944E-006   2.1994655018542683E-006   0.0000000000000000     
   1.1842455912114772E-006   2.3202879574981192E-006   0.0000000000000000     
   1.2139215765143399E-006   2.4439796813626484E-006   0.0000000000000000     
   1.2432799727564879E-006   2.5705100938887365E-006   0.0000000000000000     
   1.2723208145350247E-006   2.6998486155172566E-006   0.0000000000000000     
   1.3010441364470546E-006   2.8319646666890864E-006   0.0000000000000000     
   1.3294499730896835E-006   2.9668276678451053E-006   0.0000000000000000     
   1.3575383590600147E-006   3.1044070394261877E-006   0.0000000000000000     
   1.0797551337468042E-006   2.0779551206335380E-006   0.0000000000000000     
   1.1089012612975554E-006   2.1959154577528701E-006   0.0000000000000000     
   1.1377418109498981E-006   2.3167755809558398E-006   0.0000000000000000     
   1.1662768326165881E-006   2.4405049171943811E-006   0.0000000000000000     
   1.1945063762103822E-006   2.5670728934204275E-006   0.0000000000000000     
   1.2224304916440367E-006   2.6964489365859170E-006   0.0000000000000000     
   1.2500492288303089E-006   2.8286024736427831E-006   0.0000000000000000     
   1.2773626376819540E-006   2.9635029315429611E-006   0.0000000000000000     
   1.3043707681117289E-006   3.1011197372383853E-006   0.0000000000000000     
   1.0356817951632800E-006   2.0745078039536331E-006   0.0000000000000000     
   1.0636628065804463E-006   2.1925044133947622E-006   0.0000000000000000     
   1.0913503114654737E-006   2.3134007529563141E-006   0.0000000000000000     
   1.1187443767581627E-006   2.4371662546179134E-006   0.0000000000000000     
   1.1458450693983137E-006   2.5637703503591870E-006   0.0000000000000000     
   1.1726524563257281E-006   2.6931824721597613E-006   0.0000000000000000     
   1.1991666044802068E-006   2.8253720519992634E-006   0.0000000000000000     
   1.2253875808015500E-006   2.9603085218573195E-006   0.0000000000000000     
   1.2513154522295598E-006   3.0979613137135566E-006   0.0000000000000000     
   1.6791532006785041E-006   3.1268373739568540E-006   0.0000000000000000     
   1.7133327239608335E-006   3.2668474920712792E-006   0.0000000000000000     
   1.7471216658642388E-006   3.4095128713513835E-006   0.0000000000000000     
   1.7805200196303079E-006   3.5548029590172986E-006   0.0000000000000000     
   1.8135277785006302E-006   3.7026872022891640E-006   0.0000000000000000     
   1.8461449357167941E-006   3.8531350483871124E-006   0.0000000000000000     
   1.8783714845203887E-006   4.0061159445312767E-006   0.0000000000000000     
   1.9102074181530025E-006   4.1615993379417962E-006   0.0000000000000000     
   1.9416527298562236E-006   4.3195546758388016E-006   0.0000000000000000     
   1.6252176395058962E-006   3.1227767737356840E-006   0.0000000000000000     
   1.6583290394495859E-006   3.2628330407191639E-006   0.0000000000000000     
   1.6910620637766523E-006   3.4055445709091471E-006   0.0000000000000000     
   1.7234167058887728E-006   3.5508808107928997E-006   0.0000000000000000     
   1.7553929591876254E-006   3.6988112068576838E-006   0.0000000000000000     
   1.7869908170748877E-006   3.8493052055907672E-006   0.0000000000000000     
   1.8182102729522383E-006   4.0023322534794145E-006   0.0000000000000000     
   1.8490513202213539E-006   4.1578617970108910E-006   0.0000000000000000     
   1.8795139522839129E-006   4.3158632826724604E-006   0.0000000000000000     
   1.5714213019215830E-006   3.1188450596219227E-006   0.0000000000000000     
   1.6034645943606938E-006   3.2589460180346281E-006   0.0000000000000000     
   1.6351417108374478E-006   3.4017022398742699E-006   0.0000000000000000     
   1.6664526460941170E-006   3.5470831711508324E-006   0.0000000000000000     
   1.6973973948729720E-006   3.6950582578742944E-006   0.0000000000000000     
   1.7279759519162852E-006   3.8455969460546394E-006   0.0000000000000000     
   1.7581883119663289E-006   3.9986686817018461E-006   0.0000000000000000     
   1.7880344697653742E-006   4.1542429108258995E-006   0.0000000000000000     
   1.8175144200556922E-006   4.3122890794367777E-006   0.0000000000000000     
   1.5177596965052010E-006   3.1150422303748323E-006   0.0000000000000000     
   1.5487348944925959E-006   3.2551864236424912E-006   0.0000000000000000     
   1.5793561114839372E-006   3.3979858783758833E-006   0.0000000000000000     
   1.6096233444496570E-006   3.5434100404311464E-006   0.0000000000000000     
   1.6395365903601909E-006   3.6914283556644219E-006   0.0000000000000000     
   1.6690958461859716E-006   3.8420102699318503E-006   0.0000000000000000     
   1.6983011088974332E-006   3.9951252290895670E-006   0.0000000000000000     
   1.7271523754650102E-006   4.1507426789937161E-006   0.0000000000000000     
   1.7556496428591354E-006   4.3088320655004346E-006   0.0000000000000000     
   1.4642283318363877E-006   3.1113682847536718E-006   0.0000000000000000     
   1.4941354456437321E-006   3.2515542571675761E-006   0.0000000000000000     
   1.5237007701534309E-006   3.3943954865431171E-006   0.0000000000000000     
   1.5529243051587121E-006   3.5398614189738907E-006   0.0000000000000000     
   1.5818060504528035E-006   3.6879215005534940E-006   0.0000000000000000     
   1.6103460058289320E-006   3.8385451773755224E-006   0.0000000000000000     
   1.6385441710803259E-006   3.9917018955335707E-006   0.0000000000000000     
   1.6664005460002127E-006   4.1473611011212355E-006   0.0000000000000000     
   1.6939151303818198E-006   4.3054922402321170E-006   0.0000000000000000     
   1.4108227164947796E-006   3.1078232215177035E-006   0.0000000000000000     
   1.4396617536125412E-006   3.2480495182347072E-006   0.0000000000000000     
   1.4681711912832425E-006   3.3909310645051095E-006   0.0000000000000000     
   1.4963510324246003E-006   3.5364373071191183E-006   0.0000000000000000     
   1.5242012799543311E-006   3.6845376928669395E-006   0.0000000000000000     
   1.5517219367901524E-006   3.8352016685387831E-006   0.0000000000000000     
   1.5789130058497800E-006   3.9883986809248525E-006   0.0000000000000000     
   1.6057744900509305E-006   4.1440981768153573E-006   0.0000000000000000     
   1.6323063923113214E-006   4.3022696030005034E-006   0.0000000000000000     
   1.3575383590600147E-006   3.1044070394261877E-006   0.0000000000000000     
   1.3853093241974631E-006   3.2446722064687034E-006   0.0000000000000000     
   1.4127628793106834E-006   3.3875926123909894E-006   0.0000000000000000     
   1.4398990304506394E-006   3.5331377052068730E-006   0.0000000000000000     
   1.4667177836682960E-006   3.6812769329301853E-006   0.0000000000000000     
   1.4932191450146181E-006   3.8319797435747540E-006   0.0000000000000000     
   1.5194031205405685E-006   3.9852155851544053E-006   0.0000000000000000     
   1.5452697162971136E-006   4.1409539056829735E-006   0.0000000000000000     
   1.5708189383352160E-006   4.2991641531742823E-006   0.0000000000000000     
   1.3043707681117289E-006   3.1011197372383853E-006   0.0000000000000000     
   1.3310736631969361E-006   3.2414223214943873E-006   0.0000000000000000     
   1.3574713386730639E-006   3.3843801303298896E-006   0.0000000000000000     
   1.3835638034401472E-006   3.5299626135772075E-006   0.0000000000000000     
   1.4093510663982189E-006   3.6781392210686582E-006   0.0000000000000000     
   1.4348331364473134E-006   3.8288794026365583E-006   0.0000000000000000     
   1.4600100224874659E-006   3.9821526081132278E-006   0.0000000000000000     
   1.4848817334187103E-006   4.1379282873309786E-006   0.0000000000000000     
   1.5094482781410796E-006   4.2961758901221312E-006   0.0000000000000000     
   1.2513154522295598E-006   3.0979613137135566E-006   0.0000000000000000     
   1.2769502764094009E-006   3.2382998629365835E-006   0.0000000000000000     
   1.3022920738076984E-006   3.3812936184509452E-006   0.0000000000000000     
   1.3273408555964417E-006   3.5269120325701710E-006   0.0000000000000000     
   1.3520966329476209E-006   3.6751245576077866E-006   0.0000000000000000     
   1.3765594170332257E-006   3.8259006458773243E-006   0.0000000000000000     
   1.4007292190252454E-006   3.9792097496923093E-006   0.0000000000000000     
   1.4246060500956698E-006   4.1350213213662706E-006   0.0000000000000000     
   1.4481899214164888E-006   4.2933048132127379E-006   0.0000000000000000     
   1.9416527298562236E-006   4.3195546758388016E-006   0.0000000000000000     
   1.9727074142429314E-006   4.4799514119802080E-006   0.0000000000000000     
   2.0033714714111690E-006   4.6427590262750427E-006   0.0000000000000000     
   2.0336449028302659E-006   4.8079470051701116E-006   0.0000000000000000     
   2.0635277099695561E-006   4.9754848351122228E-006   0.0000000000000000     
   2.0930198942983712E-006   5.1453420025481838E-006   0.0000000000000000     
   2.1221214572860445E-006   5.3174879939247968E-006   0.0000000000000000     
   2.1508324004019066E-006   5.4918922956888728E-006   0.0000000000000000     
   2.1791527251152898E-006   5.6685243942872155E-006   0.0000000000000000     
   1.8795139522839129E-006   4.3158632826724604E-006   0.0000000000000000     
   1.9095981639588677E-006   4.4763061637073177E-006   0.0000000000000000     
   1.9393039557342698E-006   4.6391599203823759E-006   0.0000000000000000     
   1.9686313295154442E-006   4.8043940397204754E-006   0.0000000000000000     
   1.9975802872077191E-006   4.9719780087444588E-006   0.0000000000000000     
   2.0261508307164191E-006   5.1418813144771680E-006   0.0000000000000000     
   2.0543429619468704E-006   5.3140734439414432E-006   0.0000000000000000     
   2.0821566828044000E-006   5.4885238841601281E-006   0.0000000000000000     
   2.1095919951943330E-006   5.6652021221560619E-006   0.0000000000000000     
   1.8175144200556922E-006   4.3122890794367777E-006   0.0000000000000000     
   1.8466281587671318E-006   4.4727766404743128E-006   0.0000000000000000     
   1.8753756865798510E-006   4.6356750745977261E-006   0.0000000000000000     
   1.9037570053615832E-006   4.8009538693960918E-006   0.0000000000000000     
   1.9317721169800641E-006   4.9685825124584806E-006   0.0000000000000000     
   1.9594210233030264E-006   5.1385304913739699E-006   0.0000000000000000     
   1.9867037261982054E-006   5.3107672937316288E-006   0.0000000000000000     
   2.0136202275333350E-006   5.4852624071205306E-006   0.0000000000000000     
   2.0401705291761495E-006   5.6619853191297468E-006   0.0000000000000000     
   1.7556496428591354E-006   4.3088320655004346E-006   0.0000000000000000     
   1.7837929088020859E-006   4.4693628415113412E-006   0.0000000000000000     
   1.8115821740235116E-006   4.6323044881099735E-006   0.0000000000000000     
   1.8390174400049025E-006   4.7976264934253332E-006   0.0000000000000000     
   1.8660987082277523E-006   4.9652983455864407E-006   0.0000000000000000     
   1.8928259801735527E-006   5.1352895327223043E-006   0.0000000000000000     
   1.9191992573237948E-006   5.3075695429619368E-006   0.0000000000000000     
   1.9452185411599722E-006   5.4821078644343485E-006   0.0000000000000000     
   1.9708838331635758E-006   5.6588739852685545E-006   0.0000000000000000     
   1.6939151303818198E-006   4.3054922402321170E-006   0.0000000000000000     
   1.7210879241980932E-006   4.4660647660485678E-006   0.0000000000000000     
   1.7479189281408487E-006   4.6290481601079978E-006   0.0000000000000000     
   1.7744081430816217E-006   4.7944119110365824E-006   0.0000000000000000     
   1.8005555698919456E-006   4.9621255074604909E-006   0.0000000000000000     
   1.8263612094433567E-006   5.1321584380058928E-006   0.0000000000000000     
   1.8518250626073877E-006   5.3044801912989590E-006   0.0000000000000000     
   1.8769471302555745E-006   5.4790602559658633E-006   0.0000000000000000     
   1.9017274132594506E-006   5.6558681206327750E-006   0.0000000000000000     
   1.6323063923113214E-006   4.3022696030005034E-006   0.0000000000000000     
   1.6585087150895155E-006   4.4628824133161429E-006   0.0000000000000000     
   1.6843814590074633E-006   4.6259060897806946E-006   0.0000000000000000     
   1.7099246242279623E-006   4.7913101214582202E-006   0.0000000000000000     
   1.7351382109138086E-006   4.9590639974127865E-006   0.0000000000000000     
   1.7600222192277995E-006   5.1291372067084527E-006   0.0000000000000000     
   1.7845766493327318E-006   5.3014992384092846E-006   0.0000000000000000     
   1.8088015013914037E-006   5.4761195815793457E-006   0.0000000000000000     
   1.8326967755666107E-006   5.6529677252826986E-006   0.0000000000000000     
   1.5708189383352160E-006   4.2991641531742823E-006   0.0000000000000000     
   1.5960507916107164E-006   4.4598157825442228E-006   0.0000000000000000     
   1.6209652766989543E-006   4.6228782763169375E-006   0.0000000000000000     
   1.6455623930801440E-006   4.7883211239186208E-006   0.0000000000000000     
   1.6698421402345005E-006   4.9561138147754750E-006   0.0000000000000000     
   1.6938045176422398E-006   5.1262258383137030E-006   0.0000000000000000     
   1.7174495247835747E-006   5.2986266839594993E-006   0.0000000000000000     
   1.7407771611387211E-006   5.4732858411390679E-006   0.0000000000000000     
   1.7637874261878940E-006   5.6501727992786093E-006   0.0000000000000000     
   1.5094482781410796E-006   4.2961758901221312E-006   0.0000000000000000     
   1.5337096638960582E-006   4.4568648729629665E-006   0.0000000000000000     
   1.5576658912909189E-006   4.6199647189056095E-006   0.0000000000000000     
   1.5813169592743872E-006   4.7854449176461626E-006   0.0000000000000000     
   1.6046628667951855E-006   4.9532749588807149E-006   0.0000000000000000     
   1.6277036128020357E-006   5.1234243323053585E-006   0.0000000000000000     
   1.6504391962436624E-006   5.2958625276161916E-006   0.0000000000000000     
   1.6728696160687892E-006   5.4705590345093065E-006   0.0000000000000000     
   1.6949948712261370E-006   5.6474833426807947E-006   0.0000000000000000     
   1.4481899214164888E-006   4.2933048132127379E-006   0.0000000000000000     
   1.4714808420799029E-006   4.4540296838025250E-006   0.0000000000000000     
   1.4944788128589584E-006   4.6171654167356027E-006   0.0000000000000000     
   1.5171838324469133E-006   4.7826815018692274E-006   0.0000000000000000     
   1.5395958995370243E-006   4.9505474290606555E-006   0.0000000000000000     
   1.5617150128225489E-006   5.1207326881671441E-006   0.0000000000000000     
   1.5835411709967448E-006   5.2932067690459531E-006   0.0000000000000000     
   1.6050743727528692E-006   5.4679391615543329E-006   0.0000000000000000     
   1.6263146167841794E-006   5.6448993555495459E-006   0.0000000000000000     
   2.1791527251152898E-006   5.6685243942872155E-006   0.0000000000000000     
   2.2070824323877156E-006   5.8473537754167002E-006   0.0000000000000000     
   2.2346215211494575E-006   6.0283499217744707E-006   0.0000000000000000     
   2.2617699898229759E-006   6.2114823153077398E-006   0.0000000000000000     
   2.2885278368307339E-006   6.3967204379637215E-006   0.0000000000000000     
   2.3148950605951930E-006   6.5840337716896286E-006   0.0000000000000000     
   2.3408716595388151E-006   6.7733917984326724E-006   0.0000000000000000     
   2.3664576320840627E-006   6.9647640001400676E-006   0.0000000000000000     
   2.3916529766533974E-006   7.1581198587590228E-006   0.0000000000000000     
   2.1095919951943330E-006   5.6652021221560619E-006   0.0000000000000000     
   2.1366489002754589E-006   5.8440776440595289E-006   0.0000000000000000     
   2.1633273962204217E-006   6.0251199324305774E-006   0.0000000000000000     
   2.1896274804553276E-006   6.2082984689367010E-006   0.0000000000000000     
   2.2155491504062827E-006   6.3935827352453886E-006   0.0000000000000000     
   2.2410924034993938E-006   6.5809422130241299E-006   0.0000000000000000     
   2.2662572371607673E-006   6.7703463839404213E-006   0.0000000000000000     
   2.2910436488165090E-006   6.9617647296617473E-006   0.0000000000000000     
   2.3154516358927275E-006   7.1551667318556026E-006   0.0000000000000000     
   2.0401705291761495E-006   5.6619853191297468E-006   0.0000000000000000     
   2.0663546321544272E-006   5.8409055163275506E-006   0.0000000000000000     
   2.0921725341361256E-006   6.0219924811990098E-006   0.0000000000000000     
   2.1176242319492446E-006   6.2052156952083881E-006   0.0000000000000000     
   2.1427097224217857E-006   6.3905446398199566E-006   0.0000000000000000     
   2.1674290023817499E-006   6.5779487964979780E-006   0.0000000000000000     
   2.1917820686571376E-006   6.7673976467067227E-006   0.0000000000000000     
   2.2157689180759502E-006   6.9588606719104551E-006   0.0000000000000000     
   2.2393895474661887E-006   7.1523073535734438E-006   0.0000000000000000     
   1.9708838331635758E-006   5.6588739852685545E-006   0.0000000000000000     
   1.9961951339942749E-006   5.8378373924599808E-006   0.0000000000000000     
   2.0211524410244479E-006   6.0189675684697242E-006   0.0000000000000000     
   2.0457557508046484E-006   6.2022339946252966E-006   0.0000000000000000     
   2.0700050598854352E-006   6.3876061522542148E-006   0.0000000000000000     
   2.0939003648173597E-006   6.5750535226839881E-006   0.0000000000000000     
   2.1174416621509785E-006   6.7645455872421350E-006   0.0000000000000000     
   2.1406289484368482E-006   6.9560518272561640E-006   0.0000000000000000     
   2.1634622202255211E-006   7.1495417240535901E-006   0.0000000000000000     
   1.9017274132594506E-006   5.6558681206327750E-006   0.0000000000000000     
   1.9261659117646577E-006   5.8348732726960377E-006   0.0000000000000000     
   1.9502626230132686E-006   6.0160451946326878E-006   0.0000000000000000     
   1.9740175435214634E-006   6.1993533676899230E-006   0.0000000000000000     
   1.9974306698054198E-006   6.3847672731149530E-006   0.0000000000000000     
   2.0205019983813201E-006   6.5722563921549824E-006   0.0000000000000000     
   2.0432315257653422E-006   6.7617902060572125E-006   0.0000000000000000     
   2.0656192484736660E-006   6.9533381960688503E-006   0.0000000000000000     
   2.0876651630224712E-006   7.1468698434371013E-006   0.0000000000000000     
   1.8326967755666107E-006   5.6529677252826986E-006   0.0000000000000000     
   1.8562624714352314E-006   5.8320131572749473E-006   0.0000000000000000     
   1.8794985862304693E-006   6.0132253600778660E-006   0.0000000000000000     
   1.9024051165996092E-006   6.1965738149047677E-006   0.0000000000000000     
   1.9249820591899349E-006   6.3820280029689690E-006   0.0000000000000000     
   1.9472294106487310E-006   6.5695574054837796E-006   0.0000000000000000     
   1.9691471676232803E-006   6.7591315036625160E-006   0.0000000000000000     
   1.9907353267608692E-006   6.9507197787184938E-006   0.0000000000000000     
   2.0119938847087821E-006   7.1442917118650244E-006   0.0000000000000000     
   1.7637874261878940E-006   5.6501727992786093E-006   0.0000000000000000     
   1.7864803189756523E-006   5.8292570464359252E-006   0.0000000000000000     
   1.8088558368039311E-006   6.0105080651952252E-006   0.0000000000000000     
   1.8309139765390098E-006   6.1938953367723273E-006   0.0000000000000000     
   1.8526547350471690E-006   6.3793883423830492E-006   0.0000000000000000     
   1.8740781091946883E-006   6.5669565632432035E-006   0.0000000000000000     
   1.8951840958478458E-006   6.7565694805686023E-006   0.0000000000000000     
   1.9159726918729226E-006   6.9481965755750674E-006   0.0000000000000000     
   1.9364438941361978E-006   7.1418073294784099E-006   0.0000000000000000     
   1.6949948712261370E-006   5.6474833426807947E-006   0.0000000000000000     
   1.7168149603555739E-006   5.8266049404181861E-006   0.0000000000000000     
   1.7383298808615319E-006   6.0078933103747233E-006   0.0000000000000000     
   1.7595396298395866E-006   6.1913179337950963E-006   0.0000000000000000     
   1.7804442043853144E-006   6.3768482919239847E-006   0.0000000000000000     
   1.8010436015942894E-006   6.5644538660060662E-006   0.0000000000000000     
   1.8213378185620883E-006   6.7541041372860273E-006   0.0000000000000000     
   1.8413268523842877E-006   6.9457685870085484E-006   0.0000000000000000     
   1.8610107001564604E-006   7.1394166964183074E-006   0.0000000000000000     
   1.6263146167841794E-006   5.6448993555495459E-006   0.0000000000000000     
   1.6472619015446537E-006   5.8240568394609516E-006   0.0000000000000000     
   1.6679162245311544E-006   6.0053810960063326E-006   0.0000000000000000     
   1.6882775830012630E-006   6.1888416064755771E-006   0.0000000000000000     
   1.7083459742125624E-006   6.3744078521585692E-006   0.0000000000000000     
   1.7281213954226349E-006   6.5620493143451981E-006   0.0000000000000000     
   1.7476038438890632E-006   6.7517354743253502E-006   0.0000000000000000     
   1.7667933168694294E-006   6.9434358133889140E-006   0.0000000000000000     
   1.7856898116213161E-006   7.1371198128257717E-006   0.0000000000000000     
   2.3916529766533974E-006   7.1581198587590228E-006   0.0000000000000000     
   2.4164576918518687E-006   7.3534288558348068E-006   0.0000000000000000     
   2.4408717770148872E-006   7.5506604713048843E-006   0.0000000000000000     
   2.4648952316604477E-006   7.7497841847047697E-006   0.0000000000000000     
   2.4885280553065503E-006   7.9507694755699876E-006   0.0000000000000000     
   2.5117702474711913E-006   8.1535858234360510E-006   0.0000000000000000     
   2.5346218076723678E-006   8.3582027078384809E-006   0.0000000000000000     
   2.5570827354280788E-006   8.5645896083127937E-006   0.0000000000000000     
   2.5791530302563197E-006   8.7727160043945089E-006   0.0000000000000000     
   2.3154516358927275E-006   7.1551667318556026E-006   0.0000000000000000     
   2.3394811964463133E-006   7.3505218718679204E-006   0.0000000000000000     
   2.3631323310573030E-006   7.5477996297584276E-006   0.0000000000000000     
   2.3864050409365201E-006   7.7469694852652846E-006   0.0000000000000000     
   2.4092993272947858E-006   7.9480009181266612E-006   0.0000000000000000     
   2.4318151913429225E-006   8.1508634080807201E-006   0.0000000000000000     
   2.4539526342917529E-006   8.3555264348656319E-006   0.0000000000000000     
   2.4757116573520990E-006   8.5619594782195621E-006   0.0000000000000000     
   2.4970922617347837E-006   8.7701320178806759E-006   0.0000000000000000     
   2.2393895474661887E-006   7.1523073535734438E-006   0.0000000000000000     
   2.2626439545931824E-006   7.3477071728682174E-006   0.0000000000000000     
   2.2855321409715854E-006   7.5450296098003774E-006   0.0000000000000000     
   2.3080541090533786E-006   7.7442441440837889E-006   0.0000000000000000     
   2.3302098612905452E-006   7.9453202554323174E-006   0.0000000000000000     
   2.3519994001350679E-006   8.1482274235598263E-006   0.0000000000000000     
   2.3734227280389261E-006   8.3529351281801796E-006   0.0000000000000000     
   2.3944798474541045E-006   8.5594128490072448E-006   0.0000000000000000     
   2.4151707608325847E-006   8.7676300657548841E-006   0.0000000000000000     
   2.1634622202255211E-006   7.1495417240535901E-006   0.0000000000000000     
   2.1859414751917826E-006   7.3449847586598183E-006   0.0000000000000000     
   2.2080667155073246E-006   7.5423504108918006E-006   0.0000000000000000     
   2.2298379444680664E-006   7.7416081602643790E-006   0.0000000000000000     
   2.2512551653699309E-006   7.9427274862924010E-006   0.0000000000000000     
   2.2723183815088359E-006   8.1456778684907069E-006   0.0000000000000000     
   2.2930275961807039E-006   8.3504287863741469E-006   0.0000000000000000     
   2.3133828126814546E-006   8.5569497194575594E-006   0.0000000000000000     
   2.3333840343070078E-006   8.7652101472557879E-006   0.0000000000000000     
   2.0876651630224712E-006   7.1468698434371013E-006   0.0000000000000000     
   2.1093692671414211E-006   7.3423546290668553E-006   0.0000000000000000     
   2.1307315634141123E-006   7.5397620324937632E-006   0.0000000000000000     
   2.1517520556376258E-006   7.7390615329111516E-006   0.0000000000000000     
   2.1724307476090417E-006   7.9402226095123600E-006   0.0000000000000000     
   2.1927676431254418E-006   8.1432147414907212E-006   0.0000000000000000     
   2.2127627459839047E-006   8.3480074080395667E-006   0.0000000000000000     
   2.2324160599815112E-006   8.5545700883522303E-006   0.0000000000000000     
   2.2517275889153433E-006   8.7628722616220488E-006   0.0000000000000000     
   2.0119938847087821E-006   7.1442917118650244E-006   0.0000000000000000     
   2.0329228393414064E-006   7.3398167839134666E-006   0.0000000000000000     
   2.0535221934415437E-006   7.5372644740673386E-006   0.0000000000000000     
   2.0737919510191007E-006   7.7366042611282102E-006   0.0000000000000000     
   2.0937321160839825E-006   7.9378056238976459E-006   0.0000000000000000     
   2.1133426926460947E-006   8.1408380411772131E-006   0.0000000000000000     
   2.1326236847153444E-006   8.3456709917684671E-006   0.0000000000000000     
   2.1515750963016371E-006   8.5522739544729853E-006   0.0000000000000000     
   2.1701969314148780E-006   8.7606164080923213E-006   0.0000000000000000     
   1.9364438941361978E-006   7.1418073294784099E-006   0.0000000000000000     
   1.9565977006910444E-006   7.3373712230237726E-006   0.0000000000000000     
   1.9764341143392097E-006   7.5348577350735963E-006   0.0000000000000000     
   1.9959531390695312E-006   7.7342363440196479E-006   0.0000000000000000     
   2.0151547788708514E-006   7.9354765282537034E-006   0.0000000000000000     
   2.0340390377320080E-006   8.1385477661675236E-006   0.0000000000000000     
   2.0526059196418414E-006   8.3434195361528761E-006   0.0000000000000000     
   2.0708554285891919E-006   8.5500613166015352E-006   0.0000000000000000     
   2.0887875685628987E-006   8.7584425859052636E-006   0.0000000000000000     
   1.8610107001564604E-006   7.1394166964183074E-006   0.0000000000000000     
   1.8803893600896432E-006   7.3350179462219071E-006   0.0000000000000000     
   1.8994628348567015E-006   7.5325418149736014E-006   0.0000000000000000     
   1.9182311282459618E-006   7.7319577806895649E-006   0.0000000000000000     
   1.9366942440457503E-006   7.9332353213859771E-006   0.0000000000000000     
   1.9548521860443914E-006   8.1363439150790033E-006   0.0000000000000000     
   1.9727049580302117E-006   8.3412530397848231E-006   0.0000000000000000     
   1.9902525637915385E-006   8.5479321735196078E-006   0.0000000000000000     
   2.0074950071166941E-006   8.7563507942995318E-006   0.0000000000000000     
   1.7856898116213161E-006   7.1371198128257717E-006   0.0000000000000000     
   1.8042933264365099E-006   7.3327569533320008E-006   0.0000000000000000     
   1.8226038637436137E-006   7.5303167132284267E-006   0.0000000000000000     
   1.8406214270054351E-006   7.7297685702420611E-006   0.0000000000000000     
   1.8583460196847811E-006   7.9310820020999168E-006   0.0000000000000000     
   1.8757776452444584E-006   8.1342264865290048E-006   0.0000000000000000     
   1.8929163071472746E-006   8.3391715012563363E-006   0.0000000000000000     
   1.9097620088560371E-006   8.5458865240089273E-006   0.0000000000000000     
   1.9263147538335526E-006   8.7543410325137856E-006   0.0000000000000000     
   2.5791530302563197E-006   8.7727160043945089E-006   0.0000000000000000     
   2.6008326920450704E-006   8.9825513757891591E-006   0.0000000000000000     
   2.6221217221622357E-006   9.1940652028823444E-006   0.0000000000000000     
   2.6430201223457003E-006   9.4072269662296849E-006   0.0000000000000000     
   2.6635278943333513E-006   9.6220061463867955E-006   0.0000000000000000     
   2.6836450398630749E-006   9.8383722239093011E-006   0.0000000000000000     
   2.7033715606727568E-006   1.0056294679352812E-005   0.0000000000000000     
   2.7227074585002830E-006   1.0275742993272949E-005   0.0000000000000000     
   2.7416527350835392E-006   1.0496686646225331E-005   0.0000000000000000     
   2.4970922617347837E-006   8.7701320178806759E-006   0.0000000000000000     
   2.5180944482602084E-006   8.9800135336623775E-006   0.0000000000000000     
   2.5387182161870989E-006   9.1915735056790182E-006   0.0000000000000000     
   2.5589635643837580E-006   9.4047814141201845E-006   0.0000000000000000     
   2.5788304917184910E-006   9.6196067391754664E-006   0.0000000000000000     
   2.5983189970596014E-006   9.8360189610344556E-006   0.0000000000000000     
   2.6174290792753948E-006   1.0053987559886739E-005   0.0000000000000000     
   2.6361607372341746E-006   1.0273482015921904E-005   0.0000000000000000     
   2.6545139698042458E-006   1.0494471809329539E-005   0.0000000000000000     
   2.4151707608325847E-006   8.7676300657548841E-006   0.0000000000000000     
   2.4354954696590994E-006   8.9775562582503505E-006   0.0000000000000000     
   2.4554539715493865E-006   9.1891609067744358E-006   0.0000000000000000     
   2.4750462631519363E-006   9.4024134917213187E-006   0.0000000000000000     
   2.4942723411152371E-006   9.6172834934851817E-006   0.0000000000000000     
   2.5131322020877783E-006   9.8337403924601968E-006   0.0000000000000000     
   2.5316258427180489E-006   1.0051753669040550E-005   0.0000000000000000     
   2.5497532596545385E-006   1.0271292803620412E-005   0.0000000000000000     
   2.5675144495457359E-006   1.0492327276593971E-005   0.0000000000000000     
   2.3333840343070078E-006   8.7652101472557879E-006   0.0000000000000000     
   2.3530312629763599E-006   8.9751795495354954E-006   0.0000000000000000     
   2.3723244951008043E-006   9.1868274070705907E-006   0.0000000000000000     
   2.3912637257147085E-006   9.4001232008867921E-006   0.0000000000000000     
   2.4098489498524423E-006   9.6150364120098330E-006   0.0000000000000000     
   2.4280801625483750E-006   9.8315365214654417E-006   0.0000000000000000     
   2.4459573588368741E-006   1.0049593010279340E-005   0.0000000000000000     
   2.4634805337523090E-006   1.0269175359477250E-005   0.0000000000000000     
   2.4806496823290482E-006   1.0490253050084907E-005   0.0000000000000000     
   2.2517275889153433E-006   8.7628722616220488E-006   0.0000000000000000     
   2.2706973349466122E-006   8.9728834075002244E-006   0.0000000000000000     
   2.2893252936930572E-006   9.1845730074694512E-006   0.0000000000000000     
   2.3076114591365497E-006   9.3979105434703007E-006   0.0000000000000000     
   2.3255558252589612E-006   9.6128654974433307E-006   0.0000000000000000     
   2.3431583860421631E-006   9.8294073513291142E-006   0.0000000000000000     
   2.3604191354680263E-006   1.0047505587068211E-005   0.0000000000000000     
   2.3773380675184225E-006   1.0267129686601195E-005   0.0000000000000000     
   2.3939151761752224E-006   1.0488249131868625E-005   0.0000000000000000     
   2.1701969314148780E-006   8.7606164080923213E-006   0.0000000000000000     
   2.1884891923044762E-006   8.9706678321269598E-006   0.0000000000000000     
   2.2064518741778541E-006   9.1823977088730243E-006   0.0000000000000000     
   2.2240849704819363E-006   9.3957755213255490E-006   0.0000000000000000     
   2.2413884746636488E-006   9.6107707524795767E-006   0.0000000000000000     
   2.2583623801699150E-006   9.8273528853301398E-006   0.0000000000000000     
   2.2750066804476623E-006   1.0045491402872274E-005   0.0000000000000000     
   2.2913213689438149E-006   1.0265155788101021E-005   0.0000000000000000     
   2.3073064391052981E-006   1.0486315524011413E-005   0.0000000000000000     
   2.0887875685628987E-006   8.7584425859052636E-006   0.0000000000000000     
   2.1064023417845717E-006   8.9685328233981156E-006   0.0000000000000000     
   2.1236997434069003E-006   9.1803015121832882E-006   0.0000000000000000     
   2.1406797668153410E-006   9.3937181363062432E-006   0.0000000000000000     
   2.1573424053953561E-006   9.6087521798124711E-006   0.0000000000000000     
   2.1736876525324027E-006   9.8253731267474406E-006   0.0000000000000000     
   2.1897155016119383E-006   1.0043550461156622E-005   0.0000000000000000     
   2.2054259460194233E-006   1.0263253667085502E-005   0.0000000000000000     
   2.2208189791403156E-006   1.0484452228579547E-005   0.0000000000000000     
   2.0074950071166941E-006   8.7563507942995318E-006   0.0000000000000000     
   2.0244322901215197E-006   8.9664783812961090E-006   0.0000000000000000     
   2.0410644082319010E-006   9.1782844183022195E-006   0.0000000000000000     
   2.0573913552012411E-006   9.3917383902660792E-006   0.0000000000000000     
   2.0734131247829385E-006   9.6068097821359126E-006   0.0000000000000000     
   2.0891297107303940E-006   9.8234680788599287E-006   0.0000000000000000     
   2.1045411067970074E-006   1.0041682765386354E-005   0.0000000000000000     
   2.1196473067361812E-006   1.0261423326663414E-005   0.0000000000000000     
   2.1344483043013139E-006   1.0482659247639308E-005   0.0000000000000000     
   1.9263147538335526E-006   8.7543410325137856E-006   0.0000000000000000     
   1.9425745440499400E-006   8.9645045058033591E-006   0.0000000000000000     
   1.9585413755045668E-006   9.1763464281318153E-006   0.0000000000000000     
   1.9742152427041102E-006   9.3898362850587634E-006   0.0000000000000000     
   1.9895961401552492E-006   9.6049435621438046E-006   0.0000000000000000     
   2.0046840623646630E-006   9.8216377449465430E-006   0.0000000000000000     
   2.0194790038390294E-006   1.0039888319026583E-005   0.0000000000000000     
   2.0339809590850269E-006   1.0259664769943529E-005   0.0000000000000000     
   2.0481899226093333E-006   1.0480936583256982E-005   0.0000000000000000     
   2.7416527350835392E-006   1.0496686646225331E-005   0.0000000000000000     
   2.7602073923010541E-006   1.0719095119019605E-005   0.0000000000000000     
   2.7783714325939315E-006   1.0942937893481565E-005   0.0000000000000000     
   2.7961448585439155E-006   1.1168184451691041E-005   0.0000000000000000     
   2.8135276727327511E-006   1.1394804275727855E-005   0.0000000000000000     
   2.8305198777421845E-006   1.1622766847671832E-005   0.0000000000000000     
   2.8471214761539603E-006   1.1852041649602799E-005   0.0000000000000000     
   2.8633324705498239E-006   1.2082598163600585E-005   0.0000000000000000     
   2.8791528635115225E-006   1.2314405871745009E-005   0.0000000000000000     
   2.6545139698042458E-006   1.0494471809329539E-005   0.0000000000000000     
   2.6724887776529240E-006   1.0716926420750378E-005   0.0000000000000000     
   2.6900851686435738E-006   1.0940815332629730E-005   0.0000000000000000     
   2.7073031524385694E-006   1.1166108027864057E-005   0.0000000000000000     
   2.7241427387002884E-006   1.1392773989349817E-005   0.0000000000000000     
   2.7406039370911059E-006   1.1620782699983463E-005   0.0000000000000000     
   2.7566867572733968E-006   1.1850103642661451E-005   0.0000000000000000     
   2.7723912089095361E-006   1.2080706300280241E-005   0.0000000000000000     
   2.7877173016619029E-006   1.2312560155736293E-005   0.0000000000000000     
   2.5675144495457359E-006   1.0492327276593971E-005   0.0000000000000000     
   2.5849094121542446E-006   1.0714826568626750E-005   0.0000000000000000     
   2.6019381596991245E-006   1.0938760161469676E-005   0.0000000000000000     
   2.6186007075135505E-006   1.1164097537145029E-005   0.0000000000000000     
   2.6348970709306983E-006   1.1390808177675084E-005   0.0000000000000000     
   2.6508272652837406E-006   1.1618861565082118E-005   0.0000000000000000     
   2.6663913059058527E-006   1.1848227181388411E-005   0.0000000000000000     
   2.6815892081302103E-006   1.2078874508616238E-005   0.0000000000000000     
   2.6964209872899865E-006   1.2310773028787872E-005   0.0000000000000000     
   2.4806496823290482E-006   1.0490253050084907E-005   0.0000000000000000     
   2.4974648037017788E-006   1.0712795562940231E-005   0.0000000000000000     
   2.5139259134064598E-006   1.0936772378129980E-005   0.0000000000000000     
   2.5300330310793733E-006   1.1162152975553095E-005   0.0000000000000000     
   2.5457861763567966E-006   1.1388906835108536E-005   0.0000000000000000     
   2.5611853688750083E-006   1.1617003436695257E-005   0.0000000000000000     
   2.5762306282702892E-006   1.1846412260212204E-005   0.0000000000000000     
   2.5909219741789157E-006   1.2077102785558339E-005   0.0000000000000000     
   2.6052594262371686E-006   1.2309044492632603E-005   0.0000000000000000     
   2.3939151761752224E-006   1.0488249131868625E-005   0.0000000000000000     
   2.4101504601922897E-006   1.0710833403982338E-005   0.0000000000000000     
   2.4260439374114574E-006   1.0934851980739211E-005   0.0000000000000000     
   2.4415956304465520E-006   1.1160274339107397E-005   0.0000000000000000     
   2.4568055619114012E-006   1.1387069956055058E-005   0.0000000000000000     
   2.4716737544198288E-006   1.1615208308550330E-005   0.0000000000000000     
   2.4862002305856617E-006   1.1844658873561362E-005   0.0000000000000000     
   2.5003850130227259E-006   1.2075391128056321E-005   0.0000000000000000     
   2.5142281243448465E-006   1.2307374549003342E-005   0.0000000000000000     
   2.3073064391052981E-006   1.0486315524011413E-005   0.0000000000000000     
   2.3229618895225412E-006   1.0708940092044575E-005   0.0000000000000000     
   2.3382877393599935E-006   1.0932998967425956E-005   0.0000000000000000     
   2.3532840129256050E-006   1.1158461623827096E-005   0.0000000000000000     
   2.3679507345273299E-006   1.1385297534919527E-005   0.0000000000000000     
   2.3822879284731216E-006   1.1613476174374794E-005   0.0000000000000000     
   2.3962956190709307E-006   1.1842967015864422E-005   0.0000000000000000     
   2.4099738306287110E-006   1.2073739533059959E-005   0.0000000000000000     
   2.4233225874544142E-006   1.2305763199632934E-005   0.0000000000000000     
   2.2208189791403156E-006   1.0484452228579547E-005   0.0000000000000000     
   2.2358945995892974E-006   1.0707115627418457E-005   0.0000000000000000     
   2.2506528268979418E-006   1.0931213336318786E-005   0.0000000000000000     
   2.2650936858270442E-006   1.1156714825731320E-005   0.0000000000000000     
   2.2792172011373995E-006   1.1383589566106831E-005   0.0000000000000000     
   2.2930233975898043E-006   1.1611807027896099E-005   0.0000000000000000     
   2.3065122999450538E-006   1.1841336681549907E-005   0.0000000000000000     
   2.3196839329639431E-006   1.2072147997519027E-005   0.0000000000000000     
   2.3325383214072675E-006   1.2304210446254242E-005   0.0000000000000000     
   2.1344483043013139E-006   1.0482659247639308E-005   0.0000000000000000     
   2.1489440982893227E-006   1.0705360010395496E-005   0.0000000000000000     
   2.1631347076711829E-006   1.0929495085546281E-005   0.0000000000000000     
   2.1770201564613868E-006   1.1155033940839216E-005   0.0000000000000000     
   2.1906004686744286E-006   1.1381946044021848E-005   0.0000000000000000     
   2.2038756683247986E-006   1.1610200862841712E-005   0.0000000000000000     
   2.2168457794269900E-006   1.1839767865046342E-005   0.0000000000000000     
   2.2295108259954935E-006   1.2070616518383306E-005   0.0000000000000000     
   2.2418708320448027E-006   1.2302716290600120E-005   0.0000000000000000     
   2.0481899226093333E-006   1.0480936583256982E-005   0.0000000000000000     
   2.0621058935193784E-006   1.0703673241267194E-005   0.0000000000000000     
   2.0757288893255905E-006   1.0927844213237013E-005   0.0000000000000000     
   2.0890589321391486E-006   1.1153418965169937E-005   0.0000000000000000     
   2.1020960440712327E-006   1.1380366963069462E-005   0.0000000000000000     
   2.1148402472330226E-006   1.1608657672939076E-005   0.0000000000000000     
   2.1272915637356972E-006   1.1838260560782280E-005   0.0000000000000000     
   2.1394500156904353E-006   1.2069145092602564E-005   0.0000000000000000     
   2.1513156252084166E-006   1.2301280734403427E-005   0.0000000000000000     
   2.8791528635115225E-006   1.2314405871745009E-005   0.0000000000000000     
   2.8945826547488967E-006   1.2547434217256971E-005   0.0000000000000000     
   2.9096218324841899E-006   1.2781652487921654E-005   0.0000000000000000     
   2.9242703820677419E-006   1.3017029932665320E-005   0.0000000000000000     
   2.9385282888498913E-006   1.3253535800414211E-005   0.0000000000000000     
   2.9523955381809788E-006   1.3491139340094591E-005   0.0000000000000000     
   2.9658721154113434E-006   1.3729809800632709E-005   0.0000000000000000     
   2.9789580058913262E-006   1.3969516430954825E-005   0.0000000000000000     
   2.9916531949712659E-006   1.4210228479987193E-005   0.0000000000000000     
   2.7877173016619029E-006   1.2312560155736293E-005   0.0000000000000000     
   2.8026650360864635E-006   1.2545634654961298E-005   0.0000000000000000     
   2.8172343763135734E-006   1.2779899096027946E-005   0.0000000000000000     
   2.8314252773671797E-006   1.3015322740044149E-005   0.0000000000000000     
   2.8452376942712293E-006   1.3251874848117835E-005   0.0000000000000000     
   2.8586715820496699E-006   1.3489524681356924E-005   0.0000000000000000     
   2.8717268957264483E-006   1.3728241500869339E-005   0.0000000000000000     
   2.8844035903255135E-006   1.3967994567763001E-005   0.0000000000000000     
   2.8967016208708118E-006   1.4208753143145834E-005   0.0000000000000000     
   2.6964209872899865E-006   1.2310773028787872E-005   0.0000000000000000     
   2.7108866442164610E-006   1.2543892191521966E-005   0.0000000000000000     
   2.7249861217333354E-006   1.2778201316822649E-005   0.0000000000000000     
   2.7387193481624165E-006   1.3013669692290408E-005   0.0000000000000000     
   2.7520862518255078E-006   1.3250266605525757E-005   0.0000000000000000     
   2.7650867610444169E-006   1.3487961344129178E-005   0.0000000000000000     
   2.7777208041409499E-006   1.3726723195701175E-005   0.0000000000000000     
   2.7899883094369130E-006   1.3966521447842248E-005   0.0000000000000000     
   2.8018892052541098E-006   1.4207325388152889E-005   0.0000000000000000     
   2.6052594262371686E-006   1.2309044492632603E-005   0.0000000000000000     
   2.6192429850598029E-006   1.2542206835521668E-005   0.0000000000000000     
   2.6328725751754738E-006   1.2776559165063040E-005   0.0000000000000000     
   2.6461481020913137E-006   1.3012070806281933E-005   0.0000000000000000     
   2.6590694713144559E-006   1.3248711084203570E-005   0.0000000000000000     
   2.6716365883520325E-006   1.3486449323853168E-005   0.0000000000000000     
   2.6838493587111745E-006   1.3725254850255950E-005   0.0000000000000000     
   2.6957076878990161E-006   1.3965096988437124E-005   0.0000000000000000     
   2.7072114814226874E-006   1.4205945063421918E-005   0.0000000000000000     
   2.5142281243448465E-006   1.2307374549003342E-005   0.0000000000000000     
   2.5277295645374031E-006   1.2540578595543103E-005   0.0000000000000000     
   2.5408892430719869E-006   1.2774972655506408E-005   0.0000000000000000     
   2.5537070467917405E-006   1.3010526098896566E-005   0.0000000000000000     
   2.5661828625398060E-006   1.3247208295716904E-005   0.0000000000000000     
   2.5783165771593293E-006   1.3484988615970739E-005   0.0000000000000000     
   2.5901080774934513E-006   1.3723836429661397E-005   0.0000000000000000     
   2.6015572503853186E-006   1.3963721106792199E-005   0.0000000000000000     
   2.6126639826780706E-006   1.4204612017366455E-005   0.0000000000000000     
   2.4233225874544142E-006   1.2305763199632934E-005   0.0000000000000000     
   2.4363418885701775E-006   1.2539007480168974E-005   0.0000000000000000     
   2.4490316318548729E-006   1.2773441802910030E-005   0.0000000000000000     
   2.4613916899015574E-006   1.3009035587012145E-005   0.0000000000000000     
   2.4734219353032873E-006   1.3245758251631364E-005   0.0000000000000000     
   2.4851222406531182E-006   1.3483579215923723E-005   0.0000000000000000     
   2.4964924785441087E-006   1.3722467899045264E-005   0.0000000000000000     
   2.5075325215693123E-006   1.3962393720152033E-005   0.0000000000000000     
   2.5182422423217882E-006   1.4203326098400069E-005   0.0000000000000000     
   2.3325383214072675E-006   1.2304210446254242E-005   0.0000000000000000     
   2.3450754630790399E-006   1.2537493497981970E-005   0.0000000000000000     
   2.3572952479561309E-006   1.2771966622031187E-005   0.0000000000000000     
   2.3691975390586314E-006   1.3007599287506511E-005   0.0000000000000000     
   2.3807821994066297E-006   1.3244360963512560E-005   0.0000000000000000     
   2.3920490920202131E-006   1.3482221119153939E-005   0.0000000000000000     
   2.4029980799194721E-006   1.3721149223535282E-005   0.0000000000000000     
   2.4136290261244941E-006   1.3961114745761201E-005   0.0000000000000000     
   2.4239417936553664E-006   1.4202087154936301E-005   0.0000000000000000     
   2.2418708320448027E-006   1.2302716290600120E-005   0.0000000000000000     
   2.2539257939849053E-006   1.2536036657564803E-005   0.0000000000000000     
   2.2656755978077599E-006   1.2770547127627165E-005   0.0000000000000000     
   2.2771201019008277E-006   1.3006217217257501E-005   0.0000000000000000     
   2.2882591646515643E-006   1.3243016442926097E-005   0.0000000000000000     
   2.2990926444474250E-006   1.3480914321103229E-005   0.0000000000000000     
   2.3096203996758703E-006   1.3719880368259186E-005   0.0000000000000000     
   2.3198422887243541E-006   1.3959884100864254E-005   0.0000000000000000     
   2.3297581699803347E-006   1.4200895035388712E-005   0.0000000000000000     
   2.1513156252084166E-006   1.2301280734403427E-005   0.0000000000000000     
   2.1628883872086869E-006   1.2534636967500159E-005   0.0000000000000000     
   2.1741681878417582E-006   1.2769183334455245E-005   0.0000000000000000     
   2.1851548860660096E-006   1.3004889393142964E-005   0.0000000000000000     
   2.1958483408398194E-006   1.3241724701437597E-005   0.0000000000000000     
   2.2062484111215671E-006   1.3479658817213419E-005   0.0000000000000000     
   2.2163549558696308E-006   1.3718661298344717E-005   0.0000000000000000     
   2.2261678340423880E-006   1.3958701702705765E-005   0.0000000000000000     
   2.2356869045982191E-006   1.4199749588170856E-005   0.0000000000000000     
   1.0356817951632800E-006   2.0745078039536331E-006   0.0000000000000000     
   1.0636628065804463E-006   2.1925044133947622E-006   0.0000000000000000     
   1.0913503114654737E-006   2.3134007529563141E-006   0.0000000000000000     
   1.1187443767581627E-006   2.4371662546179134E-006   0.0000000000000000     
   1.1458450693983137E-006   2.5637703503591870E-006   0.0000000000000000     
   1.1726524563257281E-006   2.6931824721597613E-006   0.0000000000000000     
   1.1991666044802068E-006   2.8253720519992634E-006   0.0000000000000000     
   1.2253875808015500E-006   2.9603085218573195E-006   0.0000000000000000     
   1.2513154522295598E-006   3.0979613137135566E-006   0.0000000000000000     
   9.9171625570264280E-007   2.0712009427668524E-006   0.0000000000000000     
   1.0185321674860190E-006   2.1892323670221249E-006   0.0000000000000000     
   1.0450666350844917E-006   2.3101634714631598E-006   0.0000000000000000     
   1.0713197443581696E-006   2.4339636915578233E-006   0.0000000000000000     
   1.0972915811671610E-006   2.5606024627739835E-006   0.0000000000000000     
   1.1229822313715736E-006   2.6900492205795077E-006   0.0000000000000000     
   1.1483917808315156E-006   2.8222734004422623E-006   0.0000000000000000     
   1.1735203154070956E-006   2.9572444378301160E-006   0.0000000000000000     
   1.1983679209584213E-006   3.0949317682109348E-006   0.0000000000000000     
   9.4785407866748200E-007   2.0680345226301904E-006   0.0000000000000000     
   9.7350488851230948E-007   2.1860993180437005E-006   0.0000000000000000     
   9.9888631277963007E-007   2.3070637445136714E-006   0.0000000000000000     
   1.0239984572988795E-006   2.4308972403788626E-006   0.0000000000000000     
   1.0488414278994946E-006   2.5575692439780310E-006   0.0000000000000000     
   1.0734153304109114E-006   2.6870491936499359E-006   0.0000000000000000     
   1.0977202706625660E-006   2.8193065277333335E-006   0.0000000000000000     
   1.1217563544838950E-006   2.9543106845669810E-006   0.0000000000000000     
   1.1455236877043347E-006   3.0920311024896369E-006   0.0000000000000000     
   9.0409082908152653E-007   2.0650085257858027E-006   0.0000000000000000     
   9.2857651293522731E-007   2.1831052661598708E-006   0.0000000000000000     
   9.5280487268516432E-007   2.3041015826635640E-006   0.0000000000000000     
   9.7677603407835267E-007   2.4279669170558267E-006   0.0000000000000000     
   1.0004901228618075E-006   2.5546707110956046E-006   0.0000000000000000     
   1.0239472647825439E-006   2.6841824065418419E-006   0.0000000000000000     
   1.0471475855875777E-006   2.8164714451534825E-006   0.0000000000000000     
   1.0700912110239237E-006   2.9515072686894723E-006   0.0000000000000000     
   1.0927782668385974E-006   3.0892593189087548E-006   0.0000000000000000     
   8.6042207196850464E-007   2.0621229344758433E-006   0.0000000000000000     
   8.8374258403068070E-007   2.1802502110710191E-006   0.0000000000000000     
   9.0681784293537051E-007   2.3012769964685505E-006   0.0000000000000000     
   9.2964799319464932E-007   2.4251727375635117E-006   0.0000000000000000     
   9.5223317932059259E-007   2.5519068812509779E-006   0.0000000000000000     
   9.7457354582527460E-007   2.6814488744260223E-006   0.0000000000000000     
   9.9666923722077112E-007   2.8137681639837198E-006   0.0000000000000000     
   1.0185203980191573E-006   2.9488341968191473E-006   0.0000000000000000     
   1.0401271727325078E-006   3.0866164198273769E-006   0.0000000000000000     
   8.1684337235214585E-007   2.0593777309424673E-006   0.0000000000000000     
   8.3899864507457817E-007   2.1775341524775289E-006   0.0000000000000000     
   8.6092075166452454E-007   2.2985899964843466E-006   0.0000000000000000     
   8.8260985314583100E-007   2.4225147178767130E-006   0.0000000000000000     
   9.0406611054234317E-007   2.5492777715684237E-006   0.0000000000000000     
   9.2528968487790657E-007   2.6788486124732727E-006   0.0000000000000000     
   9.4628073717636767E-007   2.8111966955050538E-006   0.0000000000000000     
   9.6703942846157165E-007   2.9462914755775631E-006   0.0000000000000000     
   9.8756591975736372E-007   3.0841024076045928E-006   0.0000000000000000     
   7.7335029525617864E-007   2.0567728974278302E-006   0.0000000000000000     
   7.9434023934282803E-007   2.1749570900797819E-006   0.0000000000000000     
   8.1510912700690195E-007   2.2960405932666641E-006   0.0000000000000000     
   8.3565713242995787E-007   2.4199928739702254E-006   0.0000000000000000     
   8.5598442979355244E-007   2.5467833991722166E-006   0.0000000000000000     
   8.7609119327924336E-007   2.6763816358543893E-006   0.0000000000000000     
   8.9597759706858725E-007   2.8087570509984930E-006   0.0000000000000000     
   9.1564381534314160E-007   2.9438791115862781E-006   0.0000000000000000     
   9.3509002228446359E-007   3.0817172845994923E-006   0.0000000000000000     
   7.2993840570433200E-007   2.0543084161740864E-006   0.0000000000000000     
   7.4976291011133923E-007   2.1725190235781614E-006   0.0000000000000000     
   7.6937849709677883E-007   2.2936287973712174E-006   0.0000000000000000     
   7.8878534954509045E-007   2.4176072218188447E-006   0.0000000000000000     
   8.0798365034071362E-007   2.5444237811866326E-006   0.0000000000000000     
   8.2697358236808682E-007   2.6740479597401685E-006   0.0000000000000000     
   8.4575532851165043E-007   2.8064492417450435E-006   0.0000000000000000     
   8.6432907165584335E-007   2.9415971114668470E-006   0.0000000000000000     
   8.8269499468510448E-007   3.0794610531711659E-006   0.0000000000000000     
   6.8660326872033473E-007   2.0519842694233924E-006   0.0000000000000000     
   7.0526220065601997E-007   2.1702199526730489E-006   0.0000000000000000     
   7.2372439006843117E-007   2.2913546193537218E-006   0.0000000000000000     
   7.4199002298929040E-007   2.4153577773973684E-006   0.0000000000000000     
   7.6005928545031950E-007   2.5421989347359434E-006   0.0000000000000000     
   7.7793236348324116E-007   2.6718475993014069E-006   0.0000000000000000     
   7.9560944311977798E-007   2.8042732790257165E-006   0.0000000000000000     
   8.1309071039165159E-007   2.9394454818408279E-006   0.0000000000000000     
   8.3037635133058489E-007   3.0773337156787031E-006   0.0000000000000000     
   1.2513154522295598E-006   3.0979613137135566E-006   0.0000000000000000     
   1.2769502764094009E-006   3.2382998629365835E-006   0.0000000000000000     
   1.3022920738076984E-006   3.3812936184509452E-006   0.0000000000000000     
   1.3273408555964417E-006   3.5269120325701710E-006   0.0000000000000000     
   1.3520966329476209E-006   3.6751245576077866E-006   0.0000000000000000     
   1.3765594170332257E-006   3.8259006458773243E-006   0.0000000000000000     
   1.4007292190252454E-006   3.9792097496923093E-006   0.0000000000000000     
   1.4246060500956698E-006   4.1350213213662706E-006   0.0000000000000000     
   1.4481899214164888E-006   4.2933048132127379E-006   0.0000000000000000     
   1.1983679209584213E-006   3.0949317682109348E-006   0.0000000000000000     
   1.2229346711453763E-006   3.2353048303865690E-006   0.0000000000000000     
   1.2472205908269452E-006   3.3783330764948024E-006   0.0000000000000000     
   1.2712256926618879E-006   3.5239859620074028E-006   0.0000000000000000     
   1.2949499893089648E-006   3.6722329423961353E-006   0.0000000000000000     
   1.3183934934269348E-006   3.8230434731327691E-006   0.0000000000000000     
   1.3415562176745593E-006   3.9763870096890693E-006   0.0000000000000000     
   1.3644381747105973E-006   4.1322330075368020E-006   0.0000000000000000     
   1.3870393771938086E-006   4.2905509221477358E-006   0.0000000000000000     
   1.1455236877043347E-006   3.0920311024896369E-006   0.0000000000000000     
   1.1690223607637048E-006   3.2324372233014554E-006   0.0000000000000000     
   1.1922524025433589E-006   3.3754985026481703E-006   0.0000000000000000     
   1.2152138265350366E-006   3.5211843996369126E-006   0.0000000000000000     
   1.2379066462304722E-006   3.6694643733748113E-006   0.0000000000000000     
   1.2603308751214060E-006   3.8203078829689973E-006   0.0000000000000000     
   1.2824865266995749E-006   3.9736843875266012E-006   0.0000000000000000     
   1.3043736144567159E-006   4.1295633461547547E-006   0.0000000000000000     
   1.3259921518845672E-006   4.2879142179605865E-006   0.0000000000000000     
   1.0927782668385974E-006   3.0892593189087548E-006   0.0000000000000000     
   1.1152088601353085E-006   3.2296970411048118E-006   0.0000000000000000     
   1.1373830234445437E-006   3.3727898947092720E-006   0.0000000000000000     
   1.1593007706534828E-006   3.5185073426882986E-006   0.0000000000000000     
   1.1809621156493080E-006   3.6668188480080569E-006   0.0000000000000000     
   1.2023670723191996E-006   3.8176938736347123E-006   0.0000000000000000     
   1.2235156545503385E-006   3.9711018825344268E-006   0.0000000000000000     
   1.2444078762299052E-006   4.1270123376733664E-006   0.0000000000000000     
   1.2650437512450807E-006   4.2853947020176955E-006   0.0000000000000000     
   1.0401271727325078E-006   3.0866164198273769E-006   0.0000000000000000     
   1.0614896841311107E-006   3.2270842832202081E-006   0.0000000000000000     
   1.0826079680181006E-006   3.3702072504763317E-006   0.0000000000000000     
   1.1034820384548264E-006   3.5159547883911638E-006   0.0000000000000000     
   1.1241119095026360E-006   3.6642963637601196E-006   0.0000000000000000     
   1.1444975952228767E-006   3.8152014433786133E-006   0.0000000000000000     
   1.1646391096768966E-006   3.9686394940420619E-006   0.0000000000000000     
   1.1845364669260437E-006   4.1245799825458787E-006   0.0000000000000000     
   1.2041896810316663E-006   4.2829923756854787E-006   0.0000000000000000     
   9.8756591975736372E-007   3.0841024076045928E-006   0.0000000000000000     
   1.0078603476220330E-006   3.2245989490712112E-006   0.0000000000000000     
   1.0279227507516334E-006   3.3677505677475723E-006   0.0000000000000000     
   1.0477531433766630E-006   3.5135267339751062E-006   0.0000000000000000     
   1.0673515397276185E-006   3.6618969180952417E-006   0.0000000000000000     
   1.0867179540349969E-006   3.8128305904494039E-006   0.0000000000000000     
   1.1058524005292954E-006   3.9662972213790248E-006   0.0000000000000000     
   1.1247548934410115E-006   4.1222662812255279E-006   0.0000000000000000     
   1.1434254470006414E-006   4.2807072403303475E-006   0.0000000000000000     
   9.3509002228446359E-007   3.0817172845994923E-006   0.0000000000000000     
   9.5431636547899870E-007   3.2222410380813908E-006   0.0000000000000000     
   9.7332288613274539E-007   3.3654198443212186E-006   0.0000000000000000     
   9.9210959885659010E-007   3.5112231766697279E-006   0.0000000000000000     
   1.0106765182614196E-006   3.6596205084776655E-006   0.0000000000000000     
   1.0290236589581212E-006   3.8105813130957840E-006   0.0000000000000000     
   1.0471510355575813E-006   3.9640750638748315E-006   0.0000000000000000     
   1.0650586626706859E-006   4.1200712341655553E-006   0.0000000000000000     
   1.0827465549083227E-006   4.2785392973187075E-006   0.0000000000000000     
   8.8269499468510448E-007   3.0794610531711659E-006   0.0000000000000000     
   9.0085325257292976E-007   3.2200105496743146E-006   0.0000000000000000     
   9.1880388864903806E-007   3.3632150779954918E-006   0.0000000000000000     
   9.3654691833220441E-007   3.5090441137046260E-006   0.0000000000000000     
   9.5408235704120387E-007   3.6574671323716394E-006   0.0000000000000000     
   9.7141022019481053E-007   3.8084536095664565E-006   0.0000000000000000     
   9.8853052321180039E-007   3.9619730208590027E-006   0.0000000000000000     
   1.0054432815109476E-006   4.1179948418192016E-006   0.0000000000000000     
   1.0221485105110274E-006   4.2764885480169771E-006   0.0000000000000000     
   8.3037635133058489E-007   3.0773337156787031E-006   0.0000000000000000     
   8.4746652377474921E-007   3.2179074832735521E-006   0.0000000000000000     
   8.6436127278811540E-007   3.3611362665686187E-006   0.0000000000000000     
   8.8106061524110357E-007   3.5069895423094029E-006   0.0000000000000000     
   8.9756456800413331E-007   3.6554367872414043E-006   0.0000000000000000     
   9.1387314794762515E-007   3.8064474781101216E-006   0.0000000000000000     
   9.2998637194199868E-007   3.9599910916610543E-006   0.0000000000000000     
   9.4590425685767454E-007   4.1160371046397030E-006   0.0000000000000000     
   9.6162681956507264E-007   4.2745549937915652E-006   0.0000000000000000     
   1.4481899214164888E-006   4.2933048132127379E-006   0.0000000000000000     
   1.4714808420799029E-006   4.4540296838025250E-006   0.0000000000000000     
   1.4944788128589584E-006   4.6171654167356027E-006   0.0000000000000000     
   1.5171838324469133E-006   4.7826815018692274E-006   0.0000000000000000     
   1.5395958995370243E-006   4.9505474290606555E-006   0.0000000000000000     
   1.5617150128225489E-006   5.1207326881671441E-006   0.0000000000000000     
   1.5835411709967448E-006   5.2932067690459531E-006   0.0000000000000000     
   1.6050743727528692E-006   5.4679391615543329E-006   0.0000000000000000     
   1.6263146167841794E-006   5.6448993555495459E-006   0.0000000000000000     
   1.3870393771938086E-006   4.2905509221477358E-006   0.0000000000000000     
   1.4093598354729194E-006   4.4513102147332519E-006   0.0000000000000000     
   1.4313995506565137E-006   4.6144803694631820E-006   0.0000000000000000     
   1.4531585215431416E-006   4.7800308762469708E-006   0.0000000000000000     
   1.4746367469313535E-006   4.9479312249940663E-006   0.0000000000000000     
   1.4958342256196987E-006   5.1181509056139147E-006   0.0000000000000000     
   1.5167509564067281E-006   5.2906594080159650E-006   0.0000000000000000     
   1.5373869380909916E-006   5.4654262221096576E-006   0.0000000000000000     
   1.5577421694710381E-006   5.6424208378044446E-006   0.0000000000000000     
   1.3259921518845672E-006   4.2879142179605865E-006   0.0000000000000000     
   1.3473421500909972E-006   4.4487064671862703E-006   0.0000000000000000     
   1.3684236106483971E-006   4.6119095786141646E-006   0.0000000000000000     
   1.3892365327452919E-006   4.7774930421616668E-006   0.0000000000000000     
   1.4097809155702018E-006   4.9454263477461751E-006   0.0000000000000000     
   1.4300567583116509E-006   5.1156789852850913E-006   0.0000000000000000     
   1.4500640601581622E-006   5.2882204446958127E-006   0.0000000000000000     
   1.4698028202982580E-006   5.4630202158957384E-006   0.0000000000000000     
   1.4892730379204605E-006   5.6400477888022718E-006   0.0000000000000000     
   1.2650437512450807E-006   4.2853947020176955E-006   0.0000000000000000     
   1.2854232911263317E-006   4.4462184430329021E-006   0.0000000000000000     
   1.3055464979772677E-006   4.6094530461817604E-006   0.0000000000000000     
   1.3254133715447825E-006   4.7750680014263698E-006   0.0000000000000000     
   1.3450239115757726E-006   4.9430327987288258E-006   0.0000000000000000     
   1.3643781178171316E-006   5.1133169280512305E-006   0.0000000000000000     
   1.3834759900157547E-006   5.2858898793556758E-006   0.0000000000000000     
   1.4023175279185370E-006   5.4607211426042673E-006   0.0000000000000000     
   1.4209027312723735E-006   5.6377802077590952E-006   0.0000000000000000     
   1.2041896810316663E-006   4.2829923756854787E-006   0.0000000000000000     
   1.2235987637711188E-006   4.4438461441444651E-006   0.0000000000000000     
   1.2427637177857791E-006   4.6071107741591751E-006   0.0000000000000000     
   1.2616845434330340E-006   4.7727557558541328E-006   0.0000000000000000     
   1.2803612410702679E-006   4.9407505793538630E-006   0.0000000000000000     
   1.2987938110548668E-006   5.1110647347828908E-006   0.0000000000000000     
   1.3169822537442156E-006   5.2836677122657385E-006   0.0000000000000000     
   1.3349265694957000E-006   5.4585290019269344E-006   0.0000000000000000     
   1.3526267586667050E-006   5.6356180938909975E-006   0.0000000000000000     
   1.1434254470006414E-006   4.2807072403303475E-006   0.0000000000000000     
   1.1618640732175531E-006   4.4415895723922786E-006   0.0000000000000000     
   1.1800707752165892E-006   4.6048827645396111E-006   0.0000000000000000     
   1.1980455539014641E-006   4.7705563072580093E-006   0.0000000000000000     
   1.2157884101758906E-006   4.9385796910331289E-006   0.0000000000000000     
   1.2332993449435823E-006   5.1089224063506323E-006   0.0000000000000000     
   1.2505783591082524E-006   5.2815539436961788E-006   0.0000000000000000     
   1.2676254535736148E-006   5.4564437935554324E-006   0.0000000000000000     
   1.2844406292433825E-006   5.6335614464140490E-006   0.0000000000000000     
   1.0827465549083227E-006   4.2785392973187075E-006   0.0000000000000000     
   1.1002147246578303E-006   4.4394487296476611E-006   0.0000000000000000     
   1.1174631754123537E-006   4.6027690193162810E-006   0.0000000000000000     
   1.1344919084414920E-006   4.7684696574510507E-006   0.0000000000000000     
   1.1513009250148432E-006   4.9365201351784681E-006   0.0000000000000000     
   1.1678902264020048E-006   5.1068899436250127E-006   0.0000000000000000     
   1.1842598138725744E-006   5.2795485739171774E-006   0.0000000000000000     
   1.2004096886961520E-006   5.4544655171814525E-006   0.0000000000000000     
   1.2163398521423329E-006   5.6316102645443215E-006   0.0000000000000000     
   1.0221485105110274E-006   4.2764885480169771E-006   0.0000000000000000     
   1.0386462232841456E-006   4.4374236177819356E-006   0.0000000000000000     
   1.0549364235157295E-006   4.6007695404823828E-006   0.0000000000000000     
   1.0710191125445379E-006   4.7664958082463164E-006   0.0000000000000000     
   1.0868942917093290E-006   4.9345719132017220E-006   0.0000000000000000     
   1.1025619623488604E-006   5.1049673474765937E-006   0.0000000000000000     
   1.1180221258018912E-006   5.2776516031989174E-006   0.0000000000000000     
   1.1332747834071801E-006   5.4525941724966905E-006   0.0000000000000000     
   1.1483199365034846E-006   5.6297645474978954E-006   0.0000000000000000     
   9.6162681956507264E-007   4.2745549937915652E-006   0.0000000000000000     
   9.7715407428869466E-007   4.4355142386664162E-006   0.0000000000000000     
   9.9248602466937260E-007   4.5988843300311291E-006   0.0000000000000000     
   1.0076226717020197E-006   4.7646347614568543E-006   0.0000000000000000     
   1.0225640163815495E-006   4.9327350265147377E-006   0.0000000000000000     
   1.0373100597028753E-006   5.1031546187759305E-006   0.0000000000000000     
   1.0518608026609107E-006   5.2758630318115778E-006   0.0000000000000000     
   1.0662162462505696E-006   5.4508297591928334E-006   0.0000000000000000     
   1.0803763914667654E-006   5.6280242944908407E-006   0.0000000000000000     
   1.6263146167841794E-006   5.6448993555495459E-006   0.0000000000000000     
   1.6472619015446537E-006   5.8240568394609516E-006   0.0000000000000000     
   1.6679162245311544E-006   6.0053810960063326E-006   0.0000000000000000     
   1.6882775830012630E-006   6.1888416064755771E-006   0.0000000000000000     
   1.7083459742125624E-006   6.3744078521585692E-006   0.0000000000000000     
   1.7281213954226349E-006   6.5620493143451981E-006   0.0000000000000000     
   1.7476038438890632E-006   6.7517354743253502E-006   0.0000000000000000     
   1.7667933168694294E-006   6.9434358133889140E-006   0.0000000000000000     
   1.7856898116213161E-006   7.1371198128257717E-006   0.0000000000000000     
   1.5577421694710381E-006   5.6424208378044446E-006   0.0000000000000000     
   1.5778166490949256E-006   5.8216127435814022E-006   0.0000000000000000     
   1.5976103745087345E-006   6.0029714222081277E-006   0.0000000000000000     
   1.6171233430080528E-006   6.1864663550238516E-006   0.0000000000000000     
   1.6363555518884689E-006   6.3720670233678070E-006   0.0000000000000000     
   1.6553069984455705E-006   6.5597429085792251E-006   0.0000000000000000     
   1.6739776799749453E-006   6.7494634919973323E-006   0.0000000000000000     
   1.6923675937721810E-006   6.9411982549613641E-006   0.0000000000000000     
   1.7104767371328653E-006   7.1349166788105468E-006   0.0000000000000000     
   1.4892730379204605E-006   5.6400477888022718E-006   0.0000000000000000     
   1.5084747118879386E-006   5.8192726519085440E-006   0.0000000000000000     
   1.5274078397624357E-006   6.0006642880106354E-006   0.0000000000000000     
   1.5460724187803427E-006   6.1841921784803679E-006   0.0000000000000000     
   1.5644684461780481E-006   6.3698258046895521E-006   0.0000000000000000     
   1.5825959191919421E-006   6.5575346480100109E-006   0.0000000000000000     
   1.6004548350584134E-006   6.7472881898135548E-006   0.0000000000000000     
   1.6180451910138525E-006   6.9390559114720041E-006   0.0000000000000000     
   1.6353669842946477E-006   7.1328072943571719E-006   0.0000000000000000     
   1.4209027312723735E-006   5.6377802077590952E-006   0.0000000000000000     
   1.4392315993876204E-006   5.8170365633493462E-006   0.0000000000000000     
   1.4573041298284783E-006   5.9984596921725086E-006   0.0000000000000000     
   1.4751203197226099E-006   6.1820190755931578E-006   0.0000000000000000     
   1.4926801661976784E-006   6.3676841949758769E-006   0.0000000000000000     
   1.5099836663813450E-006   6.5554245316852303E-006   0.0000000000000000     
   1.5270308174012717E-006   6.7452095670857976E-006   0.0000000000000000     
   1.5438216163851228E-006   6.9370087825421592E-006   0.0000000000000000     
   1.5603560604605591E-006   7.1307916594188814E-006   0.0000000000000000     
   1.3526267586667050E-006   5.6356180938909975E-006   0.0000000000000000     
   1.3700828210578996E-006   5.8149044768107780E-006   0.0000000000000000     
   1.3872947542430818E-006   5.9963576334523866E-006   0.0000000000000000     
   1.4042625552393339E-006   6.1799470451102636E-006   0.0000000000000000     
   1.4209862210637377E-006   6.3656421930788407E-006   0.0000000000000000     
   1.4374657487333741E-006   6.5534125586525608E-006   0.0000000000000000     
   1.4537011352653247E-006   6.7432276231258539E-006   0.0000000000000000     
   1.4696923776766722E-006   6.9350568677931610E-006   0.0000000000000000     
   1.4854394729844975E-006   7.1288697739489124E-006   0.0000000000000000     
   1.2844406292433825E-006   5.6335614464140490E-006   0.0000000000000000     
   1.3010238863627037E-006   5.8128763911998044E-006   0.0000000000000000     
   1.3173752225424661E-006   5.9943581106089147E-006   0.0000000000000000     
   1.3334946347349921E-006   6.1779760857797094E-006   0.0000000000000000     
   1.3493821198926044E-006   6.3636997978505191E-006   0.0000000000000000     
   1.3650376749676245E-006   6.5514987279596748E-006   0.0000000000000000     
   1.3804612969123753E-006   6.7413423572455027E-006   0.0000000000000000     
   1.3956529826791791E-006   6.9332001668463349E-006   0.0000000000000000     
   1.4106127292203590E-006   7.1270416379004967E-006   0.0000000000000000     
   1.2163398521423329E-006   5.6316102645443215E-006   0.0000000000000000     
   1.2320503047659611E-006   5.8109523054233962E-006   0.0000000000000000     
   1.2475410442628510E-006   5.9924611224007372E-006   0.0000000000000000     
   1.2628120676140623E-006   6.1761061963495350E-006   0.0000000000000000     
   1.2778633718006565E-006   6.3618570081429791E-006   0.0000000000000000     
   1.2926949538036917E-006   6.5496830386542489E-006   0.0000000000000000     
   1.3073068106042270E-006   6.7395537687565281E-006   0.0000000000000000     
   1.3216989391833240E-006   6.9314386793230089E-006   0.0000000000000000     
   1.3358713365220402E-006   7.1253072512268730E-006   0.0000000000000000     
   1.1483199365034846E-006   5.6297645474978954E-006   0.0000000000000000     
   1.1631575857315994E-006   5.8091322183885194E-006   0.0000000000000000     
   1.1777877289404564E-006   5.9906666675865021E-006   0.0000000000000000     
   1.1922103632810248E-006   6.1743373755677806E-006   0.0000000000000000     
   1.2064254859042733E-006   6.3601138228082870E-006   0.0000000000000000     
   1.2204330939611705E-006   6.5479654897839539E-006   0.0000000000000000     
   1.2342331846026852E-006   6.7378618569707193E-006   0.0000000000000000     
   1.2478257549797852E-006   6.9297724048445160E-006   0.0000000000000000     
   1.2612108022434395E-006   7.1236666138812734E-006   0.0000000000000000     
   1.0803763914667654E-006   5.6280242944908407E-006   0.0000000000000000     
   1.0943412387235463E-006   5.8074161290021430E-006   0.0000000000000000     
   1.1081107861115015E-006   5.9889747449248503E-006   0.0000000000000000     
   1.1216850311403555E-006   6.1726696221824733E-006   0.0000000000000000     
   1.1350639713198327E-006   6.3584702406985106E-006   0.0000000000000000     
   1.1482476041596566E-006   6.5463460803964705E-006   0.0000000000000000     
   1.1612359271695516E-006   6.7362666211998576E-006   0.0000000000000000     
   1.1740289378592427E-006   6.9282013430321783E-006   0.0000000000000000     
   1.1866266337384532E-006   7.1221197258169347E-006   0.0000000000000000     
   1.7856898116213161E-006   7.1371198128257717E-006   0.0000000000000000     
   1.8042933264365099E-006   7.3327569533320008E-006   0.0000000000000000     
   1.8226038637436137E-006   7.5303167132284267E-006   0.0000000000000000     
   1.8406214270054351E-006   7.7297685702420611E-006   0.0000000000000000     
   1.8583460196847811E-006   7.9310820020999168E-006   0.0000000000000000     
   1.8757776452444584E-006   8.1342264865290048E-006   0.0000000000000000     
   1.8929163071472746E-006   8.3391715012563363E-006   0.0000000000000000     
   1.9097620088560371E-006   8.5458865240089273E-006   0.0000000000000000     
   1.9263147538335526E-006   8.7543410325137856E-006   0.0000000000000000     
   1.7104767371328653E-006   7.1349166788105468E-006   0.0000000000000000     
   1.7283051083130970E-006   7.3305882442549348E-006   0.0000000000000000     
   1.7458527094110104E-006   7.5281824294878570E-006   0.0000000000000000     
   1.7631195434852516E-006   7.7276687120734663E-006   0.0000000000000000     
   1.7801056135944656E-006   7.9290165695759181E-006   0.0000000000000000     
   1.7968109227972978E-006   8.1321954795593594E-006   0.0000000000000000     
   1.8132354741523929E-006   8.3371749195879439E-006   0.0000000000000000     
   1.8293792707183976E-006   8.5439243672258288E-006   0.0000000000000000     
   1.8452423155539560E-006   8.7524133000371557E-006   0.0000000000000000     
   1.6353669842946477E-006   7.1328072943571719E-006   0.0000000000000000     
   1.6524202130294369E-006   7.3285118191985801E-006   0.0000000000000000     
   1.6692048789158450E-006   7.5261389641565378E-006   0.0000000000000000     
   1.6857209845437453E-006   7.7256582067490632E-006   0.0000000000000000     
   1.7019685325030100E-006   7.9270390244941689E-006   0.0000000000000000     
   1.7179475253835130E-006   8.1302508949098691E-006   0.0000000000000000     
   1.7336579657751263E-006   8.3352632955141778E-006   0.0000000000000000     
   1.7490998562677232E-006   8.5420457038251109E-006   0.0000000000000000     
   1.7642731994511768E-006   8.7505675973606808E-006   0.0000000000000000     
   1.5603560604605591E-006   7.1307916594188814E-006   0.0000000000000000     
   1.5766341475777071E-006   7.3265276784475619E-006   0.0000000000000000     
   1.5926558789765431E-006   7.5241863178278368E-006   0.0000000000000000     
   1.6084212567195079E-006   7.7237370551263677E-006   0.0000000000000000     
   1.6239302828690429E-006   7.9251493679098131E-006   0.0000000000000000     
   1.6391829594875863E-006   8.1283927337448263E-006   0.0000000000000000     
   1.6541792886375801E-006   8.3334366301980683E-006   0.0000000000000000     
   1.6689192723814645E-006   8.5402505348361983E-006   0.0000000000000000     
   1.6834029127816797E-006   8.7488039252258687E-006   0.0000000000000000     
   1.4854394729844975E-006   7.1288697739489124E-006   0.0000000000000000     
   1.5009424189500855E-006   7.3246358222865020E-006   0.0000000000000000     
   1.5162012163115308E-006   7.5223244910951150E-006   0.0000000000000000     
   1.5312158665511332E-006   7.7219052580628972E-006   0.0000000000000000     
   1.5459863711511898E-006   7.9233476008779826E-006   0.0000000000000000     
   1.5605127315939999E-006   8.1266209972285186E-006   0.0000000000000000     
   1.5747949493618611E-006   8.3316949248026459E-006   0.0000000000000000     
   1.5888330259370727E-006   8.5385388612885053E-006   0.0000000000000000     
   1.6026269628019317E-006   8.7471222843742374E-006   0.0000000000000000     
   1.4106127292203590E-006   7.1270416379004967E-006   0.0000000000000000     
   1.4253405341387491E-006   7.3228362510000245E-006   0.0000000000000000     
   1.4398363976392339E-006   7.5205534845517376E-006   0.0000000000000000     
   1.4541003205772117E-006   7.7201628164161608E-006   0.0000000000000000     
   1.4681323038080795E-006   7.9216337244538195E-006   0.0000000000000000     
   1.4819323481872351E-006   8.1249356865252383E-006   0.0000000000000000     
   1.4955004545700753E-006   8.3300381804909359E-006   0.0000000000000000     
   1.5088366238119974E-006   8.5369106842114463E-006   0.0000000000000000     
   1.5219408567683995E-006   8.7455226755472847E-006   0.0000000000000000     
   1.3358713365220402E-006   7.1253072512268730E-006   0.0000000000000000     
   1.3498240001358755E-006   7.3211289648727545E-006   0.0000000000000000     
   1.3635569296780781E-006   7.5188732987910691E-006   0.0000000000000000     
   1.3770701253363365E-006   7.7185097310436829E-006   0.0000000000000000     
   1.3903635872983388E-006   7.9200077396924645E-006   0.0000000000000000     
   1.4034373157517734E-006   8.1233368027992714E-006   0.0000000000000000     
   1.4162913108843275E-006   8.3284663984259774E-006   0.0000000000000000     
   1.4289255728836902E-006   8.5353660046344459E-006   0.0000000000000000     
   1.4413401019375485E-006   8.7440050994865336E-006   0.0000000000000000     
   1.2612108022434395E-006   7.1236666138812734E-006   0.0000000000000000     
   1.2743883239336424E-006   7.3195139641893146E-006   0.0000000000000000     
   1.2873583191464891E-006   7.5172839344064720E-006   0.0000000000000000     
   1.3001207873670998E-006   7.7169460028029775E-006   0.0000000000000000     
   1.3126757280805956E-006   7.9184696476490561E-006   0.0000000000000000     
   1.3250231407720977E-006   8.1218243472149154E-006   0.0000000000000000     
   1.3371630249267263E-006   8.3269795797707938E-006   0.0000000000000000     
   1.3490953800296026E-006   8.5339048235869133E-006   0.0000000000000000     
   1.3608202055658460E-006   8.7425695569334905E-006   0.0000000000000000     
   1.1866266337384532E-006   7.1221197258169347E-006   0.0000000000000000     
   1.1990290125242279E-006   7.3179912492343249E-006   0.0000000000000000     
   1.2112360727628924E-006   7.5157853919913142E-006   0.0000000000000000     
   1.2232478132080937E-006   7.7154716325515587E-006   0.0000000000000000     
   1.2350642326134768E-006   7.9170194493787232E-006   0.0000000000000000     
   1.2466853297326893E-006   8.1203983209364560E-006   0.0000000000000000     
   1.2581111033193759E-006   8.3255777256884209E-006   0.0000000000000000     
   1.2693415521271839E-006   8.5325271420982715E-006   0.0000000000000000     
   1.2803766749097588E-006   8.7412160486296716E-006   0.0000000000000000     
   1.9263147538335526E-006   8.7543410325137856E-006   0.0000000000000000     
   1.9425745440499400E-006   8.9645045058033591E-006   0.0000000000000000     
   1.9585413755045668E-006   9.1763464281318153E-006   0.0000000000000000     
   1.9742152427041102E-006   9.3898362850587634E-006   0.0000000000000000     
   1.9895961401552492E-006   9.6049435621438046E-006   0.0000000000000000     
   2.0046840623646630E-006   9.8216377449465430E-006   0.0000000000000000     
   2.0194790038390294E-006   1.0039888319026583E-005   0.0000000000000000     
   2.0339809590850269E-006   1.0259664769943529E-005   0.0000000000000000     
   2.0481899226093333E-006   1.0480936583256982E-005   0.0000000000000000     
   1.8452423155539560E-006   8.7524133000371557E-006   0.0000000000000000     
   1.8608246104741656E-006   8.9626111969542672E-006   0.0000000000000000     
   1.8761261523199240E-006   9.1744875423821956E-006   0.0000000000000000     
   1.8911469366885836E-006   9.3880118220941634E-006   0.0000000000000000     
   1.9058869591774935E-006   9.6031535218633986E-006   0.0000000000000000     
   1.9203462153840046E-006   9.8198821274631168E-006   0.0000000000000000     
   1.9345247009054665E-006   1.0038167124666539E-005   0.0000000000000000     
   1.9484224113392315E-006   1.0257977999246887E-005   0.0000000000000000     
   1.9620393422826475E-006   1.0479284236977380E-005   0.0000000000000000     
   1.7642731994511768E-006   8.7505675973606808E-006   0.0000000000000000     
   1.7791779969773791E-006   8.9607984549911797E-006   0.0000000000000000     
   1.7938142467463013E-006   9.1727077609959977E-006   0.0000000000000000     
   1.8081819457199358E-006   9.3862650010068252E-006   0.0000000000000000     
   1.8222810908602728E-006   9.6014396606553134E-006   0.0000000000000000     
   1.8361116791293034E-006   9.8182012255731558E-006   0.0000000000000000     
   1.8496737074890189E-006   1.0036519181392014E-005   0.0000000000000000     
   1.8629671729014111E-006   1.0256363013743566E-005   0.0000000000000000     
   1.8759920723284698E-006   1.0477702208259486E-005   0.0000000000000000     
   1.6834029127816797E-006   8.7488039252258687E-006   0.0000000000000000     
   1.6976302113124764E-006   8.9590662802084370E-006   0.0000000000000000     
   1.7116011670953498E-006   9.1710070837240229E-006   0.0000000000000000     
   1.7253157786636023E-006   9.3845958209874477E-006   0.0000000000000000     
   1.7387740445505418E-006   9.5998019772135292E-006   0.0000000000000000     
   1.7519759632894704E-006   9.8165950376170888E-006   0.0000000000000000     
   1.7649215334136940E-006   1.0034944487412937E-005   0.0000000000000000     
   1.7776107534565182E-006   1.0254819811815903E-005   0.0000000000000000     
   1.7900436219512461E-006   1.0476190496040797E-005   0.0000000000000000     
   1.6026269628019317E-006   8.7471222843742374E-006   0.0000000000000000     
   1.6161767612323547E-006   8.9574146729003747E-006   0.0000000000000000     
   1.6294824216787181E-006   9.1693855103170419E-006   0.0000000000000000     
   1.6425439443850198E-006   9.3830042812267486E-006   0.0000000000000000     
   1.6553613295952538E-006   9.5982404702320077E-006   0.0000000000000000     
   1.6679345775534152E-006   9.8150635619353375E-006   0.0000000000000000     
   1.6802636885035014E-006   1.0033443040939241E-005   0.0000000000000000     
   1.6923486626895056E-006   1.0253348391846239E-005   0.0000000000000000     
   1.7041895003554241E-006   1.0474749099258838E-005   0.0000000000000000     
   1.5219408567683995E-006   8.7455226755472847E-006   0.0000000000000000     
   1.5348131544899069E-006   8.9558436333613282E-006   0.0000000000000000     
   1.5474535188080582E-006   9.1678430405258389E-006   0.0000000000000000     
   1.5598619517496210E-006   9.3814903809154352E-006   0.0000000000000000     
   1.5720384553413617E-006   9.5967551384047224E-006   0.0000000000000000     
   1.5839830316100483E-006   9.8136067968683240E-006   0.0000000000000000     
   1.5956956825824468E-006   1.0032014840180844E-005   0.0000000000000000     
   1.6071764102853256E-006   1.0251948752216903E-005   0.0000000000000000     
   1.6184252167454506E-006   1.0473378016851109E-005   0.0000000000000000     
   1.4413401019375485E-006   8.7440050994865336E-006   0.0000000000000000     
   1.4535348988380310E-006   8.9543531618856365E-006   0.0000000000000000     
   1.4655099667950202E-006   9.1663796741012016E-006   0.0000000000000000     
   1.4772653096228418E-006   9.3800541192442101E-006   0.0000000000000000     
   1.4888009311358200E-006   9.5953459804256448E-006   0.0000000000000000     
   1.5001168351482780E-006   9.8122247407564752E-006   0.0000000000000000     
   1.5112130254745396E-006   1.0030659883347681E-005   0.0000000000000000     
   1.5220895059289304E-006   1.0250620891310242E-005   0.0000000000000000     
   1.5327462803257724E-006   1.0472077247755124E-005   0.0000000000000000     
   1.3608202055658460E-006   8.7425695569334905E-006   0.0000000000000000     
   1.3723375020296212E-006   8.9529432587676298E-006   0.0000000000000000     
   1.3836472739512549E-006   9.1649954107939092E-006   0.0000000000000000     
   1.3947495268701180E-006   9.3786954954037941E-006   0.0000000000000000     
   1.4056442663255817E-006   9.5940129949887503E-006   0.0000000000000000     
   1.4163314978570145E-006   9.8109173919402214E-006   0.0000000000000000     
   1.4268112270037879E-006   1.0029378168649676E-005   0.0000000000000000     
   1.4370834593052722E-006   1.0249364807508588E-005   0.0000000000000000     
   1.4471482003008367E-006   1.0470846790908394E-005   0.0000000000000000     
   1.2803766749097588E-006   8.7412160486296716E-006   0.0000000000000000     
   1.2912164718175741E-006   8.9516139243016472E-006   0.0000000000000000     
   1.3018609485884128E-006   9.1636902503547476E-006   0.0000000000000000     
   1.3123101123568846E-006   9.3774145085848880E-006   0.0000000000000000     
   1.3225639702575999E-006   9.5927561807879936E-006   0.0000000000000000     
   1.3326225294251682E-006   9.8096847487599847E-006   0.0000000000000000     
   1.3424857969941992E-006   1.0028169694296769E-005   0.0000000000000000     
   1.3521537800993036E-006   1.0248180499194281E-005   0.0000000000000000     
   1.3616264858750908E-006   1.0469686645248433E-005   0.0000000000000000     
   2.0481899226093333E-006   1.0480936583256982E-005   0.0000000000000000     
   2.0621058935193784E-006   1.0703673241267194E-005   0.0000000000000000     
   2.0757288893255905E-006   1.0927844213237013E-005   0.0000000000000000     
   2.0890589321391486E-006   1.1153418965169937E-005   0.0000000000000000     
   2.1020960440712327E-006   1.1380366963069462E-005   0.0000000000000000     
   2.1148402472330226E-006   1.1608657672939076E-005   0.0000000000000000     
   2.1272915637356972E-006   1.1838260560782280E-005   0.0000000000000000     
   2.1394500156904353E-006   1.2069145092602564E-005   0.0000000000000000     
   2.1513156252084166E-006   1.2301280734403427E-005   0.0000000000000000     
   1.9620393422826475E-006   1.0479284236977380E-005   0.0000000000000000     
   1.9753754932541896E-006   1.0702055320260414E-005   0.0000000000000000     
   1.9884308794568190E-006   1.0926260718015036E-005   0.0000000000000000     
   2.0012055200146208E-006   1.1151869895789476E-005   0.0000000000000000     
   2.0136994340516798E-006   1.1378852319131968E-005   0.0000000000000000     
   2.0259126406920802E-006   1.1607177453590726E-005   0.0000000000000000     
   2.0378451590599088E-006   1.1836814764713986E-005   0.0000000000000000     
   2.0494970082792483E-006   1.2067733718049970E-005   0.0000000000000000     
   2.0608682074741843E-006   1.2299903779146903E-005   0.0000000000000000     
   1.8759920723284698E-006   1.0477702208259486E-005   0.0000000000000000     
   1.8887484057803221E-006   1.0700506247343336E-005   0.0000000000000000     
   1.9012361854596314E-006   1.0924744600486242E-005   0.0000000000000000     
   1.9134554266172002E-006   1.1150386733951224E-005   0.0000000000000000     
   1.9254061445038267E-006   1.1377402114001300E-005   0.0000000000000000     
   1.9370883543703113E-006   1.1605760206899485E-005   0.0000000000000000     
   1.9485020714674538E-006   1.1835430478908807E-005   0.0000000000000000     
   1.9596473110460541E-006   1.2066382396292273E-005   0.0000000000000000     
   1.9705240883569115E-006   1.2298585425312902E-005   0.0000000000000000     
   1.7900436219512461E-006   1.0476190496040797E-005   0.0000000000000000     
   1.8022201394623004E-006   1.0699026022419490E-005   0.0000000000000000     
   1.8141403146785702E-006   1.0923295861752007E-005   0.0000000000000000     
   1.8258041583200618E-006   1.1148969481955419E-005   0.0000000000000000     
   1.8372116811067826E-006   1.1376016350946810E-005   0.0000000000000000     
   1.8483628937587394E-006   1.1604405936643260E-005   0.0000000000000000     
   1.8592578069959362E-006   1.1834107706961831E-005   0.0000000000000000     
   1.8698964315383836E-006   1.2065091129819611E-005   0.0000000000000000     
   1.8802787781060846E-006   1.2297325673133668E-005   0.0000000000000000     
   1.7041895003554241E-006   1.0474749099258838E-005   0.0000000000000000     
   1.7157862026646510E-006   1.0697614645392408E-005   0.0000000000000000     
   1.7271387744581735E-006   1.0921914502913698E-005   0.0000000000000000     
   1.7382472214963791E-006   1.1147618142102315E-005   0.0000000000000000     
   1.7491115495396557E-006   1.1374695033237864E-005   0.0000000000000000     
   1.7597317643483873E-006   1.1603114646599948E-005   0.0000000000000000     
   1.7701078716829623E-006   1.1832846452468167E-005   0.0000000000000000     
   1.7802398773037683E-006   1.2063859921122134E-005   0.0000000000000000     
   1.7901277869711896E-006   1.2296124522841446E-005   0.0000000000000000     
   1.6184252167454506E-006   1.0473378016851109E-005   0.0000000000000000     
   1.6294421037518984E-006   1.0696272116165612E-005   0.0000000000000000     
   1.6402270721429827E-006   1.0920600525072687E-005   0.0000000000000000     
   1.6507801225193261E-006   1.1146332716692144E-005   0.0000000000000000     
   1.6611012554815506E-006   1.1373438164143795E-005   0.0000000000000000     
   1.6711904716302787E-006   1.1601886340547440E-005   0.0000000000000000     
   1.6810477715661340E-006   1.1831646719022900E-005   0.0000000000000000     
   1.6906731558897377E-006   1.2062688772689974E-005   0.0000000000000000     
   1.7000666252017131E-006   1.2294981974668481E-005   0.0000000000000000     
   1.5327462803257724E-006   1.0472077247755124E-005   0.0000000000000000     
   1.5431833510885695E-006   1.0694998434642636E-005   0.0000000000000000     
   1.5534007150775386E-006   1.0919353929330349E-005   0.0000000000000000     
   1.5633983677620758E-006   1.1145113208025156E-005   0.0000000000000000     
   1.5731763046115767E-006   1.1372245746933955E-005   0.0000000000000000     
   1.5827345210954387E-006   1.1600721022263653E-005   0.0000000000000000     
   1.5920730126830557E-006   1.1830508510221126E-005   0.0000000000000000     
   1.6011917748438244E-006   1.2061577687013284E-005   0.0000000000000000     
   1.6100908030471410E-006   1.2293898028847015E-005   0.0000000000000000     
   1.4471482003008367E-006   1.0470846790908394E-005   0.0000000000000000     
   1.4570054530391894E-006   1.0693793600727005E-005   0.0000000000000000     
   1.4666552106063818E-006   1.0918174716788046E-005   0.0000000000000000     
   1.4760974635978030E-006   1.1143959618401594E-005   0.0000000000000000     
   1.4853322026088430E-006   1.1371117784877712E-005   0.0000000000000000     
   1.4943594182348894E-006   1.1599618695526474E-005   0.0000000000000000     
   1.5031791010713322E-006   1.1829431829657942E-005   0.0000000000000000     
   1.5117912417135589E-006   1.2060526666582195E-005   0.0000000000000000     
   1.5201958307569599E-006   1.2292872685609297E-005   0.0000000000000000     
   1.3616264858750908E-006   1.0469686645248433E-005   0.0000000000000000     
   1.3709039179682834E-006   1.0692657614322245E-005   0.0000000000000000     
   1.3799860660740523E-006   1.0917062888547150E-005   0.0000000000000000     
   1.3888729163996816E-006   1.1142871950121696E-005   0.0000000000000000     
   1.3975644551524546E-006   1.1370054281244397E-005   0.0000000000000000     
   1.4060606685396547E-006   1.1598579364113804E-005   0.0000000000000000     
   1.4143615427685664E-006   1.1828416680928447E-005   0.0000000000000000     
   1.4224670640464719E-006   1.2059535713886855E-005   0.0000000000000000     
   1.4303772185806562E-006   1.2291905945187568E-005   0.0000000000000000     
   2.1513156252084166E-006   1.2301280734403427E-005   0.0000000000000000     
   2.1628883872086869E-006   1.2534636967500159E-005   0.0000000000000000     
   2.1741681878417582E-006   1.2769183334455245E-005   0.0000000000000000     
   2.1851548860660096E-006   1.3004889393142964E-005   0.0000000000000000     
   2.1958483408398194E-006   1.3241724701437597E-005   0.0000000000000000     
   2.2062484111215671E-006   1.3479658817213419E-005   0.0000000000000000     
   2.2163549558696308E-006   1.3718661298344717E-005   0.0000000000000000     
   2.2261678340423880E-006   1.3958701702705765E-005   0.0000000000000000     
   2.2356869045982191E-006   1.4199749588170856E-005   0.0000000000000000     
   2.0608682074741843E-006   1.2299903779146903E-005   0.0000000000000000     
   2.0719587500455889E-006   1.2533294434408495E-005   0.0000000000000000     
   2.0827685265014852E-006   1.2767875253660386E-005   0.0000000000000000     
   2.0932974016266825E-006   1.3003615827583695E-005   0.0000000000000000     
   2.1035452402059896E-006   1.3240485746859536E-005   0.0000000000000000     
   2.1135119070242161E-006   1.3478454602169040E-005   0.0000000000000000     
   2.1231972668661724E-006   1.3717491984193317E-005   0.0000000000000000     
   2.1326011845166678E-006   1.3957567483613491E-005   0.0000000000000000     
   2.1417235247605115E-006   1.4198650691110685E-005   0.0000000000000000     
   1.9705240883569115E-006   1.2298585425312902E-005   0.0000000000000000     
   1.9811323952879703E-006   1.2532009057061285E-005   0.0000000000000000     
   1.9914721302757484E-006   1.2766622881938290E-005   0.0000000000000000     
   2.0015431683939064E-006   1.3002396515172357E-005   0.0000000000000000     
   2.0113453847161079E-006   1.3239299571991913E-005   0.0000000000000000     
   2.0208786543160113E-006   1.3477301667625399E-005   0.0000000000000000     
   2.0301428522672807E-006   1.3716372417301259E-005   0.0000000000000000     
   2.0391378536435761E-006   1.3956481436247927E-005   0.0000000000000000     
   2.0478635335185592E-006   1.4197598339693829E-005   0.0000000000000000     
   1.8802787781060846E-006   1.2297325673133668E-005   0.0000000000000000     
   1.8904048371024770E-006   1.2530780832267759E-005   0.0000000000000000     
   1.9002745176647157E-006   1.2765426212372345E-005   0.0000000000000000     
   1.9098877086133857E-006   1.3001231446044572E-005   0.0000000000000000     
   1.9192442987690718E-006   1.3238166165881582E-005   0.0000000000000000     
   1.9283441769523589E-006   1.3476200004480521E-005   0.0000000000000000     
   1.9371872319838315E-006   1.3715302594438526E-005   0.0000000000000000     
   1.9457733526840752E-006   1.3955443568352746E-005   0.0000000000000000     
   1.9541024278736756E-006   1.4196592558820324E-005   0.0000000000000000     
   1.7901277869711896E-006   1.2296124522841446E-005   0.0000000000000000     
   1.7997715896557558E-006   1.2529609756837138E-005   0.0000000000000000     
   1.8091712071685556E-006   1.2764285238045931E-005   0.0000000000000000     
   1.8183265445308203E-006   1.3000120610335973E-005   0.0000000000000000     
   1.8272375067637789E-006   1.3237085517575416E-005   0.0000000000000000     
   1.8359039988886631E-006   1.3475149603632407E-005   0.0000000000000000     
   1.8443259259267025E-006   1.3714282512375103E-005   0.0000000000000000     
   1.8525031928991288E-006   1.3954453887671651E-005   0.0000000000000000     
   1.8604357048271712E-006   1.4195633373390192E-005   0.0000000000000000     
   1.7000666252017131E-006   1.2294981974668481E-005   0.0000000000000000     
   1.7092281671144537E-006   1.2528495827578650E-005   0.0000000000000000     
   1.7181577172874363E-006   1.2763199952042426E-005   0.0000000000000000     
   1.7268551983919114E-006   1.2999063998182178E-005   0.0000000000000000     
   1.7353205330991259E-006   1.3236057616120271E-005   0.0000000000000000     
   1.7435536440803289E-006   1.3474150455979076E-005   0.0000000000000000     
   1.7515544540067700E-006   1.3713312167880972E-005   0.0000000000000000     
   1.7593228855496970E-006   1.3953512401948313E-005   0.0000000000000000     
   1.7668588613803586E-006   1.4194720808303478E-005   0.0000000000000000     
   1.6100908030471410E-006   1.2293898028847015E-005   0.0000000000000000     
   1.6187700836452168E-006   1.2527439041301526E-005   0.0000000000000000     
   1.6272295665215268E-006   1.2762170347445220E-005   0.0000000000000000     
   1.6354691924423607E-006   1.2998061599718814E-005   0.0000000000000000     
   1.6434889021740089E-006   1.3235082450563019E-005   0.0000000000000000     
   1.6512886364827620E-006   1.3473202552418549E-005   0.0000000000000000     
   1.6588683361349093E-006   1.3712391557726110E-005   0.0000000000000000     
   1.6662279418967413E-006   1.3952619118926427E-005   0.0000000000000000     
   1.6733673945345492E-006   1.4193854888460206E-005   0.0000000000000000     
   1.5201958307569599E-006   1.2292872685609297E-005   0.0000000000000000     
   1.5283928534146928E-006   1.2526439394814988E-005   0.0000000000000000     
   1.5363822733709949E-006   1.2761196417337692E-005   0.0000000000000000     
   1.5441640489278700E-006   1.2997113405081500E-005   0.0000000000000000     
   1.5517381383873265E-006   1.3234160009950518E-005   0.0000000000000000     
   1.5591045000513660E-006   1.3472305883848814E-005   0.0000000000000000     
   1.5662630922219973E-006   1.3711520678680499E-005   0.0000000000000000     
   1.5732138732012254E-006   1.3951774046349671E-005   0.0000000000000000     
   1.5799568012910549E-006   1.4193035638760409E-005   0.0000000000000000     
   1.4303772185806562E-006   1.2291905945187568E-005   0.0000000000000000     
   1.4380919905895292E-006   1.2525496884928273E-005   0.0000000000000000     
   1.4456113563360092E-006   1.2760278154803232E-005   0.0000000000000000     
   1.4529352900941418E-006   1.2996219404405879E-005   0.0000000000000000     
   1.4600637661379726E-006   1.3233290283329628E-005   0.0000000000000000     
   1.4669967587415473E-006   1.3471460441167904E-005   0.0000000000000000     
   1.4737342421789117E-006   1.3710699527514135E-005   0.0000000000000000     
   1.4802761907241095E-006   1.3950977191961730E-005   0.0000000000000000     
   1.4866225786511886E-006   1.4192263084104126E-005   0.0000000000000000     
   6.8660326872033473E-007   2.0519842694233924E-006   0.0000000000000000     
   7.0526220065601997E-007   2.1702199526730489E-006   0.0000000000000000     
   7.2372439006843117E-007   2.2913546193537218E-006   0.0000000000000000     
   7.4199002298929040E-007   2.4153577773973684E-006   0.0000000000000000     
   7.6005928545031950E-007   2.5421989347359434E-006   0.0000000000000000     
   7.7793236348324116E-007   2.6718475993014069E-006   0.0000000000000000     
   7.9560944311977798E-007   2.8042732790257165E-006   0.0000000000000000     
   8.1309071039165159E-007   2.9394454818408279E-006   0.0000000000000000     
   8.3037635133058489E-007   3.0773337156787031E-006   0.0000000000000000     
   6.4334043009142933E-007   2.0498004729687620E-006   0.0000000000000000     
   6.6083364283781982E-007   2.1680598941394077E-006   0.0000000000000000     
   6.7814232814836495E-007   2.2892180756466623E-006   0.0000000000000000     
   6.9526666891697928E-007   2.4132445557611154E-006   0.0000000000000000     
   7.1220684803757745E-007   2.5401088727533499E-006   0.0000000000000000     
   7.2896304840407466E-007   2.6697805648939548E-006   0.0000000000000000     
   7.4553545291038472E-007   2.8022291704535139E-006   0.0000000000000000     
   7.6192424445042356E-007   2.9374242277026188E-006   0.0000000000000000     
   7.7812960591810467E-007   3.0753352749118516E-006   0.0000000000000000     
   6.0014535865891443E-007   2.0477571768066581E-006   0.0000000000000000     
   6.1647272285785039E-007   2.1660389330505126E-006   0.0000000000000000     
   6.3262780993200831E-007   2.2872192061896167E-006   0.0000000000000000     
   6.4861079410802826E-007   2.4112675682875171E-006   0.0000000000000000     
   6.6442184961255083E-007   2.5381535914077566E-006   0.0000000000000000     
   6.8006115067221642E-007   2.6678468476138794E-006   0.0000000000000000     
   6.9552887151366531E-007   2.8003169089694297E-006   0.0000000000000000     
   7.1082518636353831E-007   2.9355333475379524E-006   0.0000000000000000     
   7.2595026944847550E-007   3.0734657353829929E-006   0.0000000000000000     
   5.5701350402760183E-007   2.0458545644844026E-006   0.0000000000000000     
   5.7217491550226477E-007   2.1641571715542201E-006   0.0000000000000000     
   5.8717632810702046E-007   2.2853580567989355E-006   0.0000000000000000     
   6.0201790299867032E-007   2.4094268254345330E-006   0.0000000000000000     
   6.1669980133401683E-007   2.5363330826769950E-006   0.0000000000000000     
   6.3122218426986236E-007   2.6660464337423068E-006   0.0000000000000000     
   6.4558521296300801E-007   2.7985364838464505E-006   0.0000000000000000     
   6.5978904857025646E-007   2.9337728382054098E-006   0.0000000000000000     
   6.7383385224840955E-007   3.0717251020351696E-006   0.0000000000000000     
   5.1394031580230356E-007   2.0440928195493182E-006   0.0000000000000000     
   5.2793569555721539E-007   2.1624147117983861E-006   0.0000000000000000     
   5.4178337536105932E-007   2.2836346732909655E-006   0.0000000000000000     
   5.5548350002513781E-007   2.4077223376601168E-006   0.0000000000000000     
   5.6903621436075286E-007   2.5346473385388949E-006   0.0000000000000000     
   5.8244166317920641E-007   2.6643793095603573E-006   0.0000000000000000     
   5.9569999129180088E-007   2.7968878843575618E-006   0.0000000000000000     
   6.0881134350983819E-007   2.9321426965635646E-006   0.0000000000000000     
   6.2177586464462048E-007   3.0701133798114232E-006   0.0000000000000000     
   4.7092124358783149E-007   2.0424721255487261E-006   0.0000000000000000     
   4.8375053780885459E-007   2.1608116559308640E-006   0.0000000000000000     
   4.9644444438178410E-007   2.2820491014820584E-006   0.0000000000000000     
   5.0900308962366369E-007   2.4061541154222273E-006   0.0000000000000000     
   5.2142659985153612E-007   2.5330963509712881E-006   0.0000000000000000     
   5.3371510138244481E-007   2.6628454613491574E-006   0.0000000000000000     
   5.4586872053343305E-007   2.7953710997757537E-006   0.0000000000000000     
   5.5788758362154414E-007   2.9306429194709934E-006   0.0000000000000000     
   5.6977181696382129E-007   3.0686305736547950E-006   0.0000000000000000     
   4.2795173698899796E-007   2.0409926660299493E-006   0.0000000000000000     
   4.3961491704333558E-007   2.1593481060995116E-006   0.0000000000000000     
   4.5115502785685370E-007   2.2806013871885625E-006   0.0000000000000000     
   4.6257217623048052E-007   2.4047221691788212E-006   0.0000000000000000     
   4.7386646896514380E-007   2.5316801119520051E-006   0.0000000000000000     
   4.8503801286177200E-007   2.6614448753898286E-006   0.0000000000000000     
   4.9608691472129288E-007   2.7939861193740116E-006   0.0000000000000000     
   5.0701328134463460E-007   2.9292735037862704E-006   0.0000000000000000     
   5.1781721953272532E-007   3.0672766885083239E-006   0.0000000000000000     
   3.8502724561061479E-007   2.0396546245403107E-006   0.0000000000000000     
   3.9552430804681079E-007   2.1580241644521825E-006   0.0000000000000000     
   4.0591061847392640E-007   2.2792915762268285E-006   0.0000000000000000     
   4.1618626428182101E-007   2.4034265093878569E-006   0.0000000000000000     
   4.2635133286035367E-007   2.5303986134588749E-006   0.0000000000000000     
   4.3640591159938319E-007   2.6601775379634950E-006   0.0000000000000000     
   4.4635008788876903E-007   2.7927329324253261E-006   0.0000000000000000     
   4.5618394911836992E-007   2.9280344463679744E-006   0.0000000000000000     
   4.6590758267804525E-007   3.0660517293150525E-006   0.0000000000000000     
   3.4214321905749421E-007   2.0384581846271317E-006   0.0000000000000000     
   3.5147418560543284E-007   2.1568399331367337E-006   0.0000000000000000     
   3.6070670892066116E-007   2.2781197144132043E-006   0.0000000000000000     
   3.6984085821391809E-007   2.4022671465072879E-006   0.0000000000000000     
   3.7887670269594251E-007   2.5292518474697314E-006   0.0000000000000000     
   3.8781431157747344E-007   2.6590434353512806E-006   0.0000000000000000     
   3.9665375406924982E-007   2.7916115282026818E-006   0.0000000000000000     
   4.0539509938201062E-007   2.9269257440746796E-006   0.0000000000000000     
   4.1403841672649480E-007   3.0649557010180223E-006   0.0000000000000000     
   8.3037635133058489E-007   3.0773337156787031E-006   0.0000000000000000     
   8.4746652377474921E-007   3.2179074832735521E-006   0.0000000000000000     
   8.6436127278811540E-007   3.3611362665686187E-006   0.0000000000000000     
   8.8106061524110357E-007   3.5069895423094029E-006   0.0000000000000000     
   8.9756456800413331E-007   3.6554367872414043E-006   0.0000000000000000     
   9.1387314794762515E-007   3.8064474781101216E-006   0.0000000000000000     
   9.2998637194199868E-007   3.9599910916610543E-006   0.0000000000000000     
   9.4590425685767454E-007   4.1160371046397030E-006   0.0000000000000000     
   9.6162681956507264E-007   4.2745549937915652E-006   0.0000000000000000     
   7.7812960591810467E-007   3.0753352749118516E-006   0.0000000000000000     
   7.9415169291391938E-007   3.2159318401012724E-006   0.0000000000000000     
   8.0999055186465918E-007   3.3591834102888282E-006   0.0000000000000000     
   8.2564620190369233E-007   3.5050594622419425E-006   0.0000000000000000     
   8.4111866216438646E-007   3.6535294727280342E-006   0.0000000000000000     
   8.5640795178010962E-007   3.8045629185145225E-006   0.0000000000000000     
   8.7151408988422988E-007   3.9581292763688288E-006   0.0000000000000000     
   8.8643709561011485E-007   4.1141980230583729E-006   0.0000000000000000     
   9.0117698809113239E-007   4.2727386353505787E-006   0.0000000000000000     
   7.2595026944847550E-007   3.0734657353829929E-006   0.0000000000000000     
   7.4090426965406296E-007   3.2140836285740420E-006   0.0000000000000000     
   7.5568723450166954E-007   3.3573565192043884E-006   0.0000000000000000     
   7.7029918617160958E-007   3.5032538833732685E-006   0.0000000000000000     
   7.8474014684419711E-007   3.6517451971799162E-006   0.0000000000000000     
   7.9901013869974697E-007   3.8027999367235699E-006   0.0000000000000000     
   8.1310918391857330E-007   3.9563875781034646E-006   0.0000000000000000     
   8.2703730468099044E-007   4.1124775974188357E-006   0.0000000000000000     
   8.4079452316731293E-007   4.2710394707689201E-006   0.0000000000000000     
   6.7383385224840955E-007   3.0717251020351696E-006   0.0000000000000000     
   6.8771976261734313E-007   3.2123628589070318E-006   0.0000000000000000     
   7.0144682814922625E-007   3.3556556058135731E-006   0.0000000000000000     
   7.1501507477930205E-007   3.5015728181026879E-006   0.0000000000000000     
   7.2842452844281371E-007   3.6500839711222700E-006   0.0000000000000000     
   7.4167521507500415E-007   3.8011585402202164E-006   0.0000000000000000     
   7.5476716061111622E-007   3.9547660007444218E-006   0.0000000000000000     
   7.6770039098639285E-007   4.1108758280427810E-006   0.0000000000000000     
   7.8047493213607753E-007   4.2694574974631879E-006   0.0000000000000000     
   6.2177586464462048E-007   3.0701133798114232E-006   0.0000000000000000     
   6.3459368042592255E-007   3.2107695413154103E-006   0.0000000000000000     
   6.4726484025740883E-007   3.3540806826146565E-006   0.0000000000000000     
   6.5978937446121697E-007   3.5000162788295078E-006   0.0000000000000000     
   6.7216731335948439E-007   3.6485458050803126E-006   0.0000000000000000     
   6.8439868727434769E-007   3.7996387364874161E-006   0.0000000000000000     
   6.9648352652794503E-007   3.9532645481711638E-006   0.0000000000000000     
   7.0842186144241310E-007   4.1093927152519041E-006   0.0000000000000000     
   7.2021372233988956E-007   4.2679927128499809E-006   0.0000000000000000     
   5.6977181696382129E-007   3.0686305736547950E-006   0.0000000000000000     
   5.8152153170196419E-007   3.2093036860143449E-006   0.0000000000000000     
   5.9313677827629705E-007   3.3526317621059123E-006   0.0000000000000000     
   6.0461759195180115E-007   3.4985842779530390E-006   0.0000000000000000     
   6.1596400799345667E-007   3.6471307095792593E-006   0.0000000000000000     
   6.2717606166624476E-007   3.7982405330081166E-006   0.0000000000000000     
   6.3825378823514626E-007   3.9518832242631498E-006   0.0000000000000000     
   6.4919722296514179E-007   4.1080282593678948E-006   0.0000000000000000     
   6.6000640112121196E-007   4.2666451143458960E-006   0.0000000000000000     
   5.1781721953272532E-007   3.0672766885083239E-006   0.0000000000000000     
   5.2849882506763090E-007   3.2079653032190047E-006   0.0000000000000000     
   5.3905814965597076E-007   3.3513088567856179E-006   0.0000000000000000     
   5.4949523398550119E-007   3.4972768278725852E-006   0.0000000000000000     
   5.5981011874397931E-007   3.6458386951443312E-006   0.0000000000000000     
   5.7000284461916244E-007   3.7969639372652769E-006   0.0000000000000000     
   5.8007345229880697E-007   3.9506220328998431E-006   0.0000000000000000     
   5.9002198247066993E-007   4.1067824607124552E-006   0.0000000000000000     
   5.9984847582250874E-007   4.2654146993675351E-006   0.0000000000000000     
   4.6590758267804525E-007   3.0660517293150525E-006   0.0000000000000000     
   4.7552106914508586E-007   3.2067544031445570E-006   0.0000000000000000     
   4.8502446184650897E-007   3.3501119791520435E-006   0.0000000000000000     
   4.9441780729676402E-007   3.4960939409874574E-006   0.0000000000000000     
   5.0370115201030054E-007   3.6446697723007421E-006   0.0000000000000000     
   5.1287454250156735E-007   3.7958089567418433E-006   0.0000000000000000     
   5.2193802528501400E-007   3.9494809779607090E-006   0.0000000000000000     
   5.3089164687508927E-007   4.1056553196072732E-006   0.0000000000000000     
   5.3973545378624230E-007   4.2643014653314920E-006   0.0000000000000000     
   4.1403841672649480E-007   3.0649557010180223E-006   0.0000000000000000     
   4.2258377255649163E-007   3.2056709960061718E-006   0.0000000000000000     
   4.3103122229799186E-007   3.3490411417034665E-006   0.0000000000000000     
   4.3938081862003702E-007   3.4950356296969620E-006   0.0000000000000000     
   4.4763261419166804E-007   3.6436239515737114E-006   0.0000000000000000     
   4.5578666168192642E-007   3.7947755989207734E-006   0.0000000000000000     
   4.6384301375985322E-007   3.9484600633251989E-006   0.0000000000000000     
   4.7180172309448963E-007   4.1046468363740469E-006   0.0000000000000000     
   4.7966284235487719E-007   4.2633054096543710E-006   0.0000000000000000     
   9.6162681956507264E-007   4.2745549937915652E-006   0.0000000000000000     
   9.7715407428869466E-007   4.4355142386664162E-006   0.0000000000000000     
   9.9248602466937260E-007   4.5988843300311291E-006   0.0000000000000000     
   1.0076226717020197E-006   4.7646347614568543E-006   0.0000000000000000     
   1.0225640163815495E-006   4.9327350265147377E-006   0.0000000000000000     
   1.0373100597028753E-006   5.1031546187759305E-006   0.0000000000000000     
   1.0518608026609107E-006   5.2758630318115778E-006   0.0000000000000000     
   1.0662162462505696E-006   5.4508297591928334E-006   0.0000000000000000     
   1.0803763914667654E-006   5.6280242944908407E-006   0.0000000000000000     
   9.0117698809113239E-007   4.2727386353505787E-006   0.0000000000000000     
   9.1573378329472503E-007   4.4337205931330732E-006   0.0000000000000000     
   9.3010748452463372E-007   4.5971133887743332E-006   0.0000000000000000     
   9.4429809191867432E-007   4.7628865177630470E-006   0.0000000000000000     
   9.5830560561466206E-007   4.9310094755878998E-006   0.0000000000000000     
   9.7213002575041311E-007   5.1014517577375781E-006   0.0000000000000000     
   9.8577135246374164E-007   5.2741828597007690E-006   0.0000000000000000     
   9.9922958589246500E-007   5.4491722769661580E-006   0.0000000000000000     
   1.0125047261743978E-006   5.6263895050224332E-006   0.0000000000000000     
   8.4079452316731293E-007   4.2710394707689201E-006   0.0000000000000000     
   8.5438085764969380E-007   4.4320426778564628E-006   0.0000000000000000     
   8.6779631076764281E-007   4.5954567127982506E-006   0.0000000000000000     
   8.8104088125250865E-007   4.7612510733145833E-006   0.0000000000000000     
   8.9411456783563977E-007   4.9293952571257529E-006   0.0000000000000000     
   9.0701736924838454E-007   5.0998587619520581E-006   0.0000000000000000     
   9.1974928422209216E-007   5.2726110855137962E-006   0.0000000000000000     
   9.3231031148811055E-007   5.4476217255312625E-006   0.0000000000000000     
   9.4470044977778871E-007   5.6248601797247559E-006   0.0000000000000000     
   7.8047493213607753E-007   4.2694574974631879E-006   0.0000000000000000     
   7.9309080513211032E-007   4.4304804884717894E-006   0.0000000000000000     
   8.0554801159322360E-007   4.5939142970077502E-006   0.0000000000000000     
   8.1784654827484674E-007   4.7597284231284786E-006   0.0000000000000000     
   8.2998641193240893E-007   4.9278923668913899E-006   0.0000000000000000     
   8.4196759932133978E-007   5.0983756283538906E-006   0.0000000000000000     
   8.5379010719706940E-007   5.2711477075734038E-006   0.0000000000000000     
   8.6545393231502625E-007   5.4461781046073301E-006   0.0000000000000000     
   8.7695907143064119E-007   5.6234363195130931E-006   0.0000000000000000     
   7.2021372233988956E-007   4.2679927128499809E-006   0.0000000000000000     
   7.3185913352048462E-007   4.4290340206142637E-006   0.0000000000000000     
   7.4335809519620034E-007   4.5924861363076976E-006   0.0000000000000000     
   7.5471060155701244E-007   4.7583185622217541E-006   0.0000000000000000     
   7.6591664679289682E-007   4.9265008006478994E-006   0.0000000000000000     
   7.7697622509382751E-007   5.0970023538775999E-006   0.0000000000000000     
   7.8788933064978116E-007   5.2697927242023259E-006   0.0000000000000000     
   7.9865595765073272E-007   5.4448414139135472E-006   0.0000000000000000     
   8.0927610028665728E-007   5.6221179253027283E-006   0.0000000000000000     
   6.6000640112121196E-007   4.2666451143458960E-006   0.0000000000000000     
   6.7068135059332508E-007   4.4277032699190814E-006   0.0000000000000000     
   6.8122206977139677E-007   4.5911722256029567E-006   0.0000000000000000     
   6.9162854967033042E-007   4.7570214856114191E-006   0.0000000000000000     
   7.0190078130502936E-007   4.9252205541583652E-006   0.0000000000000000     
   7.1203875569039633E-007   5.0957389354576956E-006   0.0000000000000000     
   7.2204246384133497E-007   5.2685461337233026E-006   0.0000000000000000     
   7.3191189677274836E-007   5.4436116531690861E-006   0.0000000000000000     
   7.4164704549953938E-007   5.6209049980089425E-006   0.0000000000000000     
   5.9984847582250874E-007   4.2654146993675351E-006   0.0000000000000000     
   6.0955296412914162E-007   4.4264882320214540E-006   0.0000000000000000     
   6.1913544351363724E-007   4.5899725597983957E-006   0.0000000000000000     
   6.2859590118612475E-007   4.7558371883144958E-006   0.0000000000000000     
   6.3793432435673424E-007   4.9240516231858851E-006   0.0000000000000000     
   6.4715070023559577E-007   5.0945853700287004E-006   0.0000000000000000     
   6.5624501603283903E-007   5.2674079344590706E-006   0.0000000000000000     
   6.6521725895859410E-007   5.4424888220931324E-006   0.0000000000000000     
   6.7406741622299095E-007   5.6197975385470208E-006   0.0000000000000000     
   5.3973545378624230E-007   4.2643014653314920E-006   0.0000000000000000     
   5.4846948190644401E-007   4.4253889025565851E-006   0.0000000000000000     
   5.5709372461774508E-007   4.5888871337988817E-006   0.0000000000000000     
   5.6560816467571884E-007   4.7547656653479959E-006   0.0000000000000000     
   5.7401278483593812E-007   4.9229940034935446E-006   0.0000000000000000     
   5.8230756785397411E-007   5.0935416545251292E-006   0.0000000000000000     
   5.9049249648540059E-007   5.2663781247323666E-006   0.0000000000000000     
   5.9856755348578960E-007   5.4414729204048719E-006   0.0000000000000000     
   6.0653272161071334E-007   5.6187955478322467E-006   0.0000000000000000     
   4.7966284235487719E-007   4.2633054096543710E-006   0.0000000000000000     
   4.8742641170374109E-007   4.4244052771596775E-006   0.0000000000000000     
   4.9509242127854548E-007   4.5879159425092796E-006   0.0000000000000000     
   5.0266084871043823E-007   4.7538069117289433E-006   0.0000000000000000     
   5.1013167163056743E-007   4.9220476908444313E-006   0.0000000000000000     
   5.1750486767008119E-007   5.0926077858815071E-006   0.0000000000000000     
   5.2478041446012739E-007   5.2654567028659350E-006   0.0000000000000000     
   5.3195828963185444E-007   5.4405639478234802E-006   0.0000000000000000     
   5.3903847081641043E-007   5.6178990267799078E-006   0.0000000000000000     
   1.0803763914667654E-006   5.6280242944908407E-006   0.0000000000000000     
   1.0943412387235463E-006   5.8074161290021430E-006   0.0000000000000000     
   1.1081107861115015E-006   5.9889747449248503E-006   0.0000000000000000     
   1.1216850311403555E-006   6.1726696221824733E-006   0.0000000000000000     
   1.1350639713198327E-006   6.3584702406985106E-006   0.0000000000000000     
   1.1482476041596566E-006   6.5463460803964705E-006   0.0000000000000000     
   1.1612359271695516E-006   6.7362666211998576E-006   0.0000000000000000     
   1.1740289378592427E-006   6.9282013430321783E-006   0.0000000000000000     
   1.1866266337384532E-006   7.1221197258169347E-006   0.0000000000000000     
   1.0125047261743978E-006   5.6263895050224332E-006   0.0000000000000000     
   1.0255967731085833E-006   5.8058040366443339E-006   0.0000000000000000     
   1.0385057251389738E-006   5.9873853537508153E-006   0.0000000000000000     
   1.0512315803707499E-006   6.1711029355468828E-006   0.0000000000000000     
   1.0637743369090914E-006   6.3569262612375448E-006   0.0000000000000000     
   1.0761339928591784E-006   6.5448248100278068E-006   0.0000000000000000     
   1.0883105463261913E-006   6.7347680611226787E-006   0.0000000000000000     
   1.1003039954153098E-006   6.9267254937271661E-006   0.0000000000000000     
   1.1121143382317142E-006   7.1206665870462763E-006   0.0000000000000000     
   9.4470044977778871E-007   5.6248601797247559E-006   0.0000000000000000     
   9.5691969786490098E-007   5.8042959425875651E-006   0.0000000000000000     
   9.6896805469292473E-007   5.9858984957049617E-006   0.0000000000000000     
   9.8084551924776375E-007   6.1696373174352088E-006   0.0000000000000000     
   9.9255209051532139E-007   6.3554818861365740E-006   0.0000000000000000     
   1.0040877674815004E-006   6.5434016801673162E-006   0.0000000000000000     
   1.0154525491322051E-006   6.7333661778857061E-006   0.0000000000000000     
   1.0266464344533385E-006   6.9253448576500063E-006   0.0000000000000000     
   1.0376694224308038E-006   7.1193071978184790E-006   0.0000000000000000     
   8.7695907143064119E-007   5.6234363195130931E-006   0.0000000000000000     
   8.8830552187354375E-007   5.8028918485774088E-006   0.0000000000000000     
   8.9949328327017388E-007   5.9845141730042467E-006   0.0000000000000000     
   9.1052235582117059E-007   6.1682727702268896E-006   0.0000000000000000     
   9.2139273972717292E-007   6.3541371176786129E-006   0.0000000000000000     
   9.3210443518882083E-007   6.5420766927926959E-006   0.0000000000000000     
   9.4265744240675526E-007   6.7320609730024218E-006   0.0000000000000000     
   9.5305176158161449E-007   6.9240594357410613E-006   0.0000000000000000     
   9.6328739291403977E-007   7.1180415584419060E-006   0.0000000000000000     
   8.0927610028665728E-007   5.6221179253027283E-006   0.0000000000000000     
   8.1974975401555716E-007   5.8015917563594382E-006   0.0000000000000000     
   8.3007691936754022E-007   5.9832323878656275E-006   0.0000000000000000     
   8.4025759814074167E-007   6.1670092963013551E-006   0.0000000000000000     
   8.5029179213329611E-007   6.3528919581466769E-006   0.0000000000000000     
   8.6017950314333832E-007   6.5408498498816376E-006   0.0000000000000000     
   8.6992073296900300E-007   6.7308524479862964E-006   0.0000000000000000     
   8.7951548340842505E-007   6.9228692289407080E-006   0.0000000000000000     
   8.8896375625973864E-007   7.1168696692249207E-006   0.0000000000000000     
   7.4164704549953938E-007   5.6209049980089425E-006   0.0000000000000000     
   7.5124790317198339E-007   5.8003956676792188E-006   0.0000000000000000     
   7.6071447148184237E-007   5.9820531425060560E-006   0.0000000000000000     
   7.7004675425625067E-007   6.1658468980380436E-006   0.0000000000000000     
   7.7924475532234170E-007   6.3517464098237707E-006   0.0000000000000000     
   7.8830847850725000E-007   6.5397211534118276E-006   0.0000000000000000     
   7.9723792763810963E-007   6.7297406043508093E-006   0.0000000000000000     
   8.0603310654205420E-007   6.9217742381892986E-006   0.0000000000000000     
   8.1469401904621827E-007   7.1157915304758886E-006   0.0000000000000000     
   6.7406741622299095E-007   5.6197975385470208E-006   0.0000000000000000     
   6.8279547822386801E-007   5.7993035842823288E-006   0.0000000000000000     
   6.9140144810989958E-007   5.9809764391424851E-006   0.0000000000000000     
   6.9988533221746926E-007   6.1647855778163859E-006   0.0000000000000000     
   7.0824713688296011E-007   6.3507004749929156E-006   0.0000000000000000     
   7.1648686844275476E-007   6.5386906053609693E-006   0.0000000000000000     
   7.2460453323323703E-007   6.7287254436094348E-006   0.0000000000000000     
   7.3260013759078955E-007   6.9207744644272100E-006   0.0000000000000000     
   7.4047368785179623E-007   7.1148071425031790E-006   0.0000000000000000     
   6.0653272161071334E-007   5.6187955478322467E-006   0.0000000000000000     
   6.1438798805225457E-007   5.7983155079143387E-006   0.0000000000000000     
   6.2213335774853088E-007   5.9800022799918737E-006   0.0000000000000000     
   6.2976884007417026E-007   6.1638253380158128E-006   0.0000000000000000     
   6.3729444440380134E-007   6.3497541559371196E-006   0.0000000000000000     
   6.4471018011205052E-007   6.5377582077067431E-006   0.0000000000000000     
   6.5201605657354620E-007   6.7278069672756522E-006   0.0000000000000000     
   6.5921208316291702E-007   6.9198699085948036E-006   0.0000000000000000     
   6.6629826925478926E-007   7.1139165056151482E-006   0.0000000000000000     
   5.3903847081641043E-007   5.6178990267799078E-006   0.0000000000000000     
   5.4602094153818746E-007   5.7974314403208191E-006   0.0000000000000000     
   5.5290570889455508E-007   5.9791306672711730E-006   0.0000000000000000     
   5.5969278587612672E-007   6.1629661810157660E-006   0.0000000000000000     
   5.6638218547351562E-007   6.3489074549393930E-006   0.0000000000000000     
   5.7297392067733541E-007   6.5369239624268508E-006   0.0000000000000000     
   5.7946800447819986E-007   6.7269851768629357E-006   0.0000000000000000     
   5.8586444986672199E-007   6.9190605716324428E-006   0.0000000000000000     
   5.9216326983351576E-007   7.1131196201201721E-006   0.0000000000000000     
   1.1866266337384532E-006   7.1221197258169347E-006   0.0000000000000000     
   1.1990290125242279E-006   7.3179912492343249E-006   0.0000000000000000     
   1.2112360727628924E-006   7.5157853919913142E-006   0.0000000000000000     
   1.2232478132080937E-006   7.7154716325515587E-006   0.0000000000000000     
   1.2350642326134768E-006   7.9170194493787232E-006   0.0000000000000000     
   1.2466853297326893E-006   8.1203983209364560E-006   0.0000000000000000     
   1.2581111033193759E-006   8.3255777256884209E-006   0.0000000000000000     
   1.2693415521271839E-006   8.5325271420982715E-006   0.0000000000000000     
   1.2803766749097588E-006   8.7412160486296716E-006   0.0000000000000000     
   1.1121143382317142E-006   7.1206665870462763E-006   0.0000000000000000     
   1.1237415728609615E-006   7.3165608201893950E-006   0.0000000000000000     
   1.1351856973101166E-006   7.5143776718834041E-006   0.0000000000000000     
   1.1464467095666209E-006   7.7140866207595774E-006   0.0000000000000000     
   1.1575246076179164E-006   7.9156571454491724E-006   0.0000000000000000     
   1.1684193894514449E-006   8.1190587245834521E-006   0.0000000000000000     
   1.1791310530546482E-006   8.3242608367936842E-006   0.0000000000000000     
   1.1896595964149674E-006   8.5312329607111365E-006   0.0000000000000000     
   1.2000050175198451E-006   8.7399445749670652E-006   0.0000000000000000     
   1.0376694224308038E-006   7.1193071978184790E-006   0.0000000000000000     
   1.0485215117417863E-006   7.3152226768240601E-006   0.0000000000000000     
   1.0592026998285972E-006   7.5130607733983689E-006   0.0000000000000000     
   1.0697129838248283E-006   7.7127909663476898E-006   0.0000000000000000     
   1.0800523608640736E-006   7.9143827344783189E-006   0.0000000000000000     
   1.0902208280799245E-006   8.1178055565965380E-006   0.0000000000000000     
   1.1002183826059742E-006   8.3230289115086375E-006   0.0000000000000000     
   1.1100450215758154E-006   8.5300222780209058E-006   0.0000000000000000     
   1.1197007421230406E-006   8.7387551349396299E-006   0.0000000000000000     
   9.6328739291403977E-007   7.1180415584419060E-006   0.0000000000000000     
   9.7336433592579767E-007   7.3139768188048433E-006   0.0000000000000000     
   9.8328258742317196E-007   7.5118346955962739E-006   0.0000000000000000     
   9.9304214353357395E-007   7.7115846678492077E-006   0.0000000000000000     
   1.0026430003844135E-006   7.9131962145966508E-006   0.0000000000000000     
   1.0120851541031016E-006   8.1166388148716163E-006   0.0000000000000000     
   1.0213686008170508E-006   8.3218819477071249E-006   0.0000000000000000     
   1.0304933366536705E-006   8.5288950921361802E-006   0.0000000000000000     
   1.0394593577403729E-006   8.7376477271917962E-006   0.0000000000000000     
   8.8896375625973864E-007   7.1168696692249207E-006   0.0000000000000000     
   8.9826555217209192E-007   7.3128232457982710E-006   0.0000000000000000     
   9.0742086719868066E-007   7.5106994375371937E-006   0.0000000000000000     
   9.1642969624371421E-007   7.7104677237974104E-006   0.0000000000000000     
   9.2529203421140192E-007   7.9120975839346410E-006   0.0000000000000000     
   9.3400787600595206E-007   8.1155584973045926E-006   0.0000000000000000     
   9.4257721653157408E-007   8.3208199432629953E-006   0.0000000000000000     
   9.5100005069247723E-007   8.5278514011655605E-006   0.0000000000000000     
   9.5927637339286957E-007   8.7366223503680065E-006   0.0000000000000000     
   8.1469401904621827E-007   7.1157915304758886E-006   0.0000000000000000     
   8.2322066723976318E-007   7.3117619574708537E-006   0.0000000000000000     
   8.3161304625995982E-007   7.5096549982811953E-006   0.0000000000000000     
   8.3987114950610732E-007   7.7094401327256029E-006   0.0000000000000000     
   8.4799497037750388E-007   7.9110868406227641E-006   0.0000000000000000     
   8.5598450227344864E-007   8.1145646017913660E-006   0.0000000000000000     
   8.6383973859324042E-007   8.3198428960500962E-006   0.0000000000000000     
   8.7156067273617762E-007   8.5268912032176392E-006   0.0000000000000000     
   8.7914729810155885E-007   8.7356790031126895E-006   0.0000000000000000     
   7.4047368785179623E-007   7.1148071425031790E-006   0.0000000000000000     
   7.4822518788790756E-007   7.3107929534891197E-006   0.0000000000000000     
   7.5585463171184808E-007   7.5087013768883518E-006   0.0000000000000000     
   7.6336201087161026E-007   7.7085018931670831E-006   0.0000000000000000     
   7.7074731691518595E-007   7.9101639827915134E-006   0.0000000000000000     
   7.7801054139056712E-007   8.1136571262278422E-006   0.0000000000000000     
   7.8515167584574657E-007   8.3189508039422799E-006   0.0000000000000000     
   7.9217071182871625E-007   8.5260144964010255E-006   0.0000000000000000     
   7.9906764088746822E-007   8.7348176840702927E-006   0.0000000000000000     
   6.6629826925478926E-007   7.1139165056151482E-006   0.0000000000000000     
   6.7327462087562129E-007   7.3099162335195912E-006   0.0000000000000000     
   6.8014113065918409E-007   7.5078385724187359E-006   0.0000000000000000     
   6.8689778789108073E-007   7.7076530036551408E-006   0.0000000000000000     
   6.9354458185691300E-007   7.9093290085713568E-006   0.0000000000000000     
   7.0008150184228141E-007   8.1128360685099168E-006   0.0000000000000000     
   7.0650853713278870E-007   8.3181436648133871E-006   0.0000000000000000     
   7.1282567701403634E-007   8.5252212788243117E-006   0.0000000000000000     
   7.1903291077162581E-007   8.7340383918852330E-006   0.0000000000000000     
   5.9216326983351576E-007   7.1131196201201721E-006   0.0000000000000000     
   5.9836447296199855E-007   7.3091317972287828E-006   0.0000000000000000     
   6.0446805020680567E-007   7.5070665839324165E-006   0.0000000000000000     
   6.1047398811537648E-007   7.7068934627230791E-006   0.0000000000000000     
   6.1638227323515022E-007   7.9085819160927705E-006   0.0000000000000000     
   6.2219289211356594E-007   8.1121014265335008E-006   0.0000000000000000     
   6.2790583129806330E-007   8.3174214765372753E-006   0.0000000000000000     
   6.3352107733608146E-007   8.5245115485960938E-006   0.0000000000000000     
   6.3903861677505997E-007   8.7333411252019732E-006   0.0000000000000000     
   1.2803766749097588E-006   8.7412160486296716E-006   0.0000000000000000     
   1.2912164718175741E-006   8.9516139243016472E-006   0.0000000000000000     
   1.3018609485884128E-006   9.1636902503547476E-006   0.0000000000000000     
   1.3123101123568846E-006   9.3774145085848880E-006   0.0000000000000000     
   1.3225639702575999E-006   9.5927561807879936E-006   0.0000000000000000     
   1.3326225294251682E-006   9.8096847487599847E-006   0.0000000000000000     
   1.3424857969941992E-006   1.0028169694296769E-005   0.0000000000000000     
   1.3521537800993036E-006   1.0248180499194281E-005   0.0000000000000000     
   1.3616264858750908E-006   1.0469686645248433E-005   0.0000000000000000     
   1.2000050175198451E-006   8.7399445749670652E-006   0.0000000000000000     
   1.2101673161187200E-006   8.9503651586485502E-006   0.0000000000000000     
   1.2201464990090226E-006   9.1624641926659031E-006   0.0000000000000000     
   1.2299425747501795E-006   9.3762111583852477E-006   0.0000000000000000     
   1.2395555519016185E-006   9.5915755371727061E-006   0.0000000000000000     
   1.2489854390227674E-006   9.8085268103944055E-006   0.0000000000000000     
   1.2582322446730532E-006   1.0027034459416466E-005   0.0000000000000000     
   1.2672959774119028E-006   1.0247067965605014E-005   0.0000000000000000     
   1.2761766457987445E-006   1.0468596810326169E-005   0.0000000000000000     
   1.1197007421230406E-006   8.7387551349396299E-006   0.0000000000000000     
   1.1291855435056320E-006   8.9491969614352937E-006   0.0000000000000000     
   1.1384994334791277E-006   9.1613172381351898E-006   0.0000000000000000     
   1.1476424219234557E-006   9.3750854460307941E-006   0.0000000000000000     
   1.1566145187185448E-006   9.5904710661135860E-006   0.0000000000000000     
   1.1654157337443218E-006   9.8074435793750451E-006   0.0000000000000000     
   1.1740460768807156E-006   1.0025972466806663E-005   0.0000000000000000     
   1.1825055580076539E-006   1.0246027209399911E-005   0.0000000000000000     
   1.1907941870050641E-006   1.0467577288146273E-005   0.0000000000000000     
   1.0394593577403729E-006   8.7376477271917962E-006   0.0000000000000000     
   1.0482666627148157E-006   8.9481093321553656E-006   0.0000000000000000     
   1.0569152602556490E-006   9.1602493873018288E-006   0.0000000000000000     
   1.0654051615517697E-006   9.3740373731544932E-006   0.0000000000000000     
   1.0737363777920748E-006   9.5894427702366728E-006   0.0000000000000000     
   1.0819089201654606E-006   9.8064350590716768E-006   0.0000000000000000     
   1.0899227998608256E-006   1.0024983720182836E-005   0.0000000000000000     
   1.0977780280670651E-006   1.0245058234093443E-005   0.0000000000000000     
   1.1054746159730788E-006   1.0466628081326834E-005   0.0000000000000000     
   9.5927637339286957E-007   8.7366223503680065E-006   0.0000000000000000     
   9.6740618248277979E-007   8.9471022703022555E-006   0.0000000000000000     
   9.7538948759550852E-007   9.1592606407050449E-006   0.0000000000000000     
   9.8322630131017709E-007   9.3730669413893145E-006   0.0000000000000000     
   9.9091663620590514E-007   9.5884906521680159E-006   0.0000000000000000     
   9.9846050486181233E-007   9.8055012528540873E-006   0.0000000000000000     
   1.0058579198570198E-006   1.0024068223260462E-005   0.0000000000000000     
   1.0131088937706484E-006   1.0244161043200101E-005   0.0000000000000000     
   1.0202134391818168E-006   1.0465749192485933E-005   0.0000000000000000     
   8.7914729810155885E-007   8.7356790031126895E-006   0.0000000000000000     
   8.8659961154603024E-007   8.9461757753694274E-006   0.0000000000000000     
   8.9391762375562730E-007   9.1583509988840438E-006   0.0000000000000000     
   9.0110134887373360E-007   9.3721741523682256E-006   0.0000000000000000     
   9.0815080104373198E-007   9.5876147145336614E-006   0.0000000000000000     
   9.1506599440900566E-007   9.8046421640920345E-006   0.0000000000000000     
   9.2184694311293727E-007   1.0023225979755035E-005   0.0000000000000000     
   9.2849366129891037E-007   1.0243335640234347E-005   0.0000000000000000     
   9.3500616311030800E-007   1.0464940624241661E-005   0.0000000000000000     
   7.9906764088746822E-007   8.7348176840702927E-006   0.0000000000000000     
   8.0584245864107481E-007   8.9453298468503794E-006   0.0000000000000000     
   8.1249517699292688E-007   9.1575204623780603E-006   0.0000000000000000     
   8.1902581191749618E-007   9.3713590077241960E-006   0.0000000000000000     
   8.2543437938925320E-007   9.5868149599596553E-006   0.0000000000000000     
   8.3172089538266937E-007   9.8038577961553086E-006   0.0000000000000000     
   8.3788537587221550E-007   1.0022456993382025E-005   0.0000000000000000     
   8.4392783683236249E-007   1.0242582028710668E-005   0.0000000000000000     
   8.4984829423758147E-007   1.0464202379212113E-005   0.0000000000000000     
   7.1903291077162581E-007   8.7340383918852330E-006   0.0000000000000000     
   7.2513023250442107E-007   8.9445644842385925E-006   0.0000000000000000     
   7.3111765556432920E-007   9.1567690317263055E-006   0.0000000000000000     
   7.3699519811652044E-007   9.3706215090901799E-006   0.0000000000000000     
   7.4276287832616520E-007   9.5860913910720455E-006   0.0000000000000000     
   7.4842071435843213E-007   9.8031481524136794E-006   0.0000000000000000     
   7.5396872437849154E-007   1.0021761267856907E-005   0.0000000000000000     
   7.5940692655151312E-007   1.0241900212143540E-005   0.0000000000000000     
   7.6473533904266625E-007   1.0463534460015368E-005   0.0000000000000000     
   6.3903861677505997E-007   8.7333411252019732E-006   0.0000000000000000     
   6.4445844187257528E-007   8.9438796870275427E-006   0.0000000000000000     
   6.4978056772675472E-007   9.1560967074679987E-006   0.0000000000000000     
   6.5500501514586305E-007   9.3699616580991669E-006   0.0000000000000000     
   6.6013180493816427E-007   9.5854440104968695E-006   0.0000000000000000     
   6.6516095791192333E-007   9.8025132362369303E-006   0.0000000000000000     
   6.7009249487540456E-007   1.0021138806895177E-005   0.0000000000000000     
   6.7492643663687260E-007   1.0241290194047434E-005   0.0000000000000000     
   6.7966280400459218E-007   1.0462936869269530E-005   0.0000000000000000     
   1.3616264858750908E-006   1.0469686645248433E-005   0.0000000000000000     
   1.3709039179682834E-006   1.0692657614322245E-005   0.0000000000000000     
   1.3799860660740523E-006   1.0917062888547150E-005   0.0000000000000000     
   1.3888729163996816E-006   1.1142871950121696E-005   0.0000000000000000     
   1.3975644551524546E-006   1.1370054281244397E-005   0.0000000000000000     
   1.4060606685396547E-006   1.1598579364113804E-005   0.0000000000000000     
   1.4143615427685664E-006   1.1828416680928447E-005   0.0000000000000000     
   1.4224670640464719E-006   1.2059535713886855E-005   0.0000000000000000     
   1.4303772185806562E-006   1.2291905945187568E-005   0.0000000000000000     
   1.2761766457987445E-006   1.0468596810326169E-005   0.0000000000000000     
   1.2848742540446420E-006   1.0691590475508419E-005   0.0000000000000000     
   1.2933887889672030E-006   1.0916018445329667E-005   0.0000000000000000     
   1.3017202330356730E-006   1.1141850204530184E-005   0.0000000000000000     
   1.3098685687192962E-006   1.1369055237850244E-005   0.0000000000000000     
   1.3178337784873178E-006   1.1597603030030109E-005   0.0000000000000000     
   1.3256158448089827E-006   1.1827463065810052E-005   0.0000000000000000     
   1.3332147501535350E-006   1.2058604829930342E-005   0.0000000000000000     
   1.3406304769902202E-006   1.2290997807131241E-005   0.0000000000000000     
   1.1907941870050641E-006   1.0467577288146273E-005   0.0000000000000000     
   1.1989119686541147E-006   1.0690592185071709E-005   0.0000000000000000     
   1.2068588873409347E-006   1.0915041386340076E-005   0.0000000000000000     
   1.2146349223528922E-006   1.1140894379149700E-005   0.0000000000000000     
   1.2222400529773570E-006   1.1368120650698923E-005   0.0000000000000000     
   1.2296742585016973E-006   1.1596689688186069E-005   0.0000000000000000     
   1.2369375182132824E-006   1.1826570978809472E-005   0.0000000000000000     
   1.2440298113994803E-006   1.2057734009767465E-005   0.0000000000000000     
   1.2509511173476613E-006   1.2290148268258384E-005   0.0000000000000000     
   1.1054746159730788E-006   1.0466628081326834E-005   0.0000000000000000     
   1.1130125689868169E-006   1.0689662743974843E-005   0.0000000000000000     
   1.1203918693924602E-006   1.0914131710403503E-005   0.0000000000000000     
   1.1276124936932441E-006   1.1140004470547366E-005   0.0000000000000000     
   1.1346744183924021E-006   1.1367250514340984E-005   0.0000000000000000     
   1.1415776199931714E-006   1.1595839331718927E-005   0.0000000000000000     
   1.1483220749987862E-006   1.1825740412615748E-005   0.0000000000000000     
   1.1549077599124815E-006   1.2056923246965989E-005   0.0000000000000000     
   1.1613346512374930E-006   1.2289357324704240E-005   0.0000000000000000     
   1.0202134391818168E-006   1.0465749192485933E-005   0.0000000000000000     
   1.0271715622328632E-006   1.0688802153180544E-005   0.0000000000000000     
   1.0339832433189935E-006   1.0913289416345068E-005   0.0000000000000000     
   1.0406484563986307E-006   1.1139180475290290E-005   0.0000000000000000     
   1.0471671754301982E-006   1.1366444823326986E-005   0.0000000000000000     
   1.0535393743721181E-006   1.1595051953765929E-005   0.0000000000000000     
   1.0597650271828148E-006   1.1824971359917901E-005   0.0000000000000000     
   1.0658441078207106E-006   1.2056172535093679E-005   0.0000000000000000     
   1.0717765902442282E-006   1.2288624972604037E-005   0.0000000000000000     
   9.3500616311030800E-007   1.0464940624241661E-005   0.0000000000000000     
   9.4138445558236770E-007   1.0688010413651524E-005   0.0000000000000000     
   9.4762851731774688E-007   1.0912514502989893E-005   0.0000000000000000     
   9.5373831981095681E-007   1.1138422389945600E-005   0.0000000000000000     
   9.5971383455650922E-007   1.1365703572207463E-005   0.0000000000000000     
   9.6555503304891632E-007   1.1594327547464313E-005   0.0000000000000000     
   9.7126188678268951E-007   1.1824263813404972E-005   0.0000000000000000     
   9.7683436725234038E-007   1.2055481867718269E-005   0.0000000000000000     
   9.8227244595238076E-007   1.2287951208093021E-005   0.0000000000000000     
   8.4984829423758147E-007   1.0464202379212113E-005   0.0000000000000000     
   8.5564675622544576E-007   1.0687287526350503E-005   0.0000000000000000     
   8.6132319958593366E-007   1.0911806969163090E-005   0.0000000000000000     
   8.6687759327212537E-007   1.1137730211080401E-005   0.0000000000000000     
   8.7230990623710182E-007   1.1365026755532974E-005   0.0000000000000000     
   8.7762010743394362E-007   1.1593666105951330E-005   0.0000000000000000     
   8.8280816581573097E-007   1.1823617765766005E-005   0.0000000000000000     
   8.8787405033554416E-007   1.2054851238407526E-005   0.0000000000000000     
   8.9281772994646402E-007   1.2287336027306428E-005   0.0000000000000000     
   7.6473533904266625E-007   1.0463534460015368E-005   0.0000000000000000     
   7.6995397135221127E-007   1.0686633492240208E-005   0.0000000000000000     
   7.7506279832076602E-007   1.0911166813689782E-005   0.0000000000000000     
   7.8006178612403954E-007   1.1137103935261822E-005   0.0000000000000000     
   7.8495090093774073E-007   1.1364414367854060E-005   0.0000000000000000     
   7.8973010893757779E-007   1.1593067622364216E-005   0.0000000000000000     
   7.9439937629925942E-007   1.1823033209690025E-005   0.0000000000000000     
   7.9895866919849475E-007   1.2054280640729209E-005   0.0000000000000000     
   8.0340795381099165E-007   1.2286779426379489E-005   0.0000000000000000     
   6.7966280400459218E-007   1.0462936869269530E-005   0.0000000000000000     
   6.8430160815277940E-007   1.0686048312283355E-005   0.0000000000000000     
   6.8884282171945812E-007   1.0910594035395088E-005   0.0000000000000000     
   6.9328640770860386E-007   1.1136543559056982E-005   0.0000000000000000     
   6.9763232912419172E-007   1.1363866403721276E-005   0.0000000000000000     
   7.0188054897019774E-007   1.1592532089840225E-005   0.0000000000000000     
   7.0603103025059672E-007   1.1822510137866067E-005   0.0000000000000000     
   7.1008373596936458E-007   1.2053770068251058E-005   0.0000000000000000     
   7.1403862913047665E-007   1.2286281401447443E-005   0.0000000000000000     
   1.4303772185806562E-006   1.2291905945187568E-005   0.0000000000000000     
   1.4380919905895292E-006   1.2525496884928273E-005   0.0000000000000000     
   1.4456113563360092E-006   1.2760278154803232E-005   0.0000000000000000     
   1.4529352900941418E-006   1.2996219404405879E-005   0.0000000000000000     
   1.4600637661379726E-006   1.3233290283329628E-005   0.0000000000000000     
   1.4669967587415473E-006   1.3471460441167904E-005   0.0000000000000000     
   1.4737342421789117E-006   1.3710699527514135E-005   0.0000000000000000     
   1.4802761907241095E-006   1.3950977191961730E-005   0.0000000000000000     
   1.4866225786511886E-006   1.4192263084104126E-005   0.0000000000000000     
   1.3406304769902202E-006   1.2290997807131241E-005   0.0000000000000000     
   1.3478630087018306E-006   1.2524611509053500E-005   0.0000000000000000     
   1.3549123323253487E-006   1.2759415554939727E-005   0.0000000000000000     
   1.3617784358113058E-006   1.2995379590933037E-005   0.0000000000000000     
   1.3684613071102316E-006   1.3232473263176523E-005   0.0000000000000000     
   1.3749609341726570E-006   1.3470666217813262E-005   0.0000000000000000     
   1.3812773049491132E-006   1.3709928100986369E-005   0.0000000000000000     
   1.3874104073901305E-006   1.3950228558838934E-005   0.0000000000000000     
   1.3933602294462387E-006   1.4191537237514045E-005   0.0000000000000000     
   1.2509511173476613E-006   1.2290148268258384E-005   0.0000000000000000     
   1.2577014187455424E-006   1.2523783267014410E-005   0.0000000000000000     
   1.2642807118822373E-006   1.2758608620903145E-005   0.0000000000000000     
   1.2706889964472085E-006   1.2994593970326028E-005   0.0000000000000000     
   1.2769262721299188E-006   1.3231708955684519E-005   0.0000000000000000     
   1.2829925386198313E-006   1.3469923217380063E-005   0.0000000000000000     
   1.2888877956064082E-006   1.3709206395814116E-005   0.0000000000000000     
   1.2946120427791123E-006   1.3949528131388125E-005   0.0000000000000000     
   1.3001652798274057E-006   1.4190858064503541E-005   0.0000000000000000     
   1.1613346512374930E-006   1.2289357324704240E-005   0.0000000000000000     
   1.1676027310800687E-006   1.2523012159237657E-005   0.0000000000000000     
   1.1737120039585089E-006   1.2757857357863928E-005   0.0000000000000000     
   1.1796624799941283E-006   1.2993862551353366E-005   0.0000000000000000     
   1.1854541693082380E-006   1.3230997370476259E-005   0.0000000000000000     
   1.1910870820221538E-006   1.3469231446002930E-005   0.0000000000000000     
   1.1965612282571885E-006   1.3708534408703686E-005   0.0000000000000000     
   1.2018766181346549E-006   1.3948875889348817E-005   0.0000000000000000     
   1.2070332617758677E-006   1.4190225518708640E-005   0.0000000000000000     
   1.0717765902442282E-006   1.2288624972604037E-005   0.0000000000000000     
   1.0775624560648133E-006   1.2522298186149879E-005   0.0000000000000000     
   1.0832017175059985E-006   1.2757161770992557E-005   0.0000000000000000     
   1.0886943944443391E-006   1.2993185342783565E-005   0.0000000000000000     
   1.0940405067563909E-006   1.3230338517174377E-005   0.0000000000000000     
   1.0992400743187075E-006   1.3468590909816487E-005   0.0000000000000000     
   1.1042931170078445E-006   1.3707912136361362E-005   0.0000000000000000     
   1.1091996547003581E-006   1.3948271812460495E-005   0.0000000000000000     
   1.1139597072728015E-006   1.4189639553765364E-005   0.0000000000000000     
   9.8227244595238076E-007   1.2287951208093021E-005   0.0000000000000000     
   9.8757610405918029E-007   1.2521641348177719E-005   0.0000000000000000     
   9.9274536147654026E-007   1.2756521865459495E-005   0.0000000000000000     
   9.9778024779012020E-007   1.2992562353385155E-005   0.0000000000000000     
   1.0026807925855784E-006   1.3229732405401502E-005   0.0000000000000000     
   1.0074470254485750E-006   1.3468001614955337E-005   0.0000000000000000     
   1.0120789759647685E-006   1.3707339575493451E-005   0.0000000000000000     
   1.0165766737198191E-006   1.3947715880462657E-005   0.0000000000000000     
   1.0209401482993853E-006   1.4189100123309750E-005   0.0000000000000000     
   8.9281772994646402E-007   1.2287336027306428E-005   0.0000000000000000     
   8.9763918542257388E-007   1.2521041645747819E-005   0.0000000000000000     
   9.0233844482196875E-007   1.2755937646435205E-005   0.0000000000000000     
   9.0691554802374574E-007   1.2991993591926657E-005   0.0000000000000000     
   9.1137053490700375E-007   1.3229179044780265E-005   0.0000000000000000     
   9.1570344535083986E-007   1.3467463567554099E-005   0.0000000000000000     
   9.1991431923435224E-007   1.3706816722806254E-005   0.0000000000000000     
   9.2400319643663830E-007   1.3947208073094796E-005   0.0000000000000000     
   9.2797011683679652E-007   1.4188607180977823E-005   0.0000000000000000     
   8.0340795381099165E-007   1.2286779426379489E-005   0.0000000000000000     
   8.0774721051439809E-007   1.2520499079286836E-005   0.0000000000000000     
   8.1197647649411796E-007   1.2755409119090150E-005   0.0000000000000000     
   8.1609580313749381E-007   1.2991479067176589E-005   0.0000000000000000     
   8.2010524183186867E-007   1.3228678444933289E-005   0.0000000000000000     
   8.2400484396458520E-007   1.3466976773747398E-005   0.0000000000000000     
   8.2779466092298623E-007   1.3706343575006053E-005   0.0000000000000000     
   8.3147474409441450E-007   1.3946748370096412E-005   0.0000000000000000     
   8.3504514486621275E-007   1.4188160680405610E-005   0.0000000000000000     
   7.1403862913047665E-007   1.2286281401447443E-005   0.0000000000000000     
   7.1789568969405675E-007   1.2520013649221399E-005   0.0000000000000000     
   7.2165496544482244E-007   1.2754936288594802E-005   0.0000000000000000     
   7.2531652112364009E-007   1.2991018787903472E-005   0.0000000000000000     
   7.2888042147137526E-007   1.3228230615483215E-005   0.0000000000000000     
   7.3234673122889389E-007   1.3466541239669845E-005   0.0000000000000000     
   7.3571551513706238E-007   1.3705920128799166E-005   0.0000000000000000     
   7.3898683793674638E-007   1.3946336751206996E-005   0.0000000000000000     
   7.4216076436881195E-007   1.4187760575229145E-005   0.0000000000000000     
 </DataArray>
 <DataArray  type="Float64" Name="stress" NumberOfComponents="3" format="ascii">
   17999.253583814399        2.2061683345445999        8.5146783258607736E-003
   17811.833169327998        1.0748796893158215        2.5377103665997582E-002
   17624.462886707024       0.31821782958741096        3.0423804485692915E-002
   17437.123378171829      -0.12834317673332407        2.6768659842332412E-002
   17249.795285942990      -0.32932926057401346        1.7525548837282280E-002
   17062.459252240831      -0.34926635443480336        5.8083505205980676E-003
   16875.095919286068      -0.25268038929425529       -5.2690557583525499E-003
   16687.685929299143      -0.10409729695766146       -1.2592791151091574E-002
   16500.209924500527        3.1956990736944135E-002  -1.3048976181196386E-002
   17549.054582578963        1.5756109818175901        73.798910919267342     
   17366.396892281391       0.75648802430805517        73.890821023101736     
   17183.763039177269       0.21176652616031788        73.957176200896868     
   17001.138686021575      -0.10634432945244043        74.002084959915521     
   16818.509495569499      -0.24563535847664753        74.029655807461978     
   16635.861130576097      -0.25389737747536856        74.043997250713488     
   16453.179253796337      -0.17892120306350989        74.049217796923045     
   16270.449527985395       -6.8497651411234983E-002   74.049425953413134     
   16087.657615898243        2.9582460650090070E-002   74.048730227396874     
   17098.902486333231        1.0117844732203594        145.75649772339921     
   16920.989566502663       0.46558633596123400        145.90853424398134     
   16743.079017768734       0.10655723863783351        146.02428103921594     
   16565.160880223266       -9.8502512668346753E-002   146.10864180165663     
   16387.225193957998      -0.18279261211046105        146.16652022387905     
   16209.261999064593      -0.17951275395535049        146.20281999870079     
   16031.261335634879      -0.12186263244257134        146.22244481879335     
   15853.213243760487       -4.3041941993578803E-002   146.23029837665101     
   15675.107763533331        2.3749623862386215E-002   146.23128436504109     
   16648.796175703639       0.51435299673812551        215.87507858877726     
   16475.611114088835       0.20215125315371552        216.07424639552698     
   16302.411558114596        2.8106572262913687E-003   216.22909392045938     
   16129.191282011338      -0.10442135612720449        216.34512059884662     
   15955.944060009744      -0.14029735136500676        216.42782586610622     
   15782.663666340204      -0.12556989388122020        216.48270915749256     
   15609.343875233439       -8.0991547909434303E-002   216.51526990846108     
   15435.978460919898       -2.7314878737342951E-002   216.53100755432567     
   15262.561197630124        1.4707548856677022E-002   216.53542153042983     
   16198.734531316539        8.2980740196944680E-002   284.14845701350129     
   16030.261457136947       -3.3840594725006667E-002   284.38368710665048     
   15861.761395847656       -9.9252528408214857E-002   284.56897044550692     
   15693.231212620247      -0.12370448937690526        284.71020276540219     
   15524.667772626126      -0.11764590604889236        284.81327980171466     
   15356.067941036796       -9.1526206764683593E-002   284.88409728965854     
   15187.428583023731       -5.5794819998482126E-002   284.92855096460886     
   15018.746563758486       -2.0901174037135206E-002   284.95253656188123     
   14850.018748412438        2.7053025860368507E-003   284.96194981681515     
   15748.716433798309      -0.28266810851619084        350.57043649555379     
   15584.940517743742      -0.24241257873745781        350.83258600628500     
   15421.129266600930      -0.19941162836403237        351.04126621533845     
   15257.281993284376      -0.15595554219908081        351.20256971522514     
   15093.398010708595      -0.11433460552416363        351.32258909853908     
   14929.476631788177       -7.6839102697704220E-002   351.40741695789387     
   14765.517169437600       -4.5759318965792772E-002   351.46314588575882     
   14601.518936571409       -2.3385539152513957E-002   351.49586847482647     
   14437.481246104129       -1.2008048102870816E-002   351.51167731762558     
   15298.740763775191      -0.58292936151156027        415.13482053297435     
   15139.648218006245      -0.42358806986794661        415.41667272352544     
   14980.515906007266      -0.29744595283773378        415.64333683080167     
   14821.344945238141      -0.20077814464184485        415.82090286209217     
   14662.136453158530      -0.12985977942571481        415.95546082439751     
   14502.891547228077       -8.0965991758603195E-002   416.05310072484400     
   14343.611344906645       -5.0371915574032755E-002   416.11991257057497     
   14184.296963653720       -3.4352685671365180E-002   416.16198636868404     
   14024.949520929213       -2.9183435826780624E-002   416.18541212621921     
   14848.806401873597      -0.81813883084760164        477.83541262384421     
   14694.384480021286      -0.57739043900255638        478.13167688728811     
   14539.922049699780      -0.39313481172757747        478.37253789298700     
   14385.421389716095      -0.25777592568920227        478.56388361994232     
   14230.884778877404      -0.16371775718016579        478.71160204710367     
   14076.314495990515      -0.10336428331083880        478.82158115332749     
   13921.712819862585       -6.9119480260269484E-002   478.89970891759953     
   13767.082029300587       -5.3387324830509897E-002   478.95187331884745     
   13612.424403111605       -4.8571793315204559E-002   478.98396233604274     
   14398.912228719939      -0.98863232858911942        538.66601626618638     
   14249.149225885854      -0.70384305700645200        538.97332812655486     
   14099.348433311259      -0.48625751522467908        539.22622500268551     
   13949.512647952670      -0.32655251526284701        539.43019340261344     
   13799.644666766520      -0.21540486861704267        539.59071983434001     
   13649.747286709209      -0.14349138744364609        539.71329080594126     
   13499.823304737274      -0.10148888321145932        539.80339282544855     
   13349.875517807119       -8.0074168016835756E-002   539.86651240096671     
   13199.906722875279       -6.9924053417707910E-002   539.90813604048674     
   16500.209924500527        3.1956990736944135E-002  -1.3048976181196386E-002
   16312.689949559935       0.11457105985118687       -8.5424168142156000E-003
   16125.162810177377       0.15203693065905100       -3.5007325072420993E-003
   15937.631290120014       0.15363382699433714        1.4057354883249536E-003
   15750.098173155293       0.12864097355759441        5.5066462814826233E-003
   15562.566243049914        8.6337592859308643E-002   8.1316585927330570E-003
   15375.038283571183        3.6002909080707468E-002   8.6104311364699915E-003
   15187.517078486318       -1.3083853539683332E-002   6.2726229525127408E-003
   15000.005411561971       -5.1643472877003660E-002   4.4789266469785180E-004
   16087.657615898243        2.9582460650090070E-002   74.048730227396874     
   15904.827052188517        8.7157952775669401E-002   74.050470450875238     
   15721.992274454964       0.11241079478440952        74.054557490668671     
   15539.155299869652       0.11206489371124917        74.059956406131391     
   15356.318145605139        9.2844157924446336E-002   74.065632256744692     
   15173.482828833879        6.1472495707675989E-002   74.070550101865280     
   14990.651366727991        2.4673814019479323E-002   74.073675000797891     
   14807.825776459977       -1.0827978684574191E-002   74.073972013129506     
   14625.008075202157       -3.8308974741084967E-002   74.070406198067147     
   15675.107763533331        2.3749623862386215E-002   146.23128436504109     
   15496.968716845788        6.1170113327534636E-002   146.23257880218989     
   15318.827472670508        7.7034508813085267E-002   146.23723631905446     
   15140.685391719420        7.5878516965531162E-002   146.24397852744318     
   14962.543834704718        6.2237844978881185E-002   146.25152703925789     
   14784.404162338469        4.0648199659699458E-002   146.25860346639837     
   14606.267735332603        1.5645287559891585E-002   146.26392942081853     
   14428.135914399347       -8.2351839009788819E-003   146.26622651422565     
   14250.010060250645       -2.6457508242856420E-002   146.26421635863898     
   15262.561197630124        1.4707548856677022E-002   216.53542153042983     
   15089.115174946852        3.6676965795777505E-002   216.53829136698462     
   14915.668175889810        4.5839392784728261E-002   216.54479651477499     
   14742.221014845014        4.4909449778060662E-002   216.55353629013317     
   14568.774506198690        3.6601757607058971E-002   216.56311000923407     
   14395.329464337121        2.3630937267625995E-002   216.57211698837926     
   14221.886703646280        8.7116085660454701E-003   216.57915654383248     
   14048.447038512566       -5.4416070943261730E-003   216.58282799184897     
   13875.011283321890       -1.6114090039991424E-002   216.58173064862157     
   14850.018748412438        2.7053025860368507E-003   284.96194981681515     
   14681.266657906850        1.3747934819548391E-002   284.96811687498291     
   14512.514155178445        1.8756765793114027E-002   284.97749884022136     
   14343.761618421917        1.8992444443938439E-002   284.98869388512242     
   14175.009425831886        1.5715619589173002E-002   285.00030018213039     
   14006.257955603129        1.0186940413404955E-002   285.01091590384505     
   13837.507585930218        3.6670555182354292E-003   285.01913922275139     
   13668.758695007868       -2.5833860718194046E-003   285.02356831149842     
   13500.011661030790       -7.3037352549363277E-003   285.02280134248110     
   14437.481246104129       -1.2008048102870816E-002   351.51167731762558     
   14273.423397140950       -7.5475550556802773E-003   351.52256405608836     
   14109.365181602325       -4.2820516218853300E-003   351.53560405772720     
   13945.306651625826       -2.0377458713483065E-003   351.54951550324779     
   13781.247859349118       -6.4084557652677177E-004   351.56301657338537     
   13617.188856909812        8.2441262748034205E-005   351.57482544884181     
   13453.129696445414        3.0590630376536865E-004   351.58366031033717     
   13289.070430093667        2.0334214241302107E-004   351.58823933872503     
   13125.011109992109       -5.1459500355122145E-005   351.58728071460985     
   14024.949520929213       -2.9183435826780624E-002   416.18541212621921     
   13865.585624064301       -2.7140079400851391E-002   416.20214164006575     
   13706.221026227027       -2.3345740224613110E-002   416.21937292949025     
   13546.855563632262       -1.8346368756283482E-002   416.23606533530278     
   13387.489072495073       -1.2687914799244027E-002   416.25117819836862     
   13228.121389030370       -6.9163285461399937E-003   416.26367085946396     
   13068.752349453052       -1.5775604160808143E-003   416.27250265945202     
   12909.381789978177        2.7824397375297849E-003   416.27663293919869     
   12750.009546820555        5.6177214146373444E-003   416.27502103949536     
   13612.424403111605       -4.8571793315204559E-002   478.98396233604274     
   13457.753570092091       -4.4960213512240443E-002   479.00735835676318     
   13303.081460118232       -3.8502980440171086E-002   479.02906621783279     
   13148.407803616858       -3.0098671446467051E-002   479.04840757212685     
   12993.732331014531       -2.0645864547077508E-002   479.06470407251095     
   12839.054772738113       -1.1043137025808392E-002   479.07727737177271     
   12684.374859214211       -2.1890666785111534E-003   479.08544912278722     
   12529.692320869624        5.0177690054624691E-003   479.08854097838179     
   12375.006888131031        9.6787924044292595E-003   479.08587459144729     
   13199.906722875279       -6.9924053417707910E-002   539.90813604048674     
   13049.927466639469       -6.0938532884392771E-002   539.93872293593108     
   12899.946254341781       -4.9822452097942005E-002   539.96494468503374     
   12749.962820755145       -3.7459901347574487E-002   539.98660640456933     
   12599.976900652344       -2.4734971239922743E-002   540.00351321127800     
   12449.988228806353       -1.2531751931419421E-002   540.01547022189061     
   12299.996539990134       -1.7343336680823995E-003   540.02228255320847     
   12150.001568976470        6.7731929834735638E-003   540.02375532197300     
   12000.003050538238        1.2106737583962968E-002   540.01969364494312     
   15000.005411561971       -5.1643472877003660E-002   4.4789266469785180E-004
   14812.501562443354       -7.3594710271208896E-002  -5.1107363639059005E-003
   14625.001375500529       -8.0973910859938769E-002  -6.8382121707057904E-003
   14437.503981589345       -7.6678221636939270E-002  -5.6868329602969359E-003
   14250.008511565444       -6.3604790642784792E-002  -2.6088965548879458E-003
   14062.514096284494       -4.4650765634287382E-002   1.4432991115286558E-003
   13875.019866601771       -2.2713295516041399E-002   5.5174558881117648E-003
   13687.524953373015       -6.8952796391386073E-004   8.6612759072978232E-003
   13500.028487454036        1.8523389706388116E-002   9.9224611677490773E-003
   14625.008075202157       -3.8308974741084967E-002   74.070406198067147     
   14442.196034472350       -5.3654527495382354E-002   74.065774867299439     
   14259.385664602347       -5.8620610398975259E-002   74.063249352805528     
   14076.576340986747       -5.5289241434365977E-002   74.062355746083554     
   13893.767439019844       -4.5742439556306635E-002   74.062620137858374     
   13710.958334095691       -3.2062224677247286E-002   74.063568619117802     
   13528.148401608891       -1.6330614775142749E-002   74.064727281169880     
   13345.337016953512       -6.2962963966128882E-004   74.065622214755535     
   13162.523555523780        1.2958711537066847E-002   74.065779510876595     
   14250.010060250645       -2.6457508242856420E-002   146.26421635863898     
   14071.887943118134       -3.6459524519159459E-002   146.26004528276559     
   13893.766151165431       -3.9619298288016580E-002   146.25665269361596     
   13715.644272002188       -3.7311464173399145E-002   146.25394982033075     
   13537.521893238525       -3.0910655075786053E-002   146.25184789205059     
   13359.398602484111       -2.1791505411783874E-002   146.25025813802154     
   13181.273987348974       -1.1328648340168002E-002   146.24909178740717     
   13003.147635442705       -8.9671871319296770E-004   146.24826006933540     
   12825.019134375400        8.1296505331920343E-003   146.24767421283977     
   13875.011283321890       -1.6114090039991424E-002   216.58173064862157     
   13701.577591345465       -2.1918811755313072E-002   216.57763134946782     
   13528.143417931800       -2.3795152845195844E-002   216.57336612989803     
   13354.708530583128       -2.2518105760354956E-002   216.56913810622939     
   13181.272696801794       -1.8862662701394584E-002   216.56515039501704     
   13007.835684090023       -1.3603816239083244E-002   216.56160611281226     
   12834.397259950305       -7.5165581702094642E-003   216.55870837594219     
   12660.957191884818       -1.3758812328887871E-003   216.55666030097376     
   12487.515247395921        4.0432225478070905E-003   216.55566500429563     
   13500.011661030790       -7.3037352549363277E-003   285.02280134248110     
   13331.265282118966       -9.9415001213856158E-003   285.01846390657914     
   13162.518047643782       -1.0973350937092619E-002   285.01338398156525     
   12993.769872676776       -1.0682382381673960E-002   285.00796332027596     
   12825.020672289613       -9.3516889228340006E-003   285.00260367565505     
   12656.270361553979       -7.2643649536985322E-003   284.99770680066183     
   12487.518855541548       -4.7035049965415965E-003   284.99367444822775     
   12318.766069323668       -1.9522044226505386E-003   284.99090837126340     
   12150.011917972275        7.0644316429024911E-004   284.98981032267619     
   13125.011109992109       -5.1459500355122145E-005   351.58728071460985     
   12960.951318403384       -4.3670025115716271E-004   351.58247379328441     
   12796.890623043664       -9.7906992778007407E-004   351.57670056854931     
   12632.829054230740       -1.5775092360854615E-003   351.57046817889250     
   12468.766642282355       -2.1309589528755168E-003   351.56428376278967     
   12304.703417516519       -2.5383591587342380E-003   351.55865445888105     
   12140.639410250820       -2.6986511520590284E-003   351.55408740562592     
   11976.574650803257       -2.5107749852395500E-003   351.55108974161215     
   11812.509169491668       -1.8736711690507946E-003   351.55016860527564     
   12750.009546820555        5.6177214146373444E-003   416.27502103949536     
   12590.636003163447        6.6864775071735494E-003   416.26959184885709     
   12431.261726873712        6.3625129341744469E-003   416.26331021074895     
   12271.886831192292        5.0232974926984753E-003   416.25669539854965     
   12112.511429360055        3.0463008265542157E-003   416.25026668535082     
   11953.135634617971        8.0899278373181005E-004   416.24454334460785     
   11793.759560206814       -1.3111574153299443E-003   416.24004464955101     
   11634.383319367564       -2.9366797580223647E-003   416.23728987342105     
   11475.007025341201       -3.6901043986290460E-003   416.23679828951111     
   12375.006888131031        9.6787924044292595E-003   479.08587459144729     
   12220.319639363812        1.1518922252889752E-002   479.07974891242912     
   12065.631941876127        1.1226220086427929E-002   479.07320722808925     
   11910.943959508852        9.3468220984505024E-003   479.06668769560190     
   11756.255856102809        6.4268644214280357E-003   479.06062847221125     
   11601.567795498879        3.0124831610010006E-003   479.05546771504851     
   11446.879941537878       -3.5018539483644417E-004   479.05164358131037     
   11292.192458060548       -3.1150055615398742E-003   479.04959422817052     
   11137.505508907967       -4.7358404081023764E-003   479.04975781283520     
   12000.003050538238        1.2106737583962968E-002   540.01969364494312     
   11850.002529969221        1.4151523615510087E-002   540.01287582322152     
   11700.001850793262        1.3786874570996588E-002   540.00638594039890     
   11550.001195127888        1.1619848924510734E-002   540.00048778665109     
   11400.000745090812        8.2575058736438223E-003   539.99544515220930     
   11250.000682799669        4.3069040816590132E-003   539.99152182733201     
   11100.001190372262        3.7510284437303199E-004   539.98898160229226     
   10950.002449926218       -2.9308390535334183E-003   539.98808826727543     
   10800.004643579150       -5.0038628037327726E-003   539.98910561254888     
   13500.028487454036        1.8523389706388116E-002   9.9224611677490773E-003
   13312.530489951196        3.2783644176561211E-002   8.1842021762504307E-003
   13125.031625830745        4.2095621600310551E-002   3.7402065050505086E-003
   12937.531991737182        4.6781470427958993E-002  -2.2460486031279660E-003
   12750.031684315800        4.7163341445411788E-002  -8.6110862525199949E-003
   12562.530800210925        4.3563382564570929E-002  -1.4191428951179696E-002
   12375.029436067396        3.6303743249391118E-002  -1.7823599830829921E-002
   12187.527688530183        2.5706573311708780E-002  -1.8344121361041806E-002
   12000.025654243729        1.2094021035409241E-002  -1.4589516591685493E-002
   13162.523555523780        1.2958711537066847E-002   74.065779510876595     
   12979.709141832127        2.3206144340292667E-002   74.064580052463469     
   12796.895334260842        3.0330637264341931E-002   74.062141568885977     
   12614.082159009087        3.4419520703522721E-002   74.059095421511017     
   12431.269642276839        3.5560128283577797E-002   74.056072971554030     
   12248.457810263175        3.3839789993180602E-002   74.053705580019667     
   12065.646689168296        2.9345839808229357E-002   74.052624608497837     
   11882.836305191415        2.2165608394516312E-002   74.053461418163863     
   11700.026684532064        1.2386427807996370E-002   74.056847370145732     
   12825.019134375400        8.1296505331920343E-003   146.24767421283977     
   12646.890163478651        1.5196054075204302E-002   146.24708260958352     
   12468.762656209519        2.0595171376044163E-002   146.24642191154567     
   12290.636581366094        2.4222996070875524E-002   146.24588573874814     
   12112.511907746597        2.5975522270982765E-002   146.24566771117009     
   11934.388604149202        2.5748743920757988E-002   146.24596144896813     
   11756.266639372205        2.3438655247900897E-002   146.24696057222678     
   11578.145982213438        1.8941249031740881E-002   146.24885870107929     
   11400.026601471371        1.2152520248946530E-002   146.25184945541278     
   12487.515247395921        4.0432225478070905E-003   216.55566500429563     
   12314.073219263104        8.6526846630476939E-003   216.55571878845095     
   12140.633004891784        1.2713189427813631E-002   216.55658271381964     
   11967.194528722219        1.5972871225585550E-002   216.55810703409995     
   11793.757715195035        1.8179865522597538E-002   216.56014200279591     
   11620.322488751119        1.9082308437646134E-002   216.56253787354603     
   11446.888773830840        1.8428334672535129E-002   216.56514490016889     
   11273.456494874694        1.5966079059580807E-002   216.56781333600287     
   11100.025576323540        1.1443677992247103E-002   216.57039343483351     
   12150.011917972275        7.0644316429024911E-004   284.98981032267619     
   11981.257973557969        3.4753478034872387E-003   284.99051550373531     
   11812.505793522065        6.5086550744126725E-003   284.99262545507025     
   11643.755270990978        9.4501198127545649E-003   284.99574143854227     
   11475.006299091834        1.1943499077915476E-002   284.99946471600845     
   11306.258770951294        1.3632548399527877E-002   285.00339654948380     
   11137.512579696189        1.4161023883843882E-002   285.00713820074503     
   10968.767618453394        1.3172681765809102E-002   285.01029093185196     
   10800.023780349593        1.0311277667369723E-002   285.01245600456343     
   11812.509169491668       -1.8736711690507946E-003   351.55016860527564     
   11648.444090735820       -4.3664435997925466E-004   351.55149967030604     
   11484.380435315123        1.8055329560411337E-003   351.55455161470678     
   11320.318078086362        4.4357167989801383E-003   351.55877108318003     
   11156.256893906357        7.0367631406043074E-003   351.56360472071032     
   10992.196757631982        9.1915283064736286E-003   351.56849917232768     
   10828.137544120136        1.0482868534836598E-002   351.57290108290380     
   10664.079128227771        1.0493640351342037E-002   351.57625709730888     
   10500.021384811496        8.8066991988853260E-003   351.57801386061141     
   11475.007025341201       -3.6901043986290460E-003   416.23679828951111     
   11315.631235168992       -3.1839804751143674E-003   416.23869820302593     
   11156.256343485622       -1.5722124476269528E-003   416.24236267191333     
   10996.882219921843        7.1063546238292474E-004   416.24717809890893     
   10837.508734108264        3.2299987556143606E-003   416.25253088663783     
   10678.135755675710        5.5513134052489477E-003   416.25780743784242     
   10518.763154254699        7.2400144804305455E-003   416.26239415510310     
   10359.390799476116        7.8615382985844917E-003   416.26567744128261     
   10200.018560970620        6.9813204017918906E-003   416.26704369888489     
   11137.505508907967       -4.7358404081023764E-003   479.04975781283520     
   10982.819071229998       -4.8673487435735296E-003   479.05213801662160     
   10828.132931248261       -3.8006167683306558E-003   479.05606010630476     
   10673.446966411255       -1.9441496096987976E-003   479.06094461681266     
   10518.761054167182        2.9354689058891381E-004   479.06621208360099     
   10364.075071964506        2.5039674519575783E-003   479.07128304160568     
   10209.388897251629        4.2786069393514481E-003   479.07557802612871     
   10054.702407476854        5.2089594983044663E-003   479.07851757236779     
   9900.0154800886230        4.8865200851651025E-003   479.07952221541319     
   10800.004643579150       -5.0038628037327726E-003   539.98910561254888     
   10650.007263291292       -5.5874374247650849E-003   539.99184602599917     
   10500.009611817703       -5.0557156132526870E-003   539.99564539702453     
   10350.011587468260       -3.7476645652532170E-003   540.00005276796651     
   10200.013088552720       -2.0022515627715620E-003   540.00461718130384     
   10050.014013380927       -1.5844390964048216E-004   540.00888767935191     
   9900.0142602628148        1.4447913818003144E-003   540.01241330460311     
   9750.0137275082216        2.4684872187208384E-003   540.01474309942660     
   9600.0123134270125        2.5736765805959294E-003   540.01542610624074     
   12000.025654243729        1.2094021035409241E-002  -1.4589516591685493E-002
   11812.521987679953       -4.3833165163960075E-003  -6.8796979085033495E-003
   11625.015687616684       -2.2427155725836201E-002   2.7135362600719838E-003
   11437.507367157634       -3.9993817593312997E-002   1.2725833591532723E-002
   11249.997639406600       -5.5039622732238058E-002   2.1692841628986048E-002
   11062.487117467983       -6.5520889892923151E-002   2.8150208312585839E-002
   10874.976414445437       -6.9393940104873764E-002   3.0633581215981330E-002
   10687.466143442925       -6.4615093492648157E-002   2.7678608201291449E-002
   10499.956917564261       -4.9140670784254326E-002   1.7820936853924121E-002
   11700.026684532064        1.2386427807996370E-002   74.056847370145732     
   11517.215269060203       -4.0400950729235774E-004   74.062255752365900     
   11334.399864152105       -1.5406323146635259E-002   74.068212261559182     
   11151.581041266913       -3.0715649125340860E-002   74.073926873140081     
   10968.759371864531       -4.4427121241824352E-002   74.078609562749165     
   10785.935427403456       -5.4635877768760110E-002   74.081470305270130     
   10603.109779343795       -5.9437051827444520E-002   74.081719076506602     
   10420.282999144778       -5.6925779280845745E-002   74.078565851669183     
   10237.455658265255       -4.5197197066954686E-002   74.071220606113513     
   11400.026601471371        1.2152520248946530E-002   146.25184945541278     
   11221.905365870449        2.3189173580249189E-003   146.25526330256824     
   11043.779513993619       -1.0080249439852196E-002   146.25814794731056     
   10865.649569427531       -2.3299691417378199E-002   146.26027286638896     
   10687.516055758875       -3.5594119573033822E-002   146.26140753592469     
   10509.379496574087       -4.5218245723845030E-002   146.26132143299557     
   10331.240415459955       -5.0426780572706775E-002   146.25978403383832     
   10153.099336002819       -4.9474436438686098E-002   146.25656481516535     
   9974.9567817895550       -4.0615923643144924E-002   146.25143325355407     
   11100.025576323540        1.1443677992247103E-002   216.57039343483351     
   10926.592833668732        3.9521313292425475E-003   216.57213232624952     
   10753.155445765637       -6.2063477080300800E-003   216.57251973818526     
   10579.713882099682       -1.7466807473738299E-002   216.57176982194107     
   10406.268612156553       -2.8264295774533821E-002   216.57009672883379     
   10232.820105421803       -3.7033860844530864E-002   216.56771461013540     
   10059.368831381051       -4.2210550544496073E-002   216.56483761715722     
   9885.9152595199976       -4.2229412606502592E-002   216.56167990130217     
   9712.4598593241208       -3.5525495289220999E-002   216.55845561365101     
   10800.023780349593        1.0311277667369723E-002   285.01245600456343     
   10631.278228013316        4.6623002644992084E-003   285.01285219692471     
   10462.528468092594       -3.5420302256170544E-003   285.01132677867042     
   10293.774909743839       -1.2937859029534593E-002   285.00842374929209     
   10125.017962123644       -2.2161330855396955E-002   285.00468710837811     
   9956.2580343883947       -2.9848591021163884E-002   285.00066085561105     
   9787.4955356944283       -3.4635785241334816E-002   284.99688899033993     
   9618.7308751983055       -3.5159058203134919E-002   284.99391551229922     
   9449.9644620564741       -3.0054555038077524E-002   284.99228442108983     
   10500.021384811496        8.8066991988853260E-003   351.57801386061141     
   10335.962104462194        4.6160913352650823E-003   351.57741228821573     
   10171.899389598999       -1.8447095312694728E-003   351.57456821340134     
   10007.833582820795       -9.4337069767789217E-003   351.57024065751733     
   9843.7650267265999       -1.7008904348131182E-002   351.56518864193521     
   9679.6940639158947       -2.3428303409673390E-002   351.56017118812400     
   9515.6210369874661       -2.7549908142191271E-002   351.55594731729798     
   9351.5462885402976       -2.8231722005784832E-002   351.55327605092009     
   9187.4701611737673       -2.4331746996722359E-002   351.55291641049388     
   10200.018560970620        6.9813204017918906E-003   416.26704369888489     
   10040.645018573659        3.9801725429242651E-003   416.26580197353235     
   9881.2690189091172       -8.7179867296072189E-004   416.26224318694972     
   9721.8908317906898       -6.6752143470694136E-003   416.25722655572667     
   9562.5107270318495       -1.2530696113572048E-002   416.25161129669380     
   9403.1289744462065       -1.7538865286041982E-002   416.24625662647219     
   9243.7458438471313       -2.0800344047074759E-002   416.24202176183371     
   9084.3616050483033       -2.1415753416476946E-002   416.23976591955801     
   8924.9765278632294       -1.8485715012957371E-002   416.24034831637960     
   9900.0154800886230        4.8865200851651025E-003   479.07952221541319     
   9745.3275259055572        2.9212104936959804E-003   479.07801062652049     
   9590.6381646474856       -3.8071009703344316E-004   479.07435084387629     
   9435.9475871142367       -4.3832421742990846E-003   479.06938745307798     
   9281.2559841055008       -8.4503868492902257E-003   479.06396503971206     
   9126.5635464210936       -1.1946144707053463E-002   479.05892818944841     
   8971.8704648608382       -1.4234516253509355E-002   479.05512148789541     
   8817.1769302246503       -1.4679501920454641E-002   479.05338952069548     
   8662.4831333122693       -1.2645102511669393E-002   479.05457687343215     
   9600.0123134270125        2.5736765805959294E-003   540.01542610624074     
   9450.0101820162072        1.6058733076533827E-003   540.01402762065402     
   9300.0076354385601       -1.2885616524727084E-004   540.01089032880373     
   9150.0047792518162       -2.2786528293181618E-003   540.00672935869659     
   9000.0017190138296       -4.4916568549524527E-003   540.00225983834105     
   8849.9985602826146       -6.4160084275499685E-003   539.99819689585058     
   8699.9954086159651       -7.6998482854833128E-003   539.99525565930946     
   8549.9923695718571       -7.9913163804121723E-003   539.99415125676660     
   8399.9895487080721       -6.9385534998218645E-003   539.99559881628466     
   10499.956917564261       -4.9140670784254326E-002   1.7820936853924121E-002
   10312.452622361347       -2.1146170878182602E-002   2.9176095575375338E-003
   10124.955559759317        1.5914151333618065E-002  -1.2859441663472498E-002
   9937.4639674252394        5.6165852796311810E-002  -2.7502233917034855E-002
   9749.9760830255764        9.3734488373684144E-002  -3.9002784963456681E-002
   9562.4901442269711       0.12274561349704527       -4.5353112056047022E-002
   9375.0043886958483       0.13732478301062656       -4.4545232613042038E-002
   9187.5170540987383       0.13159755185006361       -3.4571164147358224E-002
   9000.0263781019730        9.9689474728620553E-002  -1.3422924052187245E-002
   10237.455658265255       -4.5197197066954686E-002   74.071220606113513     
   10054.633135183625       -2.2001596731570316E-002   74.061409605887491     
   9871.8193614345273        1.0087584507346037E-002   74.052076122045989     
   9689.0127380649665        4.5740503418983280E-002   74.044255637870521     
   9506.2116661215059        7.9627315198194992E-002   74.038983636708622     
   9323.4145466502323       0.10641817343639559        74.037295601573049     
   9140.6197806977798       0.12078323352989173        74.040227015734956     
   8957.8257693105570       0.11739265018377409        74.048813362472046     
   8775.0309135346088        9.0916576993549825E-002   74.064090124795129     
   9974.9567817895550       -4.0615923643144924E-002   146.25143325355407     
   9796.8187589969584       -2.1447417140734615E-002   146.24596599454773     
   9618.6899732673810        6.0997932168902480E-003   146.24204457211255     
   9440.5689973842291        3.7268318757469387E-002   146.23989579479519     
   9262.4544041305289        6.7300769616849720E-002   146.23974647103847     
   9084.3447662904018        9.1439759577042423E-002   146.24182340974886     
   8906.2386566472396       0.10492789979844019        146.24635341948553     
   8728.1346479845124       0.10300780199895598        146.25356330879816     
   8550.0313130855811        8.0922077288050787E-002   146.26367988625933     
   9712.4598593241208       -3.5525495289220999E-002   216.55845561365101     
   9539.0085586729801       -1.9764169156587741E-002   216.55657633910363     
   9365.5661410410703        3.5745117088481493E-003   216.55703220083021     
   9192.1313593059458        3.0333472765505576E-002   216.55940515773571     
   9018.7029663455560        5.6355640344008862E-002   216.56327716844405     
   8845.2797150373826        7.7483939462126727E-002   216.56823019178321     
   8671.8603582595115        8.9561296891588427E-002   216.57384618658975     
   8498.4436488895844        8.8430638194950006E-002   216.57970711172297     
   8325.0283398052889        6.9934889128489885E-002   216.58539492577015     
   9449.9644620564741       -3.0054555038077524E-002   284.99228442108983     
   9281.2015990824784       -1.7232392789082951E-002   284.99323020300443     
   9112.4466105388474        2.1354749324018485E-003   284.99702530084045     
   8943.6984377546687        2.4520144940197497E-002   285.00277064821648     
   8774.9560220587991        4.6392713541536068E-002   285.00956717896673     
   8606.2183047808576        6.4224279498375836E-002   285.01651582663402     
   8437.4842272496844        7.4485938758243719E-002   285.02271752508881     
   8268.7527307946475        7.3648789432809281E-002   285.02727320815831     
   8100.0227567446182        5.8183927707887051E-002   285.02928380937186     
   9187.4701611737673       -2.4331746996722359E-002   351.55291641049388     
   9023.3969450967761       -1.4132626015907590E-002   351.55591714978374     
   8859.3301275443337        1.4064183937989583E-003   351.56201016435637     
   8695.2688466538893        1.9412511119298870E-002   351.56997918748436     
   8531.2122405635128        3.7012778993812390E-002   351.57860795266015     
   8367.1594474107478        5.1334347183910722E-002   351.58668019343219     
   8203.1096053330311        5.9504340546482126E-002   351.59297964301629     
   8039.0618524685378        5.8649886199873436E-002   351.59629003493774     
   7875.0153269548146        4.5898109402060072E-002   351.59539510266887     
   8924.9765278632294       -1.8485715012957371E-002   416.24034831637960     
   8765.5936615868231       -1.0745408214006602E-002   416.24462674283490     
   8606.2154378406503        1.0110765447279846E-003   416.25197308364676     
   8446.8411999277996        1.4594749540265184E-002   416.26101769679605     
   8287.4702911519471        2.7816623040507693E-002   416.27039093991914     
   8128.1020548165543        3.8487708541197208E-002   416.27872317111530     
   7968.7358342247462        4.4419016520350851E-002   416.28464474819526     
   7809.3709726803190        4.3421559569651436E-002   416.28678602912601     
   7650.0068134864532        3.3306348341284320E-002   416.28377737168506     
   8662.4831333122693       -1.2645102511669393E-002   479.05457687343215     
   8507.7908134240297       -7.3512772523827152E-003   479.05934854569404     
   8353.1012872112060        5.7318439985465375E-004   479.06690035118004     
   8198.4141115000875        9.6510367575319833E-003   479.07587309714194     
   8043.7288431169982        1.8405034134502785E-002   479.08490759066143     
   7889.0450388882255        2.5357930919199134E-002   479.09264463880470     
   7734.3622556400378        2.9032481369085872E-002   479.09772504866322     
   7579.6800501987291        2.7951439710250270E-002   479.09878962744403     
   7424.9979793906214        2.0637560423438117E-002   479.09447918210441     
   8399.9895487080721       -6.9385534998218645E-003   539.99559881628466     
   8249.9874654793985       -4.2307722646910406E-003   540.00007212176445     
   8099.9864214394802       -2.8352261779218679E-004   540.00677825932235     
   7949.9861952946121        4.1655497921055940E-003   540.01453231013852     
   7799.9865657512119        8.3787997755280230E-003   540.02214935515133     
   7649.9873115155870        1.1618581571838149E-002   540.02844447553014     
   7499.9882112940068        1.3147249437224673E-002   540.03223275240612     
   7349.9890437928279        1.2227157895722485E-002   540.03232926680005     
   7199.9895877183526        8.1206613026552077E-003   540.02754909986629     
   9000.0263781019730        9.9689474728620553E-002  -1.3422924052187245E-002
   8812.5210352477516        3.6312491105945810E-002   1.2843906885379622E-002
   8624.9942565430392       -4.8633243451149610E-002   3.5401388482199120E-002
   8437.4511143540622      -0.13823984115151688        5.2098963480120178E-002
   8249.8966810469356      -0.21559941544592220        6.0786075263596556E-002
   8062.3360289863931      -0.26380408351406004        5.9312166540270071E-002
   7874.7742305386037      -0.26594595817778099        4.5526680396504045E-002
   7687.2163580696624      -0.20511715255997842        1.7279060127416698E-002
   7499.6674839449788       -6.4409781963604473E-002  -2.7581251433058732E-002
   8775.0309135346088        9.0916576993549825E-002   74.064090124795129     
   8592.2223408158407        3.5781186140866339E-002   74.080988255662405     
   8409.3913167437622       -3.9793538351659663E-002   74.093413412875876     
   8226.5424495849693      -0.12044670758223219        74.100863138679642     
   8043.6803476046134      -0.19081743773222115        74.102834974887827     
   7860.8096190686183      -0.23554484258693265        74.098826463721338     
   7677.9348722423256      -0.23926803752101478        74.088335147188516     
   7495.0607153915162      -0.18662613668448103        74.070858567338334     
   7312.1917567814662       -6.2258255718916189E-002   74.045894265812919     
   8550.0313130855811        8.0922077288050787E-002   146.26367988625933     
   8371.9156020482551        3.3228966461592790E-002   146.27255795427845     
   8193.7781604873926       -3.3194899760928820E-002   146.27647071783625     
   8015.6231044629694      -0.10462932131849811        146.27627258988178     
   7837.4545500342429      -0.16735410078945279        146.27281798322480     
   7659.2766132611778      -0.20764903819463143        146.26696131095727     
   7481.0934102026986      -0.21179393718375650        146.25955698587768     
   7302.9090569195605      -0.16606859525245454        146.25145942098217     
   7124.7276694707016       -5.6752815846266458E-002   146.24352302910228     
   8325.0283398052889        6.9934889128489885E-002   216.58539492577015     
   8151.6023134764691        2.9104192755767144E-002   216.58761708957371     
   7978.1566809532851       -2.8269373248804186E-002   216.58463979482340     
   7804.6950379833270       -9.0199983605089074E-002   216.57838309741547     
   7631.2209803145342      -0.14470181186698028        216.57076705291385     
   7457.7381036945690      -0.17978903249650102        216.56371171740349     
   7284.2500038712924      -0.18347581929356238        216.55913714639203     
   7110.7602765924485      -0.14377634650691107        216.55896339579135     
   6937.2725176058557       -4.8704787849146669E-002   216.56511052124270     
   8100.0227567446182        5.8183927707887051E-002   285.02928380937186     
   7931.2839696313968        2.3855224107137474E-002   285.02622974820758     
   7762.5287713200805       -2.4449006545637531E-002   285.01798713542195     
   7593.7602091411472       -7.6570995933707309E-002   285.00725044154615     
   7424.9813304243125      -0.12235297822689972        284.99671413709274     
   7256.1951824998305      -0.15163718601343135        284.98907269271058     
   7087.4048126979269      -0.15426585187151431        284.98702057891552     
   6918.6132683484957      -0.12008120953896650        284.99325226641224     
   6749.8235967815735       -3.8925492116050009E-002   285.01046222571387     
   7875.0153269548146        4.5898109402060072E-002   351.59539510266887     
   7710.9620650439156        1.7930419061030989E-002   351.58846001691273     
   7546.8963247670326       -2.1165845530958904E-002   351.57657923113965     
   7382.8205769313345       -6.3154660345844604E-002   351.56293040260084     
   7218.7372923428547       -9.9800005342331133E-002   351.55069118863867     
   7054.6489418080373      -0.12286585901574654        351.54303924663373     
   6890.5579961337362      -0.12411619851400246        351.54315223378063     
   6726.4669261262725       -9.5315002804909454E-002   351.55420780750023     
   6562.3782025922628       -2.8226249904037104E-002   351.57938362512425     
   7650.0068134864532        3.3306348341284320E-002   416.28377737168506     
   7490.6380942450287        1.1778136889461166E-002   416.27437198249959     
   7331.2612344736999       -1.7851934893315047E-002   416.26048257360918     
   7171.8781003492786       -4.9363277523298166E-002   416.24547876098165     
   7012.4905580489703       -7.6535300369869219E-002   416.23273016062200     
   6853.1004737501626       -9.3147412101188820E-002   416.22560638857090     
   6693.7097136295852       -9.2979023755106027E-002   416.22747706096334     
   6534.3201438646738       -6.9809543650535488E-002   416.24171179373104     
   6374.9336306321493       -1.7418382939467847E-002   416.27168020294505     
   7424.9979793906214        2.0637560423438117E-002   479.09447918210441     
   7270.3135517658975        5.8467373182793381E-003   479.08402973153136     
   7115.6253936184667       -1.3939323308477469E-002   479.06976365425157     
   6960.9347383898685       -3.4609149576681375E-002   479.05495129683146     
   6806.2428195221000       -5.2051268393825012E-002   479.04286300601126     
   6651.5508704570439       -6.2154206545983470E-002   479.03676912844787     
   6496.8601246362214       -6.0806492318079108E-002   479.03994001085658     
   6342.1718155019016       -4.3896651664908859E-002   479.05564599975355     
   6187.4871764954805       -7.3132131649344956E-003   479.08715744203300     
   7199.9895877183526        8.1206613026552077E-003   540.02754909986629     
   7049.9899321376288        5.8457987643123488E-004   540.01749735088310     
   6899.9906953808750       -8.8600556678102294E-003   540.00448896470232     
   6749.9924500485431       -1.8304577150956902E-002   539.99140379068660     
   6599.9957687411215       -2.5840316230642202E-002   539.98112167787178     
   6450.0012240596716       -2.9558602669112588E-002   539.97652247571637     
   6300.0093886046334       -2.7550768465061992E-002   539.98048603339123     
   6150.0208349764489       -1.7908145349565530E-002   539.99589220024814     
   6000.0361357763277        1.2779372866589256E-003   540.02562082543204     
   7499.6674839449788       -6.4409781963604473E-002  -2.7581251433058732E-002
   7312.1760722429008       0.16736528304045351       -7.0301744918909087E-002
   7124.7658798749580       0.41903994939957556       -9.1049123105090973E-002
   6937.4049184539736       0.58398625969903151       -9.0352761776098633E-002
   6750.0611995951749       0.55557626458994491       -6.8742036833707804E-002
   6562.7027349111258       0.22718200606368555       -2.6746323417364548E-002
   6375.2975360158835      -0.50782446894709210        3.5105002524731470E-002
   6187.8136145233420       -1.7560711142962191       0.11628256535804747     
   6000.2189820471403       -3.6241858840546683       0.21625698949813968     
   7312.1917567814662       -6.2258255718916189E-002   74.045894265812919     
   7129.3758978304622       0.14514278296383054        74.024681579101326     
   6946.6385674425910       0.37197577604410981        74.015951614845150     
   6763.9506651138727       0.52123904395102727        74.015439572672847     
   6581.2830903412532       0.49593090962844144        74.018880651440753     
   6398.6067426201571       0.19904969122535476        74.022010050816405     
   6215.8925214471228      -0.46640628947488949        74.020562969943228     
   6033.1113263182515       -1.5974387120452320        74.010274608077069     
   5850.2340567299789       -3.2910492552593951        73.986880164603249     
   7124.7276694707016       -5.6752815846266458E-002   146.24352302910228     
   6946.5938199130915       0.12686027982681480        146.24016944347545     
   6768.5321021267273       0.32888364764085054        146.24035955417756     
   6590.5166649041230       0.46314659602012398        146.23675665794221     
   6412.5216570379507       0.44347843373179785        146.22202405207230     
   6234.5212273219522       0.18370847323603812        146.18882503407721     
   6056.4895245477173      -0.40233398022928668        146.12982290076107     
   5878.4006975090451       -1.4008196137792766        146.03768094978784     
   5700.2288949983322       -2.8979191190526308        145.90506247770659     
   6937.2725176058557       -4.8704787849146669E-002   216.56511052124270     
   6763.8257484810511       0.11129077205396243        216.57596881187806     
   6590.4417666251020       0.28834837401927871        216.58215179819643     
   6417.0983315416943       0.40833303058980164        216.57391439816845     
   6243.7732027346028       0.39710975404523197        216.54151152986989     
   6070.4441397078026       0.18054355780486731        216.47519811130931     
   5897.0889019649312      -0.31550054622243806        216.36522906063453     
   5723.6852490097535       -1.1651575454422982        216.20185929577963     
   5550.2109403461709       -2.4425624264297312        215.97534373469065     
   6749.8235967815735       -3.8925492116050009E-002   285.01046222571387     
   6581.0675935242225        9.7207256408182730E-002   285.03188664762212     
   6412.3628436352355       0.24895476481606238        285.04130545102208     
   6243.6910787439920       0.35542246431805324        285.02722869763340     
   6075.0340304792171       0.35571578393842174        284.97816644916298     
   5906.3734304701129       0.18894015431851585        284.88262876744841     
   5737.6910103457767      -0.20579899432095772        284.72912571463939     
   5568.9685017348793      -0.88939623254418620        284.50616735191034     
   5400.1876362667181       -1.9227461298303297        284.20226374151622     
   6562.3782025922628       -2.8226249904037104E-002   351.57938362512425     
   6398.3152650323591        8.3382729496861430E-002   351.60772991426802     
   6234.2906158546839       0.20928762927860589        351.61779761649882     
   6070.2903202275702       0.30303901074148598        351.59701546041634     
   5906.3004433201386       0.31818743741155231        351.53281217455975     
   5742.3070503005274       0.20828346977464207        351.41261648755807     
   5578.2962063372461       -7.3122330343494468E-002   351.22385712782426     
   5414.2539765990177      -0.57247940056345215        350.95396282407262     
   5250.1664262539689       -1.3362371805583280        350.59036230460339     
   6374.9336306321493       -1.7418382939467847E-002   416.27168020294505     
   6215.5646729953896        6.8590188254347595E-002   416.30330557513975     
   6056.2203659803799       0.16793177496310818        416.31160539834349     
   5896.8914697100181       0.24980678680094570        416.28359059083158     
   5737.5687443058559       0.28341562914670249        416.20627207075040     
   5578.2429498906577       0.23795871106335653        416.06666075626953     
   5418.9048465867781        8.2636440261012467E-002   415.85176756575612     
   5259.5451945161640      -0.21335077641674616        415.54860341738328     
   5100.1547538013265      -0.68080253081620867        415.14417922918960     
   6187.4871764954805       -7.3132131649344956E-003   479.08715744203300     
   6032.8117274032866        5.1602629814624379E-002   479.11842059369559     
   5878.1473767105490       0.12347201342413427        479.12270590038827     
   5723.4899409077425       0.19434990593799739        479.08726999297238     
   5568.8352364850325       0.25029127443508514        478.99936950210031     
   5414.1790799328028       0.27735108705201128        478.84626105868529     
   5259.5172877411969       0.26158431094563639        478.61520129371348     
   5104.8456764009898       0.18904591541354421        478.29344683782517     
   4950.1600624023249        4.5790867438654459E-002   477.86825432185475     
   6000.0361357763277        1.2779372866589256E-003   540.02562082543204     
   5850.0523382459442        3.1193051138188821E-002   540.05288193346360     
   5700.0669307422741        7.4493152745617408E-002   540.05107622645198     
   5550.0811475379815       0.13529248361305690        540.00836957102320     
   5400.0962229057404       0.21770528654860755        539.91292783332415     
   5250.1133911182342       0.32584580377783823        539.75291687976255     
   5100.1338864481322       0.46382827722118236        539.51650257691597     
   4950.1589431678922       0.63576694897028574        539.19185079090892     
   4800.1897955506420       0.84577606197717614        538.76712738832464     
   14398.912228719939      -0.98863232858911942        538.66601626618638     
   14249.149225885854      -0.70384305700645200        538.97332812655486     
   14099.348433311259      -0.48625751522467908        539.22622500268551     
   13949.512647952670      -0.32655251526284701        539.43019340261344     
   13799.644666766520      -0.21540486861704267        539.59071983434001     
   13649.747286709209      -0.14349138744364609        539.71329080594126     
   13499.823304737274      -0.10148888321145932        539.80339282544855     
   13349.875517807119       -8.0074168016835756E-002   539.86651240096671     
   13199.906722875279       -6.9924053417707910E-002   539.90813604048674     
   13949.048739064438       -1.1225681330770385        597.63357159558302     
   13803.938626375055      -0.81448072976763797        597.94971547221780     
   13658.795106719648      -0.57723249421087530        598.21272247251454     
   13513.621126032987      -0.40100364417230594        598.42765884736275     
   13368.419630249720      -0.27597439735927765        598.59959084770196     
   13223.193565304542      -0.19232497140365012        598.73358472425309     
   13077.945877132224      -0.14023558391090774        598.83470672805663     
   12932.679511667386      -0.10988645260385965        598.90802310985930     
   12787.397414844778       -9.1457795086171245E-002   598.95860012058415     
   13499.206255629912       -1.2481561309268727        654.74864577247524     
   13358.747542851310      -0.92123108672331000        655.07145064593192     
   13218.259948290859      -0.66712963284317084        655.34194347750292     
   13077.746471717135      -0.47585254096793506        655.56493213123213     
   12937.210112898541      -0.33740058273360773        655.74522447078277     
   12796.653871603387      -0.24177453064567089        655.88762836005856     
   12656.080747600237      -0.17897515604909131        655.99695166290314     
   12515.493740657510      -0.13900323101461254        656.07800224316213     
   12374.895850543533      -0.11185952765572438        656.13558796467157     
   13049.383401001483       -1.3658095465489168        710.01048283240038     
   12913.573933292539       -1.0247067348118435        710.33804731332725     
   12777.740436390126      -0.75670542162242782        710.61362691267107     
   12641.885868752073      -0.55194408118404681        710.84193297751335     
   12506.013188835945      -0.40056118812117347        711.02767685473293     
   12370.125355099364      -0.29269521701826307        711.17556989132981     
   12234.225326000054      -0.21848464213235275        711.29032343427059     
   12098.316059995634      -0.16806793815521814        711.37664883047307     
   11962.400515543834      -0.13158357923020958        711.43925742706881     
   12599.578797764432       -1.4759416043107194        763.41832681094911     
   12468.415755676786       -1.1255202804768487        763.74901914003044     
   12337.234049382645      -0.84671635091854114        764.02751167276722     
   12206.036500884618      -0.63012314110574152        764.25858110956290     
   12074.825932185049      -0.46633397639971008        764.44700415063949     
   11943.605165286181      -0.34594218232678031        764.59755749612953     
   11812.377022190478      -0.25954108422547506        764.71501784638406     
   11681.144324900195      -0.19772400780175303        764.80416190155529     
   11549.909895417846      -0.15108427827590276        764.86976636200814     
   12149.791068503904       -1.5789655287480855        814.97142174367093     
   12023.270967981907       -1.2242843302615256        815.30387979159661     
   11896.738265633621      -0.93791891135424521        815.58333665271482     
   11770.195551861812      -0.71123459646560150        815.81479625084580     
   11643.645417068918      -0.53559671049106328        816.00326250958904     
   11517.090451657463      -0.40237057855210878        816.15373935253342     
   11390.533246030085      -0.30292152509400694        816.27123070349182     
   11263.976390589363      -0.22861487502223099        816.36074048605008     
   11137.422475737771      -0.17081595312947684        816.42727262382675     
   11700.018835805053       -1.6752945443172393        864.66901166611865     
   11578.137528185940       -1.3216114909623684        865.00214293363331     
   11456.250563508245       -1.0310695932193994        865.28084074736751     
   11334.360205430377      -0.79612332330589197        865.51049812464043     
   11212.468717610478      -0.60922715402830363        865.69650808264441     
   11090.578363706873      -0.46283555761328898        865.84426363865316     
   10968.691407377702      -0.34940300692232995        865.95915780983842     
   10846.810112281293      -0.26138397418299064        866.04658361349357     
   10724.936742075888      -0.19123293194797952        866.11193406683662     
   11250.260722253113       -1.7653418754066479        912.51034061382961     
   11133.013394266814       -1.4181143690484532        912.84332223172373     
   11015.768421371749       -1.1269248868015893        913.11976285161393     
   10898.527645337334      -0.88563419744286875        913.34560645436795     
   10781.292907932946      -0.68810306943896649        913.52679702099147     
   10664.066050928046      -0.52819227148393111        913.66927853246659     
   10546.848916092003      -0.39976257207217714        913.77899496968291     
   10429.643345194318      -0.29667473978406633        913.86189031365529     
   10312.451180004309      -0.21278954338049516        913.92390854530288     
   10800.515350433268       -1.8495207464925443        958.49465262235651     
   10687.896524202642       -1.5144055710243265        958.82693135153806     
   10575.289317589346       -1.2262412828831657        959.09984186026213     
   10462.695055329526      -0.98061209489651446        959.32004096335663     
   10350.115062159284      -0.77310222016876651        959.49418547568280     
   10237.550662814643      -0.59929587196666034        959.62893221203501     
   10125.003182031720      -0.45477726303579402        959.73093798725733     
   10012.473944546557      -0.33513060659470284        959.80685961611641     
   9899.9642750953135      -0.23594011561635853        959.86335391354794     
   13199.906722875279       -6.9924053417707910E-002   539.90813604048674     
   13049.927466639469       -6.0938532884392771E-002   539.93872293593108     
   12899.946254341781       -4.9822452097942005E-002   539.96494468503374     
   12749.962820755145       -3.7459901347574487E-002   539.98660640456933     
   12599.976900652344       -2.4734971239922743E-002   540.00351321127800     
   12449.988228806353       -1.2531751931419421E-002   540.01547022189061     
   12299.996539990134       -1.7343336680823995E-003   540.02228255320847     
   12150.001568976470        6.7731929834735638E-003   540.02375532197300     
   12000.003050538238        1.2106737583962968E-002   540.01969364494312     
   12787.397414844778       -9.1457795086171245E-002   598.95860012058415     
   12642.107295613700       -7.5288880211701326E-002   598.99590242409590     
   12496.814768916389       -5.8699000346678076E-002   599.02621390102740     
   12351.519639676715       -4.2338409241892805E-002   599.04982962748068     
   12206.221712818666       -2.6857360255235108E-002   599.06704467940074     
   12060.920793266199       -1.2906106947411899E-002   599.07815413287051     
   11915.616685943240       -1.1349028327458655E-003   599.08345306389083     
   11770.309195773798        7.8059987604319758E-003   599.08323654856270     
   11624.998127681723        1.3266344044495781E-002   599.07779966281464     
   12374.895850543533      -0.11185952765572438        656.13558796467157     
   12234.292315723349       -8.8442057696738630E-002   656.17829104084012     
   12093.686305849775       -6.6544873423026729E-002   656.21193969196872     
   11953.077717473017       -4.6512807390627131E-002   656.23721079208792     
   11812.466447143621       -2.8690691348401742E-002   656.25478121540016     
   11671.852391411954       -1.3423357247575041E-002   656.26532783605580     
   11531.235446828261       -1.0556376391832600E-003   656.26952752810257     
   11390.615509943014        8.0676357006268518E-003   656.26805716573870     
   11249.992477306534        1.3601630545963417E-002   656.26159362306475     
   11962.400515543834      -0.13158357923020958        711.43925742706881     
   11826.481673585375      -0.10065408036780354        711.48598827566309     
   11690.560549190865       -7.3454856968510285E-002   711.52217320421153     
   11554.637152012370       -4.9953735428516666E-002   711.54876272371541     
   11418.711491702092       -3.0118541783394903E-002   711.56670734525812     
   11282.783577912172       -1.3917102219238586E-002   711.57695757991235     
   11146.853420294721       -1.3172430330996576E-003   711.58046393867824     
   11010.921028501785        7.7132092874308000E-003   711.57817693250240     
   10874.986412185688        1.3206429155616206E-002   711.57104707261624     
   11549.909895417846      -0.15108427827590276        764.86976636200814     
   11418.674515816867      -0.11218096301263358        764.91909361799765     
   11287.437182988926       -7.9523735704242426E-002   764.95696558430996     
   11156.198041163127       -5.2631832667429990E-002   764.98449824770171     
   11024.957234568823       -3.1024489326227922E-002   765.00280759498867     
   10893.714907435369       -1.4220941289750044E-002   765.01300961292691     
   10762.471203991874       -1.7404247423655761E-003   765.01622028829570     
   10631.226268467706        6.8978248473285930E-003   765.01355560790682     
   10499.980245092122        1.2174571602372453E-002   765.00613155852875     
   11137.422475737771      -0.17081595312947684        816.42727262382675     
   11010.869989034842      -0.12327872049536381        816.47770655730835     
   10884.315891292888       -8.4846295355418988E-002   816.51636797870015     
   10757.760482793616       -5.4517738565209584E-002   816.54443018933546     
   10631.204063818710       -3.1292111284528801E-002   816.56306649049748     
   10504.646934650043       -1.4168473954669025E-002   816.57345018360945     
   10378.089395569339       -2.1458874098243541E-003   816.57675456992934     
   10251.531746858358        5.7765874698816333E-003   816.57415295088788     
   10124.974288798785        1.0599889696550235E-002   816.56681862773803     
   10724.936742075888      -0.19123293194797952        866.11193406683662     
   10603.067239856344      -0.13420336769740970        866.16192658312275     
   10481.196358151908       -8.9517320822778856E-002   866.20043153390168     
   10359.324574772092       -5.5582092968052166E-002   866.22857137393123     
   10237.452367526515       -3.0804985383838357E-002   866.24746855782598     
   10115.580214224825       -1.3593299349395238E-002   866.25824554045914     
   9993.7085926765667       -2.3543361944575736E-003   866.26202477642994     
   9871.8379806913326        4.5046025238661969E-003   866.25992872045515     
   9749.9688560787381        8.5762156127202616E-003   866.25307982731613     
   10312.451180004309      -0.21278954338049516        913.92390854530288     
   10195.265414898347      -0.14521091959704790        913.97185318485299     
   10078.078267614983       -9.3631597657804377E-002   914.00920739634410     
   9960.8904149669252       -5.5795535129163909E-002   914.03693462675494     
   9843.7025337670402       -2.9446689180076646E-002   914.05599832298503     
   9726.5153008280668       -1.2329017362390005E-002   914.06736193189352     
   9609.3293929628744       -2.1864767254555773E-003   914.07198890047925     
   9492.1454869842219        3.2369752275371866E-003   914.07084267561891     
   9374.9642597049078        6.1973811266398116E-003   914.06488670423232     
   9899.9642750953135      -0.23594011561635853        959.86335391354794     
   9787.4636607779303      -0.15655739103885935        959.90758585194988     
   9674.9613037311938       -9.7283911124122824E-002   959.94274671251344     
   9562.4581012464569       -5.5128704553681018E-002   959.96953277315902     
   9449.9549506150815       -2.7100800261450786E-002   959.98864031185690     
   9337.4527491284116       -1.0209227022187406E-002   960.00076560647233     
   9224.9523940778363       -1.4630136852247233E-003   960.00660493501414     
   9112.4547827546485        2.1288109246597742E-003   960.00685457535667     
   8999.9608124502320        3.5572179608607257E-003   960.00221080542838     
   12000.003050538238        1.2106737583962968E-002   540.01969364494312     
   11850.002529969221        1.4151523615510087E-002   540.01287582322152     
   11700.001850793262        1.3786874570996588E-002   540.00638594039890     
   11550.001195127888        1.1619848924510734E-002   540.00048778665109     
   11400.000745090812        8.2575058736438223E-003   539.99544515220930     
   11250.000682799669        4.3069040816590132E-003   539.99152182733201     
   11100.001190372262        3.7510284437303199E-004   539.98898160229226     
   10950.002449926218       -2.9308390535334183E-003   539.98808826727543     
   10800.004643579150       -5.0038628037327726E-003   539.98910561254888     
   11624.998127681723        1.3266344044495781E-002   599.07779966281464     
   11479.685143550656        1.5343410204877728E-002   599.07039267695939     
   11334.372156397571        1.4971585530474840E-002   599.06411305245479     
   11189.059347846347        1.2756282991631451E-002   599.05902665213364     
   11043.746899520864        9.3029154518262658E-003   599.05519933884011     
   10898.434993045013        5.2168959964546957E-003   599.05269697538745     
   10753.123810042651        1.1036373762181029E-003   599.05158542467950     
   10607.813532137714       -2.4314472311743884E-003   599.05193054947983     
   10462.504340954078       -4.7829448985794443E-003   599.05379821263557     
   11249.992477306534        1.3601630545963417E-002   656.26159362306475     
   11109.367795423746        1.5807733924248168E-002   656.25375709536854     
   10968.743097040771        1.5568136671845423E-002   656.24765923886923     
   10828.118558069493        1.3469211874053144E-002   656.24321411889343     
   10687.494354421924        1.0097332975419704E-002   656.24033580077435     
   10546.870662010155        6.0388734455045778E-003   656.23893835000570     
   10406.247656746102        1.8802063709699723E-003   656.23893583192239     
   10265.625514541804       -1.7922947440638382E-003   656.24024231182261     
   10125.004411309264       -4.3922565751017828E-003   656.24277185523999     
   10874.986412185688        1.3206429155616206E-002   711.57104707261624     
   10739.050558670451        1.5566419359856809E-002   711.56295620680078     
   10603.114558833491        1.5542360665222077E-002   711.55702477411330     
   10467.178577656850        1.3684193361768848E-002   711.55306117245550     
   10331.242780122440        1.0541857003318000E-002   711.55087379972599     
   10195.307331212318        6.6652918485488044E-003   711.55027105372005     
   10059.372395908436        2.6044377841571986E-003   711.55106133235245     
   9923.4381391927964       -1.0907652999776474E-003   711.55305303346984     
   9787.5047260474294       -3.8703771874679660E-003   711.55605455491968     
   10499.980245092122        1.2174571602372453E-002   765.00613155852875     
   10368.733506372611        1.4641390839642554E-002   764.99797713957821     
   10237.486427886721        1.4860091369882866E-002   764.99220993288543     
   10106.239158468141        1.3326785406661656E-002   764.98857879875800     
   9974.9918469507302        1.0537585928432236E-002   764.98683259742802     
   9843.7446421685636        6.9886064407000958E-003   764.98672018922446     
   9712.4976929552940        3.1759591370246198E-003   764.98799043443091     
   9581.2511481449837       -4.0424247936243773E-004   764.99039219337408     
   9450.0051565714493       -3.2558856228206423E-003   764.99367432631755     
   10124.974288798785        1.0599889696550235E-002   816.56681862773803     
   9998.4167116122826        1.3054573400495428E-002   816.55880702207867     
   9871.8585903110998        1.3487161279044813E-002   816.55321498975843     
   9745.3000523629398        1.2322545775532490E-002   816.54977798337939     
   9618.7412252352842        9.9856184706368367E-003   816.54823145561807     
   9492.1822363959109        6.9012719359307084E-003   816.54831085913497     
   9365.6232133125013        3.4943983937409939E-003   816.54975164661016     
   9239.0642834526043        1.8988977808476193E-004   816.55228927064820     
   9112.5055742839868       -2.5873613717521948E-003   816.55565918396235     
   9749.9688560787381        8.5762156127202616E-003   866.25307982731613     
   9628.1002474713750        1.0827891466760775E-002   866.24543298274386     
   9506.2309322176370        1.1389404403416847E-002   866.24004021934570     
   9384.3610112009319        1.0597032437999587E-002   866.23666971214334     
   9262.4905853044529        8.7870529941938003E-003   866.23508963605127     
   9140.6197554116243        6.2957440577520174E-003   866.23506816604981     
   9018.7486224056556        3.4593830678204540E-003   866.23637347713691     
   8896.8772871700166        6.1424806608556537E-004   866.23877374429969     
   8775.0058505879442       -1.9033832340937806E-003   866.24203714252258     
   9374.9642597049078        6.1973811266398116E-003   914.06488670423232     
   9257.7841870317443        7.9832694341348542E-003   914.05784214981134     
   9140.6033397170540        8.5326536673164810E-003   914.05268589625541     
   9023.4217868417454        8.0758033986967348E-003   914.04926497071267     
   8906.2395974866431        6.8429881289375771E-003   914.04742640041752     
   8789.0568407326209        5.0644774428292294E-003   914.04701721258004     
   8671.8735856605999        2.9705410706810653E-003   914.04788443455664     
   8554.6899013514303        7.9144845994960633E-004   914.04987509342482     
   8437.5058568860477       -1.2425305653778196E-003   914.05283621651472     
   8999.9608124502320        3.5572179608607257E-003   960.00221080542838     
   8887.4686033753733        4.5426320575643331E-003   959.99602165173974     
   8774.9756989201887        4.8827422515387298E-003   959.99115229505333     
   8662.4821311450269        4.6844163807691075E-003   959.98757474483511     
   8549.9879321102235        4.0545222159380501E-003   959.98526101047855     
   8437.4931338760853        3.0999274640635122E-003   959.98418310144143     
   8324.9977685029553        1.9274998776381835E-003   959.98431302716472     
   8212.5018680511457        6.4410722916363738E-004   959.98562279705686     
   8100.0054645810260       -6.4338265792684979E-004   959.98808442054872     
   10800.004643579150       -5.0038628037327726E-003   539.98910561254888     
   10650.007263291292       -5.5874374247650849E-003   539.99184602599917     
   10500.009611817703       -5.0557156132526870E-003   539.99564539702453     
   10350.011587468260       -3.7476645652532170E-003   540.00005276796651     
   10200.013088552720       -2.0022515627715620E-003   540.00461718130384     
   10050.014013380927       -1.5844390964048216E-004   540.00888767935191     
   9900.0142602628148        1.4447913818003144E-003   540.01241330460311     
   9750.0137275082216        2.4684872187208384E-003   540.01474309942660     
   9600.0123134270125        2.5736765805959294E-003   540.01542610624074     
   10462.504340954078       -4.7829448985794443E-003   599.05379821263557     
   10317.195430129974       -5.7720276668078441E-003   599.05679956328140     
   10171.885821625470       -5.7921281318158435E-003   599.06030878375634     
   10026.575439547207       -5.0962241230081418E-003   599.06403628685291     
   9881.2642080018068       -3.9372935425490141E-003   599.06769248522210     
   9735.9520510959210       -2.5683142621346633E-003   599.07098779167575     
   9590.6388929362220       -1.2422640284057707E-003   599.07363261890328     
   9445.3246576293532       -2.1212070350884460E-004   599.07533737967140     
   9300.0092692818598        2.6913755391433369E-004   599.07581248661040     
   10125.004411309264       -4.3922565751017828E-003   656.24277185523999     
   9984.3834214350154       -5.7796279179456178E-003   656.24597441223807     
   9843.7614665180936       -6.3236493697331753E-003   656.24925264592844     
   9703.1384932885503       -6.2018873823035392E-003   656.25244969065670     
   9562.5144484765351       -5.5919080268722610E-003   656.25540868100279     
   9421.8892788125704       -4.6712762900824600E-003   656.25797275156765     
   9281.2629310266275       -3.6175590280436154E-003   656.25998503672247     
   9140.6353518490323       -2.6083217885570775E-003   656.26128867111686     
   9000.0064880100344       -1.8211303399766621E-003   656.26172678920659     
   9787.5047260474294       -3.8703771874679660E-003   711.55605455491968     
   9651.5712479472240       -5.6070154346343770E-003   711.55939516509193     
   9515.6366638327945       -6.6150784728051804E-003   711.56249667222937     
   9379.7009398849750       -7.0072967241685546E-003   711.56530628411042     
   9243.7640422841687       -6.8964022948421189E-003   711.56777120842548     
   9107.8259372110078       -6.3951263773560640E-003   711.56983865304915     
   8971.8865908461194       -5.6162001937991590E-003   711.57145582564931     
   8835.9459693701137       -4.6723550472052011E-003   711.57256993399278     
   8700.0040389636069       -3.6763222296940512E-003   711.57312818584569     
   9450.0051565714493       -3.2558856228206423E-003   764.99367432631755     
   9318.7589204070810       -5.2509685624499980E-003   764.99708641390862     
   9187.5115309072116       -6.6312130957157933E-003   765.00006055169695     
   9056.2629705294130       -7.4550940130393428E-003   765.00261937205323     
   8925.0132217315022       -7.7810852180846268E-003   765.00478550743162     
   8793.7622669714037       -7.6676603125633847E-003   765.00658159032866     
   8662.5100887067856       -7.1732937281012710E-003   765.00803025318965     
   8531.2566693954432       -6.3564595034222293E-003   765.00915412844211     
   8400.0019914951645       -5.2756316390514257E-003   765.00997584855429     
   9112.5055742839868       -2.5873613717521948E-003   816.55565918396235     
   8985.9464495553548       -4.7082646756280155E-003   816.55907275090090     
   8859.3861850782741       -6.3368535320478259E-003   816.56196397314102     
   8732.8247764145744       -7.4879217322632030E-003   816.56440225928156     
   8606.2622191258997       -8.1762638228610740E-003   816.56645701788455     
   8479.6985087739849       -8.4166740680302610E-003   816.56819765757757     
   8353.1336409207015       -8.2239462662982987E-003   816.56969358694346     
   8226.5676111277608       -7.6128746181893803E-003   816.57101421462551     
   8100.0004149568367       -6.5982535388684482E-003   816.57222894920619     
   8775.0058505879442       -1.9033832340937806E-003   866.24203714252258     
   8653.1338461326704       -3.9756817113811849E-003   866.24537876825286     
   8531.2607436836188       -5.6967973491737212E-003   866.24822662555403     
   8409.3865487333296       -7.0484217721968889E-003   866.25066825062447     
   8287.5112667742615       -8.0122466392822389E-003   866.25279117967466     
   8165.6349032990256       -8.5699633496005845E-003   866.25468294887571     
   8043.7574638000187       -8.7032638098207826E-003   866.25643109445821     
   7921.8789537698567       -8.3938395373479580E-003   866.25812315269650     
   7799.9993787011235       -7.6233816203057359E-003   866.25984665974204     
   8437.5058568860477       -1.2425305653778196E-003   914.05283621651472     
   8320.3211208796001       -3.0499976724058797E-003   914.05602905802868     
   8203.1353240604149       -4.6758440034864179E-003   914.05886819773320     
   8085.9484786784487       -6.0792363719883724E-003   914.06143065084132     
   7968.7605969837587       -7.2193412047454331E-003   914.06379343262643     
   7851.5716912265298       -8.0553246384624799E-003   914.06603355832885     
   7734.3817736568453       -8.5463529476328404E-003   914.06822804333592     
   7617.1908565246849       -8.6515929338020214E-003   914.07045390276824     
   7499.9989520803256       -8.3302103876121691E-003   914.07278815210532     
   8100.0054645810260       -6.4338265792684979E-004   959.98808442054872     
   7987.5082845369461       -1.9279899206594564E-003   959.99104821252399     
   7875.0100435460272       -3.2387921710324008E-003   959.99390837862234     
   7762.5107574427357       -4.5230077994347084E-003   959.99670276474819     
   7650.0104420615307       -5.7278553681499034E-003   959.99946921666731     
   7537.5091132368343       -6.8005534153599001E-003   960.00224558015282     
   7425.0067868031965       -7.6883201822965930E-003   960.00506970106619     
   7312.5034785949729       -8.3383744317870878E-003   960.00797942513236     
   7199.9992044466753       -8.6979344237079204E-003   960.01101259818336     
   9600.0123134270125        2.5736765805959294E-003   540.01542610624074     
   9450.0101820162072        1.6058733076533827E-003   540.01402762065402     
   9300.0076354385601       -1.2885616524727084E-004   540.01089032880373     
   9150.0047792518162       -2.2786528293181618E-003   540.00672935869659     
   9000.0017190138296       -4.4916568549524527E-003   540.00225983834105     
   8849.9985602826146       -6.4160084275499685E-003   539.99819689585058     
   8699.9954086159651       -7.6998482854833128E-003   539.99525565930946     
   8549.9923695718571       -7.9913163804121723E-003   539.99415125676660     
   8399.9895487080721       -6.9385534998218645E-003   539.99559881628466     
   9300.0092692818598        2.6913755391433369E-004   599.07581248661040     
   9154.6934674272325        2.4440427523586550E-004   599.07476386199460     
   9009.3780591726008       -1.8181653103965800E-005   599.07244935828749     
   8864.0630699847079       -4.3373093694754061E-004   599.06940728390191     
   8718.7485253303603       -9.1735430805783835E-004   599.06617594711474     
   8573.4344506767829       -1.3841610320923792E-003   599.06329365639021     
   8428.1208714907498       -1.7492617657808296E-003   599.06129871995108     
   8282.8078132390601       -1.9277673259239236E-003   599.06072944628966     
   8137.4953013888162       -1.8347872323829506E-003   599.06212414356730     
   9000.0064880100344       -1.8211303399766621E-003   656.26172678920659     
   8859.3774753671696       -1.0691408897400834E-003   656.26110300777441     
   8718.7494598956964       -1.3178405970393214E-004   656.25957991450161     
   8578.1224035014548        8.6395972675745725E-004   656.25753910023991     
   8437.4962680905774        1.7911109589476837E-003   656.25536215570071     
   8296.8710155691097        2.5226896837011736E-003   656.25343067191898     
   8156.2466078428752        2.9317153921510908E-003   656.25212623954360     
   8015.6230068181103        2.8912086781929247E-003   656.25183044949085     
   7875.0001744007950        2.2741897682863055E-003   656.25292489263734     
   8700.0040389636069       -3.6763222296940512E-003   711.57312818584569     
   8564.0621804541861       -2.3423768802786071E-003   711.57299355825523     
   8428.1217404659637       -4.9880574715643888E-004   711.57222754008751     
   8292.1826338740866        1.5706418143963674E-003   711.57107510670198     
   8156.2447755538533        3.5822166464640759E-003   711.56978123374381     
   8020.3080803803941        5.2521692828122468E-003   711.56859089662555     
   7884.3724632289786        6.2967505964479642E-003   711.56774907084912     
   7748.4378389748163        6.4322111838919227E-003   711.56750073191677     
   7612.5041224931674        5.3748020663988427E-003   711.56809085523389     
   8400.0019914951645       -5.2756316390514257E-003   765.00997584855429     
   8268.7475573064876       -3.5829183016176103E-003   765.01038401378798     
   8137.4948037414297       -1.1483892526484851E-003   765.01033777773443     
   8006.2436151741877        1.6425361218352919E-003   765.00996560264412     
   7874.9938759794522        4.4044401297469449E-003   765.00939595086163     
   7743.7454705317396        6.7519045032895519E-003   765.00875728477547     
   7612.4982832053938        8.2995103553002991E-003   765.00817806659450     
   7481.2521983750594        8.6618398527207319E-003   765.00778675878996     
   7350.0071004152605        7.4534747836878523E-003   765.00771182359244     
   8100.0004149568367       -6.5982535388684482E-003   816.57222894920619     
   7973.4335805423088       -4.7983795298023324E-003   816.57322287466184     
   7846.8685525799237       -2.1096778850733244E-003   816.57385617018497     
   7720.3052014735722        1.0358644021835062E-003   816.57416088711659     
   7593.7433976269758        4.2062598449774669E-003   816.57416907675133     
   7467.1830114440736        6.9695214592684351E-003   816.57391279047613     
   7340.6239133286799        8.8936619631567737E-003   816.57342407962722     
   7214.0659736847310        9.5466944394502207E-003   816.57273499553264     
   7087.5090629160404        8.4966317876933317E-003   816.57187758957127     
   7799.9993787011235       -7.6233816203057359E-003   866.25984665974204     
   7678.1202247799274       -5.9963750350107148E-003   866.26145864117257     
   7556.2428898397720       -3.4118132321054873E-003   866.26272826020715     
   7434.3672468439690       -2.9315187020984013E-004   866.26361125934022     
   7312.4931687557882        2.9361534279814805E-003   866.26406338108313     
   7190.6205285384494        5.8526466250441445E-003   866.26404036798783     
   7068.7491991553643        8.0328725107392529E-003   866.26349796264219     
   6946.8790535697772        9.0533750421855075E-003   866.26239190754814     
   6825.0099647451225        8.4906991714888136E-003   866.26067794533731     
   7499.9989520803256       -8.3302103876121691E-003   914.07278815210532     
   7382.8074646374362       -7.1845197321636078E-003   914.07503981365005     
   7265.6177183788332       -5.0839384402934229E-003   914.07689959045058     
   7148.4296053572016       -2.3882908681116533E-003   914.07826701839508     
   7031.2430176251346        5.4259825401459238E-004   914.07904163344142     
   6914.0578472357138        3.3489060047031671E-003   914.07912297142991     
   6796.8739862417833        5.6708083957346389E-003   914.07841056837833     
   6679.6913266960428        7.1484811605841969E-003   914.07680396021840     
   6562.5097606514828        7.4221008512722619E-003   914.07420268285375     
   7199.9992044466753       -8.6979344237079204E-003   960.01101259818336     
   7087.4952747333155       -8.3704273511102656E-003   960.01391489239643     
   6974.9929410552477       -7.1551958144482342E-003   960.01631570368761     
   6862.4921310848486       -5.2933318484065239E-003   960.01807846356132     
   6749.9927724946519       -3.0259271079557948E-003   960.01906660350824     
   6637.4947929570499       -5.9407353501228499E-004   960.01914355507051     
   6524.9981201444625        1.7611368589314225E-003   960.01817274965674     
   6412.5026817294502        3.7986126740179316E-003   960.01601761883239     
   6300.0084053843348        5.2772615804315137E-003   960.01254159407142     
   8399.9895487080721       -6.9385534998218645E-003   539.99559881628466     
   8249.9874654793985       -4.2307722646910406E-003   540.00007212176445     
   8099.9864214394802       -2.8352261779218679E-004   540.00677825932235     
   7949.9861952946121        4.1655497921055940E-003   540.01453231013852     
   7799.9865657512119        8.3787997755280230E-003   540.02214935515133     
   7649.9873115155870        1.1618581571838149E-002   540.02844447553014     
   7499.9882112940068        1.3147249437224673E-002   540.03223275240612     
   7349.9890437928279        1.2227157895722485E-002   540.03232926680005     
   7199.9895877183526        8.1206613026552077E-003   540.02754909986629     
   8137.4953013888162       -1.8347872323829506E-003   599.06212414356730     
   7992.1828599220589       -1.5578366219415329E-003   599.06580859323765     
   7846.8699838639450       -1.2809534505322517E-003   599.07112512508593     
   7701.5566552458940       -1.0640329960551753E-003   599.07713687013018     
   7556.2428560994385       -9.6697021126601612E-004   599.08290695969015     
   7410.9285684559754       -1.0496603372303071E-003   599.08749852478434     
   7265.6137743470426       -1.3719983357987076E-003   599.08997469667247     
   7120.2984558041417       -1.9938791660933930E-003   599.08939860645421     
   6974.9825948584485       -2.9751988304269616E-003   599.08483338522626     
   7875.0001744007950        2.2741897682863055E-003   656.25292489263734     
   7734.3768776875222        6.8521597677317914E-004   656.25566028446838     
   7593.7520024309160       -1.8756351014417305E-003   656.25956288614498     
   7453.1256885204548       -4.9420651448599529E-003   656.26392760602494     
   7312.4980758458605       -8.0477750411773741E-003   656.26804935269217     
   7171.8693042968389       -1.0726465799962170E-002   656.27122303492138     
   7031.2395137628282       -1.2511839388935186E-002   656.27274356116220     
   6890.6088441335623       -1.2937596640767879E-002   656.27190584007803     
   6749.9774352987488       -1.1537438496361574E-002   656.26800478022631     
   7612.5041224931674        5.3748020663988427E-003   711.56809085523389     
   7476.5695417968673        2.5052924020201317E-003   711.56975356217197     
   7340.6325498357301       -2.0457586360862479E-003   711.57223326592077     
   7204.6933988906985       -7.4374145228830457E-003   711.57504037991009     
   7068.7523412428209       -1.2828738525058725E-002   711.57768531756733     
   6932.8096291727488       -1.7378795092554356E-002   711.57967849232853     
   6796.8655149612669       -2.0246648222382646E-002   711.58053031747079     
   6660.9202508892795       -2.0591361612787296E-002   711.57975120654032     
   6524.9740892377858       -1.7571998593666649E-002   711.57685157291212     
   7350.0071004152605        7.4534747836878523E-003   765.00771182359244     
   7218.7608752706992        3.9092979895940516E-003   765.00821479303590     
   7087.5116987737538       -1.7695152137093828E-003   765.00927798816213     
   6956.2598901292913       -8.5189486849230889E-003   765.01061105455915     
   6825.0057685423781       -1.5274985483756609E-002   765.01192363771190     
   6693.7496532184341       -2.0973607586256549E-002   765.01292538343444     
   6562.4918633622656       -2.4550798952986952E-002   765.01332593720724     
   6431.2327181791634       -2.4942541994732892E-002   765.01283494467168     
   6299.9725368742338       -2.1084819583848002E-002   765.01116205144660     
   7087.5090629160404        8.4966317876933317E-003   816.57187758957127     
   6960.9509011300370        4.9041395454878511E-003   816.57117034379178     
   6834.3895219398755       -1.0250974710288574E-003   816.57083877628963     
   6707.8252660080598       -8.1555375313655531E-003   816.57077549209555     
   6581.2584739967942       -1.5351640000517364E-002   816.57087309657743     
   6454.6894865686636       -2.1477862889241806E-002   816.57102419477303     
   6328.1186443860615       -2.5398664918611757E-002   816.57112139192850     
   6201.5462881112499       -2.5978505207149283E-002   816.57105729326656     
   6074.9727584067914       -2.2081841824956427E-002   816.57072450396777     
   6825.0099647451225        8.4906991714888136E-003   866.26067794533731     
   6703.1396423958668        5.4967235591902863E-003   866.25874658124690     
   6581.2660920299022        2.0930496839355328E-004   866.25705735381109     
   6459.3896302997673       -6.3160482036437315E-003   866.25566955516047     
   6337.5105738582542       -1.3023826444623410E-002   866.25464247741536     
   6215.6292393582899       -1.8858520172670978E-002   866.25403541274534     
   6093.7459434524490       -2.2764620666748669E-002   866.25390765325210     
   5971.8610027934883       -2.3686618988904229E-002   866.25431849118934     
   5849.9747340343520       -2.0569005065908641E-002   866.25532721865079     
   6562.5097606514828        7.4221008512722619E-003   914.07420268285375     
   6445.3271220889601        5.6939559458442091E-003   914.07106987207919     
   6328.1414817386330        1.9554990835786157E-003   914.06807544436481     
   6210.9530867765834       -2.9693494159346301E-003   914.06542910605754     
   6093.7621843789193       -8.2566691858119157E-003   914.06334056365927     
   5976.5690217218507       -1.3082539568131324E-002   914.06201952375284     
   5859.3738459815286       -1.6623040032754943E-002   914.06167569276340     
   5742.1769043339655       -1.8054250535215033E-002   914.06251877720138     
   5624.9784439555042       -1.6552249981714340E-002   914.06475848363868     
   6300.0084053843348        5.2772615804315137E-003   960.01254159407142     
   6187.5133632302404        5.5027430889822426E-003   960.00826658307608     
   6075.0157637615994        4.2352944178674079E-003   960.00403477137797     
   5962.5157392110195        1.9156908272179862E-003   960.00019000722318     
   5850.0134218109943       -1.0152925765396503E-003   959.99707613874648     
   5737.5089437942097       -4.1168802567881357E-003   959.99503701427977     
   5625.0024373931637       -6.9482972776313545E-003   959.99441648202799     
   5512.4940348404980       -9.0687680960854777E-003   959.99555839018410     
   5399.9838683687112       -1.0037517744422075E-002   959.99880658698441     
   7199.9895877183526        8.1206613026552077E-003   540.02754909986629     
   7049.9899321376288        5.8457987643123488E-004   540.01749735088310     
   6899.9906953808750       -8.8600556678102294E-003   540.00448896470232     
   6749.9924500485431       -1.8304577150956902E-002   539.99140379068660     
   6599.9957687411215       -2.5840316230642202E-002   539.98112167787178     
   6450.0012240596716       -2.9558602669112588E-002   539.97652247571637     
   6300.0093886046334       -2.7550768465061992E-002   539.98048603339123     
   6150.0208349764489       -1.7908145349565530E-002   539.99589220024814     
   6000.0361357763277        1.2779372866589256E-003   540.02562082543204     
   6974.9825948584485       -2.9751988304269616E-003   599.08483338522626     
   6829.6684485663791       -3.7006416428084776E-003   599.07609012034447     
   6684.3582643606869       -3.5869708062818972E-003   599.06517215624569     
   6539.0520098380421       -2.7421973504715424E-003   599.05443100999389     
   6393.7496525951401       -1.2743322208734753E-003   599.04621819845738     
   6248.4511602287766        7.0861386120668612E-004   599.04288523864921     
   6103.1565003353990        3.0986289771135489E-003   599.04678364753113     
   5957.8656405120710        5.7877034194007138E-003   599.06026494210755     
   5812.5785483551772        8.6678250625027431E-003   599.08568063933296     
   6749.9774352987488       -1.1537438496361574E-002   656.26800478022631     
   6609.3492631583194       -7.0165638539947395E-003   656.26087949132705     
   6468.7278786016013        5.0312636221860885E-004   656.25206497282659     
   6328.1127840011659        9.3628740914937225E-003   656.24339996761046     
   6187.5034817301857        1.7903923107269293E-002   656.23672321866422     
   6046.8994741613942        2.4467516148433788E-002   656.23387346883317     
   5906.3002636680831        2.7394897194426449E-002   656.23668946135774     
   5765.7053526227555        2.5027308048947816E-002   656.24700993895021     
   5625.1142433985342        1.5705992419952963E-002   656.26667364464777     
   6524.9740892377858       -1.7571998593666649E-002   711.57685157291212     
   6389.0322937949068       -9.3878213729112758E-003   711.57156380771255     
   6253.0994114481618        3.3722390562616056E-003   711.56484104472167     
   6117.1746191266802        1.7964613334243040E-002   711.55802481112323     
   5981.2570937603004        3.1645734082985655E-002   711.55245663412529     
   5845.3460122779379        4.1672031015650646E-002   711.54947804099811     
   5709.4405516091620        4.5299936173023525E-002   711.55043055892463     
   5573.5398886835246        3.9785881338730178E-002   711.55665571516215     
   5437.6432004300450        2.2386296503100311E-002   711.56949503682256     
   6299.9725368742338       -2.1084819583848002E-002   765.01116205144660     
   6168.7174583570113       -1.0839051072935035E-002   765.00784141335180     
   6037.4727362448521        4.9823703866422875E-003   765.00317400231552     
   5906.2373618035972        2.3016997523200189E-002   764.99801968818008     
   5775.0103262993725        3.9902384174411054E-002   764.99323834063114     
   5643.7906209982029        5.2276083656124683E-002   764.98968982944723     
   5512.5772371661524        5.6775649711198639E-002   764.98823402430082     
   5381.3691660692020        5.0038635385590169E-002   764.98973079510699     
   5250.1653989734887        2.8702594655442226E-002   764.99504001154378     
   6074.9727584067914       -2.2081841824956427E-002   816.57072450396777     
   5948.4046747261764       -1.1394887370670403E-002   816.56941065214244     
   5821.8477263365157        5.2955243170345057E-003   816.56673747613524     
   5695.3008586207570        2.4474003197838101E-002   816.56309874649469     
   5568.7630169617414        4.2625158508599270E-002   816.55888823388716     
   5442.2331467424374        5.6233600451605525E-002   816.55449970872814     
   5315.7101933458789        6.1783938901271540E-002   816.55032694169040     
   5189.1931021549153        5.5760783452569740E-002   816.54676370338666     
   5062.6808185524105        3.4648743600655507E-002   816.54420376433484     
   5849.9747340343520       -2.0569005065908641E-002   866.25532721865079     
   5728.0938607835351       -1.1079966195438828E-002   866.25596986798905     
   5606.2242550676283        4.2737039898383955E-003   866.25520509643616     
   5484.3649561669308        2.2289606456297406E-002   866.25297613376961     
   5362.5150033613154        3.9765340978874519E-002   866.24922620957989     
   5240.6734359307429        5.3498507242238702E-002   866.24389855346033     
   5118.8392931554399        6.0286706039732962E-002   866.23693639521446     
   4997.0116143153646        5.6927537167211995E-002   866.22828296445186     
   4875.1894386905751        4.0218600971911656E-002   866.21788149074598     
   5624.9784439555042       -1.6552249981714340E-002   914.06475848363868     
   5507.7849344100041       -9.9189241404928907E-003   914.06721740471835     
   5390.6021957828843        1.8789129535434768E-003   914.06825049373174     
   5273.4295010310916        1.6417784510394995E-002   914.06736599761041     
   5156.2661231120292        3.1274215083158197E-002   914.06407216339210     
   5039.1113349833295        4.4024730347928198E-002   914.05787723814558     
   4921.9644096020438        5.2245853552904009E-002   914.04828946888335     
   4804.8246199256000        5.3514109597699644E-002   914.03481710261337     
   4687.6912389114550        4.5406023247323901E-002   914.01696838643511     
   5399.9838683687112       -1.0037517744422075E-002   959.99880658698441     
   5287.4778134871558       -7.9363955783264828E-003   960.00285160631347     
   5174.9814218266210       -1.9268461696810846E-003   960.00554729826160     
   5062.4943398020960        6.8125136644994200E-003   960.00598248568372     
   4950.0162138282858        1.7103066401432443E-002   960.00324599113014     
   4837.5466903201495        2.7766195250706005E-002   959.99642663725444     
   4725.0854156926089        3.7623283151788200E-002   959.98461324683501     
   4612.6320363604618        4.5495712792671839E-002   959.96689464245173     
   4500.1861987387592        5.0204867708316669E-002   959.94235964681036     
   6000.0361357763277        1.2779372866589256E-003   540.02562082543204     
   5850.0523382459442        3.1193051138188821E-002   540.05288193346360     
   5700.0669307422741        7.4493152745617408E-002   540.05107622645198     
   5550.0811475379815       0.13529248361305690        540.00836957102320     
   5400.0962229057404       0.21770528654860755        539.91292783332415     
   5250.1133911182342       0.32584580377783823        539.75291687976255     
   5100.1338864481322       0.46382827722118236        539.51650257691597     
   4950.1589431678922       0.63576694897028574        539.19185079090892     
   4800.1897955506420       0.84577606197717614        538.76712738832464     
   5812.5785483551772        8.6678250625027431E-003   599.08568063933296     
   5667.2847184374350        1.1689497107681746E-002   599.10685468263091     
   5521.9778656679482        2.8871010385955742E-002   599.09901364236953     
   5376.6642881471889        8.1206033303487857E-002   599.05161297582504     
   5231.3502839758121       0.18968823467389484        598.95410814029231     
   5086.0421512545945       0.37531128378941503        598.79595459308962     
   4940.7461880844639       0.65906885016397609        598.56660779168021     
   4795.4686925656870        1.0619546016291679        598.25552319313726     
   4650.2159627992623        1.6049622082496171        597.85215625507408     
   5625.1142433985342        1.5705992419952963E-002   656.26667364464777     
   5484.5098782978484       -1.7407655670922395E-003   656.28132926963008     
   5343.8823931118059       -4.5063864126859698E-003   656.26929450040666     
   5203.2420804461781        4.1717815830452309E-002   656.22141157337001     
   5062.5992329068449       0.17124052736630802        656.12852272437874     
   4921.9641430996890       0.41837043456280298        655.98147018967870     
   4781.3471036304572       0.81741622307868056        655.77109620543740     
   4640.7584071048695        1.4026865789337535        655.48824300766773     
   4500.2083461290640        2.2084901889577395        655.12375283266806     
   5437.6432004300450        2.2386296503100311E-002   711.56949503682256     
   5301.7279239257368       -9.0659077147847711E-003   711.57735066757141     
   5165.7808568195478       -2.5535914085821787E-002   711.56261453448951     
   5029.8152168996294        1.7035571283940953E-002   711.51761284055806     
   4893.8442219540020       0.16270784171229025        711.43467178842400     
   4757.8810897707644       0.45554019085261643        711.30611758085990     
   4621.9390381378444       0.93959191173303225        711.12427642061755     
   4486.0312848435788        1.6589222989941845        710.88147451063389     
   4350.1710476757626        2.6575906451691935        710.57003805352053     
   5250.1653989734887        2.8702594655442226E-002   764.99504001154378     
   5118.9389614199326       -1.0254099459871213E-002   764.99596384993026     
   4987.6736005368712       -3.4114448680384157E-002   764.97966947849761     
   4856.3843899718058        7.3670386777848762E-003   764.94006425448458     
   4725.0864033718544       0.16443585299816732        764.87105553505023     
   4593.7947143850788       0.48733748754216322        764.76655067761999     
   4462.5243966584076        1.0263174322963096        764.62045703944477     
   4331.2905238390367        1.8316211780881986        764.42668197765261     
   4200.1081695748826        2.9534942176503591        764.17913284961571     
   5062.6808185524105        3.4648743600655507E-002   816.54420376433484     
   4936.1430968791628       -5.2735111403308110E-003   816.53821379020508     
   4809.5609680094285       -3.0138866447487089E-002   816.52115506621942     
   4682.9502921272042        1.2919957579924812E-002   816.48861329203942     
   4556.3269294161028       0.17677023989949703        816.43617416710038     
   4429.7067400601445       0.51427926030601157        816.35942339124847     
   4303.1055842431797        1.0783142985085306        816.25394666391662     
   4176.5393221492350        1.9217426344760042        816.11532968487381     
   4050.0238139619150        3.0974315468579334        815.93915815370497     
   4875.1894386905751        4.0218600971911656E-002   866.21788149074598     
   4753.3404364021799        5.9076868863030541E-003   866.20514546168158     
   4631.4433029826969       -1.3506044447467502E-002   866.18776703151809     
   4509.5136158299119        3.3902066578775703E-002   866.16310743014503     
   4387.5669523410334       0.20005667689929396        866.12852788722705     
   4265.6188899134531       0.53688244476052205        866.08138963277918     
   4143.6850059446215        1.0963040282947532        866.01905389657202     
   4021.7808778316107        1.9302460845806308        865.93888190834218     
   3899.9220829724541        3.0906332734512034        865.83823489777888     
   4687.6912389114550        4.5406023247323901E-002   914.01696838643511     
   4570.5310860875088        2.3321323443951769E-002   913.99780383781899     
   4453.3209492027045        1.5887142409837907E-002   913.98020110835671     
   4336.0750535447169        7.0521105838679432E-002   913.96339414590534     
   4218.8076244019394       0.23464084143756736        913.94661689835141     
   4101.5328870620970       0.55566397526172295        913.92910331348810     
   3984.2650668135448        1.0810081349882239        913.91008733934848     
   3867.0183889440200        1.8580909464963042        913.88880292367037     
   3749.8070787420161        2.9343300379887296        913.86448401423206     
   4500.1861987387592        5.0204867708316669E-002   959.94235964681036     
   4387.7151520342086        4.6999229411085253E-002   959.91723389190474     
   4275.1942504146418        5.8143816263282133E-002   959.89915303050088     
   4162.6352977358511       0.12298481436209840        959.88932091621746     
   4050.0500978535547       0.28086840925766410        959.88894140306445     
   3937.4504546236453       0.57114078746758423        959.89921834453185     
   3824.8481719018937        1.0331481349262503        959.92135559466362     
   3712.2550535441578        1.7062366375982947        959.95655700688440     
   3599.6829034061525        2.6297524813037398        960.00602643554589     
   10800.515350433268       -1.8495207464925443        958.49465262235651     
   10687.896524202642       -1.5144055710243265        958.82693135153806     
   10575.289317589346       -1.2262412828831657        959.09984186026213     
   10462.695055329526      -0.98061209489651446        959.32004096335663     
   10350.115062159284      -0.77310222016876651        959.49418547568280     
   10237.550662814643      -0.59929587196666034        959.62893221203501     
   10125.003182031720      -0.45477726303579402        959.73093798725733     
   10012.473944546557      -0.33513060659470284        959.80685961611641     
   9899.9642750953135      -0.23594011561635853        959.86335391354794     
   10350.776637596135       -1.9392027181993399        1002.6237447944829     
   10242.784208897456       -1.6104579020579877        1002.9515549601574     
   10134.812683506882       -1.3219363305447587        1003.2179116236495     
   10026.863006167181       -1.0704888613313415        1003.4300621496911     
   9918.9361216209909      -0.85296635215036076        1003.5952539030089     
   9811.0329746110710      -0.66621966048023751        1003.7207342482828     
   9703.1545098800780      -0.50709964413408670        1003.8137505501579     
   9595.3016721707445      -0.37245716061079293        1003.8815501733931     
   9487.4754062257689      -0.25914306771619522        1003.9313804826485     
   9901.0322687564640       -2.0476290217702626        1044.9020005289833     
   9797.6699633687040       -1.7073769325907051        1045.2174767009840     
   9694.3361979357014       -1.4074533392968078        1045.4717621190212     
   9591.0319064312644       -1.1447449960328413        1045.6722882594909     
   9487.7580228290753      -0.91613865691579122        1045.8264865987894     
   9384.5154811029734      -0.71852107612403415        1045.9417886133058     
   9281.3052152266737      -0.54877900767451138        1046.0256257794567     
   9178.1281591738662      -0.40379920597570162        1046.0854295735710     
   9074.9852469183697      -0.28046842503272273        1046.1286314721310     
   9451.2715181454314       -2.1780173880069924        1085.3325433051070     
   9352.5460817639432       -1.8074744186646967        1085.6267587040682     
   9253.8547104388963       -1.4843374404740644        1085.8625664317301     
   9155.1986965997494       -1.2042983557666957        1086.0471756381785     
   9056.5793326756084      -0.96304906718978600        1086.1877954732643     
   8957.9979110957538      -0.75628147720181005        1086.2916350869416     
   8859.4557242893625      -0.57968748857638275        1086.3659036291408     
   8760.9540646857458      -0.42895900370558593        1086.4178102498681     
   8662.4942247140425      -0.29978792528208942        1086.4545640989741     
   9001.4836599943083       -2.3335855474251730        1123.9184966022403     
   8907.4048582306223       -1.9130621159742986        1124.1814630992624     
   8813.3630705797386       -1.5541337648041917        1124.3914976471490     
   8719.3603171507257       -1.2500667968788548        1124.5551806311817     
   8625.3986180527045      -0.99412751509953523        1124.6790924367085     
   8531.4799933948943      -0.77958222209599626        1124.7698134490611     
   8437.6064632863381      -0.59969722106961854        1124.8339240535104     
   8343.7800478362478      -0.44773881468017862        1124.8780046354411     
   8250.0027671536354      -0.31697330620409048        1124.9086355800889     
   8551.6579685343131       -2.5175512306750534        1160.6629838997358     
   8462.2385869165591       -2.0264517801224429        1160.8836520166601     
   8372.8561279212845       -1.6183874437292616        1161.0597288505301     
   8283.5137085621700       -1.2829681762518703        1161.1967595839747     
   8194.2144458524908       -1.0098039330960091        1161.3002893994353     
   8104.9614568057805      -0.78850466927133311        1161.3758634794638     
   8015.7578584354660      -0.60868034002533022        1161.4290270065969     
   7926.6067677550827      -0.45994090036492707        1161.4653251634113     
   7837.5113017780541      -0.33189630537026460        1161.4903031324150     
   8101.7837179966782       -2.7331321684118848        1195.5691286768729     
   8017.0395619691481       -2.1499551670322035        1195.7353875861934     
   7932.3287320268837       -1.6786436077914004        1195.8684331273303     
   7847.6558113121609       -1.3039203501966767        1195.9723688420140     
   7763.0253829670637       -1.0105082535155816        1196.0512982716841     
   7678.4420301338978      -0.78313017702203069        1196.1093249580304     
   7593.9103359548662      -0.60650897989262376        1196.1505524426129     
   7509.4348835721976      -0.46536752135762072        1196.1790842670116     
   7425.0202561280785      -0.34442866092194890        1196.1990239728484     
   7651.8501826125985       -2.9835460913723182        1228.6400544130454     
   7571.8000775360515       -2.2858840322401193        1228.7387319378086     
   7491.7757324596096       -1.7364473884222207        1228.8187835628298     
   7411.7835658786162       -1.3138411756176538        1228.8824647506697     
   7331.8299962884712      -0.99667040898157211        1228.9320309637633     
   7251.9214421846691      -0.76354010360137181        1228.9697376645829     
   7172.0643220624934      -0.59305527524520585        1228.9978403156579     
   7092.2650544173703      -0.46382093901002008        1229.0185943794218     
   7012.5300577447515      -0.35444211018511851        1229.0342553183843     
   7201.8466366133598       -3.2720107299351184        1259.8788845875627     
   7126.5124277649193       -2.4365501313732238        1259.8957472014890     
   7051.1919787826027       -1.7933439166749849        1259.9119532423615     
   6975.8939127396889       -1.3136485087820802        1259.9275036554850     
   6900.6268527089760      -0.96872033134104640        1259.9423993859152     
   6825.3994217635063      -0.72981580760961151        1259.9566413789967     
   6750.2202429762692      -0.56819136093008638        1259.9702305798435     
   6675.0979394204114      -0.45510341424096623        1259.9831679337556     
   6600.0411341688123      -0.36180839121016106        1259.9954543859076     
   9899.9642750953135      -0.23594011561635853        959.86335391354794     
   9787.4636607779303      -0.15655739103885935        959.90758585194988     
   9674.9613037311938       -9.7283911124122824E-002   959.94274671251344     
   9562.4581012464569       -5.5128704553681018E-002   959.96953277315902     
   9449.9549506150815       -2.7100800261450786E-002   959.98864031185690     
   9337.4527491284116       -1.0209227022187406E-002   960.00076560647233     
   9224.9523940778363       -1.4630136852247233E-003   960.00660493501414     
   9112.4547827546485        2.1288109246597742E-003   960.00685457535667     
   8999.9608124502320        3.5572179608607257E-003   960.00221080542838     
   9487.4754062257689      -0.25914306771619522        1003.9313804826485     
   9379.6612360508334      -0.16856181696357453        1003.9708273184132     
   9271.8447814233587      -0.10179862072300239        1004.0029215799343     
   9164.0271307439561       -5.5225477039584803E-002   1004.0280782202126     
   9056.2093724132264       -2.5214383865659329E-002   1004.0467121921981     
   8948.3925948315828       -8.1373397929382918E-003   1004.0592384488157     
   8840.5778863996984       -3.6634269781643525E-004   1004.0660719431022     
   8732.7663355180630        1.7266091654164484E-003   1004.0676276279556     
   8624.9590305872371        1.7695176288725634E-003   1004.0643204563306     
   9074.9852469183697      -0.28046842503272273        1046.1286314721310     
   8971.8579744146300      -0.18137068964506398        1046.1629936161082     
   8868.7280144981796      -0.10850042070569543        1046.1914661469552     
   8765.5965664645828       -5.7859966360410908E-002   1046.2142625418619     
   8662.4648296097166       -2.5451673742736602E-002   1046.2315962780362     
   8559.3340032292454       -7.2778906469466165E-003   1046.2436808326684     
   8456.2052866187114        6.5903479753615102E-004   1046.2507296829756     
   8353.0798790738154        2.3567548450955655E-003   1046.2529563061007     
   8249.9589798902653        1.8129219411093800E-003   1046.2505741792666     
   8662.4942247140425      -0.29978792528208942        1086.4545640989741     
   8564.0538851990113      -0.19498121014157732        1086.4837541815225     
   8465.6106853301990      -0.11748459914042542        1086.5082246363158     
   8367.1658550843149       -6.3198169750194211E-002   1086.5280673138893     
   8268.7206244381705       -2.8021999434713507E-002   1086.5433740649955     
   8170.2762233684771       -7.8561658015132707E-003   1086.5542367401995     
   8071.8338818519014        1.3992534431963577E-003   1086.5607471901451     
   7973.3948298651785        3.8441807159870223E-003   1086.5629972654128     
   7874.9602973850979        3.5785386553470744E-003   1086.5610788167160     
   8250.0027671536354      -0.31697330620409048        1124.9086355800889     
   8156.2489777336641      -0.20939057956229590        1124.9327784511270     
   8062.4924762941573      -0.12884644342102547        1124.9530412706779     
   7968.7344432790132       -7.1406084773116163E-002   1124.9694741120995     
   7874.9760591319446       -3.3134691243049019E-002   1124.9821270486552     
   7781.2185042964311       -1.0097451224737597E-002   1124.9910501535082     
   7687.4629592165047        1.6404487009822333E-003   1124.9962935001060     
   7593.7106043355889        6.0138200501569372E-003   1124.9979071615419     
   7499.9626200975108        6.9574754570567166E-003   1124.9959412111657     
   7837.5113017780541      -0.33189630537026460        1161.4903031324150     
   7748.4432613482059      -0.22459599917465312        1161.5097358612952     
   7659.3730697649135      -0.14268124079490008        1161.5257602728739     
   7570.3017777247915       -8.2649708195731364E-002   1161.5384645122670     
   7481.2304359244617       -4.0999079284119944E-002   1161.5479367245277     
   7392.1600950605398       -1.4227032046164823E-002   1161.5542650548916     
   7303.0918058296211        1.1687555456774135E-003   1161.5575376483537     
   7214.0266189283711        8.6906057003943715E-003   1161.5578426500804     
   7124.9655850533427        1.1840840269087494E-002   1161.5552682051891     
   7425.0202561280785      -0.34442866092194890        1196.1990239728484     
   7340.6367453723979      -0.24059466977632837        1196.2142958485576     
   7256.2521481170352      -0.15908427928252422        1196.2262258655805     
   7171.8673050975030       -9.7095037576309551E-002   1196.2350200901312     
   7087.4830570492841       -5.1824493218646239E-002   1196.2408845883419     
   7003.1002447077926       -2.0470194765039196E-002   1196.2440254263990     
   6918.7197088085231       -2.2969056271904265E-004   1196.2446486704505     
   6834.3422900868436        1.1699470600433415E-002   1196.2429603866660     
   6749.9688292783267        1.8119740635029302E-002   1196.2391666412029     
   7012.5300577447515      -0.35444211018511851        1229.0342553183843     
   6932.8294391358713      -0.25738379269523648        1229.0461278493106     
   6853.1293937252913      -0.17815084615403975        1229.0542822715342     
   6773.4304720731843      -0.11490806994606828        1229.0591224214606     
   6693.7332247398826       -6.5820262949728203E-002   1229.0610521355741     
   6614.0382022854501       -2.9052225001578336E-002   1229.0604752502420     
   6534.3459552702680       -2.7687548117683036E-003   1229.0577956018938     
   6454.6570342544765        1.4865348087823804E-002   1229.0534170269179     
   6374.9719897982632        2.5685284360861260E-002   1229.0477433617568     
   6600.0411341688123      -0.36180839121016106        1259.9954543859076     
   6525.0213519683357      -0.27496056891004628        1260.0049013000234     
   6450.0044889643377      -0.19997622927758130        1260.0097737134151     
   6374.9907253278579      -0.13625480230166431        1260.0107530820972     
   6299.9802412296440       -8.3195718750175729E-002   1260.0085208618402     
   6224.9732168407190       -4.0198408584274148E-002   1260.0037585085504     
   6149.9698323320454       -6.6623019224607560E-003   1259.9971474781407     
   6074.9702678744698        1.8013170710219129E-002   1259.9893692264602     
   5999.9747036389426        3.4428579192990583E-002   1259.9811052092964     
   8999.9608124502320        3.5572179608607257E-003   960.00221080542838     
   8887.4686033753733        4.5426320575643331E-003   959.99602165173974     
   8774.9756989201887        4.8827422515387298E-003   959.99115229505333     
   8662.4821311450269        4.6844163807691075E-003   959.98757474483511     
   8549.9879321102235        4.0545222159380501E-003   959.98526101047855     
   8437.4931338760853        3.0999274640635122E-003   959.98418310144143     
   8324.9977685029553        1.9274998776381835E-003   959.98431302716472     
   8212.5018680511457        6.4410722916363738E-004   959.98562279705686     
   8100.0054645810260       -6.4338265792684979E-004   959.98808442054872     
   8624.9590305872371        1.7695176288725634E-003   1004.0643204563306     
   8517.1539551299102        1.9113260086669470E-003   1004.0590557441556     
   8409.3483705653762        1.8939663696073694E-003   1004.0545278981383     
   8301.5422821392094        1.7349239478789968E-003   1004.0508355077006     
   8193.7356950968606        1.4516835121867189E-003   1004.0480771622293     
   8085.9286146836939        1.0617297002681880E-003   1004.0463514510387     
   7978.1210461452965        5.8254780515198945E-004   1004.0457569634930     
   7870.3129947271409        3.1622593724023318E-005   1004.0463922889795     
   7762.5044656745522       -5.7356133311259327E-004   1004.0483560167661     
   8249.9589798902653        1.8129219411093800E-003   1046.2505741792666     
   8146.8405713366774        1.4558222792402375E-003   1046.2460667924274     
   8043.7218388579622        1.0576629019851680E-003   1046.2418968074276     
   7940.6027865140941        6.3197718736773822E-004   1046.2382464588998     
   7837.4834183653466        1.9229938561693416E-004   1046.2352979818036     
   7734.3637384717276       -2.4783720209597959E-004   1046.2332336108532     
   7631.2437508933835       -6.7489873163140146E-004   1046.2322355808785     
   7528.1234596904178       -1.0753515944088576E-003   1046.2324861267175     
   7425.0028689229439       -1.4356619230966317E-003   1046.2341674831093     
   7874.9602973850979        3.5785386553470744E-003   1086.5610788167160     
   7776.5283306980054        3.1397314305650070E-003   1086.5570990896738     
   7678.0961751085943        2.3952242877385288E-003   1086.5532527267364     
   7579.6638591210740        1.4400313434634882E-003   1086.5497626736383     
   7481.2314112397207        3.6916678254783619E-004   1086.5468518761929     
   7382.7988599688015       -7.2235510560858529E-004   1086.5447432801270     
   7284.3662338125005       -1.7395204290551192E-003   1086.5436598312051     
   7185.9335612751429       -2.5873147405945929E-003   1086.5438244752415     
   7087.5008708607738       -3.1707245566394704E-003   1086.5454601579338     
   7499.9626200975108        6.9574754570567166E-003   1124.9959412111657     
   7406.2171119162349        6.9266642444745230E-003   1124.9921969287541     
   7312.4714506282462        5.9280439663780271E-003   1124.9885893599596     
   7218.7257148117205        4.2235419282405928E-003   1124.9853392271300     
   7124.9799830442480        2.0750834896716697E-003   1124.9826672523920     
   7031.2343339037088       -2.5540520618960727E-004   1124.9807941579884     
   6937.4888459681115       -2.5059974122996209E-003   1124.9799406662701     
   6843.7435978152307       -4.4147671396785881E-003   1124.9803274993776     
   6749.9986680229231       -5.7197882865693828E-003   1124.9821753795704     
   7124.9655850533427        1.1840840269087494E-002   1161.5552682051891     
   7035.9067936937063        1.2780231391843699E-002   1161.5514046026885     
   6946.8477367280393        1.1677515962219331E-002   1161.5479004110389     
   6857.7885684374642        9.0469642823336471E-003   1161.5449311945276     
   6768.7294431028531        5.4028460608606110E-003   1161.5426725173481     
   6679.6705150052167        1.2594312411238207E-003   1161.5412999437199     
   6590.6119384255016       -2.8690103167718917E-003   1161.5409890378432     
   6501.5538676448541       -6.4682081492719590E-003   1161.5419153640505     
   6412.4964569440981       -9.0238927859900286E-003   1161.5442544865059     
   6749.9688292783267        1.8119740635029302E-002   1196.2391666412029     
   6665.5972547327483        2.0664043562646839E-002   1196.2347664044726     
   6581.2251047187174        1.9665032844841335E-002   1196.2311795838496     
   6496.8526348498699        1.5974753975569911E-002   1196.2284936511710     
   6412.4801007397482        1.0445252082263323E-002   1196.2267960781091     
   6328.1077580019792        3.9285725788431591E-003   1196.2261743364218     
   6243.7358622502106       -2.7232391194047523E-003   1196.2267158978668     
   6159.3646690979995       -8.6581377308903029E-003   1196.2285082341409     
   6074.9944341589144       -1.3024078012222162E-002   1196.2316388170318     
   6374.9719897982632        2.5685284360861260E-002   1229.0477433617568     
   6295.2883737357024        3.0541711513251357E-002   1229.0423266269988     
   6215.6036259112152        2.9911988167441450E-002   1229.0384205822545     
   6135.9181289004591        2.5071366569363818E-002   1229.0359816722082     
   6056.2322652791072        1.7295098996328306E-002   1229.0349663416528     
   5976.5464176228515        7.8584377251900150E-003   1229.0353310353307     
   5896.8609685074734       -1.9633646491001855E-003   1229.0370321980381     
   5817.1763005087241       -1.0895055668925124E-002   1229.0400262745113     
   5737.4927962022039       -1.7661383203176229E-002   1229.0442697095218     
   5999.9747036389426        3.4428579192990583E-002   1259.9811052092964     
   5924.9800294049746        4.2376846048000516E-002   1259.9741295633489     
   5849.9833716164358        4.2439775008460856E-002   1259.9696171100834     
   5774.9852654406131        3.6401257068746418E-002   1259.9673503328677     
   5699.9862460448976        2.6045183586347775E-002   1259.9671117149446     
   5624.9868485964826        1.3155445132042587E-002   1259.9686837396082     
   5549.9876082627588       -4.8406702694592241E-004   1259.9718488902358     
   5474.9890602111027       -1.3089461615663822E-002   1259.9763896500717     
   5399.9917396086676       -2.2876848043551945E-002   1259.9820885023653     
   8100.0054645810260       -6.4338265792684979E-004   959.98808442054872     
   7987.5082845369461       -1.9279899206594564E-003   959.99104821252399     
   7875.0100435460272       -3.2387921710324008E-003   959.99390837862234     
   7762.5107574427357       -4.5230077994347084E-003   959.99670276474819     
   7650.0104420615307       -5.7278553681499034E-003   959.99946921666731     
   7537.5091132368343       -6.8005534153599001E-003   960.00224558015282     
   7425.0067868031965       -7.6883201822965930E-003   960.00506970106619     
   7312.5034785949729       -8.3383744317870878E-003   960.00797942513236     
   7199.9992044466753       -8.6979344237079204E-003   960.01101259818336     
   7762.5044656745522       -5.7356133311259327E-004   1004.0483560167661     
   7654.6951486140415       -1.3056866096121666E-003   1004.0510962862375     
   7546.8847391292693       -2.2175785961735528E-003   1004.0539909460884     
   7439.0732514018018       -3.2619653666188242E-003   1004.0570331498886     
   7331.2606996132945       -4.3915747410210315E-003   1004.0602160513341     
   7223.4470979452599       -5.5591350628674263E-003   1004.0635328039440     
   7115.6324605793425       -6.7173741272199550E-003   1004.0669765613746     
   7007.8168016971013       -7.8190201129473280E-003   1004.0705404771875     
   6900.0001354800470       -8.8168012534879381E-003   1004.0742177050352     
   7425.0028689229439       -1.4356619230966317E-003   1046.2341674831093     
   7321.8815709669389       -1.8652112530617160E-003   1046.2367947980615     
   7218.7591589766716       -2.4707867337383504E-003   1046.2397391061654     
   7115.6356381794612       -3.2349639018320886E-003   1046.2429664718106     
   7012.5110138029213       -4.1403173659091408E-003   1046.2464429595773     
   6909.3852910743717       -5.1694227513507940E-003   1046.2501346339620     
   6806.2584752213270       -6.3048550377970969E-003   1046.2540075594925     
   6703.1305714713308       -7.5291891362212482E-003   1046.2580278007476     
   6600.0015850516211       -8.8250007297574484E-003   1046.2621614221659     
   7087.5008708607738       -3.1707245566394704E-003   1086.5454601579338     
   6989.0676318559326       -3.5824859414788079E-003   1086.5481105365482     
   6890.6332871919331       -4.0031857352005318E-003   1086.5511416901340     
   6792.1978258407580       -4.4695839883388544E-003   1086.5545101972918     
   6693.7612367745687       -5.0184401438855275E-003   1086.5581726365406     
   6595.3235089653817       -5.6865141737034719E-003   1086.5620855864306     
   6496.8846313852464       -6.5105659150503925E-003   1086.5662056255121     
   6398.4445930062611       -7.5273550046404125E-003   1086.5704893323391     
   6300.0033828003561       -8.7736417121959676E-003   1086.5748932854267     
   6749.9986680229231       -5.7197882865693828E-003   1124.9821753795704     
   6656.2534115413173       -6.4334326675634657E-003   1124.9850102899939     
   6562.5071078787314       -6.8195448598089570E-003   1124.9881875292772     
   6468.7597224507826       -6.9934061393723823E-003   1124.9916717931994     
   6375.0112206725444       -7.0702995380997891E-003   1124.9954277773822     
   6281.2615679594774       -7.1655069127700699E-003   1124.9994201775046     
   6187.5107297271315       -7.3943097995652352E-003   1125.0036136893079     
   6093.7586713906267       -7.8719910125073511E-003   1125.0079730084246     
   6000.0053583654308       -8.7138323913222848E-003   1125.0124628305307     
   6412.4964569440981       -9.0238927859900286E-003   1161.5442544865059     
   6323.4389902836165       -1.0393972763267811E-002   1161.5474608469449     
   6234.3806051412439       -1.0924631652414973E-002   1161.5508654548919     
   6145.3212360745829       -1.0834010881808354E-002   1161.5544587263703     
   6056.2608176409694       -1.0340252598780353E-002   1161.5582310772215     
   5967.1992843979560       -9.6614982908249658E-003   1161.5621729233990     
   5878.1365709027605       -9.0158905657062860E-003   1161.5662746808237     
   5789.0726117130889       -8.6215704366168211E-003   1161.5705267654960     
   5700.0073413861437       -8.6966805106385436E-003   1161.5749195932817     
   6074.9944341589144       -1.3024078012222162E-002   1196.2316388170318     
   5990.6244483429155       -1.5440028930242988E-002   1196.2354289958439     
   5906.2537630829229       -1.6323216248338213E-002   1196.2391642982607     
   5821.8822747773029       -1.6018978595184308E-002   1196.2428784636602     
   5737.5098798241943       -1.4872655616272823E-002   1196.2466052312018     
   5653.1364746217687       -1.3229586665147508E-002   1196.2503783402628     
   5568.7619555683796       -1.1435110729053122E-002   1196.2542315301746     
   5484.3862190621567       -9.8345672324740008E-003   1196.2581985401380     
   5400.0091615014753       -8.7732949357359757E-003   1196.2623131094706     
   5737.4927962022039       -1.7661383203176229E-002   1229.0442697095218     
   5657.8098659797324       -2.1547522488162940E-002   1229.0488815250742     
   5578.1265658077509       -2.3020066604431122E-002   1229.0530728906185     
   5498.4427466239986       -2.2575889706558883E-002   1229.0569384718299     
   5418.7582593663446       -2.0711865578277866E-002   1229.0605729345016     
   5339.0729549722855       -1.7924869220223627E-002   1229.0640709443662     
   5259.3866843798814       -1.4711773798353533E-002   1229.0675271672160     
   5179.6992985267370       -1.1569453989523026E-002   1229.0710362687803     
   5100.0106483506515       -8.9947836424926209E-003   1229.0746929148497     
   5399.9917396086676       -2.2876848043551945E-002   1259.9820885023653     
   5324.9953234543100       -2.8692375678474491E-002   1259.9877852232178     
   5249.9989974193722       -3.1019952305769039E-002   1259.9925800632464     
   5175.0025596797614       -3.0532324804198652E-002   1259.9966462177849     
   5100.0058084115135       -2.7902239677814578E-002   1260.0001568821831     
   5025.0085417906939       -2.3802443459544520E-002   1260.0032852517704     
   4950.0105579933143       -1.8905682820559377E-002   1260.0062045219481     
   4875.0116551953461       -1.3884704481824883E-002   1260.0090878879605     
   4800.0116315727892       -9.4122550392512494E-003   1260.0121085451701     
   7199.9992044466753       -8.6979344237079204E-003   960.01101259818336     
   7087.4952747333155       -8.3704273511102656E-003   960.01391489239643     
   6974.9929410552477       -7.1551958144482342E-003   960.01631570368761     
   6862.4921310848486       -5.2933318484065239E-003   960.01807846356132     
   6749.9927724946519       -3.0259271079557948E-003   960.01906660350824     
   6637.4947929570499       -5.9407353501228499E-004   960.01914355507051     
   6524.9981201444625        1.7611368589314225E-003   960.01817274965674     
   6412.5026817294502        3.7986126740179316E-003   960.01601761883239     
   6300.0084053843348        5.2772615804315137E-003   960.01254159407142     
   6900.0001354800470       -8.8168012534879381E-003   1004.0742177050352     
   6792.1836843690089       -9.3242716020540684E-003   1004.0776968439545     
   6684.3686400735041       -9.0574229193407518E-003   1004.0805633751982     
   6576.5549706786860       -8.1226378947576450E-003   1004.0826557753809     
   6468.7426442696460       -6.6262996410841879E-003   1004.0838125212216     
   6360.9316289314238       -4.6747913347644499E-003   1004.0838720895524     
   6253.1218927492473       -2.3744955465190287E-003   1004.0826729569419     
   6145.3134038082289        1.6820471523715241E-004   1004.0800536001618     
   6037.5061301934120        2.8469263056649652E-003   1004.0758524958877     
   6600.0015850516211       -8.8250007297574484E-003   1046.2621614221659     
   6496.8726501037381       -9.8380474883015268E-003   1046.2660648422284     
   6393.7448983198328       -1.0222251684353978E-002   1046.2692942491469     
   6290.6183312536014       -9.9724342053377768E-003   1046.2716653618188     
   6187.4929504590709       -9.0834149968941347E-003   1046.2729938994337     
   6084.3687574898922       -7.5500151704090968E-003   1046.2730955809843     
   5981.2457538999661       -5.3670551963023172E-003   1046.2717861255246     
   5878.1239412431351       -2.5293555554526392E-003   1046.2688812521317     
   5775.0033210730353        9.6826269714256341E-004   1046.2641966798519     
   6300.0033828003561       -8.7736417121959676E-003   1086.5748932854267     
   6201.5620374413429       -9.9521045190158475E-003   1086.5790666984108     
   6103.1216196738942       -1.0678519173779932E-002   1086.5825511715695     
   6004.6821575765407       -1.0859290496910035E-002   1086.5851418633233     
   5906.2436792277922       -1.0400823495274381E-002   1086.5866339322627     
   5807.8062127062540       -9.2095227757909015E-003   1086.5868225369284     
   5709.3697860902876       -7.1917938498700096E-003   1086.5855028357919     
   5610.9344274586747       -4.2540407221167698E-003   1086.5824699873697     
   5512.5001648897105       -3.0266914836829528E-004   1086.5775191502134     
   6000.0053583654308       -8.7138323913222848E-003   1125.0124628305307     
   5906.2517118860342       -9.7067909905490524E-003   1125.0167502235995     
   5812.4987080158180       -1.0455060906679137E-002   1125.0203769884304     
   5718.7463944143028       -1.0799777070815253E-002   1125.0231199201976     
   5624.9948187406389       -1.0582075595266360E-002   1125.0247558139615     
   5531.2440286540241       -9.6430925927961653E-003   1125.0250614647634     
   5437.4940718138560       -7.8239633573957690E-003   1125.0238136678929     
   5343.7449958793995       -4.9658235370770853E-003   1125.0207892183453     
   5249.9968485098098       -9.0980950608354760E-004   1125.0157649112064     
   5700.0073413861437       -8.6966805106385436E-003   1161.5749195932817     
   5610.9415389417982       -9.1424559466304345E-003   1161.5791632289609     
   5521.8760672257249       -9.5807124012026179E-003   1161.5828145458267     
   5432.8109865338720       -9.8104635490017245E-003   1161.5856341727706     
   5343.7463571622930       -9.6307223750500270E-003   1161.5873827386140     
   5254.6822394070796       -8.8405020217123820E-003   1161.5878208721213     
   5165.6186935642527       -7.2388157138902898E-003   1161.5867092021297     
   5076.5557799298940       -4.6246765073192364E-003   1161.5838083575318     
   4987.4935588000189       -7.9709770193403529E-004   1161.5788789671008     
   5400.0091615014753       -8.7732949357359757E-003   1196.2623131094706     
   5315.6313841128740       -8.2994475535542733E-003   1196.2663535256581     
   5231.2536011834509       -8.0843102819017076E-003   1196.2699066897680     
   5146.8758787021379       -7.9079198660565453E-003   1196.2727192615023     
   5062.4982826576861       -7.5503139516968076E-003   1196.2745379004693     
   4978.1208790391502       -6.7915289214397490E-003   1196.2751092663295     
   4893.7437338351474       -5.4116028311455011E-003   1196.2741800188071     
   4809.3669130346798       -3.1905722905776202E-003   1196.2714968175135     
   4724.9904826265247        9.1525357220234582E-005   1196.2668063221508     
   5100.0106483506515       -8.9947836424926209E-003   1229.0746929148497     
   5020.3211129031370       -7.2181152474968258E-003   1229.0783689248376     
   4940.6312137689420       -5.9946904275420820E-003   1229.0816962662930     
   4860.9410156859276       -5.1087161978102813E-003   1229.0844098266700     
   4781.2505833917185       -4.3444005002584163E-003   1229.0862444936895     
   4701.5599816238046       -3.4859517270433571E-003   1229.0869351549566     
   4621.8692751201379       -2.3175766893928085E-003   1229.0862166981426     
   4542.1785286182667       -6.2348358778763213E-004   1229.0838240107789     
   4462.4878068559028        1.8121200112091174E-003   1229.0794919806058     
   4800.0116315727892       -9.4122550392512494E-003   1260.0121085451701     
   4725.0105908166361       -5.9388079423570161E-003   1260.0152572377240     
   4650.0088088623725       -3.3406884126634395E-003   1260.0182261213185     
   4575.0063422522180       -1.4294222189619177E-003   1260.0207405086480     
   4500.0032475289245       -1.6533533425899805E-005   1260.0225257124766     
   4424.9995812349143        1.0864523085274413E-003   1260.0233070454221     
   4349.9953999128693        2.0680108966644184E-003   1260.0228098203204     
   4274.9907601052619        3.1166171504537488E-003   1260.0207593498324     
   4199.9857183545255        4.4207459325207310E-003   1260.0168809466404     
   6300.0084053843348        5.2772615804315137E-003   960.01254159407142     
   6187.5133632302404        5.5027430889822426E-003   960.00826658307608     
   6075.0157637615994        4.2352944178674079E-003   960.00403477137797     
   5962.5157392110195        1.9156908272179862E-003   960.00019000722318     
   5850.0134218109943       -1.0152925765396503E-003   959.99707613874648     
   5737.5089437942097       -4.1168802567881357E-003   959.99503701427977     
   5625.0024373931637       -6.9482972776313545E-003   959.99441648202799     
   5512.4940348404980       -9.0687680960854777E-003   959.99555839018410     
   5399.9838683687112       -1.0037517744422075E-002   959.99880658698441     
   6037.5061301934120        2.8469263056649652E-003   1004.0758524958877     
   5929.6984722565476        5.1047371518961882E-003   1004.0706174878742     
   5821.8888564207073        6.4716095400854101E-003   1004.0653090552482     
   5714.0772898782652        6.9715180979983415E-003   1004.0603846277061     
   5606.2637798212982        6.6284364215789537E-003   1004.0563016350737     
   5498.4483334419492        5.4663382586568332E-003   1004.0535175071312     
   5390.6309579326125        3.5091982874746463E-003   1004.0524896736970     
   5282.8116604854504        7.8099033294165565E-004   1004.0536755644810     
   5174.9904482925513       -2.6943118357394269E-003   1004.0575326093028     
   5775.0033210730353        9.6826269714256341E-004   1046.2641966798519     
   5671.8826918343275        4.7224592592556291E-003   1046.2582690309976     
   5568.7607892191081        8.1207187217842147E-003   1046.2521218910636     
   5465.6375206524517        1.0854458084850194E-002   1046.2463014235136     
   5362.5127935597975        1.2615095523187847E-002   1046.2413537921789     
   5259.3865153662327        1.3094047949607557E-002   1046.2378251604741     
   5156.2585934968884        1.1982732420165121E-002   1046.2362616922310     
   5053.1289353772418        8.9725671848555066E-003   1046.2372095509647     
   4949.9974484322165        3.7549687583577906E-003   1046.2412149003310     
   5512.5001648897105       -3.0266914836829528E-004   1086.5775191502134     
   5414.0662493287682        4.4241189837066486E-003   1086.5711460853145     
   5315.6318016230925        9.2544612016354222E-003   1086.5643898144776     
   5217.1966547040638        1.3631462215471402E-002   1086.5578603874658     
   5118.7606415035107        1.6998228029478923E-002   1086.5521678540786     
   5020.3235949529189        1.8797863571762718E-002   1086.5479222640386     
   4921.8853479839145        1.8473474394795630E-002   1086.5457336671539     
   4823.4457335282304        1.5468166140635731E-002   1086.5462121131163     
   4725.0045845171126        9.2250430448075349E-003   1086.5499676517366     
   5249.9968485098098       -9.0980950608354760E-004   1125.0157649112064     
   5156.2493721050187        4.2779258967584610E-003   1125.0091735235592     
   5062.5021330989803        9.9446763924788684E-003   1125.0020293611537     
   4968.7549152033980        1.5369480997605933E-002   1124.9949815122682     
   4875.0075021294924        1.9831377128411987E-002   1124.9886790649205     
   4781.2596775883176        2.2609401611362046E-002   1124.9837711073333     
   4687.5112252916488        2.2982593668757545E-002   1124.9809067277838     
   4593.7619289506638        2.0229990634334172E-002   1124.9807350143578     
   4500.0115722765886        1.3630629875024169E-002   1124.9839050551880     
   4987.4935588000189       -7.9709770193403529E-004   1161.5788789671008     
   4898.4322875282378        4.3520894937500998E-003   1161.5722762186954     
   4809.3720231136876        1.0263205613910031E-002   1161.5649570668720     
   4720.3125253210237        1.6135466080640981E-002   1161.5575847906157     
   4631.2535539144819        2.1168085139152026E-002   1161.5508226687152     
   4542.1948686586284        2.4560277906402916E-002   1161.5453339800663     
   4453.1362293179673        2.5511259449785939E-002   1161.5417820035616     
   4364.0773956569601        2.3220244610001828E-002   1161.5408300180866     
   4275.0181274399120        1.6886447801653048E-002   1161.5431413025442     
   4724.9904826265247        9.1525357220234582E-005   1196.2668063221508     
   4640.6152229636136        4.7148194310011604E-003   1196.2603790435201     
   4556.2417111335963        1.0281888338568024E-002   1196.2530894673400     
   4471.8697082272947        1.5996368340893241E-002   1196.2455902153795     
   4387.4989753357331        2.1061896004994196E-002   1196.2385339095583     
   4303.1292735499364        2.4682108175511530E-002   1196.2325731717740     
   4218.7603639608778        2.6060641314643362E-002   1196.2283606239428     
   4134.3920076594504        2.4401131817285204E-002   1196.2265488878413     
   4050.0239657365892        1.8907216161096585E-002   1196.2277905854298     
   4462.4878068559028        1.8121200112091174E-003   1229.0794919806058     
   4382.7984057762797        5.4343251722457353E-003   1229.0734068708446     
   4303.1114366248858        1.0072563745325169E-002   1229.0663430980292     
   4223.4266870926176        1.5019138807019772E-002   1229.0589177792051     
   4143.7439448702380        1.9566352901847495E-002   1229.0517480315293     
   4064.0629976484338        2.3006508278058391E-002   1229.0454509721703     
   3984.3836331183752        2.4631908827814186E-002   1229.0406437183133     
   3904.7056389704476        2.3734855830980450E-002   1229.0379433870826     
   3825.0288028958144        1.9607653296361605E-002   1229.0379670955783     
   4199.9857183545255        4.4207459325207310E-003   1260.0168809466404     
   4124.9820633314766        6.5788164163222973E-003   1260.0112845735871     
   4049.9814390544657        9.7070728925245930E-003   1260.0046344947368     
   3974.9836850874926        1.3270728779843921E-002   1259.9974874748600     
   3899.9886409948526        1.6734998398760581E-002   1259.9904002786641     
   3824.9961463403561        1.9565094412882900E-002   1259.9839296707930     
   3750.0060406881298        2.1226230517186195E-002   1259.9786324160750     
   3675.0181636024276        2.1183620944611903E-002   1259.9750652791695     
   3600.0323546469599        1.8902478109566800E-002   1259.9737850247820     
   5399.9838683687112       -1.0037517744422075E-002   959.99880658698441     
   5287.4778134871558       -7.9363955783264828E-003   960.00285160631347     
   5174.9814218266210       -1.9268461696810846E-003   960.00554729826160     
   5062.4943398020960        6.8125136644994200E-003   960.00598248568372     
   4950.0162138282858        1.7103066401432443E-002   960.00324599113014     
   4837.5466903201495        2.7766195250706005E-002   959.99642663725444     
   4725.0854156926089        3.7623283151788200E-002   959.98461324683501     
   4612.6320363604618        4.5495712792671839E-002   959.96689464245173     
   4500.1861987387592        5.0204867708316669E-002   959.94235964681036     
   5174.9904482925513       -2.6943118357394269E-003   1004.0575326093028     
   5067.1723001034688       -5.3779865434080421E-003   1004.0627350275661     
   4959.3622253669710       -5.6289812346221879E-003   1004.0667983491907     
   4851.5602773241717       -3.2698255224659079E-003   1004.0684419697888     
   4743.7665092161906        1.8769510511447152E-003   1004.0663852850970     
   4635.9809742842344        9.9888190507044783E-003   1004.0593476908230     
   4528.2037257693410        2.1243248754217348E-002   1004.0460485825387     
   4420.4348169128898        3.5817711232994043E-002   1004.0252073560619     
   4312.6743009559568        5.3889676883500215E-002   1003.9955434069720     
   4949.9974484322165        3.7549687583577906E-003   1046.2412149003310     
   4846.8679787581123       -2.5545795710968378E-003   1046.2470416434728     
   4743.7446921841210       -7.7748180292473990E-003   1046.2520458444926     
   4640.6279757347202       -1.0615665041086686E-002   1046.2546619085472     
   4537.5182164346916       -9.7870380791391653E-003   1046.2533242408349     
   4434.4158013086853       -3.9988548282963166E-003   1046.2464672462600     
   4331.3211173813361        8.0389666593418951E-003   1046.2325253301428     
   4228.2345516776322        2.7616509810741263E-002   1046.2099328974332     
   4125.1564912217591        5.6023855127705247E-002   1046.1771243533187     
   4725.0045845171126        9.2250430448075349E-003   1086.5499676517366     
   4626.5644409484130        4.1127545136987465E-004   1086.5559369277930     
   4528.1283860415915       -8.4952275615250983E-003   1086.5614724536315     
   4429.6970675627035       -1.5335245883306925E-002   1086.5648080803223     
   4331.2711332766730       -1.7949562978628819E-002   1086.5641776586820     
   4232.8512309492744       -1.4178959653463608E-002   1086.5578150398258     
   4134.4380083459737       -1.8642177130914206E-003   1086.5439540746834     
   4036.0321132321756        2.1153880881684017E-002   1086.5208286142361     
   3937.6341933733661        5.7034554426991235E-002   1086.4866725094641     
   4500.0115722765886        1.3630629875024169E-002   1124.9839050551880     
   4406.2612781709713        3.3970260844853328E-003   1124.9895863544068     
   4312.5128707032036       -7.9210798342046473E-003   1124.9952608458543     
   4218.7671853366282       -1.7538810217956780E-002   1124.9990462630524     
   4125.0250575349801       -2.2671285824799270E-002   1124.9990603391648     
   4031.2873227616365       -2.0533628787688940E-002   1124.9934208073994     
   3937.5548164803818       -8.3409598098569404E-003   1124.9802454012622     
   3843.8283741542882        1.6691598024408449E-002   1124.9576518538820     
   3750.1088312475276        5.7348925310407139E-002   1124.9237578985926     
   4275.0181274399120        1.6886447801653048E-002   1161.5431413025442     
   4185.9580819231232        6.2801224939903477E-003   1161.5481553970326     
   4096.8977099320336       -6.1832473668346211E-003   1161.5535936904726     
   4007.8379615855902       -1.7336598562451400E-002   1161.5575422350103     
   3918.7797870024488       -2.4012868917679953E-002   1161.5580870825875     
   3829.7241363016283       -2.3044995083864706E-002   1161.5533142852300     
   3740.6719596019311       -1.1265914287605483E-002   1161.5413098949487     
   3651.6242070221460        1.4491436032585625E-002   1161.5201599639011     
   3562.5818286810845        5.7394118545062156E-002   1161.4879505439912     
   4050.0239657365892        1.8907216161096585E-002   1196.2277905854298     
   3965.6544437019238        8.9380137060288689E-003   1196.2318095295714     
   3881.2824674918734       -3.4126001301046927E-003   1196.2366536567977     
   3796.9090288382408       -1.4838852759339716E-002   1196.2404617743289     
   3712.5351194720365       -2.2034974092093762E-002   1196.2413726894056     
   3628.1617311247373       -2.1695192476499869E-002   1196.2375252092349     
   3543.7898555278553       -1.0513736241364313E-002   1196.2270581408902     
   3459.4204844130008        1.4815166505741217E-002   1196.2081102918648     
   3375.0546095111954        5.7597285940119036E-002   1196.1788204690793     
   3825.0288028958144        1.9607653296361605E-002   1229.0379670955783     
   3745.3499550042820        1.1248148521644907E-002   1229.0407142257550     
   3665.6667071464776        2.5999155059253098E-004   1229.0446234140509     
   3585.9800196233782       -1.0155814213021586E-002   1229.0479706592200     
   3506.2908527364330       -1.6798263971395500E-002   1229.0490319600535     
   3426.6001667868441       -1.6466353751184215E-002   1229.0460833154345     
   3346.9089220758215       -5.9590794935502345E-003   1229.0374007241855     
   3267.2180789046811        1.7924563149790629E-002   1229.0212601851806     
   3187.5285975747611        5.8385578639445157E-002   1228.9959376972331     
   3600.0323546469599        1.8902478109566800E-002   1259.9737850247820     
   3525.0442073274271        1.3087976533597612E-002   1259.9750349595301     
   3450.0499926589532        4.7036554178703227E-003   1259.9776856315862     
   3375.0505664700086       -3.3977235757447488E-003   1259.9802346677511     
   3300.0467845886651       -8.3634002276085084E-003   1259.9811796949136     
   3225.0395028434941       -7.3406126414283790E-003   1259.9790183399962     
   3150.0295770628654        2.5234003644527547E-003   1259.9722482298798     
   3075.0178630749851        2.4081399533997683E-002   1259.9593669914584     
   3000.0052167084696        6.0186146899013693E-002   1259.9388722515396     
   4500.1861987387592        5.0204867708316669E-002   959.94235964681036     
   4387.7151520342086        4.6999229411085253E-002   959.91723389190474     
   4275.1942504146418        5.8143816263282133E-002   959.89915303050088     
   4162.6352977358511       0.12298481436209840        959.88932091621746     
   4050.0500978535547       0.28086840925766410        959.88894140306445     
   3937.4504546236453       0.57114078746758423        959.89921834453185     
   3824.8481719018937        1.0331481349262503        959.92135559466362     
   3712.2550535441578        1.7062366375982947        959.95655700688440     
   3599.6829034061525        2.6297524813037398        960.00602643554589     
   4312.6743009559568        5.3889676883500215E-002   1003.9955434069720     
   4204.8911615094312        7.0848318161779389E-002   1003.9657363037275     
   4097.0603592290145       0.10200629017799656        1003.9473439747283     
   3989.1909129221758       0.17742628434552898        1003.9434033552950     
   3881.2918413965817       0.32717099306455566        1003.9569513804847     
   3773.3721634593699       0.58130310672072483        1003.9910249855773     
   3665.4408979184691       0.96988531831379987        1004.0486611060079     
   3557.5070635811771        1.5229803193703901        1004.1328966767101     
   3449.5796792550359        2.2706508010635389        1004.2467686333462     
   4125.1564912217591        5.6023855127705247E-002   1046.1771243533187     
   4022.0587786737924        8.9116571587055660E-002   1046.1445454220532     
   3918.9173825770613       0.13650317202518636        1046.1266850110171     
   3815.7388787814943       0.22010315642660316        1046.1280423001572     
   3712.5298431372480       0.36183602503433576        1046.1531164696846     
   3609.2968514942463       0.58362127783948381        1046.2064066994844     
   3506.0464797027007       0.90737841524128271        1046.2924121696212     
   3402.7853036123111        1.3550269367785859        1046.4156320600582     
   3299.5198990733852        1.9484863429754569        1046.5805655508013     
   3937.6341933733661        5.7034554426991235E-002   1086.4866725094641     
   3839.2198149662213       0.10234742165789612        1086.4531067238436     
   3740.7670956859292       0.16216702976271336        1086.4366567121745     
   3642.2805105162452       0.25140999108066353        1086.4429130625454     
   3543.7645344398939       0.38499291490256837        1086.4774663629785     
   3445.2236424408438       0.57783241439028643        1086.5459072016126     
   3346.6623095019954       0.84484509914454975        1086.6538261665221     
   3248.0850106067892        1.2009475807965373        1086.8068138457631     
   3149.4962207386898        1.6610564706895730        1087.0104608274437     
   3750.1088312475276        5.7348925310407139E-002   1124.9237578985926     
   3656.3760818254291       0.11108429974933642        1124.8908656861504     
   3562.6112737833469       0.17953043257739409        1124.8767396514231     
   3468.8171233287048       0.27174134867345856        1124.8876909537985     
   3374.9963466690533       0.39677107304009951        1124.9300307527196     
   3281.1516600116611       0.56367362995342774        1125.0100702075820     
   3187.2857795642258       0.78150304507721557        1125.1341204779194     
   3093.4014215339348        1.0593133421956509        1125.3084927231566     
   2999.5013021282980        1.4061585470520868        1125.5394981024033     
   3562.5818286810845        5.7394118545062156E-002   1161.4879505439912     
   3473.5293906902157       0.11587063740262238        1161.4572677860351     
   3384.4516920962055       0.18912594758876367        1161.4464144018164     
   3295.3500324215438       0.28149179056686080        1161.4620512854215     
   3206.2257111885083       0.39729990723139963        1161.5108393311887     
   3117.0800279193454       0.54088203870469442        1161.5994394328056     
   3027.9142821367391       0.71656992670648378        1161.7345124846286     
   2938.7297733626315       0.92869531175051634        1161.9227193806860     
   2849.5278011196988        1.1815899355747206        1162.1707210150732     
   3375.0546095111954        5.7597285940119036E-002   1196.1788204690793     
   3290.6815529994856       0.11724986661511139        1196.1517585003498     
   3206.2901258519973       0.19148614328787517        1196.1451615363319     
   3121.8805529970273       0.28105587678828670        1196.1656693690761     
   3037.4530593625345       0.38670882713222454        1196.2199217905591     
   2953.0078698765915       0.50919475437399342        1196.3145585929253     
   2868.5452094671000       0.64926341843920454        1196.4562195679064     
   2784.0653030622739       0.80766457993001950        1196.6515445077960     
   2699.5683755901978       0.98514799910117290        1196.9071732045018     
   3187.5285975747611        5.8385578639445157E-002   1228.9959376972331     
   3107.8343801918522       0.11576541838576304        1228.9737833062520     
   3028.1283502780961       0.18714358801003073        1228.9724616281974     
   2948.4100002577520       0.27082816858819569        1228.9982205162257     
   2868.6788225555324       0.36512724236752092        1229.0573078234593     
   2788.9343095956860       0.46834889025035409        1229.1559714032667     
   2709.1759538030874       0.57880119491608184        1229.3004591088556     
   2629.4032476020266       0.69479223778455435        1229.4970187934232     
   2549.6156834173130       0.81463010118034163        1229.7518983103018     
   3000.0052167084696        6.0186146899013693E-002   1259.9388722515396     
   2924.9896837064707       0.11196072537666169        1259.9227876808077     
   2849.9681406018317       0.17663085015738034        1259.9277952504522     
   2774.9396894062429       0.25120322697785014        1259.9593800382656     
   2699.9034321314643       0.33268456161874838        1260.0230271219928     
   2624.8584707894352       0.41808156050853995        1260.1242215794216     
   2549.8039073920995       0.50440093013276055        1260.2684484883544     
   2474.7388439510764       0.58864937601197198        1260.4611929263992     
   2399.6623824785001       0.66783360499471200        1260.7079399715387     
   7201.8466366133598       -3.2720107299351184        1259.8788845875627     
   7126.5124277649193       -2.4365501313732238        1259.8957472014890     
   7051.1919787826027       -1.7933439166749849        1259.9119532423615     
   6975.8939127396889       -1.3136485087820802        1259.9275036554850     
   6900.6268527089760      -0.96872033134104640        1259.9423993859152     
   6825.3994217635063      -0.72981580760961151        1259.9566413789967     
   6750.2202429762692      -0.56819136093008638        1259.9702305798435     
   6675.0979394204114      -0.45510341424096623        1259.9831679337556     
   6600.0411341688123      -0.36180839121016106        1259.9954543859076     
   6751.7980501497132       -3.4944085588344933        1289.2645681855286     
   6681.1879043722238       -2.5493911628145725        1289.1938292052400     
   6610.5797881013395       -1.8317129556444343        1289.1412640545666     
   6539.9840656241522       -1.3068263137720351        1289.1046239859243     
   6469.4111012274998      -0.94018361421422014        1289.0816602516520     
   6398.8712591984549      -0.69723723344350219        1289.0701241042436     
   6328.3749038239948      -0.54343954824071261        1289.0677667960920     
   6257.9323993911075      -0.44424293523206870        1289.0723395795897     
   6187.5541101867693      -0.36509977124319448        1289.0815937071770     
   6301.7447575161150       -3.5420128092168852        1316.7645886455748     
   6235.8489434780649       -2.5685015034428034        1316.6122856194659     
   6169.9490288699153       -1.8316688641225483        1316.4948090643541     
   6104.0558232410867       -1.2954830603155187        1316.4080766270558     
   6038.1801361408779      -0.92391226086374445        1316.3480059543201     
   5972.3327771184222      -0.68092463527159452        1316.3105146927976     
   5906.5245557231783      -0.53048835211006917        1316.2915204893166     
   5840.7662815043132      -0.43657158066594093        1316.2869409904818     
   5775.0687640111955      -0.36314248998473886        1316.2926938431947     
   5851.6990791593544       -3.4111273472046832        1342.3648711277253     
   5790.5045558347683       -2.4911779275744266        1342.1410463376899     
   5729.3058776746348       -1.7913586663257774        1341.9659181215670     
   5668.1130035388569       -1.2784733638270609        1341.8339866075928     
   5606.9358922874662      -0.91932582009690123        1341.7397519239257     
   5545.7845027800968      -0.68071983617755905        1341.6777141986320     
   5484.6687938768555      -0.52945921172772614        1341.6423735599433     
   5423.5987244375992      -0.43234774730080971        1341.6282301359945     
   5362.5842533222731      -0.35618924308914757        1341.6297840549714     
   5401.6733355262713       -3.0980560385048648        1366.0513407919289     
   5345.1637521950379       -2.3147172092578785        1365.7700412536863     
   5288.6565111019290       -1.7089293862102295        1365.5479210761905     
   5232.1594244658818       -1.2546518397889486        1365.3784789562724     
   5175.6803045057077      -0.92584384045972001        1365.2552135905564     
   5119.2269634401755      -0.69646465905543664        1365.1716236757238     
   5062.8072134881922      -0.54047356585556372        1365.1212079084785     
   5006.4288668685740      -0.43182983149904430        1365.0974649854800     
   4950.0997358000386      -0.34449272692518207        1365.0938936034674     
   4951.6798470635986       -2.5991027492784724        1387.8099227980167     
   4899.8355433112092       -2.0364161231148046        1387.4892002609338     
   4848.0071057381820       -1.5825280479516550        1387.2341477780760     
   4796.1989039704704       -1.2228731036923364        1387.0376787017690     
   4744.4153076341345      -0.94288587022697357        1386.8927063842871     
   4692.6606863554171      -0.72800092677448447        1386.7921441780395     
   4640.9394097601707      -0.56365285375454732        1386.7289054352957     
   4589.2558474745947      -0.43527623062823295        1386.6959035083630     
   4537.6143691248008      -0.32830563692550641        1386.6860517496368     
   4501.7309342181607       -1.9105713455205660        1407.6265423060170     
   4454.5289399360490       -1.6535714430024200        1407.2884532532389     
   4407.3638381697474       -1.4103016755755107        1407.0179280771288     
   4360.2352600009654       -1.1819917711479775        1406.8077108727759     
   4313.1428365113297      -0.96987145748767034        1406.6505457352253     
   4266.0861987823891      -0.77517046272828338        1406.5391767595436     
   4219.0649778958059      -0.59911851470087640        1406.4663480407926     
   4172.0788049332959      -0.44294534106870742        1406.4248036740894     
   4125.1273109763906      -0.30788066998798058        1406.4072877544295     
   4051.8389174366794       -1.0287656931507172        1425.4871244756587     
   4009.2529528218538       -1.1634799433668377        1425.1577301240961     
   3966.7328849830128       -1.1903972932643683        1424.8925918232105     
   3924.2723105058112       -1.1308624573832731        1424.6847004980623     
   3881.8648259755264       -1.0062201513990203        1424.5270470733799     
   3839.5040279778877      -0.83781508962397311        1424.4126224742270     
   3797.1835130982890      -0.64699198733433150        1424.3344176254868     
   3754.8968779222928      -0.45509555932585499        1424.2854234520667     
   3712.6377190353414      -0.28347052082654045        1424.2586308789848     
   3602.0161171660011        5.0010341948791392E-002   1441.3775944670151     
   3564.0165927212379      -0.56343839838723397        1441.0869607671655     
   3526.1204227643980      -0.92096192483904815        1440.8514688663122     
   3488.3138734331033       -1.0683397786933710        1440.6647726061929     
   3450.5832108654085       -1.0513514997855964        1440.5205258288233     
   3412.9147011986029      -0.91577663037196544        1440.4123823759808     
   3375.2946105705641      -0.70739471098295326        1440.3339960897022     
   3337.7092051188665      -0.47198528288140551        1440.2790208117324     
   3300.1447509814188      -0.25532788656710181        1440.2411103840645     
   6600.0411341688123      -0.36180839121016106        1259.9954543859076     
   6525.0213519683357      -0.27496056891004628        1260.0049013000234     
   6450.0044889643377      -0.19997622927758130        1260.0097737134151     
   6374.9907253278579      -0.13625480230166431        1260.0107530820972     
   6299.9802412296440       -8.3195718750175729E-002   1260.0085208618402     
   6224.9732168407190       -4.0198408584274148E-002   1260.0037585085504     
   6149.9698323320454       -6.6623019224607560E-003   1259.9971474781407     
   6074.9702678744698        1.8013170710219129E-002   1259.9893692264602     
   5999.9747036389426        3.4428579192990583E-002   1259.9811052092964     
   6187.5541101867693      -0.36509977124319448        1289.0815937071770     
   6117.2140990609132      -0.28766047316867116        1289.0892776113049     
   6046.8794298182347      -0.21690560874139919        1289.0912955335125     
   5976.5499681778983      -0.15328278065339873        1289.0886324399153     
   5906.2255798593624       -9.7239590805656917E-002   1289.0822732967060     
   5835.9061305816167       -4.9223642604829365E-002   1289.0732030698921     
   5765.5914860641324       -9.6825376967899501E-003   1289.0624067256499     
   5695.2815120259893        2.0936120845135520E-002   1289.0508692300486     
   5624.9760741865066        4.2184730687495176E-002   1289.0395755492345     
   5775.0687640111955      -0.36314248998473886        1316.2926938431947     
   5709.4088883237418      -0.28994116466924424        1316.2985005593134     
   5643.7561620603119      -0.22129922835006255        1316.2976444922299     
   5578.1103285776917      -0.15807215837276090        1316.2913860505812     
   5512.4711312329200      -0.10111543126390643        1316.2809856431579     
   5446.8383133828629       -5.1284524165339462E-002   1316.2677036787200     
   5381.2116183844755       -9.4349138653342379E-003   1316.2528005659276     
   5315.5907895945429        2.3577922250296979E-002   1316.2375367136051     
   5249.9755703701176        4.6898507689093094E-002   1316.2231725303627     
   5362.5842533222731      -0.35618924308914757        1341.6297840549714     
   5301.6051181650064      -0.28198312074664500        1341.6331131286911     
   5240.6342927494316      -0.21327497054471678        1341.6289669394907     
   5179.6715901594525      -0.15068784599793617        1341.6188532710482     
   5118.7168234788796       -9.4844801175895554E-002   1341.6042799070951     
   5057.7698057917614       -4.6368889182303974E-002   1341.5867546313007     
   4996.8303501819701       -5.8831638252740959E-003   1341.5677852274314     
   4935.8982697334004        2.5989321279666910E-002   1341.5488794792025     
   4874.9733775298873        4.8625512179569341E-002   1341.5315451703116     
   4950.0997358000386      -0.34449272692518207        1365.0938936034674     
   4893.8021869928507      -0.26396681910910047        1365.0936583040850     
   4837.5134289445368      -0.19295071743454173        1365.0854092253544     
   4781.2335365554118      -0.13119475421399329        1365.0708734583786     
   4724.9625847256948       -7.8449262044159696E-002   1365.0517780941766     
   4668.7006483556825       -3.4464573292325440E-002   1365.0298502238682     
   4612.4478023455567        1.0089793590850604E-003   1365.0068169384660     
   4556.2041215955433        2.8221063261526069E-002   1364.9844053290676     
   4499.9696810059295        4.7421346131841347E-002   1364.9643424866972     
   4537.6143691248008      -0.32830563692550641        1386.6860517496368     
   4485.9994932153804      -0.23607273735888157        1386.6806790701005     
   4434.3931777045227      -0.16044435131448154        1386.6671176998605     
   4382.7959513980422       -9.9657792760581287E-002   1386.6472859696360     
   4331.2083431018445       -5.1950375295518825E-002   1386.6231022102711     
   4279.6308816218734       -1.5559412486254587E-002   1386.5964847525886     
   4228.0640957640626        1.1277782123443103E-002   1386.5693519272820     
   4176.5085143342731        3.0323894729917811E-002   1386.5436220652048     
   4124.9646661384704        4.3341611900359567E-002   1386.5212134972051     
   4125.1273109763906      -0.30788066998798058        1406.4072877544295     
   4078.1964352408208      -0.19848135288225421        1406.3947184114033     
   4031.2731460882105      -0.11587375472390704        1406.3742387128627     
   3984.3586183195157       -5.6141872422813321E-002   1406.3479301618606     
   3937.4540267357752       -1.5369702440466426E-002   1406.3178742611351     
   3890.5605461376817        1.0358757476296887E-002   1406.2861525136236     
   3843.6793513263920        2.4959511225915776E-002   1406.2548464222898     
   3796.8116171026563        3.2348561285061805E-002   1406.2260374899092     
   3749.9585182674709        3.6441910974190250E-002   1406.2018072193507     
   3712.6377190353414      -0.28347052082654045        1424.2586308789848     
   3670.3924114772994      -0.15137314326352680        1424.2363193126325     
   3628.1529411546085       -5.9356809619202977E-002   1424.2069186145841     
   3585.9213209522300       -7.1190328048942320E-004   1424.1726453920751     
   3543.6995637559212        3.1271194931605351E-002   1424.1357162525676     
   3501.4896824505040        4.3302101078324995E-002   1424.0983478033563     
   3459.2936899213314        4.2090433047178522E-002   1424.0627566517730     
   3417.1135990538937        3.4345809041951725E-002   1424.0311594051448     
   3374.9514227330665        2.6777845402193634E-002   1424.0057726709115     
   3300.1447509814188      -0.25532788656710181        1440.2411103840645     
   3262.5868203328787       -9.4928586435571560E-002   1440.2060247584402     
   3225.0321699623782        8.9886009870951966E-003   1440.1653037548210     
   3187.4838429285937        6.6567204719831352E-002   1440.1212710173065     
   3149.9448822907684        8.7950755458223284E-002   1440.0762501903585     
   3112.4183311074407        8.3282781827620056E-002   1440.0325649178151     
   3074.9072324380445        6.2706815125011417E-002   1439.9925388440624     
   3037.4146293409403        3.6366383308063632E-002   1439.9584956132478     
   2999.9435648757185        1.4405018314050722E-002   1439.9327588694994     
   5999.9747036389426        3.4428579192990583E-002   1259.9811052092964     
   5924.9800294049746        4.2376846048000516E-002   1259.9741295633489     
   5849.9833716164358        4.2439775008460856E-002   1259.9696171100834     
   5774.9852654406131        3.6401257068746418E-002   1259.9673503328677     
   5699.9862460448976        2.6045183586347775E-002   1259.9671117149446     
   5624.9868485964826        1.3155445132042587E-002   1259.9686837396082     
   5549.9876082627588       -4.8406702694592241E-004   1259.9718488902358     
   5474.9890602111027       -1.3089461615663822E-002   1259.9763896500717     
   5399.9917396086676       -2.2876848043551945E-002   1259.9820885023653     
   5624.9760741865066        4.2184730687495176E-002   1289.0395755492345     
   5554.6711640539370        5.2858806156564242E-002   1289.0306595396976     
   5484.3633077033464        5.3535750940682192E-002   1289.0253206449511     
   5414.0531727047983        4.6440798597132016E-002   1289.0231422121135     
   5343.7414266279347        3.3799181198219230E-002   1289.0237075880982     
   5273.4287370424818        1.7836131228477825E-002   1289.0266001198004     
   5203.1157715183554        7.7688177452728269E-004   1289.0314031543032     
   5132.8031976253496       -1.5153334615206404E-002   1289.0377000385263     
   5062.4916829330577       -2.7729285839996010E-002   1289.0450741194134     
   5249.9755703701176        4.6898507689093094E-002   1316.2231725303627     
   5184.3609216951818        5.8737460482007009E-002   1316.2122511216539     
   5118.7424649590339        5.9506749684032911E-002   1316.2060598505243     
   5053.1209341259573        5.1652922940547796E-002   1316.2039755123246     
   4987.4970631607011        3.7622529404870875E-002   1316.2053749024740     
   4921.8715860276052        1.9862116871991020E-002   1316.2096348163684     
   4856.2452366913667        8.1823432128658169E-004   1316.2161320493142     
   4790.6187491163673       -1.7062570285816037E-002   1316.2242433967767     
   4724.9928572671770       -3.1333748386487059E-002   1316.2333456540155     
   4874.9733775298873        4.8625512179569341E-002   1341.5315451703116     
   4814.0494835800519        6.0067184937224738E-002   1341.5187239614190     
   4753.1210120707510        6.0403376340900650E-002   1341.5117942097795     
   4692.1886973535902        5.2081925096672421E-002   1341.5099187438855     
   4631.2532737798992        3.7550668959738687E-002   1341.5122603922780     
   4570.3154757013735        1.9257446911979059E-002   1341.5179819834407     
   4509.3760374693102       -3.4990337303497654E-004   1341.5262463459035     
   4448.4356934354209       -1.8823542914788050E-002   1341.5362163082173     
   4387.4951779510502       -3.3715633791643995E-002   1341.5470546988545     
   4499.9696810059295        4.7421346131841347E-002   1364.9643424866972     
   4443.7370309596690        5.6902354695239410E-002   1364.9498977112112     
   4387.4991177264274        5.6276238138025292E-002   1364.9424832059456     
   4331.2566100371241        4.7772099598205386E-002   1364.9410404172529     
   4275.0101766225016        3.3619041485053458E-002   1364.9445107915626     
   4218.7604862131666        1.6046165855414074E-002   1364.9518357752204     
   4162.5082075399760       -2.7174244628440647E-003   1364.9619568146975     
   4106.2540093335365       -2.0442627470629304E-002   1364.9738153563533     
   4049.9985603247110       -3.4900340222520754E-002   1364.9863528465844     
   4124.9646661384704        4.3341611900359567E-002   1386.5212134972051     
   4073.4237450850851        4.9297344742171845E-002   1386.5055920231637     
   4021.8769506135395        4.7175940968145369E-002   1386.4980863220233     
   3970.3248198262040        3.8767741842093528E-002   1386.4974090427233     
   3918.7678898251552        2.5863087613060998E-002   1386.5022728343154     
   3867.2066977125637        1.0252318831589946E-002   1386.5113903458430     
   3815.6417805907759       -6.2742233046719775E-003   1386.5234742262480     
   3764.0736755619346       -2.1926198370238126E-002   1386.5372371246024     
   3712.5029197283211       -3.4913265392333415E-002   1386.5513916899174     
   3749.9585182674709        3.6441910974190250E-002   1406.2018072193507     
   3703.1098072076152        3.7306530888372436E-002   1406.1856265494509     
   3656.2546794198597        3.3153091515941924E-002   1406.1785630411089     
   3609.3934743701825        2.5113146153671551E-002   1406.1790931307362     
   3562.5265315246174        1.4318248256813604E-002   1406.1856932547416     
   3515.6541903489770        1.8999505102783587E-003   1406.1968398494157     
   3468.7767903094218       -1.1010193220727160E-002   1406.2110093512156     
   3421.8946708718299       -2.3280630015733550E-002   1406.2266781964356     
   3375.0081715018641       -3.3779807599557898E-002   1406.2423228214807     
   3374.9514227330665        2.6777845402193634E-002   1424.0057726709115     
   3332.7953985782901        2.0984288006957286E-002   1423.9898209422236     
   3290.6324728328004        1.4258295357421957E-002   1423.9838728463544     
   3248.4627213187077        6.8526078885042807E-003   1423.9861611917397     
   3206.2862198577614       -9.8003528637491399E-004   1423.9949187868137     
   3164.1030442721290       -8.9868935508548020E-003   1424.0083784401756     
   3121.9132703834375       -1.6915228211473732E-002   1424.0247729601567     
   3079.7169740139002       -2.4512298539889343E-002   1424.0423351552563     
   3037.5142309853841       -3.1525364939852807E-002   1424.0592978340089     
   2999.9435648757185        1.4405018314050722E-002   1439.9327588694994     
   2962.4807004484683        3.8499205379594059E-004   1439.9179948536760     
   2925.0104995401316       -9.4578407304197754E-003   1439.9139752207948     
   2887.5327083210600       -1.5969578845215437E-002   1439.9186817360276     
   2850.0470729613053       -1.9996322134375077E-002   1439.9300961647036     
   2812.5533396310375       -2.2384170029340567E-002   1439.9462002721443     
   2775.0512545006045       -2.3979221434956344E-002   1439.9649758236969     
   2737.5405637398030       -2.5627576886108727E-002   1439.9844045846141     
   2700.0210135194320       -2.8175333827562099E-002   1440.0024683201468     
   5399.9917396086676       -2.2876848043551945E-002   1259.9820885023653     
   5324.9953234543100       -2.8692375678474491E-002   1259.9877852232178     
   5249.9989974193722       -3.1019952305769039E-002   1259.9925800632464     
   5175.0025596797614       -3.0532324804198652E-002   1259.9966462177849     
   5100.0058084115135       -2.7902239677814578E-002   1260.0001568821831     
   5025.0085417906939       -2.3802443459544520E-002   1260.0032852517704     
   4950.0105579933143       -1.8905682820559377E-002   1260.0062045219481     
   4875.0116551953461       -1.3884704481824883E-002   1260.0090878879605     
   4800.0116315727892       -9.4122550392512494E-003   1260.0121085451701     
   5062.4916829330577       -2.7729285839996010E-002   1289.0450741194134     
   4992.1813131654844       -3.5364338604267687E-002   1289.0520206200238     
   4921.8715621171086       -3.8511624584316451E-002   1289.0574922157066     
   4851.5621794641502       -3.8005556319149036E-002   1289.0617584322649     
   4781.2529148826461       -3.4680547091511471E-002   1289.0650887952199     
   4710.9435180487462       -2.9371009743499599E-002   1289.0677528302849     
   4640.6337386385021       -2.2911357309112645E-002   1289.0700200631441     
   4570.3233263281281       -1.6136002547909811E-002   1289.0721600194800     
   4500.0120307936122       -9.8793587455929810E-003   1289.0744422248806     
   4724.9928572671770       -3.1333748386487059E-002   1316.2333456540155     
   4659.3681793227088       -4.0097618690879244E-002   1316.2415536480394     
   4593.7446554862490       -4.3716418654867084E-002   1316.2476535784219     
   4528.1220027588342       -4.3133478176741846E-002   1316.2520292995071     
   4462.4999381418638       -3.9292125910833420E-002   1316.2550646656925     
   4396.8781786361760       -3.3135692407995521E-002   1316.2571435313182     
   4331.2564412430884       -2.5607506584719886E-002   1316.2586497507489     
   4265.6344429636683       -1.7650898256761138E-002   1316.2599671783842     
   4200.0119007990188       -1.0209197015910831E-002   1316.2614796685043     
   4387.4951779510502       -3.3715633791643995E-002   1341.5470546988545     
   4326.5557799024955       -4.2934822971801623E-002   1341.5564791998931     
   4265.6180987091147       -4.6687980485330627E-002   1341.5631097287737     
   4204.6818345220054       -4.5974602636078998E-002   1341.5674624669041     
   4143.7466874922557       -4.1794185836806719E-002   1341.5700535957542     
   4082.8123577709898       -3.5146226338383713E-002   1341.5713992967383     
   4021.8785455092766       -2.7030220525375626E-002   1341.5720157513447     
   3960.9449508582725       -1.8445664647060767E-002   1341.5724191409809     
   3900.0112739688684       -1.0392055583224646E-002   1341.5731256471313     
   4049.9985603247110       -3.4900340222520754E-002   1364.9863528465844     
   3993.7439728814129       -4.3918558407085584E-002   1364.9968921681968     
   3937.4917129684495       -4.7479954657092094E-002   1365.0039062442895     
   3881.2414797117749       -4.6587442411464508E-002   1365.0080615817935     
   3824.9929722374814       -4.2243934745329170E-002   1365.0100246875372     
   3768.7458896713829       -3.5452345612611680E-002   1365.0104620685242     
   3712.4999311395895       -2.7215587936780139E-002   1365.0100402315795     
   3656.2547957681631       -1.8536574925292371E-002   1365.0094256836642     
   3600.0101826828932       -1.0418220552992352E-002   1365.0092849316693     
   3712.5029197283211       -3.4913265392333415E-002   1386.5513916899174     
   3660.9326162359998       -4.3091431923585333E-002   1386.5628874454503     
   3609.3653194466378       -4.6145986839974285E-002   1386.5700887023690     
   3557.8007432861859       -4.5030510276546920E-002   1386.5738302912746     
   3506.2386016804276       -4.0698582988852650E-002   1386.5749470430687     
   3454.6786085552958       -3.4103785168781542E-002   1386.5742737884102     
   3403.1204778364190       -2.6199698060054288E-002   1386.5726453580503     
   3351.5639234495452       -1.7939902527587037E-002   1386.5708965827434     
   3300.0086593208498       -1.0277977952455331E-002   1386.5698622932518     
   3375.0081715018641       -3.3779807599557898E-002   1406.2423228214807     
   3328.1215679426277       -4.0496051113905196E-002   1406.2545599243067     
   3281.2387393262861       -4.2739722152191462E-002   1406.2617026803648     
   3234.3594302034899       -4.1362318484971183E-002   1406.2647722428196     
   3187.4833851248600       -3.7215338049463753E-002   1406.2647897644820     
   3140.6103486407310       -3.1150279748544563E-002   1406.2627763983000     
   3093.7400653018617       -2.4018641054112777E-002   1406.2597532973773     
   3046.8722796589391       -1.6671919694772441E-002   1406.2567416145303     
   3000.0067362621930       -9.9616148310133212E-003   1406.2547625027987     
   3037.5142309853841       -3.1525364939852807E-002   1424.0592978340089     
   2995.3106859779323       -3.6175022662746414E-002   1424.0720044972595     
   2953.1117937899430       -3.7314805776418325E-002   1424.0787937559578     
   2910.9173454217621       -3.5641379760249947E-002   1424.0808910836338     
   2868.7271318736512       -3.1851410434228455E-002   1424.0795219538138     
   2826.5409441457714       -2.6641563880616559E-002   1424.0759118401927     
   2784.3585732387410       -2.0708504735580391E-002   1424.0712862161531     
   2742.1798101523427       -1.4748900443919410E-002   1424.0668705553690     
   2700.0044458870002       -9.4594161470240579E-003   1424.0638903313898     
   2700.0210135194320       -2.8175333827562099E-002   1440.0024683201468     
   2662.4998283184841       -3.0170953435913361E-002   1440.0153160569862     
   2624.9843040201090       -2.9924883101102751E-002   1440.0214075064027     
   2587.4742938990748       -2.7926206892288974E-002   1440.0221904610262     
   2549.9696512302730       -2.4664008505055790E-002   1440.0191127132998     
   2512.4702292885718       -2.0627371740147282E-002   1440.0136220557790     
   2474.9758813488897       -1.6305380261997016E-002   1440.0071662810556     
   2437.4864606860428       -1.2187117838152517E-002   1440.0011931816891     
   2400.0018205750662       -8.7616678299582418E-003   1439.9971505500612     
   4800.0116315727892       -9.4122550392512494E-003   1260.0121085451701     
   4725.0105908166361       -5.9388079423570161E-003   1260.0152572377240     
   4650.0088088623725       -3.3406884126634395E-003   1260.0182261213185     
   4575.0063422522180       -1.4294222189619177E-003   1260.0207405086480     
   4500.0032475289245       -1.6533533425899805E-005   1260.0225257124766     
   4424.9995812349143        1.0864523085274413E-003   1260.0233070454221     
   4349.9953999128693        2.0680108966644184E-003   1260.0228098203204     
   4274.9907601052619        3.1166171504537488E-003   1260.0207593498324     
   4199.9857183545255        4.4207459325207310E-003   1260.0168809466404     
   4500.0120307936122       -9.8793587455929810E-003   1289.0744422248806     
   4429.6996272374499       -4.8153983968859393E-003   1289.0769997311065     
   4359.3860923328411       -9.4652499228686793E-004   1289.0795891685489     
   4289.0714779628051        1.9002049391474429E-003   1289.0819154313965     
   4218.7558360099129        3.8977332196736825E-003   1289.0836834134850     
   4148.4392183569034        5.2190023288858356E-003   1289.0845980088577     
   4078.1216768864551        6.0369546088168136E-003   1289.0843641115314     
   4007.8032634812921        6.5245323778526654E-003   1289.0826866154614     
   3937.4840300240671        6.8546778979907685E-003   1289.0792704146368     
   4200.0119007990188       -1.0209197015910831E-002   1316.2614796685043     
   4134.3881983058682       -4.1517349427522277E-003   1316.2634836164150     
   4068.7629485318216        4.1712553706929612E-004   1316.2657932414263     
   4003.1362127141310        3.7015086352312210E-003   1316.2680691339549     
   3937.5080520905472        5.9055401854948286E-003   1316.2699718846245     
   3871.8785278984201        7.2333446398715751E-003   1316.2711620838279     
   3806.2477013752523        7.8890470529131562E-003   1316.2713003221545     
   3740.6156337587645        8.0767731465130055E-003   1316.2700471901526     
   3674.9823862861299        8.0006468269857578E-003   1316.2670632781876     
   3900.0112739688684       -1.0392055583224646E-002   1341.5731256471313     
   3839.0764196617893       -3.9131246571741940E-003   1341.5746156220919     
   3778.1395490614750        8.0174272579824901E-004   1341.5767535654927     
   3717.2007467747935        4.0345694310417457E-003   1341.5791318796134     
   3656.2600974085703        6.0673782159028633E-003   1341.5813429667623     
   3595.3176855698111        7.1821924336745724E-003   1341.5829792291140     
   3534.3735958653861        7.6610350072314759E-003   1341.5836330690315     
   3473.4279129021188        7.7859285972863290E-003   1341.5828968887668     
   3412.4807212868909        7.8388962849658128E-003   1341.5803630905593     
   3600.0101826828932       -1.0418220552992352E-002   1365.0092849316693     
   3543.7644069448520       -4.0648754422818456E-003   1365.0103024762982     
   3487.5160655247096        2.5880847465487022E-004   1365.0123853665555     
   3431.2652804134591        2.9594679044748773E-003   1365.0150339316401     
   3375.0121736020469        4.4437392452891800E-003   1365.0177485008410     
   3318.7568670813966        5.1182589515974541E-003   1365.0200294034912     
   3262.4994828423405        5.3896631316092680E-003   1365.0213769689030     
   3206.2401428758585        5.6645883071269054E-003   1365.0212915262771     
   3149.9789691726546        6.3496702859993093E-003   1365.0192734049499     
   3300.0086593208498       -1.0277977952455331E-002   1386.5698622932518     
   3248.4522757942841       -4.5722965605818899E-003   1386.5704509073614     
   3196.8926695238888       -1.1601969338244089E-003   1386.5726038701671     
   3145.3300138987743        5.3628465502697509E-004   1386.5757055530960     
   3093.7644823088276        1.0951144687396663E-003   1386.5791403278026     
   3042.1962481435271        1.0942574513137515E-003   1386.5822925657951     
   2990.6254847920850        1.1116776588551147E-003   1386.5845466385219     
   2939.0523656444129        1.7253414152946789E-003   1386.5852869176576     
   2887.4770640898191        3.5132131406498956E-003   1386.5838977746923     
   3000.0067362621930       -9.9616148310133212E-003   1406.2547625027987     
   2953.1401418500300       -5.4006949345648536E-003   1406.2549676435137     
   2906.2695326613566       -3.4037934932484859E-003   1406.2573243019719     
   2859.3951474994110       -3.1748996615306169E-003   1406.2610770073152     
   2812.5172251668032       -3.9180047363061021E-003   1406.2654702885256     
   2765.6360044661001       -4.8371001812483883E-003   1406.2697486745922     
   2718.7517242004787       -5.1361754075287536E-003   1406.2731566947132     
   2671.8646231722992       -4.0192225656028313E-003   1406.2749388777991     
   2624.9749401844347       -6.9023199125695101E-004   1406.2743397529250     
   2700.0044458870002       -9.4594161470240579E-003   1424.0638903313898     
   2657.8281207513919       -6.5153796326740121E-003   1424.0637594130212     
   2615.6468265401641       -6.4204987651237388E-003   1424.0664618878175     
   2573.4608814841504       -8.1140040183527162E-003   1424.0710785574993     
   2531.2706038139104       -1.0535126951708662E-002   1424.0766902238900     
   2489.0763117597821       -1.2623099663528592E-002   1424.0823776889624     
   2446.8783235531882       -1.3317150815510104E-002   1424.0872217542374     
   2404.6769574238810       -1.1556514603512369E-002   1424.0903032216338     
   2362.4725316028657       -6.2804208967008890E-003   1424.0907028930560     
   2400.0018205750662       -8.7616678299582418E-003   1439.9971505500612     
   2362.5163281380323       -7.8816584741616680E-003   1439.9967329441599     
   2325.0247227623822       -1.0158833513855825E-002   1439.9999318531125     
   2287.5274161213615       -1.4220948782167397E-002   1440.0056404668164     
   2250.0248198878130       -1.8695761458729976E-002   1440.0127519749124     
   2212.5173457349892       -2.2211027412595286E-002   1440.0201595673282     
   2175.0054053359863       -2.3394503009512846E-002   1440.0267564338483     
   2137.4894103639485       -2.0873944287018276E-002   1440.0314357642244     
   2099.9697724915068       -1.3277109280238619E-002   1440.0330907481818     
   4199.9857183545255        4.4207459325207310E-003   1260.0168809466404     
   4124.9820633314766        6.5788164163222973E-003   1260.0112845735871     
   4049.9814390544657        9.7070728925245930E-003   1260.0046344947368     
   3974.9836850874926        1.3270728779843921E-002   1259.9974874748600     
   3899.9886409948526        1.6734998398760581E-002   1259.9904002786641     
   3824.9961463403561        1.9565094412882900E-002   1259.9839296707930     
   3750.0060406881298        2.1226230517186195E-002   1259.9786324160750     
   3675.0181636024276        2.1183620944611903E-002   1259.9750652791695     
   3600.0323546469599        1.8902478109566800E-002   1259.9737850247820     
   3937.4840300240671        6.8546778979907685E-003   1289.0792704146368     
   3867.1662304143802        7.7743189478951535E-003   1289.0741550659341     
   3796.8520043277381        9.6496363441929134E-003   1289.0679109421344     
   3726.5412323105920        1.2082451681862949E-002   1289.0610391614382     
   3656.2337949101775        1.4674588963771384E-002   1289.0540408418060     
   3585.9295726727482        1.7027869079583979E-002   1289.0474171013029     
   3515.6284461451128        1.8744114840274051E-002   1289.0416690579518     
   3445.3302958741310        1.9425148914251622E-002   1289.0372978299620     
   3375.0350024062018        1.8672792849656616E-002   1289.0348045351736     
   3674.9823862861299        8.0006468269857578E-003   1316.2670632781876     
   3609.3506784045840        8.5678376412943180E-003   1316.2623070683546     
   3543.7231050526707        1.0270486096260356E-002   1316.2562831360658     
   3478.0995407051878        1.2690174918816410E-002   1316.2494712118926     
   3412.4798598370812        1.5408487243121272E-002   1316.2423510265912     
   3346.8639369227694        1.8007004424362094E-002   1316.2354023108508     
   3281.2516464375685        2.0067310885224288E-002   1316.2291047952735     
   3215.6428628560197        2.1170988416315595E-002   1316.2239382105558     
   3150.0374606527334        2.0899619059719043E-002   1316.2203822873582     
   3412.4807212868909        7.8388962849658128E-003   1341.5803630905593     
   3351.5352395582722        8.9090488145302515E-003   1341.5758841631575     
   3290.5945107492043        1.1500478269681480E-002   1341.5699127288506     
   3229.6583562079049        1.5017678764706943E-002   1341.5629413901565     
   3168.7265972825903        1.8865144341361884E-002   1341.5554627496267     
   3107.7990553219511        2.2447370573672742E-002   1341.5479694098742     
   3046.8755516741144        2.5168851291368810E-002   1341.5409539733901     
   2985.9559076874116        2.6434080859075948E-002   1341.5349090427603     
   2925.0399447103096        2.5647554285114893E-002   1341.5303272204510     
   3149.9789691726546        6.3496702859993093E-003   1365.0192734049499     
   3093.7197461321848        8.7476306355256384E-003   1365.0150299325869     
   3037.4659909373204        1.3270469064650570E-002   1365.0089613730802     
   2981.2174247556704        1.8988744328339635E-002   1365.0016074601488     
   2924.9737687545107        2.4973013960334356E-002   1364.9935079275058     
   2868.7347441012744        3.0293836073155944E-002   1364.9852025088137     
   2812.5000719632499        3.4021768332195279E-002   1364.9772309377772     
   2756.2694735079335        3.5227368956157079E-002   1364.9701329481329     
   2700.0426699024338        3.2981195087472770E-002   1364.9644482735482     
   2887.4770640898191        3.5132131406498956E-003   1386.5838977746923     
   2835.9040303821403        8.0332582468827241E-003   1386.5798879588360     
   2784.3373151366613        1.5511313630668155E-002   1386.5735907211333     
   2732.7764922854244        2.4527152832547472E-002   1386.5656271856362     
   2681.2211357598812        3.3660547320437217E-002   1386.5566184765194     
   2629.6708194920557        4.1491270514711687E-002   1386.5471857178504     
   2578.1251174136587        4.6599094810744646E-002   1386.5379500337549     
   2526.5836034567665        4.7563793734639148E-002   1386.5295325484014     
   2475.0458515527798        4.2965138686895443E-002   1386.5225543858699     
   2624.9749401844347       -6.9023199125695101E-004   1406.2743397529250     
   2578.0879245650685        6.7156104049672649E-003   1406.2706018242066     
   2531.2082528675351        1.8153869234765807E-002   1406.2639624254341     
   2484.3353047342148        3.1556685803593609E-002   1406.2551583305424     
   2437.4684598061626        4.4856197005174181E-002   1406.2449263132801     
   2390.6070977256368        5.5984543626436789E-002   1406.2340031473755     
   2343.7505981340551        6.2873863782897388E-002   1406.2231256067662     
   2296.8983406731641        6.3456296568915604E-002   1406.2130304651855     
   2250.0497049849346        5.5663981990846878E-002   1406.2044544963937     
   2362.4725316028657       -6.2804208967008890E-003   1424.0907028930560     
   2320.2712609368273        4.7443623359413323E-003   1424.0873151109108     
   2278.0785736496482        2.1128991154910182E-002   1424.0802381386507     
   2235.8936080385242        4.0001122940338973E-002   1424.0703586588122     
   2193.7155024008125        5.8488415515171255E-002   1424.0585633542737     
   2151.5433950329611        7.3718523743309561E-002   1424.0457389078274     
   2109.3764242327447        8.2819106842180190E-002   1424.0327720021846     
   2067.2137282966901        8.2917819864860576E-002   1424.0205493201477     
   2025.0544455225354        7.1142322050832263E-002   1424.0099575444613     
   2099.9697724915068       -1.3277109280238619E-002   1440.0330907481818     
   2062.4538717541600        2.0691922256901307E-003   1440.0301714012360     
   2024.9480470029307        2.4367535487499481E-002   1440.0225795129561     
   1987.4511481357731        4.9784247043021423E-002   1440.0113859341820     
   1949.9620250506302        7.4485653311853639E-002   1439.9976615160060     
   1912.4795276454624        9.4638080890604215E-002   1439.9824771094288     
   1875.0025058185872       0.10640785740304182        1439.9669035653976     
   1837.5298094671757       0.10596130691010330        1439.9520117350507     
   1800.0602884895159        8.9464756934717116E-002   1439.9388724690784     
   3600.0323546469599        1.8902478109566800E-002   1259.9737850247820     
   3525.0442073274271        1.3087976533597612E-002   1259.9750349595301     
   3450.0499926589532        4.7036554178703227E-003   1259.9776856315862     
   3375.0505664700086       -3.3977235757447488E-003   1259.9802346677511     
   3300.0467845886651       -8.3634002276085084E-003   1259.9811796949136     
   3225.0395028434941       -7.3406126414283790E-003   1259.9790183399962     
   3150.0295770628654        2.5234003644527547E-003   1259.9722482298798     
   3075.0178630749851        2.4081399533997683E-002   1259.9593669914584     
   3000.0052167084696        6.0186146899013693E-002   1259.9388722515396     
   3375.0350024062018        1.8672792849656616E-002   1289.0348045351736     
   3304.7370901372333        1.4932749704030357E-002   1289.0346446441354     
   3234.4316778255206        8.6319308366000769E-003   1289.0360943660312     
   3164.1195375622610        2.3439734343355667E-003   1289.0378859270379     
   3093.8014414385448       -1.3574855386195850E-003   1289.0387515534467     
   3023.4781615454349        1.0119101455074997E-004   1289.0374234715157     
   2953.1504699739262        9.2936395889182677E-003   1289.0326339074302     
   2882.8191388153537        2.8793497874175955E-002   1289.0231150875532     
   2812.4849401605438        6.1174402119263505E-002   1289.0075992380607     
   3150.0374606527334        2.0899619059719043E-002   1316.2203822873582     
   3084.4290143413987        1.7414152933952209E-002   1316.2191132086161     
   3018.8117173632868        1.0938632052216235E-002   1316.2197595579441     
   2953.1863725866133        4.1492837677878924E-003   1316.2212296672535     
   2887.5537828788456       -2.7766698053710570E-004   1316.2224318683252     
   2821.9147511079823        3.3400647487269453E-004   1316.2222744929427     
   2756.2700801416299        8.6605294521859832E-003   1316.2196658729329     
   2690.6205728476871        2.7378128327313789E-002   1316.2135143401933     
   2624.9670320939185        5.9163028971170206E-002   1316.2027282264041     
   2925.0399447103096        2.5647554285114893E-002   1341.5303272204510     
   2864.1203535992936        2.0644283313572487E-002   1341.5281516500315     
   2803.1905764178323        1.1763303167072081E-002   1341.5283477024070     
   2742.2515613239129        2.1651403870919239E-003   1341.5299413211544     
   2681.3042564764596       -4.9896752060476501E-003   1341.5319584498413     
   2620.3496100338939       -6.5406156451217612E-003   1341.5334250320675     
   2559.3885701542272        6.7284589715654874E-004   1341.5333670114264     
   2498.4220849962730        1.9811238725765179E-002   1341.5308103314355     
   2437.4511027186136        5.4035091451964945E-002   1341.5247809358350     
   2700.0426699024338        3.2981195087472770E-002   1364.9644482735482     
   2643.8114815710073        2.4735240432391947E-002   1364.9614709655727     
   2587.5687201344108        1.1245486974530650E-002   1364.9615252943772     
   2531.3155935559307       -3.4615208680861542E-003   1364.9636963214359     
   2475.0533097987523       -1.5359239299073124E-002   1364.9670691082827     
   2418.7830768259469       -2.0421124588892781E-002   1364.9707287166075     
   2362.5061026002750       -1.4620634345305916E-002   1364.9737602078339     
   2306.2235950852928        6.0687767053195785E-003   1364.9752486435550     
   2249.9367622437371        4.5673650940670996E-002   1364.9742790853536     
   2475.0458515527798        4.2965138686895443E-002   1386.5225543858699     
   2423.5027719156155        2.9799120364828013E-002   1386.5187821524182     
   2371.9466136587403        9.5247280243029309E-003   1386.5189588288224     
   2320.3789590637657       -1.2583766326883961E-002   1386.5221701007983     
   2268.8013904126628       -3.1252089429585794E-002   1386.5275016540447     
   2217.2154899867983       -4.1205970019518645E-002   1386.5340391742932     
   2165.6228400684099       -3.7171134141090079E-002   1386.5408683472797     
   2114.0250229385001       -1.3873311618340267E-002   1386.5470748586511     
   2062.4236208793573        3.3961771858571410E-002   1386.5517443941812     
   2250.0497049849346        5.5663981990846878E-002   1406.2044544963937     
   2203.1945982931306        3.5948022483921704E-002   1406.1997962076809     
   2156.3247221362208        6.7405696222522238E-003   1406.2003148008559     
   2109.4421476288030       -2.5054661296621816E-002   1406.2050380920075     
   2062.5489458853649       -5.2533955297803914E-002   1406.2129938973576     
   2015.6471880199479       -6.8793598867728178E-002   1406.2232100329511     
   1968.7389451469201       -6.6929877522170500E-002   1406.2347143146915     
   1921.8262883803156       -4.0039077725850802E-002   1406.2465345588093     
   1874.9112888347861        1.8782515965426683E-002   1406.2576985814828     
   2025.0544455225354        7.1142322050832263E-002   1424.0099575444613     
   1982.8873343625451        4.3294042631941920E-002   1424.0042241284680     
   1940.7035107124095        3.0325556407433396E-003   1424.0052597053855     
   1898.5056490323720       -4.0727271364403350E-002   1424.0119757278721     
   1856.2964237836591       -7.9070567662370195E-002   1424.0232836484713     
   1814.0785094272226      -0.10308246343788596        1424.0380949199948     
   1771.8545804240391      -0.10384808873993734        1424.0553209951029     
   1729.6273112346191       -7.2452575224360771E-002   1424.0738733263302     
   1687.3993763199205        1.8947033140648273E-005   1424.0926633663430     
   1800.0602884895159        8.9464756934717116E-002   1439.9388724690784     
   1762.5813537841125        5.1949280874168835E-002   1439.9317769119677     
   1725.0834445326652       -1.4597706197037041E-003   1439.9334600374682     
   1687.5699530558827       -5.9454661792642582E-002   1439.9426584409309     
   1650.0442716754235      -0.11072765384778904        1439.9581087177908     
   1612.5097927122738      -0.14397101010274582        1439.9785474634430     
   1574.9699084885308      -0.14787699028863699        1440.0027112734779     
   1537.4280113252303      -0.11113785759380335        1440.0293367432014     
   1499.8874935441759       -2.2445872600314942E-002   1440.0571604680008     
   3000.0052167084696        6.0186146899013693E-002   1259.9388722515396     
   2924.9896837064707       0.11196072537666169        1259.9227876808077     
   2849.9681406018317       0.17663085015738034        1259.9277952504522     
   2774.9396894062429       0.25120322697785014        1259.9593800382656     
   2699.9034321314643       0.33268456161874838        1260.0230271219928     
   2624.8584707894352       0.41808156050853995        1260.1242215794216     
   2549.8039073920995       0.50440093013276055        1260.2684484883544     
   2474.7388439510764       0.58864937601197198        1260.4611929263992     
   2399.6623824785001       0.66783360499471200        1260.7079399715387     
   2812.4849401605438        6.1174402119263505E-002   1289.0075992380607     
   2742.1494455341754       0.10816674490740752        1288.9977244052475     
   2671.8127982305436       0.16674015096657513        1289.0090760038602     
   2601.4736279956260       0.23232710693298486        1289.0463073125636     
   2531.1305645751781       0.30036009874845604        1289.1140716101627     
   2460.7822377150555       0.36627161238868666        1289.2170221753997     
   2390.4272771609822       0.42549413358301535        1289.3598122870656     
   2320.0643126586651       0.47346014818742788        1289.5470952237158     
   2249.6919739538848       0.50560214248184820        1289.7835242644101     
   2624.9670320939185        5.9163028971170206E-002   1316.2027282264041     
   2559.3140401680939       0.10623218382158939        1316.1983869807243     
   2493.6640785675090       0.16379991073608835        1316.2150006772681     
   2428.0147989745906       0.22403848419196493        1316.2566235854731     
   2362.3638530714534       0.27912017822075086        1316.3273099744438     
   2296.7088925401908       0.32121726626371583        1316.4311141136500     
   2231.0475690633184       0.34250202341297609        1316.5720902725418     
   2165.3775343230259       0.33514672353942387        1316.7542927202396     
   2099.6964400010902       0.29132363967710262        1316.9817757264962     
   2437.4511027186136        5.4035091451964945E-002   1341.5247809358350     
   2376.4828678013532       0.10597710102001656        1341.5254819639661     
   2315.5214378341061       0.16764699601264965        1341.5462246261570     
   2254.5629806378511       0.22627084642124373        1341.5906969719165     
   2193.6036640337966       0.26907472279810918        1341.6625870508415     
   2132.6396558430197       0.28328469541941104        1341.7655829125576     
   2071.6671238869058       0.25612683575184292        1341.9033726064661     
   2010.6822359862181       0.17482721303224480        1342.0796441821424     
   1949.6811599624796        2.6611898623286834E-002   1342.2980856893378     
   2249.9367622437371        4.5673650940670996E-002   1364.9742790853536     
   2193.6553286267736       0.10722155455505344        1364.9797159115840     
   2137.3843322514867       0.17811827323555462        1365.0034032057149     
   2081.1179512803651       0.23895768211002633        1365.0488955873204     
   2024.8503638765778       0.27033365808915732        1365.1197476757084     
   1968.5757482019194       0.25284007420395938        1365.2195140901795     
   1912.2882824193125       0.16707080647267958        1365.3517494504413     
   1855.9821446914641       -6.3802689652447953E-003   1365.5200083754942     
   1799.6515131809383      -0.28691927724037214        1365.7278454850864     
   2062.4236208793573        3.3961771858571410E-002   1386.5517443941812     
   2010.8308228367794       0.10978560110902436        1386.5617953801127     
   1959.2522180406986       0.19505060823644271        1386.5871917712568     
   1907.6794891974209       0.26203248093486309        1386.6315875466328     
   1856.1043190132380       0.28300690683101948        1386.6986366849433     
   1804.5183901948308       0.23024957486836684        1386.7919931650606     
   1752.9133854486886        7.6036173296870402E-002   1386.9153109659981     
   1701.2809874812403      -0.20735760984325680        1387.0722440665097     
   1649.6128789991199      -0.64765608543768849        1387.2664464453201     
   1874.9112888347861        1.8782515965426683E-002   1406.2576985814828     
   1828.0087506247521       0.11348930049359751        1406.2724269263067     
   1781.1245514232676       0.21828086825121318        1406.2982456782131     
   1734.2473726834016       0.29542872967942913        1406.3391409650394     
   1687.3658958579394       0.30720439386675480        1406.3990989148160     
   1640.4688023998988       0.21587937087690534        1406.4821056553997     
   1593.5447737625277       -1.6274828479026837E-002   1406.5921473148351     
   1546.5824913979661      -0.42698669701292147        1406.7332100209651     
   1499.5706367595740       -1.0539847232450370        1406.9092799016166     
   1687.3993763199205        1.8947033140648273E-005   1424.0926633663430     
   1645.1885121828525       0.11815270845693249        1424.1123171067734     
   1603.0007886199455       0.24764591831672078        1424.1372202817122     
   1560.8213800336075       0.33907991800435866        1424.1719239576917     
   1518.6354608248671       0.34303604416396638        1424.2209792014214     
   1476.4282053958909       0.21009563753142402        1424.2889370794801     
   1434.1847881483045      -0.10915996329413247        1424.3803486585609     
   1391.8903834843591      -0.66414941734859667        1424.4997650052064     
   1349.5301658051553       -1.5042913876951047        1424.6517371859168     
   1499.8874935441759       -2.2445872600314942E-002   1440.0571604680008     
   1462.3695077038878       0.12359588294219748        1440.0821724781558     
   1424.8803858524666       0.28298262638963934        1440.1047709371292     
   1387.4012895423316       0.39291953218366871        1440.1303046396190     
   1349.9133803271650       0.39061177947792203        1440.1641223807269     
   1312.3978197599954       0.21326454487876845        1440.2115729555146     
   1274.8357693940584      -0.20191699404574592        1440.2780051585610     
   1237.2083907826839      -0.91772765955869318        1440.3687677851119     
   1199.4968454784041       -1.9969622763338748        1440.4892096297576     
 </DataArray>
 <DataArray  type="Float64" Name="VM" NumberOfComponents="1" format="ascii">
   17998.150601063146     
   17811.295753862720     
   17624.303780025617     
   17437.187550176081     
   17249.959952957768     
   17062.633888102024     
   16875.222260901995     
   16687.737978205387     
   16500.193946043848     
   17548.732363892370     
   17366.490252251169     
   17184.134609498658     
   17001.675021393545     
   16819.121085934425     
   16636.482409523236     
   16453.768603944882     
   16270.989284227442     
   16088.154067452560     
   17100.260282424988     
   16922.643937813769     
   16744.935956350946     
   16567.143082407991     
   16389.272070763436     
   16211.329684807846     
   16033.322695189740     
   15855.257878936260     
   15677.142019086730     
   16652.737227109097     
   16479.760171130700     
   16306.711558522105     
   16133.595733383865     
   15960.417051379363     
   15787.179879195564     
   15613.888594231745     
   15440.547584535547     
   15267.161249003973     
   16206.167877596496     
   16037.844216208547     
   15869.467143083250     
   15701.039039818068     
   15532.562302817820     
   15364.039343461412     
   15195.472588401708     
   15026.864480009097     
   14858.217476970254     
   15760.558998487653     
   15596.903522693419     
   15433.210714599772     
   15269.481426673639     
   15105.716530680525     
   14941.916918209679     
   14778.083501313968     
   14614.217213270702     
   14450.319009474977     
   15315.919761471903     
   15156.948055420118     
   14997.952891738056     
   14838.934021618885     
   14679.891220505633     
   14520.824288795760     
   14361.733052677342     
   14202.617365108668     
   14043.477106951774     
   14872.262123142356     
   14717.990680745288     
   14563.707301729492     
   14409.411057138357     
   14255.101046952639     
   14100.776400915338     
   13946.436279518230     
   13792.079875163447     
   13637.706413513146     
   14429.601269929137     
   14280.047621314323     
   14130.491044535234     
   13980.930343547709     
   13831.364355003352     
   13681.791949215181     
   13532.212031302788     
   13382.623542533389     
   13233.025461872590     
   16500.193946043848     
   16312.632664338478     
   16125.086792250750     
   15937.554473762075     
   15750.033853065413     
   15562.523074439476     
   15375.020282155490     
   15187.523620421201     
   15000.031233365107     
   16088.154067452560     
   15905.300618095247     
   15722.459286048923     
   15539.628717690368     
   15356.807559088556     
   15173.994455910895     
   14991.188053347643     
   14808.386996054669     
   14625.589928118587     
   15677.142019086730     
   15499.007818715867     
   15320.882841823697     
   15142.766166978761     
   14964.656872121524     
   14786.554034489405     
   14608.456730550046     
   14430.364035943683     
   14252.275025435911     
   15267.161249003973     
   15093.757313408740     
   14920.360195279269     
   14746.969339147614     
   14573.584188966764     
   14400.204188059759     
   14226.828779073163     
   14053.457403934235     
   13880.089503814548     
   14858.217476970254     
   14689.554429136548     
   14520.896371137464     
   14352.243051533995     
   14183.594218918057     
   14014.949621908654     
   13846.309009152983     
   13677.672129332526     
   13509.038731175033     
   14450.319009474977     
   14286.407090051658     
   14122.499002925122     
   13958.594743398291     
   13794.694308187238     
   13630.797695505522     
   13466.904905158277     
   13303.015938646611     
   13139.130799284392     
   14043.477106951774     
   13884.326187475117     
   13725.178705627621     
   13566.034851205271     
   13406.894817805922     
   13247.758803059345     
   13088.627008876625     
   12929.499641720271     
   12770.376912897656     
   13637.706413513146     
   13483.326012779693     
   13328.949511613950     
   13174.577247529322     
   13020.209565493964     
   12865.846818379825     
   12711.489367446138     
   12557.137582859916     
   12402.791844256704     
   13233.025461872590     
   13083.424765911861     
   12933.829382623278     
   12784.239756421974     
   12634.656344376457     
   12485.079616965793     
   12335.510058892267     
   12185.948169954085     
   12036.394465983523     
   15000.031233365107     
   14812.538359938253     
   14625.041862628877     
   14437.542320856239     
   14250.040314067943     
   14062.536421720699     
   13875.031223266762     
   13687.525298145232     
   13500.019225779653     
   14625.589928118587     
   14442.792611099558     
   14259.991988914615     
   14077.188478795351     
   13894.382498030734     
   13711.574463961188     
   13528.764793974420     
   13345.953905505292     
   13163.142216037328     
   14252.275025435911     
   14074.186276367265     
   13896.095183593012     
   13718.002048468377     
   13539.907173742853     
   13361.810863649902     
   13183.713424003674     
   13005.615162306078     
   12827.516387862290     
   13880.089503814548     
   13706.722672675749     
   13533.355027844667     
   13359.986797703663     
   13186.618214493279     
   13013.249514567975     
   12839.880938672693     
   12666.512732243129     
   12493.145145730721     
   13509.038731175033     
   13340.407532358513     
   13171.777544384217     
   13003.148961927762     
   12834.521986916880     
   12665.896829013500     
   12497.273706135336     
   12328.652845020673     
   12160.034481840059     
   13139.130799284392     
   12975.249340406108     
   12811.371537674746     
   12647.497587432461     
   12483.627697387510     
   12319.762087369241     
   12155.900990144992     
   11992.044652303837     
   11828.193335215034     
   12770.376912897656     
   12611.259726787404     
   12452.148989563808     
   12293.044930434040     
   12133.947794579493     
   11974.857844215379     
   11815.775359736501     
   11656.700640957042     
   11497.634008454450     
   12402.791844256704     
   12248.453924512094     
   12094.125521060185     
   11939.806922683149     
   11785.498438996416     
   11631.200401827888     
   11476.913166708477     
   11322.637114485391     
   11168.372653068485     
   12036.394465983523     
   11886.851306508850     
   11737.320933367506     
   11587.803716785642     
   11438.300052670482     
   11288.810364306502     
   11139.335104187296     
   10989.874755997233     
   10840.429836756404     
   13500.019225779653     
   13312.514098166930     
   13125.010578072173     
   12937.508601065987     
   12750.008102719223     
   12562.509018600340     
   12375.011284274216     
   12187.514835305277     
   12000.019607264390     
   13163.142216037328     
   12980.331462799793     
   12797.523106499855     
   12614.717150756809     
   12431.913600429620     
   12249.112461710538     
   12066.313742224604     
   11883.517451142752     
   11700.723599303896     
   12827.516387862290     
   12649.419087531751     
   12471.325087125717     
   12293.234457905946     
   12115.147274099802     
   11937.063613121683     
   11758.983555814435     
   11580.907186713468     
   11402.834594334685     
   12493.145145730721     
   12319.780105086094     
   12146.419459001580     
   11973.063349838401     
   11799.711925358028     
   11626.365339124344     
   11453.023750942531     
   11279.687327337982     
   11106.356242079886     
   12160.034481840059     
   11991.420256654388     
   11822.811790272239     
   11654.209303674419     
   11485.613026620651     
   11317.023198302335     
   11148.440068053731     
   10979.863896129644     
   10811.294954556197     
   11828.193335215034     
   11664.348254059769     
   11500.510643267442     
   11336.680814238358     
   11172.859091720346     
   11009.045814798063     
   10845.241337973035     
   10681.446032343463     
   10517.660286895412     
   11497.634008454450     
   11338.576199891080     
   11179.527997863723     
   11020.489820506396     
   10861.462105313087     
   10702.445310570460     
   10543.439916921059     
   10384.446429070334     
   10225.465377654244     
   11168.372653068485     
   11014.120076584535     
   10859.879744111111     
   10705.652201596436     
   10551.438022070506     
   10397.237807644926     
   10243.052191693849     
   10088.881841235350     
   9934.7274595336639     
   10840.429836756404     
   10691.000317826269     
   10541.586257508663     
   10392.188355687225     
   10242.807349031531     
   10093.444013706849     
   9944.0991683270677     
   9794.7736771767632     
   9645.4684537314279     
   12000.019607264390     
   11812.524179344829     
   11625.026901211722     
   11437.527364140111     
   11250.025159381687     
   11062.519878165904     
   10875.011111710977     
   10687.498451243689     
   10499.981488031264     
   11700.723599303896     
   11517.929842646181     
   11335.133576732056     
   11152.334423288461     
   10969.532004211780     
   10786.725941585772     
   10603.915857702674     
   10421.101375094295     
   10238.282116569027     
   11402.834594334685     
   11224.763063157161     
   11046.689622478851     
   10868.613984068183     
   10690.535863748753     
   10512.454981744415     
   10334.371063061670     
   10156.283837915862     
   9978.1930422039950     
   11106.356242079886     
   10933.027862169183     
   10759.699333511906     
   10586.370511921201     
   10413.041264462507     
   10239.711470406106     
   10066.381022279817     
   9893.0498270347944     
   9719.7178073380637     
   10811.294954556197     
   10642.731048607433     
   10474.169817862847     
   10305.611310197566     
   10137.055594831852     
   9968.5027641342895     
   9799.9529356132080     
   9631.4062541191306     
   9462.8628942857085     
   10517.660286895412     
   10353.882602369442     
   10190.111382481104     
   10026.346908762041     
   9862.5894966254837     
   9698.8394982216505     
   9535.0973055908235     
   9371.3633541481249     
   9207.6381265425516     
   10225.465377654244     
   10066.496117279452     
   9907.5379789249473     
   9748.5915124691310     
   9589.6573161606520     
   9430.7360406840144     
   9271.8283936453845     
   9112.9351445283992     
   8954.0571301797881     
   9934.7274595336639     
   9780.5893145467271     
   9626.4677196443808     
   9472.3635203054582     
   9318.2776262873704     
   9164.2110170100259     
   9010.1647474922538     
   8856.1399549070338     
   8702.1378658314079     
   9645.4684537314279     
   9496.1846398843099     
   9346.9234779471681     
   9197.6861282215195     
   9048.4738320383640     
   8899.2879185170295     
   8750.1298120111678     
   8601.0010403248671     
   8451.9032437938331     
   10499.981488031264     
   10312.463195464285     
   10124.947602717528     
   9937.4358847320545     
   9749.9292163533555     
   9562.4287723337238     
   9374.9357273761598     
   9187.4512562248019     
   8999.9765338087236     
   10238.282116569027     
   10055.462395075550     
   9872.6475198913722     
   9689.8386114287769     
   9507.0367942186022     
   9324.2431973156799     
   9141.4589547789456     
   8958.6852062386679     
   8775.9230975617738     
   9978.1930422039950     
   9800.1036505366774     
   9622.0215306687860     
   9443.9477700267253     
   9265.8834664137794     
   9087.8297290183837     
   8909.7876795642915     
   8731.7584536182785     
   8553.7432020817178     
   9719.7178073380637     
   9546.3900541342246     
   9373.0724156750639     
   9199.7659767124769     
   9026.4718413463816     
   8853.1911349028724     
   8679.9250060510331     
   8506.6746291940635     
   8333.4412071726783     
   9462.8628942857085     
   9294.3276510032847     
   9125.8059196881441     
   8957.2988218070532     
   8788.8075105413373     
   8620.3331738617781     
   8451.8770379850012     
   8283.4403712610128     
   8115.0244885591192     
   9207.6381265425516     
   9043.9258423499396     
   8880.2311563305739     
   8716.5552754377113     
   8552.8994547900093     
   8389.2650023366441     
   8225.6532840877189     
   8062.0657299907252     
   7898.5038405470859     
   8954.0571301797881     
   8795.1978487084380     
   8636.3610725972594     
   8477.5481527409156     
   8318.7605094258288     
   8159.9996390359256     
   8001.2671215615183     
   7842.5646290246068     
   7683.8939349535049     
   8702.1378658314079     
   8548.1612435922452     
   8394.2129834534662     
   8240.2946486817036     
   8086.4078986204131     
   7932.5544979427559     
   7778.7363270022506     
   7624.9553934340756     
   7471.2138451850369     
   8451.9032437938331     
   8302.8385699155788     
   8153.8091887001765     
   8004.8169544748071     
   7855.8638504512264     
   7706.9520010838814     
   7558.0836858783705     
   7409.2613548522850     
   7260.4876458817998     
   8999.9765338087236     
   8812.5028790863889     
   8625.0185734855586     
   8437.5202356065220     
   8250.0044835393346     
   8062.4679349195294     
   7874.9072072804975     
   7687.3189187565922     
   7499.6996891955514     
   8775.9230975617738     
   8593.1624733767840     
   8410.3903869486512     
   8227.6038044522666     
   8044.7996951931491     
   7861.9750320219991     
   7679.1267920426808     
   7496.2519576603572     
   7313.3475180314008     
   8553.7432020817178     
   8375.7315884913514     
   8197.7108361837072     
   8019.6784646718597     
   7841.6320172436554     
   7663.5690637524222     
   7485.4872040029441     
   7307.3840718285201     
   7129.2573399887578     
   8333.4412071726783     
   8160.2152924874845     
   7986.9854314824506     
   7813.7498818107397     
   7640.5069605530498     
   7467.2550511442087     
   7293.9926114539267     
   7120.7181832208034     
   6947.4304030751609     
   8115.0244885591192     
   7946.6216758996352     
   7778.2227064579938     
   7609.8267378432056     
   7441.4330355050388     
   7273.0409852556841     
   7104.6501077173407     
   6936.2600750223537     
   6767.8707301576087     
   7898.5038405470859     
   7734.9622522503505     
   7571.4346161651292     
   7407.9211265222684     
   7244.4221440545180     
   7080.9382152423732     
   6917.4700944058231     
   6754.0187691219053     
   6590.5854895413167     
   7683.8939349535049     
   7525.2524138158269     
   7366.6369894050713     
   7208.0490017675529     
   7049.4900235850901     
   6890.9618869070619     
   6732.4667137357792     
   6574.0069511073125     
   6415.5854114430067     
   7471.2138451850369     
   7317.5119512060173     
   7163.8500434367261     
   7010.2306869630338     
   6856.6567500763977     
   6703.1314388529427     
   6549.6583366186123     
   6396.2414491069139     
   6242.8852562769271     
   7260.4876458817998     
   7111.7656467501338     
   6963.0989706472583     
   6814.4914542692377     
   6665.9473092240751     
   6517.4711643967612     
   6369.0681141950536     
   6220.7437736344327     
   6072.5043414061993     
   7499.6996891955514     
   7312.0923920517989     
   7124.5563708880081     
   6937.1129455249502     
   6749.7834296616229     
   6562.5891470208016     
   6375.5514637087335     
   6188.6918402179472     
   6002.0319073193350     
   7313.3475180314008     
   7130.4561492671974     
   6947.6354702197186     
   6764.9048842161810     
   6582.2837893491296     
   6399.7915918836306     
   6217.4477334603271     
   6035.2717350082448     
   5853.2832609804109     
   7129.2573399887578     
   6951.1468859166698     
   6773.1056092788922     
   6595.1507425166465     
   6417.2995118310309     
   6239.5691478655262     
   6061.9769077247820     
   5884.5401107084590     
   5707.2761907390459     
   6947.4304030751609     
   6774.1642634063510     
   6600.9655282152862     
   6427.8490672537564     
   6254.8297483056203     
   6081.9224461117828     
   5909.1420603187071     
   5736.5035443437519     
   5564.0219475173826     
   6767.8707301576087     
   6599.5106244081953     
   6431.2165683926596     
   6263.0009443029749     
   6094.8761495685749     
   5926.8546060515619     
   5758.9487763554807     
   5591.1711887340125     
   5423.5344724511524     
   6590.5854895413167     
   6427.1913551655043     
   6263.8630248141517     
   6100.6103393635649     
   5937.4431931185945     
   5774.3715464763864     
   5611.4054444896938     
   5448.5550425583224     
   5285.8306407696864     
   6415.5854114430067     
   6257.2152918722741     
   6098.9125404492415     
   5940.6844780561796     
   5782.5385465241434     
   5624.4823292197689     
   5466.5235773704035     
   5308.6702433032970     
   5150.9305220631677     
   6242.8852562769271     
   6089.5951765994878     
   5936.3765474244110     
   5783.2342697248832     
   5630.1734707595642     
   5477.1995383810854     
   5324.3181623563323     
   5171.5353841241686     
   5018.8576567623850     
   6072.5043414061993     
   5924.3481688757975     
   5776.2707605629421     
   5628.2747797098655     
   5480.3632674728324     
   5332.5396981360836     
   5184.8080444870411     
   5037.1728554075289     
   4889.6393482225694     
   14429.601269929137     
   14280.047621314323     
   14130.491044535234     
   13980.930343547709     
   13831.364355003352     
   13681.791949215181     
   13532.212031302788     
   13382.623542533389     
   13233.025461872590     
   13987.963339966611     
   13843.142594541678     
   13698.326313272630     
   13553.513275114579     
   13408.702295101049     
   13263.892225484002     
   13119.081957065000     
   12974.270420732206     
   12829.456589220414     
   13547.380100019514     
   13407.303944946310     
   13267.239124520253     
   13127.184474385778     
   12987.138870421120     
   12847.101230089527     
   12707.070513993747     
   12567.045727652505     
   12427.025923514362     
   13107.882233274378     
   12972.562038055517     
   12837.259652982355     
   12701.974059110398     
   12566.704282947449     
   12431.449398066936     
   12296.208526942461     
   12160.980843021433     
   12025.765573055995     
   12669.506972536679     
   12538.953858704303     
   12408.424757387558     
   12277.918891263371     
   12147.435535045735     
   12016.974017428412     
   11886.533723269966     
   11756.114096039570     
   11625.714640544997     
   12232.299246563778     
   12106.524167565312     
   11980.779146347815     
   11855.063751433448     
   11729.377611653410     
   11603.720418498853     
   11478.091928739863     
   11352.491967334525     
   11226.920430649470     
   11796.313069842452     
   11675.326902904479     
   11554.376791012541     
   11433.462761379960     
   11312.584911826174     
   11191.743413623673     
   11070.938514647611     
   10950.170542850439     
   10829.439910087527     
   11361.613237416896     
   11245.426889498995     
   11129.282646728070     
   11013.181117179678     
   10897.122992216791     
   10781.109049926912     
   10665.140158904362     
   10549.217282405383     
   10433.341482902855     
   10928.277404522729     
   10816.901934860136     
   10705.574764144885     
   10594.297213629383     
   10483.070703302636     
   10371.896756009413     
   10260.777001972116     
   10149.713183745696     
   10038.707161637169     
   13233.025461872590     
   13083.424765911861     
   12933.829382623278     
   12784.239756421974     
   12634.656344376457     
   12485.079616965793     
   12335.510058892267     
   12185.948169954085     
   12036.394465983523     
   12829.456589220414     
   12684.644928532369     
   12539.840913560609     
   12395.045076559243     
   12250.257968800650     
   12105.480161704405     
   11960.712248047867     
   11815.954843265932     
   11671.208586847439     
   12427.025923514362     
   12287.013483726470     
   12147.011795949402     
   12007.021475944795     
   11867.043165302388     
   11727.077532961604     
   11587.125276844199     
   11447.187125606508     
   11307.263840522664     
   12025.765573055995     
   11890.563321557000     
   11755.375625518316     
   11620.203175489150     
   11485.046694880357     
   11349.906941888408     
   11214.784711559578     
   11079.680838006288     
   10944.596196788449     
   11625.714640544997     
   11495.334372170206     
   11364.973086769902     
   11234.631536247571     
   11104.310512390521     
   10974.010849192424     
   10843.733425344846     
   10713.479166912130     
   10583.249050205619     
   11226.920430649470     
   11101.374819026010     
   10975.853172307929     
   10850.356285224985     
   10724.884999151478     
   10599.440204808181     
   10474.022845161100     
   10348.633918532953     
   10223.274481945091     
   10829.439910087527     
   10708.742565186794     
   10588.074655835013     
   10467.436995516215     
   10346.830450589316     
   10226.255943335858     
   10105.714455227901     
   9985.2070304352837     
   9864.7347795911210     
   10433.341482902855     
   10317.507015283172     
   10201.707881385630     
   10085.944883296250     
   9970.2188813896319     
   9854.5307976695640     
   9738.8816193502189     
   9623.2724026983033     
   9507.7042771571887     
   10038.707161637169     
   9927.7512537060848     
   9816.8369491977228     
   9705.9650019263299     
   9595.1362282832633     
   9484.3515107981912     
   9373.6118019572750     
   9262.9181282981408     
   9152.2715948055320     
   12036.394465983523     
   11886.851306508850     
   11737.320933367506     
   11587.803716785642     
   11438.300052670482     
   11288.810364306502     
   11139.335104187296     
   10989.874755997233     
   10840.429836756404     
   11671.208586847439     
   11526.476081783247     
   11381.759790167092     
   11237.060180991431     
   11092.377753993245     
   10947.713041677418     
   10803.066611502380     
   10658.439068242305     
   10513.831056543877     
   11307.263840522664     
   11167.357976774245     
   11027.471937710827     
   10887.606308541772     
   10747.761710966104     
   10607.938805564918     
   10468.138294384038     
   10328.360923725022     
   10188.607487164538     
   10944.596196788449     
   10809.533072954409     
   10674.493606212607     
   10539.478517386038     
   10404.488570298618     
   10269.524574581195     
   10134.587388700709     
   9999.6779232319841     
   9864.7971443954211     
   10583.249050205619     
   10453.044935749182     
   10322.868568144027     
   10192.720825261993     
   10062.602635335114     
   9932.5149802258802     
   9802.4588989550448     
   9672.4354915100339     
   9542.4459229618551     
   10223.274481945091     
   10097.945883699776     
   9972.6494144065018     
   9847.3861325534035     
   9722.1571552788791     
   9596.9636621572936     
   9471.8068992813569     
   9346.6881836672583     
   9221.6089080129841     
   9864.7347795911210     
   9744.2985162576715     
   9623.8990896782743     
   9503.5377647560472     
   9383.2158743410309     
   9262.9348235869766     
   9142.6960946459367     
   9022.5012517309478     
   8902.3519465809586     
   9507.7042771571887     
   9392.1775623504873     
   9276.6927489434092     
   9161.2513363795260     
   9045.8549024247404     
   8930.5051081503825     
   8815.2037032985281     
   8699.9525320638131     
   8584.7535393296639     
   9152.2715948055320     
   9041.6721289961260     
   8931.1200142072576     
   8820.6170149683421     
   8710.1649856476852     
   8599.7658761162693     
   8489.4217378408903     
   8379.1347304446244     
   8268.9071287767056     
   10840.429836756404     
   10691.000317826269     
   10541.586257508663     
   10392.188355687225     
   10242.807349031531     
   10093.444013706849     
   9944.0991683270677     
   9794.7736771767632     
   9645.4684537314279     
   10513.831056543877     
   10369.242414080916     
   10224.673092366576     
   10080.123972518877     
   9935.5959838516756     
   9791.0901074125068     
   9646.6073798359703     
   9502.1488975462653     
   9357.7158213458442     
   10188.607487164538     
   10048.877865168715     
   9909.1720795956244     
   9769.4912165845981     
   9629.8364230304705     
   9490.2089110236684     
   9350.6099626847754     
   9211.0409354329895     
   9071.5032677366071     
   9864.7971443954211     
   9729.9451174857641     
   9595.1220745135488     
   9460.3293284852116     
   9325.5682667200745     
   9190.8403562522253     
   9056.1471497091206     
   8921.4902917155014     
   8786.8715258778757     
   9542.4459229618551     
   9412.4905511702673     
   9282.5699207103207     
   9152.6855911075618     
   9022.8392105799448     
   8893.0325224458920     
   8763.2673720926250     
   8633.5457145620712     
   8503.8696228193821     
   9221.6089080129841     
   9096.5697963786515     
   8971.5717708800385     
   8846.6166547124631     
   8721.7063747681477     
   8596.8429690736102     
   8472.0285948717737     
   8347.2655374145452     
   8222.5562195386719     
   8902.3519465809586     
   8782.2493092556088     
   8662.1946669426070     
   8542.1901207889277     
   8422.2378910381376     
   8302.3403255005833     
   8182.4999087500764     
   8062.7192721201154     
   7943.0012045808489     
   8584.7535393296639     
   8469.6082674641166     
   8354.5184388475391     
   8239.4864435401396     
   8124.5148062323160     
   8009.6061957257780     
   7894.7634352182822     
   7779.9895134715152     
   7665.2875969506222     
   8268.9071287767056     
   8158.7408607780935     
   8048.6379968199808     
   7938.6012229667331     
   7828.6333752785677     
   7718.7374502547200     
   7608.9166161495959     
   7499.1742252467320     
   7389.5138271850283     
   9645.4684537314279     
   9496.1846398843099     
   9346.9234779471681     
   9197.6861282215195     
   9048.4738320383640     
   8899.2879185170295     
   8750.1298120111678     
   8601.0010403248671     
   8451.9032437938331     
   9357.7158213458442     
   9213.3100438006313     
   9068.9335963853246     
   8924.5879690614147     
   8780.2747505772495     
   8635.9956366644037     
   8491.7524390624330     
   8347.5470954693119     
   8203.3816805297520     
   9071.5032677366071     
   8931.9994754215004     
   8792.5322406069354     
   8653.1033988494401     
   8513.7149037672116     
   8374.3688367764316     
   8235.0674178020581     
   8095.8130170790309     
   7956.6081681746355     
   8786.8715258778757     
   8652.2938846549132     
   8517.7605848679450     
   8383.2738231708863     
   8248.8359349681377     
   8114.4494057747825     
   7980.1168837047298     
   7845.8411932184290     
   7711.6253502793788     
   8503.8696228193821     
   8374.2425601166196     
   8244.6681847514083     
   8115.1490693264459     
   7985.6879471635702     
   7856.2877253550032     
   7726.9514990966481     
   7597.6825674519332     
   7468.4844507146436     
   8222.5562195386719     
   8097.9044701608436     
   7973.3143186242942     
   7848.7887274022823     
   7724.3308427703441     
   7599.9440095901464     
   7475.6317875296436     
   7351.3979688830404     
   7227.2465981758833     
   7943.0012045808489     
   7823.3498561217584     
   7703.7695794898791     
   7584.2637396731761     
   7464.8359094506104     
   7345.4898859242776     
   7226.2297086357848     
   7107.0596794460089     
   6987.9843843771432     
   7665.2875969506222     
   7550.6621323639392     
   7436.1177708999594     
   7321.6582909876524     
   7207.2877034861631     
   7093.0102699460258     
   6978.8305225957447     
   6864.7532862409716     
   6750.7837022913627     
   7389.5138271850283     
   7279.9401608229255     
   7170.4581732629804     
   7061.0720650343355     
   6951.7862940723453     
   6842.6055956535247     
   6733.5350041791535     
   6624.5798770066931     
   6515.7459205529594     
   8451.9032437938331     
   8302.8385699155788     
   8153.8091887001765     
   8004.8169544748071     
   7855.8638504512264     
   7706.9520010838814     
   7558.0836858783705     
   7409.2613548522850     
   7260.4876458817998     
   8203.3816805297520     
   8059.2579587717591     
   7915.1776501868662     
   7771.1429890612226     
   7627.1563767403059     
   7483.2203975549101     
   7339.3378365993985     
   7195.5116996161914     
   7051.7452352821010     
   7956.6081681746355     
   7817.4545001141814     
   7678.3535708622730     
   7539.3080843517246     
   7400.3209536112181     
   7261.3953205559847     
   7122.5345780571442     
   6983.7423945991732     
   6845.0227418847599     
   7711.6253502793788     
   7577.4710771398932     
   7443.3800372102178     
   7309.3554894149756     
   7175.4009471172858     
   7041.5202019919043     
   6907.7173506162935     
   6773.9968241452507     
   6640.3634214892209     
   7468.4844507146436     
   7339.3591723098943     
   7210.3087456739077     
   7081.3370647211395     
   6952.4483257811935     
   6823.6470556800832     
   6694.9381429779896     
   6566.3268727792311     
   6437.8189655960641     
   7227.2465981758833     
   7103.1801849032672     
   6979.2013115927148     
   6855.3145806335260     
   6731.5249466424948     
   6607.8377487708203     
   6484.2587465885726     
   6360.7941600079284     
   6237.4507137780720     
   6987.9843843771432     
   6869.0069783243889     
   6750.1308035368293     
   6631.3612365026311     
   6512.7040566429569     
   6394.1654827426346     
   6275.7522133406319     
   6157.4714715828632     
   6039.3310551109371     
   6750.7837022913627     
   6636.9257019866172     
   6523.1835462349109     
   6409.5634418187046     
   6296.0720489603955     
   6182.7165216338899     
   6069.5045521661405     
   5956.4444206584158     
   5843.5450498299979     
   6515.7459205529594     
   6407.0379417957420     
   6298.4612438929471     
   6190.0229088790775     
   6081.7305212768051     
   5973.5922118980416     
   5865.6167061909564     
   5757.8133776765462     
   5650.1923070920575     
   7260.4876458817998     
   7111.7656467501338     
   6963.0989706472583     
   6814.4914542692377     
   6665.9473092240751     
   6517.4711643967612     
   6369.0681141950536     
   6220.7437736344327     
   6072.5043414061993     
   7051.7452352821010     
   6908.0440702686519     
   6764.4147288889380     
   6620.8623118657051     
   6477.3923674914831     
   6334.0109416617597     
   6190.7246347397504     
   6047.5406663507429     
   5904.4669494122136     
   6845.0227418847599     
   6706.3834578134565     
   6567.8335416751843     
   6429.3793135734777     
   6291.0276161259599     
   6152.7858721610974     
   6014.6621501671425     
   5876.6652387188533     
   5738.8047313303759     
   6640.3634214892209     
   6506.8268688812923     
   6373.3982090837271     
   6240.0849270304780     
   6106.8951061086736     
   5973.8374933246278     
   5840.9215730742717     
   5708.1576508546314     
   5575.5569484843536     
   6437.8189655960641     
   6309.4257216066344     
   6181.1598044946386     
   6053.0297984583131     
   5925.0449616772185     
   5797.2152985520124     
   5669.5516413009691     
   5542.0657423311513     
   5414.7703790428423     
   6237.4507137780720     
   6114.2409801277654     
   5991.1788346867734     
   5868.2738830679436     
   5745.5364784633239     
   5622.9778003548699     
   5500.6099431999792     
   5378.4460165583123     
   5256.5002583765581     
   6039.3310551109371     
   5921.3445230919406     
   5803.5265726843954     
   5685.8877393573321     
   5568.4393761937436     
   5451.1937382622673     
   5334.1640774120306     
   5217.3647489802379     
   5100.8113321394185     
   5843.5450498299979     
   5730.8207221056182     
   5618.2865897346774     
   5505.9540111892347     
   5393.8352272955872     
   5281.9434502464383     
   5170.2929632981213     
   5058.8992326219604     
   4947.7790330113303     
   5650.1923070920575     
   5542.7682629688024     
   5435.5565161423747     
   5328.5691242103367     
   5221.8190847577207     
   5115.3204277934883     
   5009.0883189251144     
   4903.1391746894960     
   4797.4907916659331     
   6072.5043414061993     
   5924.3481688757975     
   5776.2707605629421     
   5628.2747797098655     
   5480.3632674728324     
   5332.5396981360836     
   5184.8080444870411     
   5037.1728554075289     
   4889.6393482225694     
   5904.4669494122136     
   5761.4960645865185     
   5618.6153996444491     
   5475.8260346252155     
   5333.1296229333775     
   5190.5284742402655     
   5048.0256526114736     
   4905.6250929084954     
   4763.3317392254758     
   5738.8047313303759     
   5601.0689784932474     
   5463.4395094795245     
   5325.9168886299240     
   5188.5024829123131     
   5051.1985770123974     
   4914.0085098348582     
   4776.9368366427325     
   4639.9895220349999     
   5575.5569484843536     
   5443.1051820024040     
   5310.7803416711749     
   5178.5835293849013     
   5046.5169082312095     
   4914.5838526348580     
   4782.7891264515338     
   4651.1390944255099     
   4519.6419736392218     
   5414.7703790428423     
   5287.6502394804274     
   5160.6821043867449     
   5033.8686387061616     
   4907.2138497870037     
   4780.7232735373582     
   4654.4041946835960     
   4528.2659075677248     
   4402.3200253177629     
   5256.5002583765581     
   5134.7578976462300     
   5013.1967895381731     
   4891.8221453859860     
   4770.6408139191899     
   4649.6615022591550     
   4528.8950360943827     
   4408.3546661893661     
   4288.0564298571962     
   5100.8113321394185     
   4984.4910758468495     
   4868.3850879598604     
   4752.5020522555287     
   4636.8525876605117     
   4521.4495006287461     
   4406.3080801215592     
   4291.4464426288114     
   4176.8859361190889     
   4947.7790330113303     
   4836.9229655705130     
   4726.3173983948836     
   4615.9753408845654     
   4505.9120250862907     
   4396.1451836803444     
   4286.6953719015301     
   4177.5863406281042     
   4068.8454691664670     
   4797.4907916659331     
   4692.1382466991035     
   4587.0749348594854     
   4482.3189557838641     
   4377.8908942966973     
   4273.8141160326350     
   4170.1151060277989     
   4066.8238568013576     
   3963.9743134893315     
   10928.277404522729     
   10816.901934860136     
   10705.574764144885     
   10594.297213629383     
   10483.070703302636     
   10371.896756009413     
   10260.777001972116     
   10149.713183745696     
   10038.707161637169     
   10496.400151336713     
   10389.844175018845     
   10283.344105347480     
   10176.901896177920     
   10070.519615793421     
   9964.1994516815757     
   9857.9437157723623     
   9751.7548501712572     
   9645.6354334242278     
   10066.090521790909     
   9964.3618291752828     
   9862.6991357107800     
   9761.1047135919434     
   9659.5809619866232     
   9558.1304123243226     
   9456.7557340866169     
   9355.4597411370141     
   9254.2453986278797     
   9637.4770181745953     
   9540.5860587239058     
   9443.7734824443087     
   9347.0415436344501     
   9250.3926320937298     
   9153.8292787461432     
   9057.3541617861010     
   8960.9701133834260     
   8864.6801269872576     
   9210.7164553010916     
   9118.6762895143438     
   9026.7290251930972     
   8934.8765379632187     
   8843.1208426427547     
   8751.4640989559866     
   8659.9086177731406     
   8568.4568679119056     
   8477.1114835406042     
   8786.0005276854336     
   8698.8267535003415     
   8611.7624192233670     
   8524.8086332671028     
   8437.9666413642171     
   8351.2378320113639     
   8264.6237424398805     
   8178.1260651503017     
   8091.7466550498311     
   8363.5642374076506     
   8281.2748769434020     
   8199.1134527920603     
   8117.0798857867758     
   8035.1742260657757     
   7953.3966577079900     
   7871.7475039226738     
   7790.2272328341032     
   7708.8364639022084     
   7943.6968041538503     
   7866.3121289728724     
   7789.0758452871687     
   7711.9862290175051     
   7635.0416708760968     
   7558.2406794006365     
   7481.5818846416796     
   7405.0640425500742     
   7328.6860401160775     
   7526.7559156858897     
   7454.2981766297553     
   7382.0113207539807     
   7309.8914782306838     
   7237.9348729861813     
   7166.1378229906450     
   7094.4967414325265     
   7023.0081388437466     
   6951.6686262443327     
   10038.707161637169     
   9927.7512537060848     
   9816.8369491977228     
   9705.9650019263299     
   9595.1362282832633     
   9484.3515107981912     
   9373.6118019572750     
   9262.9181282981408     
   9152.2715948055320     
   9645.6354334242278     
   9539.5753705575098     
   9433.5632250917770     
   9327.5997174725908     
   9221.6856346956592     
   9115.8218340617714     
   9010.0092472018259     
   8904.2488843943174     
   8798.5418391989660     
   9254.2453986278797     
   9153.0996829307169     
   9052.0079882396258     
   8950.9710755830274     
   8849.9897772965360     
   8749.0650010062855     
   8648.1977338976030     
   8547.3890472921412     
   8446.6401015584288     
   8864.6801269872576     
   8768.4679197965543     
   8672.3156789213099     
   8576.2242836363275     
   8480.1946901620540     
   8384.2279359152017     
   8288.3251440611421     
   8192.4875283911224     
   8096.7163985502548     
   8477.1114835406042     
   8385.8527616711508     
   8294.6598366403432     
   8203.5337874466913     
   8112.4757766317061     
   8021.4870548395165     
   7930.5689656926124     
   7839.7229510091365     
   7748.9505563867979     
   8091.7466550498311     
   8005.4623785034328     
   7919.2496466763614     
   7833.1098236595371     
   7747.0443646961412     
   7661.0548210875013     
   7575.1428454288043     
   7489.3101972002405     
   7403.5587487397570     
   7708.8364639022084     
   7627.5487496474479     
   7546.3382622534227     
   7465.2067402014764     
   7384.1560217635006     
   7303.1880502816311     
   7222.3048797899864     
   7141.5086810031698     
   7060.8017476977921     
   7328.6860401160775     
   7252.4183311137485     
   7176.2334616419485     
   7100.1336377745820     
   7024.1211750104130     
   6948.1985039381580     
   6872.3681762515998     
   6796.6328711402966     
   6720.9954020808327     
   6951.6686262443327     
   6880.4458356075538     
   6809.3113957864434     
   6738.2680774313276     
   6667.3187711495439     
   6596.4664935390992     
   6525.7143935781942     
   6455.0657593937694     
   6384.5240254338160     
   9152.2715948055320     
   9041.6721289961260     
   8931.1200142072576     
   8820.6170149683421     
   8710.1649856476852     
   8599.7658761162693     
   8489.4217378408903     
   8379.1347304446244     
   8268.9071287767056     
   8798.5418391989660     
   8692.8878388367793     
   8587.2871487734337     
   8481.7418081697524     
   8376.2539580742796     
   8270.8258477782947     
   8165.4598416463441     
   8060.1584264638823     
   7954.9242193467826     
   8446.6401015584288     
   8345.9506307707870     
   8245.3210266963579     
   8144.7535874313689     
   8044.2507247249423     
   7943.8149709811951     
   7843.4489867769389     
   7743.1555689397474     
   7642.9376592339886     
   8096.7163985502548     
   8001.0116517034667     
   7905.3738935292413     
   7809.8056610016320     
   7714.3096159451670     
   7618.8885526176746     
   7523.5454058424330     
   7428.2832597347033     
   7333.1053570738222     
   7748.9505563867979     
   7658.2519505407581     
   7567.6279867740841     
   7477.0814157356244     
   7386.6151232287784     
   7296.2321382857099     
   7205.9356418144471     
   7115.7289758655525     
   7025.6156535689115     
   7403.5587487397570     
   7317.8890047468703     
   7232.3020491640409     
   7146.8008149700299     
   7061.3883793337463     
   6976.0679720649759     
   6890.8429846502568     
   6805.7169799203430     
   6720.6937023996561     
   7060.8017476977921     
   6980.1849455154124     
   6899.6595252508268     
   6819.2285634562268     
   6738.8952882120921     
   6658.6630878106689     
   6578.5355200246458     
   6498.5163220054737     
   6418.6094208600589     
   6720.9954020808327     
   6645.4569867290111     
   6570.0189369647351     
   6494.6844251341527     
   6419.4567802612046     
   6344.3394967911227     
   6269.3362439050597     
   6194.4508754475764     
   6119.6874405120107     
   6384.5240254338160     
   6314.0907255268185     
   6243.7670909582648     
   6173.5563310277248     
   6103.4618141183637     
   6033.4870762987603     
   5963.6358304665155     
   5893.9119760723115     
   5824.3196094647828     
   8268.9071287767056     
   8158.7408607780935     
   8048.6379968199808     
   7938.6012229667331     
   7828.6333752785677     
   7718.7374502547200     
   7608.9166161495959     
   7499.1742252467320     
   7389.5138271850283     
   7954.9242193467826     
   7849.7594628568577     
   7744.6665035830656     
   7639.6483350469080     
   7534.7081160363578     
   7429.8491819607589     
   7325.0750571392946     
   7220.3894681126658     
   7115.7963580763171     
   7642.9376592339886     
   7542.7977361515286     
   7442.7383674548755     
   7342.7628716199006     
   7242.8747477063444     
   7143.0776875755646     
   7043.3755890934735     
   6943.7725704116101     
   6844.2729854274467     
   7333.1053570738222     
   7238.0143541193183     
   7143.0130080787903     
   7048.1049775499778     
   6953.2941168039815     
   6858.5844887882058     
   6763.9803791547247     
   6669.4863114077534     
   6575.1070632728170     
   7025.6156535689115     
   6935.5984688696108     
   6845.6803577554092     
   6755.8653309791898     
   6666.1576094891261     
   6576.5616381053142     
   6487.0821002478669     
   6397.7239338081390     
   6308.4923482637996     
   6720.6937023996561     
   6635.7760586836948     
   6550.9671711365918     
   6466.2714105506811     
   6381.6933714506040     
   6297.2378862957130     
   6212.9100407401256     
   6128.7151900385325     
   6044.6589766965963     
   6418.6094208600589     
   6338.8178220778409     
   6259.1448567562347     
   6179.5952581908923     
   6100.1739954604163     
   6020.8862879621511     
   5941.7376209899794     
   5862.7337624374604     
   5783.8807807170379     
   6119.6874405120107     
   6045.0490363074250     
   5970.5392354033474     
   5896.1631290752111     
   5821.9260543482415     
   5747.8336086286699     
   5673.8916653357828     
   5600.1063906116433     
   5526.4842611876220     
   5824.3196094647828     
   5754.8619131248461     
   5685.5427387390610     
   5616.3675221555359     
   5547.3419521626311     
   5478.4719849291423     
   5409.7638593781239     
   5341.2241135586310     
   5272.8596020847799     
   7389.5138271850283     
   7279.9401608229255     
   7170.4581732629804     
   7061.0720650343355     
   6951.7862940723453     
   6842.6055956535247     
   6733.5350041791535     
   6624.5798770066931     
   6515.7459205529594     
   7115.7963580763171     
   7011.3007779127074     
   6906.9079907638434     
   6802.6226295661854     
   6698.4496093771641     
   6594.3941488631945     
   6490.4617937395433     
   6386.6584423677714     
   6282.9903737386185     
   6844.2729854274467     
   6744.8822216274266     
   6645.6058784456036     
   6546.4490310089250     
   6447.4170602590402     
   6348.5156757987424     
   6249.7509407638127     
   6151.1292989269323     
   6052.6576042634069     
   6575.1070632728170     
   6480.8483725117203     
   6386.7161827090540     
   6292.7160139146827     
   6198.8537139898035     
   6105.1354825499548     
   6011.5678969717728     
   5918.1579406648325     
   5824.9130338349942     
   6308.4923482637996     
   6219.3934334348751     
   6130.4334713575063     
   6041.6184210850606     
   5952.9545889981555     
   5864.4486535124079     
   5776.1076918445669     
   5687.9392090304436     
   5599.9511694082694     
   6044.6589766965963     
   5960.7478313241081     
   5876.9883537865853     
   5793.3869256630196     
   5709.9502920015220     
   5626.6855863858827     
   5543.6003580073957     
   5460.7026009209121     
   5378.0007856804341     
   5783.8807807170379     
   5705.1854215591666     
   5626.6545655471064     
   5548.2949875126842     
   5470.1138375272758     
   5392.1186658468559     
   5314.3174497593300     
   5236.7186224896368     
   5159.3311043370149     
   5526.4842611876220     
   5453.0322963325898     
   5379.7576020067145     
   5306.6673016695577     
   5233.7689003318392     
   5161.0703088347409     
   5088.5798698726812     
   5016.3063858928954     
   4944.2591490130599     
   5272.8596020847799     
   5204.6775586688000     
   5136.6852392582041     
   5068.8900531380305     
   5001.2997908624084     
   4933.9226472728960     
   4866.7672460507092     
   4799.8426659072002     
   4733.1584685221815     
   6515.7459205529594     
   6407.0379417957420     
   6298.4612438929471     
   6190.0229088790775     
   6081.7305212768051     
   5973.5922118980416     
   5865.6167061909564     
   5757.8133776765462     
   5650.1923070920575     
   6282.9903737386185     
   6179.4633356840177     
   6076.0837398862977     
   5972.8595502400785     
   5869.7992792578862     
   5766.9120348100741     
   5664.2075715761612     
   5561.6963477504278     
   5459.3895876125980     
   6052.6576042634069     
   5954.3425817855323     
   5856.1917670918901     
   5758.2139722726060     
   5660.4185996969500     
   5562.8156909894078     
   5465.4159807764208     
   5368.2309557279059     
   5271.2729194836929     
   5824.9130338349942     
   5731.8408880727520     
   5638.9501484622888     
   5546.2504241993429     
   5453.7519503401463     
   5361.4656381595169     
   5269.4031302195826     
   5177.5768606408019     
   5086.0001211201443     
   5599.9511694082694     
   5512.1522521457500     
   5424.5521659382466     
   5337.1612459896005     
   5249.9904811506603     
   5163.0515646647864     
   5076.3569494376388     
   4989.9199082736104     
   4903.7545995610853     
   5378.0007856804341     
   5295.5045100294283     
   5213.2244672272964     
   5131.1716245779653     
   5049.3576212475964     
   4967.7948182846976     
   4886.4963528505150     
   4805.4761970356176     
   4724.7492216704459     
   5159.3311043370149     
   5082.1653309754765     
   5005.2328662901655     
   4928.5451900404596     
   4852.1144607272854     
   4775.9535636918490     
   4700.0761629881035     
   4624.4967573284912     
   4549.2307404248386     
   4944.2591490130599     
   4872.4493190370122     
   4800.8891801371738     
   4729.5905762928169     
   4658.5660241208680     
   4587.8287578277841     
   4517.3927773914575     
   4447.2729001941170     
   4377.4848163318311     
   4733.1584685221815     
   4666.7263897842040     
   4600.5592464568381     
   4534.6690674498341     
   4469.0685338500280     
   4403.7710195441132     
   4338.7906344499506     
   4274.1422704959768     
   4209.8416504874012     
   5650.1923070920575     
   5542.7682629688024     
   5435.5565161423747     
   5328.5691242103367     
   5221.8190847577207     
   5115.3204277934883     
   5009.0883189251144     
   4903.1391746894960     
   4797.4907916659331     
   5459.3895876125980     
   5357.3023339888477     
   5255.4497433832439     
   5153.8445161602440     
   5052.5003422390382     
   4951.4319956055206     
   4850.6554394006471     
   4750.1879429155169     
   4650.0482120026072     
   5271.2729194836929     
   5174.5570053551792     
   5078.0981298847100     
   4981.9096464440918     
   4886.0059382783202     
   4790.4025135862039     
   4695.1161107866274     
   4600.1648151736908     
   4505.5681883197121     
   5086.0001211201443     
   4994.6879818137986     
   4903.6550294949047     
   4812.9152587156977     
   4722.4837227051648     
   4632.3766273101128     
   4542.6114344901443     
   4453.2069764141897     
   4364.1835813226744     
   4903.7545995610853     
   4817.8759003894547     
   4732.2980073722283     
   4647.0355194269923     
   4562.1041091495899     
   4477.5206137568521     
   4393.3031347123260     
   4309.4711469028207     
   4226.0456183094384     
   4724.7492216704459     
   4644.3299976687904     
   4564.2322937009130     
   4484.4712487286670     
   4405.0630744339860     
   4326.0251412188099     
   4247.3760718055291     
   4169.1358431033650     
   4091.3258970504398     
   4549.2307404248386     
   4474.2922734495241     
   4399.6946749055833     
   4325.4535302585027     
   4251.5854789261221     
   4178.1082934136557     
   4105.0409647906972     
   4032.4037949701146     
   3960.2184962614374     
   4377.4848163318311     
   4308.0421758611192     
   4238.9578334619882     
   4170.2476979590456     
   4101.9286942547533     
   4034.0188338236981     
   3966.5372901737805     
   3899.5044795393701     
   3832.9421470579364     
   4209.8416504874012     
   4145.9018071165028     
   4082.3351196209273     
   4019.1576690881575     
   3956.3864952393265     
   3894.0396567949460     
   3832.1362953997104     
   3770.6967031949112     
   3709.7423940992421     
   4797.4907916659331     
   4692.1382466991035     
   4587.0749348594854     
   4482.3189557838641     
   4377.8908942966973     
   4273.8141160326350     
   4170.1151060277989     
   4066.8238568013576     
   3963.9743134893315     
   4650.0482120026072     
   4550.2366284302661     
   4450.7545967021051     
   4351.6253808573138     
   4252.8749452225838     
   4154.5322581100127     
   4056.6296356834387     
   3959.2031314672713     
   3862.2929776822803     
   4505.5681883197121     
   4411.3324092283665     
   4317.4670408377824     
   4223.9998847039542     
   4130.9615913690641     
   4038.3859618214606     
   3946.3102850085102     
   3854.7757156403295     
   3763.8276969176550     
   4364.1835813226744     
   4275.5534054885456     
   4187.3339595164280     
   4099.5568400516522     
   4012.2565663575469     
   3925.4708690548141     
   3839.2410096425078     
   3753.6121337230124     
   3668.6336609593350     
   4226.0456183094384     
   4143.0445661639387     
   4060.4928963615657     
   3978.4251456671273     
   3896.8787662439167     
   3815.8943917860224     
   3735.5161283292496     
   3655.7918713842168     
   3576.7736508932412     
   4091.3258970504398     
   4013.9697203677579     
   3937.0987446149561     
   3860.7494856783369     
   3784.9612845321653     
   3709.7765422567659     
   3635.2409732531587     
   3561.4038771527958     
   3488.3184296293803     
   3960.2184962614374     
   3888.5133860018937     
   3817.3252664755764     
   3746.6915764483324     
   3676.6524082826099     
   3607.2507054569373     
   3538.5324719238010     
   3470.5469929137234     
   3403.3470664075394     
   3832.9421470579364     
   3766.8825902221929     
   3701.3665828039311     
   3636.4313507315583     
   3572.1165273898227     
   3508.4643099810337     
   3445.5196220152516     
   3383.3302809414936     
   3321.9471695469442     
   3709.7423940992421     
   3649.3086291940158     
   3589.4385618202632     
   3530.1680111829892     
   3471.5348945326127     
   3413.5793418309599     
   3356.3438119292105     
   3299.8732089903751     
   3244.2149975650964     
   7526.7559156858897     
   7454.2981766297553     
   7382.0113207539807     
   7309.8914782306838     
   7237.9348729861813     
   7166.1378229906450     
   7094.4967414325265     
   7023.0081388437466     
   6951.6686262443327     
   7113.1562644248479     
   7045.6634508120042     
   6978.3617540747418     
   6911.2453367267399     
   6844.3084307571417     
   6777.5453346919112     
   6710.9504118308550     
   6644.5180897463069     
   6578.2428611355717     
   6703.4265373106737     
   6640.9516759569460     
   6578.6815870866712     
   6516.6093595569191     
   6454.7281257308559     
   6393.0310562433406     
   6331.5113560660438     
   6270.1622619663149     
   6208.9770414598879     
   6298.2684113408513     
   6240.8654975927002     
   6183.6744632021637     
   6126.6882187462661     
   6069.8996887920184     
   6013.3018057058625     
   5956.8875046339872     
   5900.6497197368044     
   5844.5813817644066     
   5898.5682928504075     
   5846.2925735013723     
   5794.2291918470391     
   5742.3717685305946     
   5690.7139040786278     
   5639.2491730021920     
   5587.9711186952436     
   5536.8732491863402     
   5485.9490338007890     
   5505.4572138292788     
   5458.3650890270865     
   5411.4788414248760     
   5364.7936708620000     
   5318.3047185704499     
   5272.0070620250044     
   5225.8957101172000     
   5179.9655986746147     
   5134.2115863488743     
   5120.3928931597547     
   5078.5410370354484     
   5036.8811831682506     
   4995.4109428525617     
   4954.1278280218476     
   4913.0292455492072     
   4872.1124916309682     
   4831.3747462614128     
   4790.8130678059661     
   4745.2722461649519     
   4708.7152118165122     
   4672.3281007051246     
   4636.1117054683627     
   4600.0666814480755     
   4564.1935360363041     
   4528.4926187142128     
   4492.9641118321342     
   4457.6080221804132     
   4382.5846349228095     
   4351.3696211578481     
   4320.2930887454195     
   4289.3596825741552     
   4258.5738847978837     
   4227.9399898455677     
   4197.4620826142900     
   4167.1440200333709     
   4136.9894161972597     
   6951.6686262443327     
   6880.4458356075538     
   6809.3113957864434     
   6738.2680774313276     
   6667.3187711495439     
   6596.4664935390992     
   6525.7143935781942     
   6455.0657593937694     
   6384.5240254338160     
   6578.2428611355717     
   6512.0904166141363     
   6446.0322363863079     
   6380.0716418139154     
   6314.2120847008773     
   6248.4571536147487     
   6182.8105805633286     
   6117.2762480494212     
   6051.8581965249177     
   6208.9770414598879     
   6147.9208321612896     
   6086.9656719368913     
   6026.1153030525475     
   5965.3736076036021     
   5904.7446139964113     
   5844.2325037755072     
   5783.8416188164765     
   5723.5764689030348     
   5844.5813817644066     
   5788.6483830298594     
   5732.8239452075750     
   5677.1120968784508     
   5621.5170144041858     
   5566.0430284271943     
   5510.6946306963828     
   5455.4764812326339     
   5400.3934158516067     
   5485.9490338007890     
   5435.1664007937443     
   5384.5003609968571     
   5333.9550888385038     
   5283.5349126956835     
   5233.2443212530061     
   5183.0879701548765     
   5133.0706889629473     
   5083.1974884300917     
   5134.2115863488743     
   5088.6049609060919     
   5043.1231830564866     
   4997.7704257352852     
   4952.5510198989850     
   4907.4694605570994     
   4862.5304130609638     
   4817.7387196578829     
   4773.0994063171347     
   4790.8130678059661     
   4750.4035577704390     
   4710.1269418668508     
   4669.9872370161565     
   4629.9886199417206     
   4590.1354326590417     
   4550.4321881922888     
   4510.8835765249523     
   4471.4944707872783     
   4457.6080221804132     
   4422.4069640556481     
   4387.3460274526342     
   4352.4289132091089     
   4317.6594815178050     
   4283.0417566223887     
   4248.5799317395031     
   4214.2783742128167     
   4180.1416309017332     
   4136.9894161972597     
   4106.9894890573732     
   4077.1352461334100     
   4047.4299125719303     
   4017.8768707191693     
   3988.4796637270406     
   3959.2419994453853     
   3930.1677546052033     
   3901.2609792990438     
   6384.5240254338160     
   6314.0907255268185     
   6243.7670909582648     
   6173.5563310277248     
   6103.4618141183637     
   6033.4870762987603     
   5963.6358304665155     
   5893.9119760723115     
   5824.3196094647828     
   6051.8581965249177     
   5986.5581308444753     
   5921.3770455893291     
   5856.3181530338516     
   5791.3848238473747     
   5726.5805953348672     
   5661.9091801769209     
   5597.3744757009827     
   5532.9805737187271     
   5723.5764689030348     
   5663.4386836676922     
   5603.4288611841148     
   5543.5502058308384     
   5483.8060761631277     
   5424.1999925613027     
   5364.7356453176990     
   5305.4169031907168     
   5246.2478224517426     
   5400.3934158516067     
   5345.4467285515093     
   5290.6364396442505     
   5235.9657163058000     
   5181.4378713825117     
   5127.0563701946412     
   5072.8248377066211     
   5018.7470660817808     
   4964.8270226438563     
   5083.1974884300917     
   5033.4690437356385     
   4983.8845840020467     
   4934.4471871220067     
   4885.1600631127494     
   4836.0265598235701     
   4787.0501689245857     
   4738.2345321893999     
   4689.5834480847207     
   4773.0994063171347     
   4728.6122140235921     
   4684.2753230778744     
   4640.0916426025278     
   4596.0641946431188     
   4552.1961185540167     
   4508.4906755763805     
   4464.9512536157163     
   4421.5813722243865     
   4471.4944707872783     
   4432.2633207416056     
   4393.1869433478278     
   4354.2679678798841     
   4315.5091114056859     
   4276.9131816954632     
   4238.4830802393153     
   4200.2218053765864     
   4162.1324555394885     
   4180.1416309017332     
   4146.1664538857631     
   4112.3479136662072     
   4078.6882147572637     
   4045.1896188085375     
   4011.8544460029475     
   3978.6850765008326     
   3945.6839519296750     
   3912.8535769205178     
   3901.2609792990438     
   3872.5162692632498     
   3843.9264892686692     
   3815.4932426355435     
   3787.2181551208805     
   3759.1028749526772     
   3731.1490728789872     
   3703.3584422318081     
   3675.7326990054776     
   5824.3196094647828     
   5754.8619131248461     
   5685.5427387390610     
   5616.3675221555359     
   5547.3419521626311     
   5478.4719849291423     
   5409.7638593781239     
   5341.2241135586310     
   5272.8596020847799     
   5532.9805737187271     
   5468.7307618453233     
   5404.6292083215512     
   5340.6816624966941     
   5276.8941303758693     
   5213.2728885448623     
   5149.8244989328914     
   5086.5558244651238     
   5023.4740456590625     
   5246.2478224517426     
   5187.2318383036290     
   5128.3734692820744     
   5069.6787276203186     
   5011.1538817266146     
   4952.8054692426103     
   4894.6403108169570     
   4836.6655246335149     
   4778.8885417305919     
   4964.8270226438563     
   4911.0683195214478     
   4857.4758518663266     
   4804.0558291197258     
   4750.8147114451494     
   4697.7592215526556     
   4644.8963570960159     
   4592.2334036644397     
   4539.7779483915338     
   4689.5834480847207     
   4641.1007174182178     
   4592.7916277645409     
   4544.6625031644990     
   4496.7199072987196     
   4448.9706537269039     
   4401.4218165405982     
   4354.0807414399205     
   4306.9550572391790     
   4421.5813722243865     
   4378.3850104609619     
   4335.3678507977147     
   4292.5362317730369     
   4249.8967144879498     
   4207.4560909634329     
   4165.2213927534085     
   4123.1998998073414     
   4081.3991495777836     
   4162.1324555394885     
   4124.2191515909617     
   4086.4879584786136     
   4048.9451138556296     
   4011.5970550265574     
   3974.4504252413190     
   3937.5120800951213     
   3900.7890940232755     
   3864.2887668773892     
   3912.8535769205178     
   3880.1981501274772     
   3847.7240929259656     
   3815.4374186070481     
   3783.3443123396059     
   3751.4511353826529     
   3719.7644292852206     
   3688.2909200606414     
   3657.0375223125639     
   3675.7326990054776     
   3648.2760309906230     
   3620.9951825190319     
   3593.8958259486826     
   3566.9837748741888     
   3540.2649864470418     
   3513.7455636072814     
   3487.4317572111840     
   3461.3299680377236     
   5272.8596020847799     
   5204.6775586688000     
   5136.6852392582041     
   5068.8900531380305     
   5001.2997908624084     
   4933.9226472728960     
   4866.7672460507092     
   4799.8426659072002     
   4733.1584685221815     
   5023.4740456590625     
   4960.5865229876326     
   4897.9005492074502     
   4835.4237194934303     
   4773.1640018782882     
   4711.1297583685709     
   4649.3297673409525     
   4587.7732472918615     
   4526.4698820156755     
   4778.8885417305919     
   4721.3167246116936     
   4663.9572413920187     
   4606.8177312954949     
   4549.9061884676466     
   4493.2309805552950     
   4436.8008682805166     
   4380.6250260518436     
   4324.7130636556794     
   4539.7779483915338     
   4487.5372005865065     
   4435.5180058488286     
   4383.7278765702868     
   4332.1746519981834     
   4280.8665137365542     
   4229.8120019458756     
   4179.0200322563469     
   4128.4999134097470     
   4306.9550572391790     
   4260.0516375398474     
   4213.3767741927122     
   4166.9376523339461     
   4120.7417457873562     
   4074.7968291176435     
   4029.1109901005025     
   3983.6926426056598     
   3938.5505398869018     
   4081.3991495777836     
   4039.8254772959522     
   3998.4843637173171     
   3957.3824393443106     
   3916.5265760807911     
   3875.9238957240746     
   3835.5817786364373     
   3795.5078725809276     
   3755.7101017036598     
   3864.2887668773892     
   3828.0166860282056     
   3791.9772514200818     
   3756.1762921837503     
   3720.6198247212196     
   3685.3140578508273     
   3650.2653979643096     
   3615.4804541777935     
   3580.9660434554539     
   3657.0375223125639     
   3626.0088815223789     
   3595.2080577637134     
   3564.6398275307856     
   3534.3090974075367     
   3504.2209064375666     
   3474.3804284203788     
   3444.7929741238381     
   3415.4639933892827     
   3461.3299680377236     
   3435.4437550333046     
   3409.7746248556477     
   3384.3260694336277     
   3359.1016557911889     
   3334.1050265154945     
   3309.3399001454554     
   3284.8100714738634     
   3260.5194117550886     
   4733.1584685221815     
   4666.7263897842040     
   4600.5592464568381     
   4534.6690674498341     
   4469.0685338500280     
   4403.7710195441132     
   4338.7906344499506     
   4274.1422704959768     
   4209.8416504874012     
   4526.4698820156755     
   4465.4317955726256     
   4404.6721491708940     
   4344.2029900264160     
   4284.0369828191606     
   4224.1874449799498     
   4164.6683839239640     
   4105.4945362990948     
   4046.6814093026082     
   4324.7130636556794     
   4269.0772748299087     
   4213.7309902645966     
   4158.6861253188945     
   4103.9551645682923     
   4049.5511909956062     
   3995.4879164734775     
   3941.7797135434630     
   3888.4416484776266     
   4128.4999134097470     
   4078.2638661560040     
   4028.3251957994003     
   3978.6955114976554     
   3929.3869304380623     
   3880.4121004772292     
   3831.7842234693680     
   3783.5170792390131     
   3735.6250501414820     
   3938.5505398869018     
   3893.6965599276823     
   3849.1437660296506     
   3804.9032694088701     
   3760.9866169886291     
   3717.4058074355462     
   3674.1733073795754     
   3631.3020677481941     
   3588.8055401344495     
   3755.7101017036598     
   3716.1997046887263     
   3676.9892661564263     
   3638.0892025403687     
   3599.5102857653769     
   3561.2636531001863     
   3523.3608168289138     
   3485.8136736641836     
   3448.6345138197107     
   3580.9660434554539     
   3546.7324469241094     
   3512.7915202215036     
   3479.1528021847221     
   3445.8261037582852     
   3412.8215125621182     
   3380.1493970717929     
   3347.8204103418966     
   3315.8454932055433     
   3415.4639933892827     
   3386.4024804095143     
   3357.6193096652760     
   3329.1229999872999     
   3300.9222616624329     
   3273.0259970012689     
   3245.4433004606867     
   3218.1834582783322     
   3191.2559475657249     
   3260.5194117550886     
   3236.4753033419101     
   3212.6874014106647     
   3189.1631347119855     
   3165.9100517871630     
   3142.9358190032708     
   3120.2482182096510     
   3097.8551439903763     
   3075.7646004834778     
   4209.8416504874012     
   4145.9018071165028     
   4082.3351196209273     
   4019.1576690881575     
   3956.3864952393265     
   3894.0396567949460     
   3832.1362953997104     
   3770.6967031949112     
   3709.7423940992421     
   4046.6814093026082     
   3988.2413206347469     
   3930.1860664528949     
   3872.5316067712492     
   3815.2947812533675     
   3758.4933583450165     
   3702.1460866249527     
   3646.2727483270469     
   3590.8942149509066     
   3888.4416484776266     
   3835.4852227616211     
   3782.9214279034709     
   3730.7656685887619     
   3679.0341288518175     
   3627.7438095319335     
   3576.9125667945409     
   3526.5591515839828     
   3476.7032498405065     
   3735.6250501414820     
   3688.1187098064720     
   3641.0080137433065     
   3594.3073656285906     
   3548.0318320567312     
   3502.1971687759137     
   3456.8198471105629     
   3411.9170804049149     
   3367.5068502922977     
   3588.8055401344495     
   3546.6932778360410     
   3504.9739912980826     
   3463.6606463710586     
   3422.7667464739534     
   3382.3063489557862     
   3342.2940810980276     
   3302.7451555997382     
   3263.6753853668315     
   3448.6345138197107     
   3411.8318346460351     
   3375.4129548200153     
   3339.3890006218035     
   3303.7715104752774     
   3268.5724435320808     
   3233.8041876799575     
   3199.4795668557963     
   3165.6118475267422     
   3315.8454932055433     
   3284.2321536875106     
   3252.9862816376040     
   3222.1168280565371     
   3191.6330402168851     
   3161.5444650100249     
   3131.8609517833725     
   3102.5926545940424     
   3073.7500337959741     
   3191.2559475657249     
   3164.6675064606939     
   3138.4227201279141     
   3112.5281272737902     
   3086.9904656048193     
   3061.8166725039910     
   3037.0138854521510     
   3012.5894421648168     
   2988.5508804092960     
   3075.7646004834778     
   3053.9829785142747     
   3032.5138939228900     
   3011.3613636836262     
   2990.5295318499684     
   2970.0226696860532     
   2949.8451758942770     
   2930.0015769377419     
   2910.4965274542292     
   3709.7423940992421     
   3649.3086291940158     
   3589.4385618202632     
   3530.1680111829892     
   3471.5348945326127     
   3413.5793418309599     
   3356.3438119292105     
   3299.8732089903751     
   3244.2149975650964     
   3590.8942149509066     
   3536.0475653658245     
   3481.7770394128415     
   3428.1163698858477     
   3375.1010419521549     
   3322.7683686545593     
   3271.1575645755961     
   3220.3098163753325     
   3170.2683486758442     
   3476.7032498405065     
   3427.3825388536975     
   3378.6414260229603     
   3330.5114386345522     
   3283.0254994045740     
   3236.2179673689125     
   3190.1246748486296     
   3144.7829593598149     
   3100.2316891807845     
   3367.5068502922977     
   3323.6261576319757     
   3280.3186103468170     
   3237.6134632769190     
   3195.5410115411987     
   3154.1326028268268     
   3113.4206449639041     
   3073.4386079256046     
   3034.2210193127394     
   3263.6753853668315     
   3225.1197465714063     
   3187.1200135174236     
   3149.7031839766760     
   3112.8969562849356     
   3076.7297200853495     
   3041.2305428275981     
   3006.4291514920060     
   2972.3559089934984     
   3165.6118475267422     
   3132.2325403896607     
   3099.3804638600955     
   3067.0804858892207     
   3035.3578635413101     
   3004.2382197312832     
   2973.7475173955950     
   2943.9120309038904     
   2914.7583145326043     
   3073.7500337959741     
   3045.3595784415506     
   3017.4559147249502     
   2990.0620442843674     
   2963.2010851352898     
   2936.8962418622823     
   2911.1707760936802     
   2886.0479773721204     
   2861.5511345558266     
   2988.5508804092960     
   2964.9179662016827     
   2941.7197486534087     
   2918.9777764018186     
   2896.7134871505405     
   2874.9481782398461     
   2853.7029815600599     
   2832.9988431726465     
   2812.8565080211747     
   2910.4965274542292     
   2891.3411835955603     
   2872.5574374588236     
   2854.1659444692509     
   2836.1870694779977     
   2818.6408638728376     
   2801.5470524576313     
   2784.9250306678632     
   2768.7938726639204     
 </DataArray>
 </PointData>
 </Piece>
 <Piece  NumberOfPoints="          1296 "  NumberOfCells="         1024 ">
 <Points>
 <DataArray  type="Float64" NumberOfComponents="3"  format="ascii" >
   5.0000000000000000        0.0000000000000000        0.0000000000000000     
   5.1562500000000000        0.0000000000000000        0.0000000000000000     
   5.3125000000000000        0.0000000000000000        0.0000000000000000     
   5.4687500000000000        0.0000000000000000        0.0000000000000000     
   5.6250000000000000        0.0000000000000000        0.0000000000000000     
   5.7812500000000000        0.0000000000000000        0.0000000000000000     
   5.9375000000000000        0.0000000000000000        0.0000000000000000     
   6.0937499999999991        0.0000000000000000        0.0000000000000000     
   6.2500000000000009        0.0000000000000000        0.0000000000000000     
   5.0000000000000000       0.15624999999999997        0.0000000000000000     
   5.1562500000000000       0.15625000000000000        0.0000000000000000     
   5.3125000000000000       0.15624999999999997        0.0000000000000000     
   5.4687500000000000       0.15625000000000000        0.0000000000000000     
   5.6250000000000000       0.15624999999999997        0.0000000000000000     
   5.7812500000000000       0.15625000000000000        0.0000000000000000     
   5.9375000000000000       0.15625000000000000        0.0000000000000000     
   6.0937499999999982       0.15624999999999997        0.0000000000000000     
   6.2499999999999991       0.15625000000000000        0.0000000000000000     
   5.0000000000000000       0.31250000000000000        0.0000000000000000     
   5.1562500000000000       0.31249999999999994        0.0000000000000000     
   5.3125000000000000       0.31249999999999994        0.0000000000000000     
   5.4687499999999991       0.31250000000000000        0.0000000000000000     
   5.6250000000000000       0.31249999999999994        0.0000000000000000     
   5.7812500000000000       0.31250000000000000        0.0000000000000000     
   5.9375000000000000       0.31250000000000000        0.0000000000000000     
   6.0937499999999991       0.31249999999999994        0.0000000000000000     
   6.2500000000000000       0.31249999999999994        0.0000000000000000     
   5.0000000000000000       0.46875000000000000        0.0000000000000000     
   5.1562500000000000       0.46875000000000000        0.0000000000000000     
   5.3125000000000000       0.46875000000000000        0.0000000000000000     
   5.4687500000000000       0.46875000000000000        0.0000000000000000     
   5.6249999999999991       0.46875000000000000        0.0000000000000000     
   5.7812500000000000       0.46875000000000000        0.0000000000000000     
   5.9375000000000000       0.46875000000000000        0.0000000000000000     
   6.0937500000000000       0.46875000000000000        0.0000000000000000     
   6.2499999999999991       0.46875000000000000        0.0000000000000000     
   5.0000000000000000       0.62499999999999989        0.0000000000000000     
   5.1562500000000000       0.62499999999999989        0.0000000000000000     
   5.3124999999999991       0.62500000000000000        0.0000000000000000     
   5.4687499999999991       0.62499999999999989        0.0000000000000000     
   5.6249999999999991       0.62499999999999989        0.0000000000000000     
   5.7812500000000000       0.62500000000000000        0.0000000000000000     
   5.9374999999999991       0.62499999999999989        0.0000000000000000     
   6.0937499999999982       0.62499999999999978        0.0000000000000000     
   6.2499999999999991       0.62500000000000000        0.0000000000000000     
   5.0000000000000000       0.78125000000000011        0.0000000000000000     
   5.1562500000000000       0.78125000000000000        0.0000000000000000     
   5.3125000000000000       0.78125000000000000        0.0000000000000000     
   5.4687500000000000       0.78125000000000011        0.0000000000000000     
   5.6250000000000000       0.78124999999999989        0.0000000000000000     
   5.7812500000000000       0.78125000000000011        0.0000000000000000     
   5.9375000000000000       0.78125000000000000        0.0000000000000000     
   6.0937499999999991       0.78125000000000000        0.0000000000000000     
   6.2499999999999991       0.78124999999999989        0.0000000000000000     
   5.0000000000000000       0.93750000000000000        0.0000000000000000     
   5.1562500000000000       0.93750000000000000        0.0000000000000000     
   5.3125000000000000       0.93750000000000000        0.0000000000000000     
   5.4687500000000000       0.93750000000000000        0.0000000000000000     
   5.6249999999999991       0.93750000000000000        0.0000000000000000     
   5.7812500000000000       0.93750000000000000        0.0000000000000000     
   5.9375000000000000       0.93750000000000000        0.0000000000000000     
   6.0937500000000000       0.93750000000000000        0.0000000000000000     
   6.2499999999999991       0.93750000000000000        0.0000000000000000     
   5.0000000000000000        1.0937499999999998        0.0000000000000000     
   5.1562500000000000        1.0937499999999998        0.0000000000000000     
   5.3125000000000000        1.0937500000000000        0.0000000000000000     
   5.4687500000000009        1.0937500000000002        0.0000000000000000     
   5.6250000000000000        1.0937500000000002        0.0000000000000000     
   5.7812500000000000        1.0937499999999998        0.0000000000000000     
   5.9375000000000009        1.0937500000000002        0.0000000000000000     
   6.0937500000000009        1.0937500000000004        0.0000000000000000     
   6.2499999999999991        1.0937500000000000        0.0000000000000000     
   5.0000000000000009        1.2500000000000002        0.0000000000000000     
   5.1562499999999991        1.2499999999999998        0.0000000000000000     
   5.3124999999999991        1.2500000000000000        0.0000000000000000     
   5.4687500000000000        1.2500000000000002        0.0000000000000000     
   5.6250000000000000        1.2499999999999998        0.0000000000000000     
   5.7812500000000000        1.2500000000000000        0.0000000000000000     
   5.9375000000000000        1.2500000000000002        0.0000000000000000     
   6.0937500000000000        1.2499999999999998        0.0000000000000000     
   6.2500000000000000        1.2500000000000002        0.0000000000000000     
   6.2500000000000009        0.0000000000000000        0.0000000000000000     
   6.4062500000000000        0.0000000000000000        0.0000000000000000     
   6.5625000000000000        0.0000000000000000        0.0000000000000000     
   6.7187500000000009        0.0000000000000000        0.0000000000000000     
   6.8749999999999991        0.0000000000000000        0.0000000000000000     
   7.0312500000000009        0.0000000000000000        0.0000000000000000     
   7.1875000000000000        0.0000000000000000        0.0000000000000000     
   7.3437500000000000        0.0000000000000000        0.0000000000000000     
   7.5000000000000009        0.0000000000000000        0.0000000000000000     
   6.2499999999999991       0.15625000000000000        0.0000000000000000     
   6.4062500000000000       0.15624999999999997        0.0000000000000000     
   6.5624999999999991       0.15625000000000000        0.0000000000000000     
   6.7187500000000009       0.15625000000000003        0.0000000000000000     
   6.8750000000000000       0.15624999999999997        0.0000000000000000     
   7.0312500000000018       0.15625000000000000        0.0000000000000000     
   7.1875000000000018       0.15625000000000003        0.0000000000000000     
   7.3437500000000000       0.15624999999999997        0.0000000000000000     
   7.5000000000000018       0.15625000000000000        0.0000000000000000     
   6.2500000000000000       0.31249999999999994        0.0000000000000000     
   6.4062499999999991       0.31249999999999994        0.0000000000000000     
   6.5624999999999991       0.31249999999999994        0.0000000000000000     
   6.7187499999999991       0.31249999999999994        0.0000000000000000     
   6.8750000000000000       0.31249999999999994        0.0000000000000000     
   7.0312500000000000       0.31250000000000000        0.0000000000000000     
   7.1874999999999991       0.31250000000000000        0.0000000000000000     
   7.3437499999999991       0.31249999999999994        0.0000000000000000     
   7.5000000000000000       0.31250000000000000        0.0000000000000000     
   6.2499999999999991       0.46875000000000000        0.0000000000000000     
   6.4062500000000000       0.46875000000000000        0.0000000000000000     
   6.5625000000000000       0.46875000000000006        0.0000000000000000     
   6.7187499999999991       0.46875000000000000        0.0000000000000000     
   6.8750000000000000       0.46875000000000000        0.0000000000000000     
   7.0312500000000009       0.46875000000000006        0.0000000000000000     
   7.1875000000000000       0.46875000000000000        0.0000000000000000     
   7.3437500000000000       0.46875000000000000        0.0000000000000000     
   7.5000000000000018       0.46875000000000011        0.0000000000000000     
   6.2499999999999991       0.62500000000000000        0.0000000000000000     
   6.4062499999999991       0.62499999999999989        0.0000000000000000     
   6.5624999999999991       0.62499999999999989        0.0000000000000000     
   6.7187499999999991       0.62500000000000000        0.0000000000000000     
   6.8750000000000000       0.62499999999999989        0.0000000000000000     
   7.0312500000000000       0.62500000000000000        0.0000000000000000     
   7.1874999999999991       0.62500000000000011        0.0000000000000000     
   7.3437499999999991       0.62499999999999989        0.0000000000000000     
   7.4999999999999991       0.62499999999999978        0.0000000000000000     
   6.2499999999999991       0.78124999999999989        0.0000000000000000     
   6.4062499999999991       0.78125000000000011        0.0000000000000000     
   6.5625000000000000       0.78125000000000000        0.0000000000000000     
   6.7187499999999991       0.78124999999999989        0.0000000000000000     
   6.8750000000000000       0.78125000000000000        0.0000000000000000     
   7.0312500000000009       0.78125000000000022        0.0000000000000000     
   7.1875000000000000       0.78124999999999989        0.0000000000000000     
   7.3437499999999991       0.78125000000000000        0.0000000000000000     
   7.5000000000000009       0.78125000000000022        0.0000000000000000     
   6.2499999999999991       0.93750000000000000        0.0000000000000000     
   6.4062500000000000       0.93750000000000000        0.0000000000000000     
   6.5625000000000000       0.93750000000000000        0.0000000000000000     
   6.7187500000000000       0.93750000000000000        0.0000000000000000     
   6.8750000000000000       0.93750000000000000        0.0000000000000000     
   7.0312500000000018       0.93750000000000011        0.0000000000000000     
   7.1875000000000000       0.93750000000000000        0.0000000000000000     
   7.3437500000000000       0.93750000000000000        0.0000000000000000     
   7.5000000000000018       0.93750000000000011        0.0000000000000000     
   6.2499999999999991        1.0937500000000000        0.0000000000000000     
   6.4062500000000000        1.0937500000000000        0.0000000000000000     
   6.5625000000000000        1.0937500000000000        0.0000000000000000     
   6.7187499999999991        1.0937500000000000        0.0000000000000000     
   6.8749999999999991        1.0937500000000000        0.0000000000000000     
   7.0312500000000000        1.0937499999999998        0.0000000000000000     
   7.1875000000000009        1.0937500000000000        0.0000000000000000     
   7.3437500000000000        1.0937500000000000        0.0000000000000000     
   7.4999999999999991        1.0937499999999998        0.0000000000000000     
   6.2500000000000000        1.2500000000000002        0.0000000000000000     
   6.4062500000000000        1.2499999999999998        0.0000000000000000     
   6.5625000000000009        1.2500000000000002        0.0000000000000000     
   6.7187500000000000        1.2500000000000000        0.0000000000000000     
   6.8750000000000000        1.2499999999999998        0.0000000000000000     
   7.0312500000000000        1.2500000000000002        0.0000000000000000     
   7.1874999999999991        1.2500000000000002        0.0000000000000000     
   7.3437500000000009        1.2499999999999998        0.0000000000000000     
   7.5000000000000009        1.2500000000000002        0.0000000000000000     
   7.5000000000000009        0.0000000000000000        0.0000000000000000     
   7.6562499999999991        0.0000000000000000        0.0000000000000000     
   7.8125000000000000        0.0000000000000000        0.0000000000000000     
   7.9687500000000018        0.0000000000000000        0.0000000000000000     
   8.1250000000000000        0.0000000000000000        0.0000000000000000     
   8.2812500000000000        0.0000000000000000        0.0000000000000000     
   8.4375000000000000        0.0000000000000000        0.0000000000000000     
   8.5937500000000000        0.0000000000000000        0.0000000000000000     
   8.7500000000000000        0.0000000000000000        0.0000000000000000     
   7.5000000000000018       0.15625000000000000        0.0000000000000000     
   7.6562500000000018       0.15625000000000000        0.0000000000000000     
   7.8124999999999991       0.15624999999999997        0.0000000000000000     
   7.9687500000000009       0.15625000000000000        0.0000000000000000     
   8.1250000000000000       0.15625000000000000        0.0000000000000000     
   8.2812500000000000       0.15625000000000000        0.0000000000000000     
   8.4375000000000018       0.15625000000000000        0.0000000000000000     
   8.5937500000000000       0.15625000000000000        0.0000000000000000     
   8.7500000000000018       0.15625000000000000        0.0000000000000000     
   7.5000000000000000       0.31250000000000000        0.0000000000000000     
   7.6562499999999991       0.31249999999999994        0.0000000000000000     
   7.8124999999999991       0.31249999999999994        0.0000000000000000     
   7.9687500000000009       0.31250000000000000        0.0000000000000000     
   8.1249999999999982       0.31249999999999994        0.0000000000000000     
   8.2812499999999982       0.31249999999999994        0.0000000000000000     
   8.4375000000000000       0.31250000000000000        0.0000000000000000     
   8.5937500000000000       0.31249999999999994        0.0000000000000000     
   8.7499999999999982       0.31249999999999994        0.0000000000000000     
   7.5000000000000018       0.46875000000000011        0.0000000000000000     
   7.6562500000000000       0.46875000000000000        0.0000000000000000     
   7.8125000000000000       0.46875000000000000        0.0000000000000000     
   7.9687500000000009       0.46875000000000000        0.0000000000000000     
   8.1250000000000000       0.46875000000000000        0.0000000000000000     
   8.2812500000000000       0.46875000000000000        0.0000000000000000     
   8.4375000000000000       0.46875000000000006        0.0000000000000000     
   8.5937500000000018       0.46875000000000000        0.0000000000000000     
   8.7500000000000000       0.46875000000000000        0.0000000000000000     
   7.4999999999999991       0.62499999999999978        0.0000000000000000     
   7.6562500000000009       0.62500000000000022        0.0000000000000000     
   7.8124999999999991       0.62499999999999989        0.0000000000000000     
   7.9687499999999991       0.62499999999999978        0.0000000000000000     
   8.1250000000000000       0.62500000000000022        0.0000000000000000     
   8.2812500000000000       0.62500000000000000        0.0000000000000000     
   8.4374999999999982       0.62499999999999978        0.0000000000000000     
   8.5937500000000000       0.62500000000000011        0.0000000000000000     
   8.7500000000000000       0.62500000000000000        0.0000000000000000     
   7.5000000000000009       0.78125000000000022        0.0000000000000000     
   7.6562499999999991       0.78125000000000000        0.0000000000000000     
   7.8125000000000009       0.78125000000000000        0.0000000000000000     
   7.9687500000000009       0.78125000000000011        0.0000000000000000     
   8.1249999999999982       0.78125000000000000        0.0000000000000000     
   8.2812500000000018       0.78125000000000022        0.0000000000000000     
   8.4374999999999982       0.78125000000000000        0.0000000000000000     
   8.5937500000000000       0.78125000000000000        0.0000000000000000     
   8.7500000000000000       0.78125000000000022        0.0000000000000000     
   7.5000000000000018       0.93750000000000011        0.0000000000000000     
   7.6562500000000000       0.93750000000000000        0.0000000000000000     
   7.8125000000000000       0.93750000000000000        0.0000000000000000     
   7.9687500000000000       0.93750000000000000        0.0000000000000000     
   8.1250000000000000       0.93750000000000000        0.0000000000000000     
   8.2812500000000000       0.93750000000000000        0.0000000000000000     
   8.4375000000000000       0.93750000000000000        0.0000000000000000     
   8.5937500000000000       0.93750000000000000        0.0000000000000000     
   8.7499999999999982       0.93750000000000000        0.0000000000000000     
   7.4999999999999991        1.0937499999999998        0.0000000000000000     
   7.6562500000000009        1.0937500000000002        0.0000000000000000     
   7.8125000000000000        1.0937499999999998        0.0000000000000000     
   7.9687499999999973        1.0937499999999998        0.0000000000000000     
   8.1250000000000000        1.0937500000000002        0.0000000000000000     
   8.2812500000000000        1.0937500000000000        0.0000000000000000     
   8.4374999999999982        1.0937499999999998        0.0000000000000000     
   8.5937500000000018        1.0937500000000002        0.0000000000000000     
   8.7500000000000000        1.0937500000000000        0.0000000000000000     
   7.5000000000000009        1.2500000000000002        0.0000000000000000     
   7.6562500000000000        1.2500000000000000        0.0000000000000000     
   7.8125000000000000        1.2500000000000002        0.0000000000000000     
   7.9687500000000000        1.2500000000000000        0.0000000000000000     
   8.1250000000000018        1.2500000000000000        0.0000000000000000     
   8.2812500000000000        1.2500000000000000        0.0000000000000000     
   8.4374999999999982        1.2500000000000000        0.0000000000000000     
   8.5937500000000018        1.2500000000000000        0.0000000000000000     
   8.7500000000000000        1.2500000000000002        0.0000000000000000     
   8.7500000000000000        0.0000000000000000        0.0000000000000000     
   8.9062500000000000        0.0000000000000000        0.0000000000000000     
   9.0625000000000000        0.0000000000000000        0.0000000000000000     
   9.2187500000000000        0.0000000000000000        0.0000000000000000     
   9.3750000000000000        0.0000000000000000        0.0000000000000000     
   9.5312500000000000        0.0000000000000000        0.0000000000000000     
   9.6874999999999982        0.0000000000000000        0.0000000000000000     
   9.8437500000000000        0.0000000000000000        0.0000000000000000     
   10.000000000000000        0.0000000000000000        0.0000000000000000     
   8.7500000000000018       0.15625000000000000        0.0000000000000000     
   8.9062500000000000       0.15625000000000000        0.0000000000000000     
   9.0625000000000000       0.15624999999999997        0.0000000000000000     
   9.2187500000000000       0.15625000000000000        0.0000000000000000     
   9.3750000000000000       0.15625000000000000        0.0000000000000000     
   9.5312500000000000       0.15625000000000000        0.0000000000000000     
   9.6875000000000000       0.15625000000000000        0.0000000000000000     
   9.8437499999999982       0.15624999999999997        0.0000000000000000     
   10.000000000000000       0.15624999999999997        0.0000000000000000     
   8.7499999999999982       0.31249999999999994        0.0000000000000000     
   8.9062499999999982       0.31250000000000000        0.0000000000000000     
   9.0625000000000000       0.31250000000000000        0.0000000000000000     
   9.2187500000000000       0.31250000000000000        0.0000000000000000     
   9.3749999999999982       0.31250000000000000        0.0000000000000000     
   9.5312500000000000       0.31250000000000000        0.0000000000000000     
   9.6875000000000000       0.31250000000000000        0.0000000000000000     
   9.8437500000000000       0.31249999999999994        0.0000000000000000     
   10.000000000000000       0.31250000000000000        0.0000000000000000     
   8.7500000000000000       0.46875000000000000        0.0000000000000000     
   8.9062500000000000       0.46875000000000000        0.0000000000000000     
   9.0625000000000000       0.46875000000000000        0.0000000000000000     
   9.2187500000000000       0.46875000000000000        0.0000000000000000     
   9.3750000000000000       0.46875000000000000        0.0000000000000000     
   9.5312500000000000       0.46875000000000000        0.0000000000000000     
   9.6875000000000000       0.46875000000000000        0.0000000000000000     
   9.8437500000000000       0.46875000000000000        0.0000000000000000     
   10.000000000000000       0.46875000000000000        0.0000000000000000     
   8.7500000000000000       0.62500000000000000        0.0000000000000000     
   8.9062500000000000       0.62500000000000000        0.0000000000000000     
   9.0624999999999982       0.62499999999999989        0.0000000000000000     
   9.2187500000000000       0.62500000000000000        0.0000000000000000     
   9.3750000000000000       0.62500000000000000        0.0000000000000000     
   9.5312499999999982       0.62500000000000000        0.0000000000000000     
   9.6875000000000000       0.62500000000000000        0.0000000000000000     
   9.8437499999999982       0.62499999999999989        0.0000000000000000     
   10.000000000000000       0.62499999999999989        0.0000000000000000     
   8.7500000000000000       0.78125000000000022        0.0000000000000000     
   8.9062500000000000       0.78125000000000000        0.0000000000000000     
   9.0625000000000000       0.78125000000000000        0.0000000000000000     
   9.2187500000000000       0.78125000000000000        0.0000000000000000     
   9.3750000000000000       0.78125000000000000        0.0000000000000000     
   9.5312500000000000       0.78125000000000011        0.0000000000000000     
   9.6874999999999982       0.78125000000000011        0.0000000000000000     
   9.8437500000000000       0.78125000000000011        0.0000000000000000     
   10.000000000000000       0.78125000000000011        0.0000000000000000     
   8.7499999999999982       0.93750000000000000        0.0000000000000000     
   8.9062500000000000       0.93750000000000000        0.0000000000000000     
   9.0625000000000000       0.93750000000000000        0.0000000000000000     
   9.2187500000000000       0.93750000000000000        0.0000000000000000     
   9.3749999999999982       0.93750000000000000        0.0000000000000000     
   9.5312500000000000       0.93750000000000000        0.0000000000000000     
   9.6875000000000000       0.93750000000000000        0.0000000000000000     
   9.8437500000000000       0.93750000000000000        0.0000000000000000     
   10.000000000000000       0.93750000000000000        0.0000000000000000     
   8.7500000000000000        1.0937500000000000        0.0000000000000000     
   8.9062500000000000        1.0937500000000000        0.0000000000000000     
   9.0624999999999982        1.0937500000000000        0.0000000000000000     
   9.2187500000000000        1.0937500000000000        0.0000000000000000     
   9.3750000000000000        1.0937500000000000        0.0000000000000000     
   9.5312500000000000        1.0937500000000000        0.0000000000000000     
   9.6875000000000000        1.0937499999999998        0.0000000000000000     
   9.8437499999999982        1.0937500000000000        0.0000000000000000     
   10.000000000000000        1.0937499999999998        0.0000000000000000     
   8.7500000000000000        1.2500000000000002        0.0000000000000000     
   8.9062500000000000        1.2500000000000000        0.0000000000000000     
   9.0624999999999982        1.2500000000000000        0.0000000000000000     
   9.2187499999999982        1.2499999999999998        0.0000000000000000     
   9.3750000000000000        1.2500000000000000        0.0000000000000000     
   9.5312499999999982        1.2500000000000000        0.0000000000000000     
   9.6874999999999982        1.2499999999999998        0.0000000000000000     
   9.8437500000000018        1.2500000000000000        0.0000000000000000     
   10.000000000000002        1.2500000000000002        0.0000000000000000     
   5.0000000000000009        1.2500000000000002        0.0000000000000000     
   5.1562499999999991        1.2499999999999998        0.0000000000000000     
   5.3124999999999991        1.2500000000000000        0.0000000000000000     
   5.4687500000000000        1.2500000000000002        0.0000000000000000     
   5.6250000000000000        1.2499999999999998        0.0000000000000000     
   5.7812500000000000        1.2500000000000000        0.0000000000000000     
   5.9375000000000000        1.2500000000000002        0.0000000000000000     
   6.0937500000000000        1.2499999999999998        0.0000000000000000     
   6.2500000000000000        1.2500000000000002        0.0000000000000000     
   5.0000000000000000        1.4062499999999998        0.0000000000000000     
   5.1562500000000000        1.4062500000000000        0.0000000000000000     
   5.3125000000000000        1.4062499999999998        0.0000000000000000     
   5.4687500000000000        1.4062499999999998        0.0000000000000000     
   5.6249999999999991        1.4062500000000000        0.0000000000000000     
   5.7812500000000000        1.4062500000000000        0.0000000000000000     
   5.9375000000000000        1.4062499999999998        0.0000000000000000     
   6.0937500000000000        1.4062500000000000        0.0000000000000000     
   6.2499999999999991        1.4062499999999998        0.0000000000000000     
   4.9999999999999991        1.5624999999999998        0.0000000000000000     
   5.1562500000000000        1.5624999999999996        0.0000000000000000     
   5.3125000000000000        1.5625000000000000        0.0000000000000000     
   5.4687500000000000        1.5625000000000000        0.0000000000000000     
   5.6250000000000000        1.5625000000000002        0.0000000000000000     
   5.7812499999999991        1.5624999999999998        0.0000000000000000     
   5.9375000000000000        1.5625000000000000        0.0000000000000000     
   6.0937500000000009        1.5625000000000002        0.0000000000000000     
   6.2500000000000000        1.5625000000000000        0.0000000000000000     
   5.0000000000000009        1.7187500000000004        0.0000000000000000     
   5.1562500000000000        1.7187500000000004        0.0000000000000000     
   5.3124999999999991        1.7187499999999998        0.0000000000000000     
   5.4687500000000000        1.7187500000000002        0.0000000000000000     
   5.6249999999999991        1.7187499999999998        0.0000000000000000     
   5.7812499999999991        1.7187499999999998        0.0000000000000000     
   5.9375000000000000        1.7187500000000000        0.0000000000000000     
   6.0937499999999991        1.7187500000000000        0.0000000000000000     
   6.2500000000000000        1.7187500000000000        0.0000000000000000     
   5.0000000000000000        1.8749999999999998        0.0000000000000000     
   5.1562500000000000        1.8750000000000000        0.0000000000000000     
   5.3124999999999991        1.8749999999999998        0.0000000000000000     
   5.4687500000000000        1.8749999999999998        0.0000000000000000     
   5.6249999999999991        1.8749999999999998        0.0000000000000000     
   5.7812500000000000        1.8749999999999998        0.0000000000000000     
   5.9375000000000000        1.8749999999999998        0.0000000000000000     
   6.0937500000000000        1.8750000000000002        0.0000000000000000     
   6.2500000000000000        1.8750000000000000        0.0000000000000000     
   5.0000000000000009        2.0312500000000004        0.0000000000000000     
   5.1562499999999991        2.0312500000000000        0.0000000000000000     
   5.3125000000000000        2.0312500000000004        0.0000000000000000     
   5.4687499999999991        2.0312500000000000        0.0000000000000000     
   5.6249999999999991        2.0312499999999991        0.0000000000000000     
   5.7812500000000009        2.0312500000000004        0.0000000000000000     
   5.9374999999999991        2.0312500000000000        0.0000000000000000     
   6.0937500000000000        2.0312499999999996        0.0000000000000000     
   6.2500000000000009        2.0312500000000004        0.0000000000000000     
   5.0000000000000000        2.1874999999999996        0.0000000000000000     
   5.1562500000000000        2.1875000000000004        0.0000000000000000     
   5.3124999999999991        2.1874999999999996        0.0000000000000000     
   5.4687500000000000        2.1874999999999996        0.0000000000000000     
   5.6250000000000000        2.1875000000000009        0.0000000000000000     
   5.7812499999999991        2.1874999999999996        0.0000000000000000     
   5.9375000000000000        2.1875000000000000        0.0000000000000000     
   6.0937500000000000        2.1875000000000009        0.0000000000000000     
   6.2500000000000000        2.1875000000000000        0.0000000000000000     
   5.0000000000000000        2.3437500000000000        0.0000000000000000     
   5.1562499999999991        2.3437499999999996        0.0000000000000000     
   5.3125000000000000        2.3437500000000000        0.0000000000000000     
   5.4687500000000009        2.3437500000000004        0.0000000000000000     
   5.6250000000000000        2.3437500000000000        0.0000000000000000     
   5.7812500000000000        2.3437500000000000        0.0000000000000000     
   5.9375000000000009        2.3437500000000004        0.0000000000000000     
   6.0937500000000009        2.3437500000000000        0.0000000000000000     
   6.2500000000000009        2.3437500000000004        0.0000000000000000     
   5.0000000000000018        2.5000000000000004        0.0000000000000000     
   5.1562500000000000        2.4999999999999996        0.0000000000000000     
   5.3125000000000009        2.5000000000000004        0.0000000000000000     
   5.4687500000000009        2.5000000000000004        0.0000000000000000     
   5.6249999999999991        2.4999999999999996        0.0000000000000000     
   5.7812500000000009        2.5000000000000004        0.0000000000000000     
   5.9375000000000000        2.5000000000000004        0.0000000000000000     
   6.0937500000000000        2.5000000000000000        0.0000000000000000     
   6.2500000000000009        2.5000000000000004        0.0000000000000000     
   6.2500000000000000        1.2500000000000002        0.0000000000000000     
   6.4062500000000000        1.2499999999999998        0.0000000000000000     
   6.5625000000000009        1.2500000000000002        0.0000000000000000     
   6.7187500000000000        1.2500000000000000        0.0000000000000000     
   6.8750000000000000        1.2499999999999998        0.0000000000000000     
   7.0312500000000000        1.2500000000000002        0.0000000000000000     
   7.1874999999999991        1.2500000000000002        0.0000000000000000     
   7.3437500000000009        1.2499999999999998        0.0000000000000000     
   7.5000000000000009        1.2500000000000002        0.0000000000000000     
   6.2499999999999991        1.4062499999999998        0.0000000000000000     
   6.4062500000000000        1.4062500000000000        0.0000000000000000     
   6.5625000000000000        1.4062499999999998        0.0000000000000000     
   6.7187500000000000        1.4062500000000000        0.0000000000000000     
   6.8750000000000000        1.4062500000000000        0.0000000000000000     
   7.0312500000000000        1.4062499999999998        0.0000000000000000     
   7.1875000000000000        1.4062499999999998        0.0000000000000000     
   7.3437500000000000        1.4062500000000000        0.0000000000000000     
   7.5000000000000000        1.4062499999999998        0.0000000000000000     
   6.2500000000000000        1.5625000000000000        0.0000000000000000     
   6.4062500000000009        1.5625000000000002        0.0000000000000000     
   6.5625000000000000        1.5625000000000000        0.0000000000000000     
   6.7187500000000009        1.5625000000000004        0.0000000000000000     
   6.8750000000000000        1.5625000000000000        0.0000000000000000     
   7.0312500000000000        1.5625000000000000        0.0000000000000000     
   7.1875000000000009        1.5624999999999998        0.0000000000000000     
   7.3437500000000009        1.5625000000000002        0.0000000000000000     
   7.5000000000000018        1.5625000000000002        0.0000000000000000     
   6.2500000000000000        1.7187500000000000        0.0000000000000000     
   6.4062500000000009        1.7187500000000002        0.0000000000000000     
   6.5625000000000018        1.7187500000000004        0.0000000000000000     
   6.7187500000000000        1.7187500000000002        0.0000000000000000     
   6.8750000000000000        1.7187500000000000        0.0000000000000000     
   7.0312500000000000        1.7187500000000002        0.0000000000000000     
   7.1875000000000000        1.7187500000000004        0.0000000000000000     
   7.3437500000000000        1.7187500000000000        0.0000000000000000     
   7.5000000000000000        1.7187500000000000        0.0000000000000000     
   6.2500000000000000        1.8750000000000000        0.0000000000000000     
   6.4062500000000000        1.8750000000000000        0.0000000000000000     
   6.5624999999999991        1.8749999999999998        0.0000000000000000     
   6.7187499999999991        1.8749999999999998        0.0000000000000000     
   6.8749999999999991        1.8749999999999998        0.0000000000000000     
   7.0312500000000000        1.8749999999999998        0.0000000000000000     
   7.1875000000000000        1.8749999999999998        0.0000000000000000     
   7.3437500000000000        1.8750000000000000        0.0000000000000000     
   7.5000000000000000        1.8749999999999998        0.0000000000000000     
   6.2500000000000009        2.0312500000000004        0.0000000000000000     
   6.4062499999999991        2.0312499999999996        0.0000000000000000     
   6.5625000000000000        2.0312500000000000        0.0000000000000000     
   6.7187500000000009        2.0312500000000000        0.0000000000000000     
   6.8749999999999991        2.0312499999999996        0.0000000000000000     
   7.0312500000000000        2.0312500000000004        0.0000000000000000     
   7.1875000000000000        2.0312500000000000        0.0000000000000000     
   7.3437500000000000        2.0312499999999996        0.0000000000000000     
   7.4999999999999991        2.0312500000000004        0.0000000000000000     
   6.2500000000000000        2.1875000000000000        0.0000000000000000     
   6.4062500000000009        2.1875000000000009        0.0000000000000000     
   6.5625000000000027        2.1875000000000009        0.0000000000000000     
   6.7187500000000000        2.1875000000000000        0.0000000000000000     
   6.8750000000000009        2.1875000000000009        0.0000000000000000     
   7.0312500000000027        2.1875000000000009        0.0000000000000000     
   7.1874999999999982        2.1874999999999996        0.0000000000000000     
   7.3437500000000009        2.1875000000000004        0.0000000000000000     
   7.5000000000000009        2.1875000000000004        0.0000000000000000     
   6.2500000000000009        2.3437500000000004        0.0000000000000000     
   6.4062500000000000        2.3437499999999996        0.0000000000000000     
   6.5625000000000000        2.3437499999999996        0.0000000000000000     
   6.7187500000000009        2.3437500000000000        0.0000000000000000     
   6.8750000000000000        2.3437499999999996        0.0000000000000000     
   7.0312499999999991        2.3437499999999996        0.0000000000000000     
   7.1875000000000009        2.3437500000000000        0.0000000000000000     
   7.3437499999999991        2.3437500000000000        0.0000000000000000     
   7.5000000000000000        2.3437499999999996        0.0000000000000000     
   6.2500000000000009        2.5000000000000004        0.0000000000000000     
   6.4062499999999991        2.4999999999999996        0.0000000000000000     
   6.5625000000000000        2.5000000000000004        0.0000000000000000     
   6.7187500000000000        2.5000000000000000        0.0000000000000000     
   6.8749999999999991        2.4999999999999996        0.0000000000000000     
   7.0312499999999991        2.5000000000000000        0.0000000000000000     
   7.1875000000000018        2.5000000000000004        0.0000000000000000     
   7.3437499999999991        2.5000000000000000        0.0000000000000000     
   7.5000000000000018        2.5000000000000004        0.0000000000000000     
   7.5000000000000009        1.2500000000000002        0.0000000000000000     
   7.6562500000000000        1.2500000000000000        0.0000000000000000     
   7.8125000000000000        1.2500000000000002        0.0000000000000000     
   7.9687500000000000        1.2500000000000000        0.0000000000000000     
   8.1250000000000018        1.2500000000000000        0.0000000000000000     
   8.2812500000000000        1.2500000000000000        0.0000000000000000     
   8.4374999999999982        1.2500000000000000        0.0000000000000000     
   8.5937500000000018        1.2500000000000000        0.0000000000000000     
   8.7500000000000000        1.2500000000000002        0.0000000000000000     
   7.5000000000000000        1.4062499999999998        0.0000000000000000     
   7.6562500000000000        1.4062500000000000        0.0000000000000000     
   7.8125000000000000        1.4062499999999998        0.0000000000000000     
   7.9687499999999991        1.4062499999999998        0.0000000000000000     
   8.1249999999999982        1.4062500000000000        0.0000000000000000     
   8.2812500000000000        1.4062499999999998        0.0000000000000000     
   8.4375000000000000        1.4062499999999998        0.0000000000000000     
   8.5937499999999982        1.4062500000000000        0.0000000000000000     
   8.7500000000000000        1.4062499999999998        0.0000000000000000     
   7.5000000000000018        1.5625000000000002        0.0000000000000000     
   7.6562500000000009        1.5625000000000000        0.0000000000000000     
   7.8125000000000000        1.5625000000000000        0.0000000000000000     
   7.9687500000000000        1.5625000000000000        0.0000000000000000     
   8.1250000000000018        1.5624999999999998        0.0000000000000000     
   8.2812500000000000        1.5625000000000000        0.0000000000000000     
   8.4375000000000000        1.5625000000000000        0.0000000000000000     
   8.5937500000000018        1.5625000000000002        0.0000000000000000     
   8.7500000000000000        1.5625000000000000        0.0000000000000000     
   7.5000000000000000        1.7187500000000000        0.0000000000000000     
   7.6562499999999982        1.7187500000000000        0.0000000000000000     
   7.8125000000000000        1.7187500000000002        0.0000000000000000     
   7.9687500000000000        1.7187500000000002        0.0000000000000000     
   8.1250000000000018        1.7187500000000000        0.0000000000000000     
   8.2812500000000000        1.7187500000000002        0.0000000000000000     
   8.4375000000000000        1.7187500000000002        0.0000000000000000     
   8.5937500000000000        1.7187500000000002        0.0000000000000000     
   8.7500000000000000        1.7187500000000000        0.0000000000000000     
   7.5000000000000000        1.8749999999999998        0.0000000000000000     
   7.6562499999999991        1.8750000000000000        0.0000000000000000     
   7.8125000000000000        1.8750000000000000        0.0000000000000000     
   7.9687499999999991        1.8749999999999998        0.0000000000000000     
   8.1249999999999982        1.8750000000000000        0.0000000000000000     
   8.2812500000000000        1.8750000000000000        0.0000000000000000     
   8.4375000000000000        1.8749999999999998        0.0000000000000000     
   8.5937500000000000        1.8750000000000002        0.0000000000000000     
   8.7499999999999982        1.8749999999999998        0.0000000000000000     
   7.4999999999999991        2.0312500000000004        0.0000000000000000     
   7.6562500000000009        2.0312500000000004        0.0000000000000000     
   7.8125000000000000        2.0312500000000000        0.0000000000000000     
   7.9687500000000000        2.0312500000000000        0.0000000000000000     
   8.1250000000000018        2.0312500000000004        0.0000000000000000     
   8.2812500000000000        2.0312500000000000        0.0000000000000000     
   8.4375000000000000        2.0312500000000000        0.0000000000000000     
   8.5937500000000018        2.0312500000000004        0.0000000000000000     
   8.7500000000000018        2.0312500000000004        0.0000000000000000     
   7.5000000000000009        2.1875000000000004        0.0000000000000000     
   7.6562500000000009        2.1875000000000009        0.0000000000000000     
   7.8125000000000000        2.1874999999999996        0.0000000000000000     
   7.9687500000000009        2.1875000000000004        0.0000000000000000     
   8.1250000000000000        2.1875000000000004        0.0000000000000000     
   8.2812500000000000        2.1875000000000000        0.0000000000000000     
   8.4375000000000000        2.1875000000000004        0.0000000000000000     
   8.5937500000000000        2.1875000000000009        0.0000000000000000     
   8.7500000000000000        2.1875000000000000        0.0000000000000000     
   7.5000000000000000        2.3437499999999996        0.0000000000000000     
   7.6562500000000009        2.3437500000000000        0.0000000000000000     
   7.8125000000000009        2.3437500000000004        0.0000000000000000     
   7.9687500000000000        2.3437499999999996        0.0000000000000000     
   8.1250000000000000        2.3437500000000000        0.0000000000000000     
   8.2812500000000000        2.3437500000000000        0.0000000000000000     
   8.4374999999999982        2.3437499999999996        0.0000000000000000     
   8.5937500000000018        2.3437500000000000        0.0000000000000000     
   8.7499999999999982        2.3437500000000000        0.0000000000000000     
   7.5000000000000018        2.5000000000000004        0.0000000000000000     
   7.6562500000000018        2.5000000000000000        0.0000000000000000     
   7.8125000000000018        2.5000000000000004        0.0000000000000000     
   7.9687499999999991        2.5000000000000000        0.0000000000000000     
   8.1250000000000018        2.5000000000000000        0.0000000000000000     
   8.2812500000000000        2.5000000000000000        0.0000000000000000     
   8.4375000000000018        2.5000000000000004        0.0000000000000000     
   8.5937500000000018        2.5000000000000000        0.0000000000000000     
   8.7500000000000018        2.5000000000000004        0.0000000000000000     
   8.7500000000000000        1.2500000000000002        0.0000000000000000     
   8.9062500000000000        1.2500000000000000        0.0000000000000000     
   9.0624999999999982        1.2500000000000000        0.0000000000000000     
   9.2187499999999982        1.2499999999999998        0.0000000000000000     
   9.3750000000000000        1.2500000000000000        0.0000000000000000     
   9.5312499999999982        1.2500000000000000        0.0000000000000000     
   9.6874999999999982        1.2499999999999998        0.0000000000000000     
   9.8437500000000018        1.2500000000000000        0.0000000000000000     
   10.000000000000002        1.2500000000000002        0.0000000000000000     
   8.7500000000000000        1.4062499999999998        0.0000000000000000     
   8.9062499999999982        1.4062500000000000        0.0000000000000000     
   9.0625000000000000        1.4062500000000000        0.0000000000000000     
   9.2187500000000000        1.4062499999999998        0.0000000000000000     
   9.3750000000000000        1.4062500000000000        0.0000000000000000     
   9.5312500000000000        1.4062499999999998        0.0000000000000000     
   9.6875000000000000        1.4062499999999998        0.0000000000000000     
   9.8437500000000000        1.4062500000000000        0.0000000000000000     
   10.000000000000000        1.4062499999999998        0.0000000000000000     
   8.7500000000000000        1.5625000000000000        0.0000000000000000     
   8.9062500000000000        1.5625000000000000        0.0000000000000000     
   9.0624999999999982        1.5625000000000000        0.0000000000000000     
   9.2187500000000000        1.5625000000000000        0.0000000000000000     
   9.3749999999999982        1.5625000000000000        0.0000000000000000     
   9.5312499999999982        1.5624999999999998        0.0000000000000000     
   9.6875000000000000        1.5625000000000000        0.0000000000000000     
   9.8437499999999982        1.5624999999999996        0.0000000000000000     
   9.9999999999999982        1.5624999999999998        0.0000000000000000     
   8.7500000000000000        1.7187500000000000        0.0000000000000000     
   8.9062500000000000        1.7187500000000000        0.0000000000000000     
   9.0625000000000000        1.7187500000000002        0.0000000000000000     
   9.2187499999999982        1.7187499999999998        0.0000000000000000     
   9.3750000000000000        1.7187500000000000        0.0000000000000000     
   9.5312499999999982        1.7187499999999998        0.0000000000000000     
   9.6874999999999964        1.7187499999999998        0.0000000000000000     
   9.8437500000000018        1.7187500000000004        0.0000000000000000     
   10.000000000000002        1.7187500000000004        0.0000000000000000     
   8.7499999999999982        1.8749999999999998        0.0000000000000000     
   8.9062500000000000        1.8750000000000000        0.0000000000000000     
   9.0624999999999982        1.8749999999999998        0.0000000000000000     
   9.2187499999999982        1.8749999999999998        0.0000000000000000     
   9.3749999999999982        1.8750000000000000        0.0000000000000000     
   9.5312499999999982        1.8749999999999998        0.0000000000000000     
   9.6874999999999982        1.8749999999999998        0.0000000000000000     
   9.8437500000000000        1.8750000000000000        0.0000000000000000     
   10.000000000000000        1.8749999999999998        0.0000000000000000     
   8.7500000000000018        2.0312500000000004        0.0000000000000000     
   8.9062500000000000        2.0312500000000004        0.0000000000000000     
   9.0625000000000000        2.0312500000000004        0.0000000000000000     
   9.2187499999999982        2.0312500000000000        0.0000000000000000     
   9.3749999999999982        2.0312500000000000        0.0000000000000000     
   9.5312500000000000        2.0312500000000004        0.0000000000000000     
   9.6875000000000000        2.0312500000000004        0.0000000000000000     
   9.8437500000000018        2.0312500000000004        0.0000000000000000     
   10.000000000000002        2.0312500000000004        0.0000000000000000     
   8.7500000000000000        2.1875000000000000        0.0000000000000000     
   8.9062500000000018        2.1875000000000004        0.0000000000000000     
   9.0625000000000000        2.1875000000000000        0.0000000000000000     
   9.2187499999999982        2.1874999999999996        0.0000000000000000     
   9.3750000000000018        2.1875000000000004        0.0000000000000000     
   9.5312499999999982        2.1874999999999996        0.0000000000000000     
   9.6874999999999982        2.1874999999999996        0.0000000000000000     
   9.8437500000000018        2.1875000000000009        0.0000000000000000     
   10.000000000000000        2.1874999999999996        0.0000000000000000     
   8.7499999999999982        2.3437500000000000        0.0000000000000000     
   8.9062500000000018        2.3437500000000000        0.0000000000000000     
   9.0625000000000000        2.3437500000000004        0.0000000000000000     
   9.2187499999999982        2.3437500000000000        0.0000000000000000     
   9.3750000000000000        2.3437500000000000        0.0000000000000000     
   9.5312500000000000        2.3437500000000000        0.0000000000000000     
   9.6874999999999982        2.3437500000000000        0.0000000000000000     
   9.8437500000000000        2.3437499999999996        0.0000000000000000     
   10.000000000000000        2.3437500000000000        0.0000000000000000     
   8.7500000000000018        2.5000000000000004        0.0000000000000000     
   8.9062500000000000        2.5000000000000000        0.0000000000000000     
   9.0625000000000000        2.5000000000000000        0.0000000000000000     
   9.2187500000000018        2.5000000000000004        0.0000000000000000     
   9.3750000000000018        2.5000000000000000        0.0000000000000000     
   9.5312500000000000        2.5000000000000004        0.0000000000000000     
   9.6875000000000018        2.5000000000000004        0.0000000000000000     
   9.8437499999999982        2.4999999999999996        0.0000000000000000     
   10.000000000000004        2.5000000000000004        0.0000000000000000     
   5.0000000000000018        2.5000000000000004        0.0000000000000000     
   5.1562500000000000        2.4999999999999996        0.0000000000000000     
   5.3125000000000009        2.5000000000000004        0.0000000000000000     
   5.4687500000000009        2.5000000000000004        0.0000000000000000     
   5.6249999999999991        2.4999999999999996        0.0000000000000000     
   5.7812500000000009        2.5000000000000004        0.0000000000000000     
   5.9375000000000000        2.5000000000000004        0.0000000000000000     
   6.0937500000000000        2.5000000000000000        0.0000000000000000     
   6.2500000000000009        2.5000000000000004        0.0000000000000000     
   5.0000000000000000        2.6562499999999996        0.0000000000000000     
   5.1562500000000009        2.6562500000000009        0.0000000000000000     
   5.3124999999999991        2.6562499999999996        0.0000000000000000     
   5.4687500000000000        2.6562499999999996        0.0000000000000000     
   5.6250000000000009        2.6562500000000009        0.0000000000000000     
   5.7812500000000000        2.6562499999999996        0.0000000000000000     
   5.9375000000000000        2.6562500000000000        0.0000000000000000     
   6.0937500000000000        2.6562500000000009        0.0000000000000000     
   6.2500000000000000        2.6562500000000004        0.0000000000000000     
   5.0000000000000000        2.8125000000000000        0.0000000000000000     
   5.1562500000000000        2.8125000000000000        0.0000000000000000     
   5.3124999999999991        2.8125000000000000        0.0000000000000000     
   5.4687500000000000        2.8125000000000000        0.0000000000000000     
   5.6250000000000000        2.8125000000000004        0.0000000000000000     
   5.7812499999999991        2.8125000000000000        0.0000000000000000     
   5.9375000000000009        2.8125000000000000        0.0000000000000000     
   6.0937500000000009        2.8125000000000004        0.0000000000000000     
   6.2500000000000000        2.8125000000000000        0.0000000000000000     
   5.0000000000000009        2.9687500000000004        0.0000000000000000     
   5.1562500000000000        2.9687499999999996        0.0000000000000000     
   5.3125000000000009        2.9687500000000004        0.0000000000000000     
   5.4687500000000009        2.9687500000000004        0.0000000000000000     
   5.6250000000000000        2.9687500000000000        0.0000000000000000     
   5.7812500000000009        2.9687500000000004        0.0000000000000000     
   5.9375000000000000        2.9687500000000000        0.0000000000000000     
   6.0937500000000009        2.9687500000000000        0.0000000000000000     
   6.2500000000000009        2.9687500000000004        0.0000000000000000     
   5.0000000000000000        3.1249999999999996        0.0000000000000000     
   5.1562500000000009        3.1250000000000009        0.0000000000000000     
   5.3124999999999991        3.1249999999999996        0.0000000000000000     
   5.4687500000000000        3.1249999999999996        0.0000000000000000     
   5.6250000000000000        3.1250000000000009        0.0000000000000000     
   5.7812500000000000        3.1249999999999996        0.0000000000000000     
   5.9375000000000000        3.1249999999999996        0.0000000000000000     
   6.0937500000000009        3.1250000000000009        0.0000000000000000     
   6.2500000000000000        3.1250000000000004        0.0000000000000000     
   5.0000000000000009        3.2812500000000004        0.0000000000000000     
   5.1562499999999991        3.2812500000000000        0.0000000000000000     
   5.3125000000000009        3.2812500000000004        0.0000000000000000     
   5.4687500000000000        3.2812500000000000        0.0000000000000000     
   5.6250000000000000        3.2812500000000000        0.0000000000000000     
   5.7812500000000009        3.2812500000000009        0.0000000000000000     
   5.9374999999999982        3.2812499999999996        0.0000000000000000     
   6.0937500000000018        3.2812500000000013        0.0000000000000000     
   6.2500000000000000        3.2812500000000004        0.0000000000000000     
   5.0000000000000009        3.4375000000000004        0.0000000000000000     
   5.1562500000000000        3.4375000000000000        0.0000000000000000     
   5.3125000000000009        3.4375000000000004        0.0000000000000000     
   5.4687500000000000        3.4375000000000004        0.0000000000000000     
   5.6250000000000000        3.4375000000000000        0.0000000000000000     
   5.7812500000000000        3.4375000000000004        0.0000000000000000     
   5.9375000000000000        3.4375000000000009        0.0000000000000000     
   6.0937500000000009        3.4375000000000000        0.0000000000000000     
   6.2500000000000000        3.4375000000000000        0.0000000000000000     
   5.0000000000000000        3.5937499999999996        0.0000000000000000     
   5.1562500000000000        3.5937500000000000        0.0000000000000000     
   5.3124999999999991        3.5937499999999996        0.0000000000000000     
   5.4687500000000000        3.5937499999999996        0.0000000000000000     
   5.6250000000000009        3.5937500000000009        0.0000000000000000     
   5.7812499999999991        3.5937500000000000        0.0000000000000000     
   5.9375000000000000        3.5937499999999996        0.0000000000000000     
   6.0937500000000009        3.5937500000000004        0.0000000000000000     
   6.2499999999999982        3.5937499999999991        0.0000000000000000     
   5.0000000000000000        3.7500000000000000        0.0000000000000000     
   5.1562500000000000        3.7500000000000000        0.0000000000000000     
   5.3125000000000009        3.7500000000000004        0.0000000000000000     
   5.4687500000000000        3.7500000000000000        0.0000000000000000     
   5.6249999999999982        3.7500000000000000        0.0000000000000000     
   5.7812500000000009        3.7500000000000004        0.0000000000000000     
   5.9374999999999982        3.7499999999999996        0.0000000000000000     
   6.0937499999999991        3.7500000000000000        0.0000000000000000     
   6.2500000000000000        3.7500000000000004        0.0000000000000000     
   6.2500000000000009        2.5000000000000004        0.0000000000000000     
   6.4062499999999991        2.4999999999999996        0.0000000000000000     
   6.5625000000000000        2.5000000000000004        0.0000000000000000     
   6.7187500000000000        2.5000000000000000        0.0000000000000000     
   6.8749999999999991        2.4999999999999996        0.0000000000000000     
   7.0312499999999991        2.5000000000000000        0.0000000000000000     
   7.1875000000000018        2.5000000000000004        0.0000000000000000     
   7.3437499999999991        2.5000000000000000        0.0000000000000000     
   7.5000000000000018        2.5000000000000004        0.0000000000000000     
   6.2500000000000000        2.6562500000000004        0.0000000000000000     
   6.4062500000000018        2.6562500000000009        0.0000000000000000     
   6.5625000000000018        2.6562500000000004        0.0000000000000000     
   6.7187500000000000        2.6562500000000000        0.0000000000000000     
   6.8750000000000018        2.6562500000000009        0.0000000000000000     
   7.0312500000000018        2.6562500000000000        0.0000000000000000     
   7.1875000000000000        2.6562500000000000        0.0000000000000000     
   7.3437500000000018        2.6562500000000013        0.0000000000000000     
   7.5000000000000009        2.6562499999999996        0.0000000000000000     
   6.2500000000000000        2.8125000000000000        0.0000000000000000     
   6.4062500000000000        2.8125000000000000        0.0000000000000000     
   6.5624999999999982        2.8124999999999996        0.0000000000000000     
   6.7187500000000018        2.8125000000000004        0.0000000000000000     
   6.8750000000000000        2.8125000000000004        0.0000000000000000     
   7.0312500000000000        2.8125000000000000        0.0000000000000000     
   7.1875000000000009        2.8125000000000000        0.0000000000000000     
   7.3437500000000009        2.8125000000000004        0.0000000000000000     
   7.5000000000000018        2.8125000000000004        0.0000000000000000     
   6.2500000000000009        2.9687500000000004        0.0000000000000000     
   6.4062499999999991        2.9687499999999996        0.0000000000000000     
   6.5625000000000000        2.9687500000000000        0.0000000000000000     
   6.7187500000000000        2.9687500000000000        0.0000000000000000     
   6.8749999999999982        2.9687499999999996        0.0000000000000000     
   7.0312499999999991        2.9687500000000004        0.0000000000000000     
   7.1875000000000000        2.9687500000000000        0.0000000000000000     
   7.3437499999999982        2.9687499999999996        0.0000000000000000     
   7.4999999999999991        2.9687499999999996        0.0000000000000000     
   6.2500000000000000        3.1250000000000004        0.0000000000000000     
   6.4062500000000018        3.1250000000000009        0.0000000000000000     
   6.5625000000000018        3.1250000000000000        0.0000000000000000     
   6.7187500000000000        3.1250000000000000        0.0000000000000000     
   6.8750000000000018        3.1250000000000009        0.0000000000000000     
   7.0312500000000018        3.1250000000000000        0.0000000000000000     
   7.1875000000000000        3.1250000000000000        0.0000000000000000     
   7.3437500000000018        3.1250000000000009        0.0000000000000000     
   7.5000000000000009        3.1249999999999996        0.0000000000000000     
   6.2500000000000000        3.2812500000000004        0.0000000000000000     
   6.4062500000000000        3.2812500000000000        0.0000000000000000     
   6.5625000000000000        3.2812500000000000        0.0000000000000000     
   6.7187500000000000        3.2812499999999996        0.0000000000000000     
   6.8750000000000000        3.2812500000000000        0.0000000000000000     
   7.0312500000000000        3.2812500000000000        0.0000000000000000     
   7.1875000000000000        3.2812499999999996        0.0000000000000000     
   7.3437500000000000        3.2812499999999996        0.0000000000000000     
   7.4999999999999991        3.2812500000000004        0.0000000000000000     
   6.2500000000000000        3.4375000000000000        0.0000000000000000     
   6.4062499999999991        3.4375000000000000        0.0000000000000000     
   6.5624999999999991        3.4375000000000000        0.0000000000000000     
   6.7187500000000018        3.4375000000000004        0.0000000000000000     
   6.8749999999999982        3.4375000000000000        0.0000000000000000     
   7.0312499999999991        3.4375000000000000        0.0000000000000000     
   7.1875000000000018        3.4375000000000004        0.0000000000000000     
   7.3437499999999982        3.4375000000000000        0.0000000000000000     
   7.4999999999999982        3.4374999999999996        0.0000000000000000     
   6.2499999999999982        3.5937499999999991        0.0000000000000000     
   6.4062500000000009        3.5937500000000009        0.0000000000000000     
   6.5625000000000009        3.5937499999999996        0.0000000000000000     
   6.7187499999999982        3.5937499999999991        0.0000000000000000     
   6.8750000000000018        3.5937500000000009        0.0000000000000000     
   7.0312500000000009        3.5937499999999996        0.0000000000000000     
   7.1874999999999991        3.5937499999999996        0.0000000000000000     
   7.3437500000000018        3.5937500000000009        0.0000000000000000     
   7.5000000000000009        3.5937499999999996        0.0000000000000000     
   6.2500000000000000        3.7500000000000004        0.0000000000000000     
   6.4062500000000000        3.7500000000000000        0.0000000000000000     
   6.5625000000000000        3.7500000000000000        0.0000000000000000     
   6.7187500000000000        3.7499999999999996        0.0000000000000000     
   6.8750000000000000        3.7500000000000004        0.0000000000000000     
   7.0312499999999991        3.7500000000000004        0.0000000000000000     
   7.1875000000000000        3.7499999999999996        0.0000000000000000     
   7.3437500000000018        3.7500000000000004        0.0000000000000000     
   7.5000000000000000        3.7500000000000009        0.0000000000000000     
   7.5000000000000018        2.5000000000000004        0.0000000000000000     
   7.6562500000000018        2.5000000000000000        0.0000000000000000     
   7.8125000000000018        2.5000000000000004        0.0000000000000000     
   7.9687499999999991        2.5000000000000000        0.0000000000000000     
   8.1250000000000018        2.5000000000000000        0.0000000000000000     
   8.2812500000000000        2.5000000000000000        0.0000000000000000     
   8.4375000000000018        2.5000000000000004        0.0000000000000000     
   8.5937500000000018        2.5000000000000000        0.0000000000000000     
   8.7500000000000018        2.5000000000000004        0.0000000000000000     
   7.5000000000000009        2.6562499999999996        0.0000000000000000     
   7.6562500000000009        2.6562500000000009        0.0000000000000000     
   7.8125000000000018        2.6562500000000004        0.0000000000000000     
   7.9687500000000009        2.6562500000000000        0.0000000000000000     
   8.1250000000000000        2.6562500000000009        0.0000000000000000     
   8.2812500000000000        2.6562500000000000        0.0000000000000000     
   8.4375000000000018        2.6562500000000004        0.0000000000000000     
   8.5937500000000000        2.6562500000000004        0.0000000000000000     
   8.7500000000000000        2.6562500000000000        0.0000000000000000     
   7.5000000000000018        2.8125000000000004        0.0000000000000000     
   7.6562500000000018        2.8125000000000000        0.0000000000000000     
   7.8124999999999991        2.8125000000000000        0.0000000000000000     
   7.9687500000000000        2.8125000000000000        0.0000000000000000     
   8.1250000000000018        2.8125000000000000        0.0000000000000000     
   8.2812500000000000        2.8125000000000000        0.0000000000000000     
   8.4375000000000000        2.8125000000000000        0.0000000000000000     
   8.5937500000000018        2.8125000000000000        0.0000000000000000     
   8.7500000000000000        2.8125000000000004        0.0000000000000000     
   7.4999999999999991        2.9687499999999996        0.0000000000000000     
   7.6562500000000009        2.9687499999999996        0.0000000000000000     
   7.8125000000000009        2.9687500000000000        0.0000000000000000     
   7.9687499999999982        2.9687500000000000        0.0000000000000000     
   8.1250000000000000        2.9687499999999996        0.0000000000000000     
   8.2812500000000000        2.9687500000000000        0.0000000000000000     
   8.4374999999999982        2.9687500000000000        0.0000000000000000     
   8.5937500000000000        2.9687499999999996        0.0000000000000000     
   8.7500000000000000        2.9687500000000004        0.0000000000000000     
   7.5000000000000009        3.1249999999999996        0.0000000000000000     
   7.6562500000000009        3.1250000000000009        0.0000000000000000     
   7.8125000000000009        3.1250000000000000        0.0000000000000000     
   7.9687500000000009        3.1250000000000000        0.0000000000000000     
   8.1250000000000000        3.1250000000000009        0.0000000000000000     
   8.2812500000000000        3.1250000000000000        0.0000000000000000     
   8.4375000000000000        3.1250000000000000        0.0000000000000000     
   8.5937500000000000        3.1250000000000009        0.0000000000000000     
   8.7500000000000000        3.1250000000000000        0.0000000000000000     
   7.4999999999999991        3.2812500000000004        0.0000000000000000     
   7.6562500000000009        3.2812499999999996        0.0000000000000000     
   7.8125000000000000        3.2812500000000000        0.0000000000000000     
   7.9687500000000000        3.2812500000000000        0.0000000000000000     
   8.1250000000000018        3.2812500000000000        0.0000000000000000     
   8.2812500000000000        3.2812500000000000        0.0000000000000000     
   8.4375000000000000        3.2812500000000000        0.0000000000000000     
   8.5937500000000018        3.2812500000000000        0.0000000000000000     
   8.7500000000000018        3.2812500000000000        0.0000000000000000     
   7.4999999999999982        3.4374999999999996        0.0000000000000000     
   7.6562499999999991        3.4375000000000000        0.0000000000000000     
   7.8125000000000009        3.4375000000000000        0.0000000000000000     
   7.9687499999999973        3.4374999999999996        0.0000000000000000     
   8.1250000000000000        3.4375000000000000        0.0000000000000000     
   8.2812500000000018        3.4375000000000009        0.0000000000000000     
   8.4375000000000000        3.4374999999999996        0.0000000000000000     
   8.5937500000000018        3.4375000000000000        0.0000000000000000     
   8.7500000000000018        3.4375000000000000        0.0000000000000000     
   7.5000000000000009        3.5937499999999996        0.0000000000000000     
   7.6562500000000009        3.5937500000000013        0.0000000000000000     
   7.8125000000000009        3.5937500000000000        0.0000000000000000     
   7.9687500000000000        3.5937499999999996        0.0000000000000000     
   8.1250000000000000        3.5937500000000009        0.0000000000000000     
   8.2812500000000000        3.5937500000000000        0.0000000000000000     
   8.4375000000000000        3.5937499999999996        0.0000000000000000     
   8.5937500000000000        3.5937500000000009        0.0000000000000000     
   8.7500000000000000        3.5937500000000000        0.0000000000000000     
   7.5000000000000000        3.7500000000000009        0.0000000000000000     
   7.6562500000000018        3.7500000000000000        0.0000000000000000     
   7.8125000000000000        3.7500000000000000        0.0000000000000000     
   7.9687499999999991        3.7500000000000004        0.0000000000000000     
   8.1250000000000000        3.7500000000000000        0.0000000000000000     
   8.2812500000000000        3.7500000000000000        0.0000000000000000     
   8.4375000000000000        3.7500000000000004        0.0000000000000000     
   8.5937500000000018        3.7500000000000000        0.0000000000000000     
   8.7500000000000000        3.7500000000000000        0.0000000000000000     
   8.7500000000000018        2.5000000000000004        0.0000000000000000     
   8.9062500000000000        2.5000000000000000        0.0000000000000000     
   9.0625000000000000        2.5000000000000000        0.0000000000000000     
   9.2187500000000018        2.5000000000000004        0.0000000000000000     
   9.3750000000000018        2.5000000000000000        0.0000000000000000     
   9.5312500000000000        2.5000000000000004        0.0000000000000000     
   9.6875000000000018        2.5000000000000004        0.0000000000000000     
   9.8437499999999982        2.4999999999999996        0.0000000000000000     
   10.000000000000004        2.5000000000000004        0.0000000000000000     
   8.7500000000000000        2.6562500000000000        0.0000000000000000     
   8.9062500000000018        2.6562500000000009        0.0000000000000000     
   9.0625000000000000        2.6562500000000000        0.0000000000000000     
   9.2187499999999982        2.6562499999999996        0.0000000000000000     
   9.3750000000000000        2.6562500000000009        0.0000000000000000     
   9.5312500000000000        2.6562499999999996        0.0000000000000000     
   9.6875000000000000        2.6562499999999996        0.0000000000000000     
   9.8437500000000000        2.6562500000000009        0.0000000000000000     
   10.000000000000000        2.6562499999999996        0.0000000000000000     
   8.7500000000000000        2.8125000000000004        0.0000000000000000     
   8.9062500000000000        2.8125000000000000        0.0000000000000000     
   9.0625000000000000        2.8125000000000000        0.0000000000000000     
   9.2187500000000000        2.8125000000000000        0.0000000000000000     
   9.3750000000000000        2.8125000000000000        0.0000000000000000     
   9.5312500000000000        2.8125000000000000        0.0000000000000000     
   9.6875000000000018        2.8125000000000000        0.0000000000000000     
   9.8437499999999982        2.8125000000000000        0.0000000000000000     
   10.000000000000000        2.8125000000000000        0.0000000000000000     
   8.7500000000000000        2.9687500000000004        0.0000000000000000     
   8.9062499999999982        2.9687499999999996        0.0000000000000000     
   9.0625000000000000        2.9687500000000004        0.0000000000000000     
   9.2187500000000018        2.9687500000000004        0.0000000000000000     
   9.3750000000000000        2.9687500000000000        0.0000000000000000     
   9.5312500000000000        2.9687500000000004        0.0000000000000000     
   9.6875000000000018        2.9687500000000004        0.0000000000000000     
   9.8437499999999982        2.9687499999999991        0.0000000000000000     
   10.000000000000002        2.9687500000000004        0.0000000000000000     
   8.7500000000000000        3.1250000000000000        0.0000000000000000     
   8.9062499999999982        3.1250000000000004        0.0000000000000000     
   9.0625000000000000        3.1250000000000000        0.0000000000000000     
   9.2187499999999964        3.1249999999999996        0.0000000000000000     
   9.3749999999999982        3.1250000000000009        0.0000000000000000     
   9.5312500000000000        3.1249999999999996        0.0000000000000000     
   9.6875000000000000        3.1249999999999996        0.0000000000000000     
   9.8437499999999982        3.1250000000000009        0.0000000000000000     
   10.000000000000000        3.1249999999999996        0.0000000000000000     
   8.7500000000000018        3.2812500000000000        0.0000000000000000     
   8.9062499999999982        3.2812500000000000        0.0000000000000000     
   9.0625000000000000        3.2812500000000000        0.0000000000000000     
   9.2187500000000018        3.2812500000000009        0.0000000000000000     
   9.3749999999999982        3.2812499999999987        0.0000000000000000     
   9.5312500000000000        3.2812500000000000        0.0000000000000000     
   9.6875000000000018        3.2812500000000004        0.0000000000000000     
   9.8437500000000000        3.2812500000000004        0.0000000000000000     
   10.000000000000002        3.2812500000000004        0.0000000000000000     
   8.7500000000000018        3.4375000000000000        0.0000000000000000     
   8.9062500000000000        3.4375000000000004        0.0000000000000000     
   9.0624999999999982        3.4375000000000000        0.0000000000000000     
   9.2187500000000018        3.4375000000000004        0.0000000000000000     
   9.3749999999999982        3.4375000000000004        0.0000000000000000     
   9.5312500000000000        3.4375000000000004        0.0000000000000000     
   9.6875000000000036        3.4375000000000004        0.0000000000000000     
   9.8437499999999947        3.4374999999999982        0.0000000000000000     
   10.000000000000002        3.4375000000000004        0.0000000000000000     
   8.7500000000000000        3.5937500000000000        0.0000000000000000     
   8.9062499999999982        3.5937500000000004        0.0000000000000000     
   9.0625000000000000        3.5937500000000000        0.0000000000000000     
   9.2187499999999964        3.5937499999999991        0.0000000000000000     
   9.3749999999999982        3.5937500000000009        0.0000000000000000     
   9.5312500000000000        3.5937499999999996        0.0000000000000000     
   9.6875000000000000        3.5937499999999996        0.0000000000000000     
   9.8437500000000018        3.5937500000000013        0.0000000000000000     
   10.000000000000000        3.5937499999999996        0.0000000000000000     
   8.7500000000000000        3.7500000000000000        0.0000000000000000     
   8.9062499999999982        3.7499999999999991        0.0000000000000000     
   9.0625000000000000        3.7500000000000000        0.0000000000000000     
   9.2187500000000018        3.7500000000000009        0.0000000000000000     
   9.3749999999999982        3.7499999999999991        0.0000000000000000     
   9.5312500000000000        3.7500000000000000        0.0000000000000000     
   9.6875000000000018        3.7500000000000004        0.0000000000000000     
   9.8437500000000000        3.7500000000000000        0.0000000000000000     
   10.000000000000000        3.7500000000000000        0.0000000000000000     
   5.0000000000000000        3.7500000000000000        0.0000000000000000     
   5.1562500000000000        3.7500000000000000        0.0000000000000000     
   5.3125000000000009        3.7500000000000004        0.0000000000000000     
   5.4687500000000000        3.7500000000000000        0.0000000000000000     
   5.6249999999999982        3.7500000000000000        0.0000000000000000     
   5.7812500000000009        3.7500000000000004        0.0000000000000000     
   5.9374999999999982        3.7499999999999996        0.0000000000000000     
   6.0937499999999991        3.7500000000000000        0.0000000000000000     
   6.2500000000000000        3.7500000000000004        0.0000000000000000     
   5.0000000000000000        3.9062500000000000        0.0000000000000000     
   5.1562500000000009        3.9062500000000000        0.0000000000000000     
   5.3124999999999991        3.9062500000000000        0.0000000000000000     
   5.4687500000000000        3.9062500000000000        0.0000000000000000     
   5.6250000000000000        3.9062500000000000        0.0000000000000000     
   5.7812500000000000        3.9062500000000004        0.0000000000000000     
   5.9374999999999991        3.9062500000000000        0.0000000000000000     
   6.0937500000000009        3.9062500000000000        0.0000000000000000     
   6.2500000000000000        3.9062500000000004        0.0000000000000000     
   5.0000000000000000        4.0625000000000000        0.0000000000000000     
   5.1562500000000000        4.0625000000000000        0.0000000000000000     
   5.3125000000000000        4.0625000000000000        0.0000000000000000     
   5.4687500000000000        4.0625000000000000        0.0000000000000000     
   5.6249999999999991        4.0625000000000000        0.0000000000000000     
   5.7812500000000000        4.0625000000000000        0.0000000000000000     
   5.9375000000000000        4.0625000000000000        0.0000000000000000     
   6.0937499999999991        4.0625000000000000        0.0000000000000000     
   6.2499999999999982        4.0624999999999991        0.0000000000000000     
   5.0000000000000000        4.2187500000000000        0.0000000000000000     
   5.1562500000000000        4.2187499999999991        0.0000000000000000     
   5.3125000000000000        4.2187500000000000        0.0000000000000000     
   5.4687500000000000        4.2187500000000000        0.0000000000000000     
   5.6250000000000000        4.2187499999999991        0.0000000000000000     
   5.7812500000000000        4.2187500000000009        0.0000000000000000     
   5.9375000000000000        4.2187500000000009        0.0000000000000000     
   6.0937499999999991        4.2187499999999991        0.0000000000000000     
   6.2499999999999991        4.2187500000000000        0.0000000000000000     
   5.0000000000000000        4.3749999999999991        0.0000000000000000     
   5.1562500000000000        4.3750000000000000        0.0000000000000000     
   5.3125000000000000        4.3749999999999991        0.0000000000000000     
   5.4687500000000000        4.3749999999999991        0.0000000000000000     
   5.6250000000000000        4.3750000000000009        0.0000000000000000     
   5.7812500000000000        4.3749999999999991        0.0000000000000000     
   5.9375000000000000        4.3749999999999991        0.0000000000000000     
   6.0937500000000000        4.3750000000000009        0.0000000000000000     
   6.2499999999999982        4.3749999999999991        0.0000000000000000     
   5.0000000000000000        4.5312500000000000        0.0000000000000000     
   5.1562500000000000        4.5312500000000000        0.0000000000000000     
   5.3125000000000000        4.5312500000000000        0.0000000000000000     
   5.4687500000000000        4.5312500000000000        0.0000000000000000     
   5.6249999999999991        4.5312500000000000        0.0000000000000000     
   5.7812500000000000        4.5312500000000000        0.0000000000000000     
   5.9375000000000000        4.5312500000000000        0.0000000000000000     
   6.0937499999999991        4.5312500000000000        0.0000000000000000     
   6.2500000000000000        4.5312499999999991        0.0000000000000000     
   5.0000000000000000        4.6875000000000000        0.0000000000000000     
   5.1562500000000000        4.6874999999999991        0.0000000000000000     
   5.3125000000000000        4.6875000000000000        0.0000000000000000     
   5.4687500000000000        4.6875000000000000        0.0000000000000000     
   5.6249999999999991        4.6874999999999991        0.0000000000000000     
   5.7812500000000000        4.6875000000000000        0.0000000000000000     
   5.9375000000000000        4.6875000000000000        0.0000000000000000     
   6.0937499999999991        4.6874999999999991        0.0000000000000000     
   6.2500000000000000        4.6875000000000000        0.0000000000000000     
   5.0000000000000000        4.8437499999999991        0.0000000000000000     
   5.1562500000000000        4.8437500000000009        0.0000000000000000     
   5.3124999999999991        4.8437500000000000        0.0000000000000000     
   5.4687499999999991        4.8437500000000000        0.0000000000000000     
   5.6250000000000000        4.8437500000000000        0.0000000000000000     
   5.7812500000000000        4.8437500000000000        0.0000000000000000     
   5.9375000000000000        4.8437500000000000        0.0000000000000000     
   6.0937500000000000        4.8437500000000000        0.0000000000000000     
   6.2499999999999991        4.8437499999999991        0.0000000000000000     
   5.0000000000000000        5.0000000000000000        0.0000000000000000     
   5.1562500000000000        5.0000000000000000        0.0000000000000000     
   5.3125000000000000        5.0000000000000000        0.0000000000000000     
   5.4687500000000000        5.0000000000000000        0.0000000000000000     
   5.6250000000000000        5.0000000000000000        0.0000000000000000     
   5.7812500000000000        5.0000000000000000        0.0000000000000000     
   5.9375000000000000        5.0000000000000000        0.0000000000000000     
   6.0937499999999991        5.0000000000000000        0.0000000000000000     
   6.2500000000000009        5.0000000000000009        0.0000000000000000     
   6.2500000000000000        3.7500000000000004        0.0000000000000000     
   6.4062500000000000        3.7500000000000000        0.0000000000000000     
   6.5625000000000000        3.7500000000000000        0.0000000000000000     
   6.7187500000000000        3.7499999999999996        0.0000000000000000     
   6.8750000000000000        3.7500000000000004        0.0000000000000000     
   7.0312499999999991        3.7500000000000004        0.0000000000000000     
   7.1875000000000000        3.7499999999999996        0.0000000000000000     
   7.3437500000000018        3.7500000000000004        0.0000000000000000     
   7.5000000000000000        3.7500000000000009        0.0000000000000000     
   6.2500000000000000        3.9062500000000004        0.0000000000000000     
   6.4062500000000009        3.9062500000000004        0.0000000000000000     
   6.5625000000000009        3.9062500000000000        0.0000000000000000     
   6.7187500000000018        3.9062500000000004        0.0000000000000000     
   6.8750000000000009        3.9062500000000004        0.0000000000000000     
   7.0312500000000009        3.9062500000000000        0.0000000000000000     
   7.1875000000000009        3.9062500000000009        0.0000000000000000     
   7.3437500000000009        3.9062500000000004        0.0000000000000000     
   7.5000000000000009        3.9062499999999996        0.0000000000000000     
   6.2499999999999982        4.0624999999999991        0.0000000000000000     
   6.4062500000000000        4.0625000000000000        0.0000000000000000     
   6.5624999999999991        4.0625000000000000        0.0000000000000000     
   6.7187500000000000        4.0625000000000000        0.0000000000000000     
   6.8749999999999991        4.0625000000000000        0.0000000000000000     
   7.0312500000000000        4.0625000000000000        0.0000000000000000     
   7.1875000000000000        4.0625000000000000        0.0000000000000000     
   7.3437500000000000        4.0625000000000000        0.0000000000000000     
   7.5000000000000000        4.0625000000000000        0.0000000000000000     
   6.2499999999999991        4.2187500000000000        0.0000000000000000     
   6.4062499999999991        4.2187499999999991        0.0000000000000000     
   6.5624999999999991        4.2187500000000009        0.0000000000000000     
   6.7187499999999991        4.2187500000000009        0.0000000000000000     
   6.8749999999999991        4.2187499999999991        0.0000000000000000     
   7.0312499999999964        4.2187499999999991        0.0000000000000000     
   7.1874999999999991        4.2187500000000000        0.0000000000000000     
   7.3437499999999991        4.2187499999999991        0.0000000000000000     
   7.5000000000000000        4.2187500000000009        0.0000000000000000     
   6.2499999999999982        4.3749999999999991        0.0000000000000000     
   6.4062500000000009        4.3750000000000018        0.0000000000000000     
   6.5625000000000000        4.3750000000000000        0.0000000000000000     
   6.7187499999999982        4.3749999999999991        0.0000000000000000     
   6.8750000000000009        4.3750000000000018        0.0000000000000000     
   7.0312500000000000        4.3750000000000000        0.0000000000000000     
   7.1875000000000000        4.3750000000000000        0.0000000000000000     
   7.3437500000000009        4.3750000000000018        0.0000000000000000     
   7.5000000000000009        4.3750000000000000        0.0000000000000000     
   6.2500000000000000        4.5312499999999991        0.0000000000000000     
   6.4062500000000000        4.5312500000000000        0.0000000000000000     
   6.5625000000000000        4.5312499999999991        0.0000000000000000     
   6.7187500000000000        4.5312500000000000        0.0000000000000000     
   6.8750000000000000        4.5312500000000000        0.0000000000000000     
   7.0312500000000000        4.5312500000000000        0.0000000000000000     
   7.1875000000000000        4.5312500000000000        0.0000000000000000     
   7.3437500000000000        4.5312500000000000        0.0000000000000000     
   7.5000000000000000        4.5312500000000000        0.0000000000000000     
   6.2500000000000000        4.6875000000000000        0.0000000000000000     
   6.4062499999999991        4.6874999999999991        0.0000000000000000     
   6.5625000000000000        4.6875000000000000        0.0000000000000000     
   6.7187500000000000        4.6874999999999991        0.0000000000000000     
   6.8749999999999991        4.6874999999999991        0.0000000000000000     
   7.0312500000000009        4.6875000000000000        0.0000000000000000     
   7.1875000000000000        4.6875000000000000        0.0000000000000000     
   7.3437499999999991        4.6874999999999991        0.0000000000000000     
   7.5000000000000009        4.6875000000000000        0.0000000000000000     
   6.2499999999999991        4.8437499999999991        0.0000000000000000     
   6.4062500000000000        4.8437500000000009        0.0000000000000000     
   6.5625000000000000        4.8437500000000000        0.0000000000000000     
   6.7187499999999991        4.8437499999999991        0.0000000000000000     
   6.8750000000000009        4.8437500000000000        0.0000000000000000     
   7.0312500000000000        4.8437500000000000        0.0000000000000000     
   7.1875000000000009        4.8437500000000009        0.0000000000000000     
   7.3437500000000000        4.8437500000000000        0.0000000000000000     
   7.4999999999999973        4.8437499999999991        0.0000000000000000     
   6.2500000000000009        5.0000000000000009        0.0000000000000000     
   6.4062500000000000        5.0000000000000000        0.0000000000000000     
   6.5625000000000000        4.9999999999999991        0.0000000000000000     
   6.7187500000000009        5.0000000000000009        0.0000000000000000     
   6.8749999999999991        5.0000000000000000        0.0000000000000000     
   7.0312500000000009        5.0000000000000009        0.0000000000000000     
   7.1875000000000000        5.0000000000000000        0.0000000000000000     
   7.3437500000000000        5.0000000000000000        0.0000000000000000     
   7.5000000000000009        5.0000000000000018        0.0000000000000000     
   7.5000000000000000        3.7500000000000009        0.0000000000000000     
   7.6562500000000018        3.7500000000000000        0.0000000000000000     
   7.8125000000000000        3.7500000000000000        0.0000000000000000     
   7.9687499999999991        3.7500000000000004        0.0000000000000000     
   8.1250000000000000        3.7500000000000000        0.0000000000000000     
   8.2812500000000000        3.7500000000000000        0.0000000000000000     
   8.4375000000000000        3.7500000000000004        0.0000000000000000     
   8.5937500000000018        3.7500000000000000        0.0000000000000000     
   8.7500000000000000        3.7500000000000000        0.0000000000000000     
   7.5000000000000009        3.9062499999999996        0.0000000000000000     
   7.6562500000000009        3.9062500000000009        0.0000000000000000     
   7.8125000000000009        3.9062500000000004        0.0000000000000000     
   7.9687500000000009        3.9062500000000004        0.0000000000000000     
   8.1250000000000000        3.9062500000000004        0.0000000000000000     
   8.2812500000000000        3.9062500000000004        0.0000000000000000     
   8.4375000000000000        3.9062499999999996        0.0000000000000000     
   8.5937500000000000        3.9062500000000009        0.0000000000000000     
   8.7499999999999964        3.9062499999999991        0.0000000000000000     
   7.5000000000000000        4.0625000000000000        0.0000000000000000     
   7.6562500000000000        4.0625000000000000        0.0000000000000000     
   7.8125000000000000        4.0625000000000000        0.0000000000000000     
   7.9687499999999991        4.0625000000000000        0.0000000000000000     
   8.1250000000000000        4.0625000000000000        0.0000000000000000     
   8.2812499999999982        4.0624999999999991        0.0000000000000000     
   8.4375000000000000        4.0625000000000000        0.0000000000000000     
   8.5937500000000000        4.0625000000000000        0.0000000000000000     
   8.7499999999999982        4.0624999999999991        0.0000000000000000     
   7.5000000000000000        4.2187500000000009        0.0000000000000000     
   7.6562499999999973        4.2187499999999982        0.0000000000000000     
   7.8124999999999991        4.2187500000000000        0.0000000000000000     
   7.9687500000000000        4.2187500000000009        0.0000000000000000     
   8.1249999999999982        4.2187499999999982        0.0000000000000000     
   8.2812500000000000        4.2187500000000000        0.0000000000000000     
   8.4375000000000000        4.2187500000000000        0.0000000000000000     
   8.5937499999999982        4.2187499999999991        0.0000000000000000     
   8.7500000000000000        4.2187500000000009        0.0000000000000000     
   7.5000000000000009        4.3750000000000000        0.0000000000000000     
   7.6562500000000009        4.3750000000000009        0.0000000000000000     
   7.8125000000000000        4.3750000000000000        0.0000000000000000     
   7.9687500000000009        4.3750000000000000        0.0000000000000000     
   8.1250000000000000        4.3750000000000009        0.0000000000000000     
   8.2812499999999982        4.3749999999999991        0.0000000000000000     
   8.4374999999999982        4.3750000000000009        0.0000000000000000     
   8.5937500000000000        4.3750000000000018        0.0000000000000000     
   8.7499999999999982        4.3749999999999991        0.0000000000000000     
   7.5000000000000000        4.5312500000000000        0.0000000000000000     
   7.6562500000000000        4.5312500000000000        0.0000000000000000     
   7.8125000000000000        4.5312500000000000        0.0000000000000000     
   7.9687500000000000        4.5312500000000000        0.0000000000000000     
   8.1250000000000000        4.5312500000000000        0.0000000000000000     
   8.2812499999999982        4.5312499999999991        0.0000000000000000     
   8.4374999999999982        4.5312500000000000        0.0000000000000000     
   8.5937500000000000        4.5312500000000000        0.0000000000000000     
   8.7499999999999982        4.5312499999999991        0.0000000000000000     
   7.5000000000000009        4.6875000000000000        0.0000000000000000     
   7.6562499999999991        4.6874999999999991        0.0000000000000000     
   7.8125000000000009        4.6875000000000009        0.0000000000000000     
   7.9687500000000009        4.6874999999999991        0.0000000000000000     
   8.1250000000000000        4.6874999999999991        0.0000000000000000     
   8.2812500000000000        4.6875000000000009        0.0000000000000000     
   8.4375000000000000        4.6875000000000000        0.0000000000000000     
   8.5937500000000000        4.6874999999999991        0.0000000000000000     
   8.7500000000000000        4.6875000000000009        0.0000000000000000     
   7.4999999999999973        4.8437499999999991        0.0000000000000000     
   7.6562500000000009        4.8437500000000018        0.0000000000000000     
   7.8125000000000000        4.8437499999999991        0.0000000000000000     
   7.9687499999999973        4.8437499999999991        0.0000000000000000     
   8.1250000000000018        4.8437500000000009        0.0000000000000000     
   8.2812500000000000        4.8437499999999991        0.0000000000000000     
   8.4374999999999982        4.8437499999999991        0.0000000000000000     
   8.5937500000000000        4.8437500000000009        0.0000000000000000     
   8.7500000000000000        4.8437499999999991        0.0000000000000000     
   7.5000000000000009        5.0000000000000018        0.0000000000000000     
   7.6562499999999991        5.0000000000000000        0.0000000000000000     
   7.8125000000000000        5.0000000000000000        0.0000000000000000     
   7.9687500000000018        5.0000000000000009        0.0000000000000000     
   8.1250000000000000        5.0000000000000000        0.0000000000000000     
   8.2812500000000000        5.0000000000000009        0.0000000000000000     
   8.4375000000000000        5.0000000000000009        0.0000000000000000     
   8.5937500000000000        5.0000000000000000        0.0000000000000000     
   8.7500000000000000        5.0000000000000000        0.0000000000000000     
   8.7500000000000000        3.7500000000000000        0.0000000000000000     
   8.9062499999999982        3.7499999999999991        0.0000000000000000     
   9.0625000000000000        3.7500000000000000        0.0000000000000000     
   9.2187500000000018        3.7500000000000009        0.0000000000000000     
   9.3749999999999982        3.7499999999999991        0.0000000000000000     
   9.5312500000000000        3.7500000000000000        0.0000000000000000     
   9.6875000000000018        3.7500000000000004        0.0000000000000000     
   9.8437500000000000        3.7500000000000000        0.0000000000000000     
   10.000000000000000        3.7500000000000000        0.0000000000000000     
   8.7499999999999964        3.9062499999999991        0.0000000000000000     
   8.9062500000000018        3.9062500000000009        0.0000000000000000     
   9.0625000000000000        3.9062500000000000        0.0000000000000000     
   9.2187500000000000        3.9062499999999996        0.0000000000000000     
   9.3750000000000000        3.9062500000000000        0.0000000000000000     
   9.5312500000000000        3.9062500000000000        0.0000000000000000     
   9.6875000000000000        3.9062500000000000        0.0000000000000000     
   9.8437500000000000        3.9062500000000000        0.0000000000000000     
   10.000000000000000        3.9062500000000000        0.0000000000000000     
   8.7499999999999982        4.0624999999999991        0.0000000000000000     
   8.9062499999999982        4.0625000000000000        0.0000000000000000     
   9.0624999999999982        4.0625000000000000        0.0000000000000000     
   9.2187500000000000        4.0625000000000000        0.0000000000000000     
   9.3749999999999982        4.0625000000000000        0.0000000000000000     
   9.5312499999999982        4.0625000000000000        0.0000000000000000     
   9.6875000000000000        4.0625000000000000        0.0000000000000000     
   9.8437500000000000        4.0625000000000000        0.0000000000000000     
   10.000000000000000        4.0625000000000000        0.0000000000000000     
   8.7500000000000000        4.2187500000000009        0.0000000000000000     
   8.9062500000000000        4.2187499999999991        0.0000000000000000     
   9.0624999999999982        4.2187500000000000        0.0000000000000000     
   9.2187499999999982        4.2187500000000000        0.0000000000000000     
   9.3750000000000000        4.2187499999999991        0.0000000000000000     
   9.5312500000000000        4.2187500000000000        0.0000000000000000     
   9.6875000000000000        4.2187500000000000        0.0000000000000000     
   9.8437499999999982        4.2187499999999991        0.0000000000000000     
   10.000000000000000        4.2187500000000000        0.0000000000000000     
   8.7499999999999982        4.3749999999999991        0.0000000000000000     
   8.9062500000000018        4.3750000000000018        0.0000000000000000     
   9.0625000000000000        4.3749999999999991        0.0000000000000000     
   9.2187499999999982        4.3749999999999991        0.0000000000000000     
   9.3749999999999982        4.3750000000000009        0.0000000000000000     
   9.5312500000000000        4.3749999999999991        0.0000000000000000     
   9.6874999999999982        4.3749999999999991        0.0000000000000000     
   9.8437500000000000        4.3750000000000018        0.0000000000000000     
   10.000000000000000        4.3749999999999991        0.0000000000000000     
   8.7499999999999982        4.5312499999999991        0.0000000000000000     
   8.9062500000000000        4.5312500000000000        0.0000000000000000     
   9.0625000000000000        4.5312500000000000        0.0000000000000000     
   9.2187500000000000        4.5312500000000000        0.0000000000000000     
   9.3750000000000000        4.5312500000000000        0.0000000000000000     
   9.5312500000000000        4.5312500000000000        0.0000000000000000     
   9.6875000000000000        4.5312500000000000        0.0000000000000000     
   9.8437500000000000        4.5312500000000000        0.0000000000000000     
   10.000000000000000        4.5312500000000000        0.0000000000000000     
   8.7500000000000000        4.6875000000000009        0.0000000000000000     
   8.9062499999999982        4.6874999999999991        0.0000000000000000     
   9.0625000000000000        4.6875000000000009        0.0000000000000000     
   9.2187500000000000        4.6875000000000000        0.0000000000000000     
   9.3750000000000000        4.6874999999999991        0.0000000000000000     
   9.5312500000000000        4.6875000000000000        0.0000000000000000     
   9.6874999999999982        4.6875000000000000        0.0000000000000000     
   9.8437500000000000        4.6874999999999991        0.0000000000000000     
   10.000000000000000        4.6875000000000000        0.0000000000000000     
   8.7500000000000000        4.8437499999999991        0.0000000000000000     
   8.9062500000000000        4.8437500000000018        0.0000000000000000     
   9.0625000000000000        4.8437499999999991        0.0000000000000000     
   9.2187499999999964        4.8437499999999991        0.0000000000000000     
   9.3750000000000000        4.8437500000000009        0.0000000000000000     
   9.5312500000000000        4.8437499999999991        0.0000000000000000     
   9.6875000000000000        4.8437500000000000        0.0000000000000000     
   9.8437500000000000        4.8437500000000000        0.0000000000000000     
   10.000000000000000        4.8437499999999991        0.0000000000000000     
   8.7500000000000000        5.0000000000000000        0.0000000000000000     
   8.9062500000000000        5.0000000000000000        0.0000000000000000     
   9.0625000000000000        5.0000000000000000        0.0000000000000000     
   9.2187500000000000        5.0000000000000000        0.0000000000000000     
   9.3750000000000000        5.0000000000000000        0.0000000000000000     
   9.5312500000000000        5.0000000000000000        0.0000000000000000     
   9.6874999999999982        5.0000000000000000        0.0000000000000000     
   9.8437500000000000        5.0000000000000000        0.0000000000000000     
   10.000000000000000        5.0000000000000000        0.0000000000000000     
 </DataArray>
 </Points>
 <Cells>
 <DataArray  type="Int32"  Name="connectivity"  format="ascii">
           0           1          10           9
           1           2          11          10
           2           3          12          11
           3           4          13          12
           4           5          14          13
           5           6          15          14
           6           7          16          15
           7           8          17          16
           9          10          19          18
          10          11          20          19
          11          12          21          20
          12          13          22          21
          13          14          23          22
          14          15          24          23
          15          16          25          24
          16          17          26          25
          18          19          28          27
          19          20          29          28
          20          21          30          29
          21          22          31          30
          22          23          32          31
          23          24          33          32
          24          25          34          33
          25          26          35          34
          27          28          37          36
          28          29          38          37
          29          30          39          38
          30          31          40          39
          31          32          41          40
          32          33          42          41
          33          34          43          42
          34          35          44          43
          36          37          46          45
          37          38          47          46
          38          39          48          47
          39          40          49          48
          40          41          50          49
          41          42          51          50
          42          43          52          51
          43          44          53          52
          45          46          55          54
          46          47          56          55
          47          48          57          56
          48          49          58          57
          49          50          59          58
          50          51          60          59
          51          52          61          60
          52          53          62          61
          54          55          64          63
          55          56          65          64
          56          57          66          65
          57          58          67          66
          58          59          68          67
          59          60          69          68
          60          61          70          69
          61          62          71          70
          63          64          73          72
          64          65          74          73
          65          66          75          74
          66          67          76          75
          67          68          77          76
          68          69          78          77
          69          70          79          78
          70          71          80          79
          81          82          91          90
          82          83          92          91
          83          84          93          92
          84          85          94          93
          85          86          95          94
          86          87          96          95
          87          88          97          96
          88          89          98          97
          90          91         100          99
          91          92         101         100
          92          93         102         101
          93          94         103         102
          94          95         104         103
          95          96         105         104
          96          97         106         105
          97          98         107         106
          99         100         109         108
         100         101         110         109
         101         102         111         110
         102         103         112         111
         103         104         113         112
         104         105         114         113
         105         106         115         114
         106         107         116         115
         108         109         118         117
         109         110         119         118
         110         111         120         119
         111         112         121         120
         112         113         122         121
         113         114         123         122
         114         115         124         123
         115         116         125         124
         117         118         127         126
         118         119         128         127
         119         120         129         128
         120         121         130         129
         121         122         131         130
         122         123         132         131
         123         124         133         132
         124         125         134         133
         126         127         136         135
         127         128         137         136
         128         129         138         137
         129         130         139         138
         130         131         140         139
         131         132         141         140
         132         133         142         141
         133         134         143         142
         135         136         145         144
         136         137         146         145
         137         138         147         146
         138         139         148         147
         139         140         149         148
         140         141         150         149
         141         142         151         150
         142         143         152         151
         144         145         154         153
         145         146         155         154
         146         147         156         155
         147         148         157         156
         148         149         158         157
         149         150         159         158
         150         151         160         159
         151         152         161         160
         162         163         172         171
         163         164         173         172
         164         165         174         173
         165         166         175         174
         166         167         176         175
         167         168         177         176
         168         169         178         177
         169         170         179         178
         171         172         181         180
         172         173         182         181
         173         174         183         182
         174         175         184         183
         175         176         185         184
         176         177         186         185
         177         178         187         186
         178         179         188         187
         180         181         190         189
         181         182         191         190
         182         183         192         191
         183         184         193         192
         184         185         194         193
         185         186         195         194
         186         187         196         195
         187         188         197         196
         189         190         199         198
         190         191         200         199
         191         192         201         200
         192         193         202         201
         193         194         203         202
         194         195         204         203
         195         196         205         204
         196         197         206         205
         198         199         208         207
         199         200         209         208
         200         201         210         209
         201         202         211         210
         202         203         212         211
         203         204         213         212
         204         205         214         213
         205         206         215         214
         207         208         217         216
         208         209         218         217
         209         210         219         218
         210         211         220         219
         211         212         221         220
         212         213         222         221
         213         214         223         222
         214         215         224         223
         216         217         226         225
         217         218         227         226
         218         219         228         227
         219         220         229         228
         220         221         230         229
         221         222         231         230
         222         223         232         231
         223         224         233         232
         225         226         235         234
         226         227         236         235
         227         228         237         236
         228         229         238         237
         229         230         239         238
         230         231         240         239
         231         232         241         240
         232         233         242         241
         243         244         253         252
         244         245         254         253
         245         246         255         254
         246         247         256         255
         247         248         257         256
         248         249         258         257
         249         250         259         258
         250         251         260         259
         252         253         262         261
         253         254         263         262
         254         255         264         263
         255         256         265         264
         256         257         266         265
         257         258         267         266
         258         259         268         267
         259         260         269         268
         261         262         271         270
         262         263         272         271
         263         264         273         272
         264         265         274         273
         265         266         275         274
         266         267         276         275
         267         268         277         276
         268         269         278         277
         270         271         280         279
         271         272         281         280
         272         273         282         281
         273         274         283         282
         274         275         284         283
         275         276         285         284
         276         277         286         285
         277         278         287         286
         279         280         289         288
         280         281         290         289
         281         282         291         290
         282         283         292         291
         283         284         293         292
         284         285         294         293
         285         286         295         294
         286         287         296         295
         288         289         298         297
         289         290         299         298
         290         291         300         299
         291         292         301         300
         292         293         302         301
         293         294         303         302
         294         295         304         303
         295         296         305         304
         297         298         307         306
         298         299         308         307
         299         300         309         308
         300         301         310         309
         301         302         311         310
         302         303         312         311
         303         304         313         312
         304         305         314         313
         306         307         316         315
         307         308         317         316
         308         309         318         317
         309         310         319         318
         310         311         320         319
         311         312         321         320
         312         313         322         321
         313         314         323         322
         324         325         334         333
         325         326         335         334
         326         327         336         335
         327         328         337         336
         328         329         338         337
         329         330         339         338
         330         331         340         339
         331         332         341         340
         333         334         343         342
         334         335         344         343
         335         336         345         344
         336         337         346         345
         337         338         347         346
         338         339         348         347
         339         340         349         348
         340         341         350         349
         342         343         352         351
         343         344         353         352
         344         345         354         353
         345         346         355         354
         346         347         356         355
         347         348         357         356
         348         349         358         357
         349         350         359         358
         351         352         361         360
         352         353         362         361
         353         354         363         362
         354         355         364         363
         355         356         365         364
         356         357         366         365
         357         358         367         366
         358         359         368         367
         360         361         370         369
         361         362         371         370
         362         363         372         371
         363         364         373         372
         364         365         374         373
         365         366         375         374
         366         367         376         375
         367         368         377         376
         369         370         379         378
         370         371         380         379
         371         372         381         380
         372         373         382         381
         373         374         383         382
         374         375         384         383
         375         376         385         384
         376         377         386         385
         378         379         388         387
         379         380         389         388
         380         381         390         389
         381         382         391         390
         382         383         392         391
         383         384         393         392
         384         385         394         393
         385         386         395         394
         387         388         397         396
         388         389         398         397
         389         390         399         398
         390         391         400         399
         391         392         401         400
         392         393         402         401
         393         394         403         402
         394         395         404         403
         405         406         415         414
         406         407         416         415
         407         408         417         416
         408         409         418         417
         409         410         419         418
         410         411         420         419
         411         412         421         420
         412         413         422         421
         414         415         424         423
         415         416         425         424
         416         417         426         425
         417         418         427         426
         418         419         428         427
         419         420         429         428
         420         421         430         429
         421         422         431         430
         423         424         433         432
         424         425         434         433
         425         426         435         434
         426         427         436         435
         427         428         437         436
         428         429         438         437
         429         430         439         438
         430         431         440         439
         432         433         442         441
         433         434         443         442
         434         435         444         443
         435         436         445         444
         436         437         446         445
         437         438         447         446
         438         439         448         447
         439         440         449         448
         441         442         451         450
         442         443         452         451
         443         444         453         452
         444         445         454         453
         445         446         455         454
         446         447         456         455
         447         448         457         456
         448         449         458         457
         450         451         460         459
         451         452         461         460
         452         453         462         461
         453         454         463         462
         454         455         464         463
         455         456         465         464
         456         457         466         465
         457         458         467         466
         459         460         469         468
         460         461         470         469
         461         462         471         470
         462         463         472         471
         463         464         473         472
         464         465         474         473
         465         466         475         474
         466         467         476         475
         468         469         478         477
         469         470         479         478
         470         471         480         479
         471         472         481         480
         472         473         482         481
         473         474         483         482
         474         475         484         483
         475         476         485         484
         486         487         496         495
         487         488         497         496
         488         489         498         497
         489         490         499         498
         490         491         500         499
         491         492         501         500
         492         493         502         501
         493         494         503         502
         495         496         505         504
         496         497         506         505
         497         498         507         506
         498         499         508         507
         499         500         509         508
         500         501         510         509
         501         502         511         510
         502         503         512         511
         504         505         514         513
         505         506         515         514
         506         507         516         515
         507         508         517         516
         508         509         518         517
         509         510         519         518
         510         511         520         519
         511         512         521         520
         513         514         523         522
         514         515         524         523
         515         516         525         524
         516         517         526         525
         517         518         527         526
         518         519         528         527
         519         520         529         528
         520         521         530         529
         522         523         532         531
         523         524         533         532
         524         525         534         533
         525         526         535         534
         526         527         536         535
         527         528         537         536
         528         529         538         537
         529         530         539         538
         531         532         541         540
         532         533         542         541
         533         534         543         542
         534         535         544         543
         535         536         545         544
         536         537         546         545
         537         538         547         546
         538         539         548         547
         540         541         550         549
         541         542         551         550
         542         543         552         551
         543         544         553         552
         544         545         554         553
         545         546         555         554
         546         547         556         555
         547         548         557         556
         549         550         559         558
         550         551         560         559
         551         552         561         560
         552         553         562         561
         553         554         563         562
         554         555         564         563
         555         556         565         564
         556         557         566         565
         567         568         577         576
         568         569         578         577
         569         570         579         578
         570         571         580         579
         571         572         581         580
         572         573         582         581
         573         574         583         582
         574         575         584         583
         576         577         586         585
         577         578         587         586
         578         579         588         587
         579         580         589         588
         580         581         590         589
         581         582         591         590
         582         583         592         591
         583         584         593         592
         585         586         595         594
         586         587         596         595
         587         588         597         596
         588         589         598         597
         589         590         599         598
         590         591         600         599
         591         592         601         600
         592         593         602         601
         594         595         604         603
         595         596         605         604
         596         597         606         605
         597         598         607         606
         598         599         608         607
         599         600         609         608
         600         601         610         609
         601         602         611         610
         603         604         613         612
         604         605         614         613
         605         606         615         614
         606         607         616         615
         607         608         617         616
         608         609         618         617
         609         610         619         618
         610         611         620         619
         612         613         622         621
         613         614         623         622
         614         615         624         623
         615         616         625         624
         616         617         626         625
         617         618         627         626
         618         619         628         627
         619         620         629         628
         621         622         631         630
         622         623         632         631
         623         624         633         632
         624         625         634         633
         625         626         635         634
         626         627         636         635
         627         628         637         636
         628         629         638         637
         630         631         640         639
         631         632         641         640
         632         633         642         641
         633         634         643         642
         634         635         644         643
         635         636         645         644
         636         637         646         645
         637         638         647         646
         648         649         658         657
         649         650         659         658
         650         651         660         659
         651         652         661         660
         652         653         662         661
         653         654         663         662
         654         655         664         663
         655         656         665         664
         657         658         667         666
         658         659         668         667
         659         660         669         668
         660         661         670         669
         661         662         671         670
         662         663         672         671
         663         664         673         672
         664         665         674         673
         666         667         676         675
         667         668         677         676
         668         669         678         677
         669         670         679         678
         670         671         680         679
         671         672         681         680
         672         673         682         681
         673         674         683         682
         675         676         685         684
         676         677         686         685
         677         678         687         686
         678         679         688         687
         679         680         689         688
         680         681         690         689
         681         682         691         690
         682         683         692         691
         684         685         694         693
         685         686         695         694
         686         687         696         695
         687         688         697         696
         688         689         698         697
         689         690         699         698
         690         691         700         699
         691         692         701         700
         693         694         703         702
         694         695         704         703
         695         696         705         704
         696         697         706         705
         697         698         707         706
         698         699         708         707
         699         700         709         708
         700         701         710         709
         702         703         712         711
         703         704         713         712
         704         705         714         713
         705         706         715         714
         706         707         716         715
         707         708         717         716
         708         709         718         717
         709         710         719         718
         711         712         721         720
         712         713         722         721
         713         714         723         722
         714         715         724         723
         715         716         725         724
         716         717         726         725
         717         718         727         726
         718         719         728         727
         729         730         739         738
         730         731         740         739
         731         732         741         740
         732         733         742         741
         733         734         743         742
         734         735         744         743
         735         736         745         744
         736         737         746         745
         738         739         748         747
         739         740         749         748
         740         741         750         749
         741         742         751         750
         742         743         752         751
         743         744         753         752
         744         745         754         753
         745         746         755         754
         747         748         757         756
         748         749         758         757
         749         750         759         758
         750         751         760         759
         751         752         761         760
         752         753         762         761
         753         754         763         762
         754         755         764         763
         756         757         766         765
         757         758         767         766
         758         759         768         767
         759         760         769         768
         760         761         770         769
         761         762         771         770
         762         763         772         771
         763         764         773         772
         765         766         775         774
         766         767         776         775
         767         768         777         776
         768         769         778         777
         769         770         779         778
         770         771         780         779
         771         772         781         780
         772         773         782         781
         774         775         784         783
         775         776         785         784
         776         777         786         785
         777         778         787         786
         778         779         788         787
         779         780         789         788
         780         781         790         789
         781         782         791         790
         783         784         793         792
         784         785         794         793
         785         786         795         794
         786         787         796         795
         787         788         797         796
         788         789         798         797
         789         790         799         798
         790         791         800         799
         792         793         802         801
         793         794         803         802
         794         795         804         803
         795         796         805         804
         796         797         806         805
         797         798         807         806
         798         799         808         807
         799         800         809         808
         810         811         820         819
         811         812         821         820
         812         813         822         821
         813         814         823         822
         814         815         824         823
         815         816         825         824
         816         817         826         825
         817         818         827         826
         819         820         829         828
         820         821         830         829
         821         822         831         830
         822         823         832         831
         823         824         833         832
         824         825         834         833
         825         826         835         834
         826         827         836         835
         828         829         838         837
         829         830         839         838
         830         831         840         839
         831         832         841         840
         832         833         842         841
         833         834         843         842
         834         835         844         843
         835         836         845         844
         837         838         847         846
         838         839         848         847
         839         840         849         848
         840         841         850         849
         841         842         851         850
         842         843         852         851
         843         844         853         852
         844         845         854         853
         846         847         856         855
         847         848         857         856
         848         849         858         857
         849         850         859         858
         850         851         860         859
         851         852         861         860
         852         853         862         861
         853         854         863         862
         855         856         865         864
         856         857         866         865
         857         858         867         866
         858         859         868         867
         859         860         869         868
         860         861         870         869
         861         862         871         870
         862         863         872         871
         864         865         874         873
         865         866         875         874
         866         867         876         875
         867         868         877         876
         868         869         878         877
         869         870         879         878
         870         871         880         879
         871         872         881         880
         873         874         883         882
         874         875         884         883
         875         876         885         884
         876         877         886         885
         877         878         887         886
         878         879         888         887
         879         880         889         888
         880         881         890         889
         891         892         901         900
         892         893         902         901
         893         894         903         902
         894         895         904         903
         895         896         905         904
         896         897         906         905
         897         898         907         906
         898         899         908         907
         900         901         910         909
         901         902         911         910
         902         903         912         911
         903         904         913         912
         904         905         914         913
         905         906         915         914
         906         907         916         915
         907         908         917         916
         909         910         919         918
         910         911         920         919
         911         912         921         920
         912         913         922         921
         913         914         923         922
         914         915         924         923
         915         916         925         924
         916         917         926         925
         918         919         928         927
         919         920         929         928
         920         921         930         929
         921         922         931         930
         922         923         932         931
         923         924         933         932
         924         925         934         933
         925         926         935         934
         927         928         937         936
         928         929         938         937
         929         930         939         938
         930         931         940         939
         931         932         941         940
         932         933         942         941
         933         934         943         942
         934         935         944         943
         936         937         946         945
         937         938         947         946
         938         939         948         947
         939         940         949         948
         940         941         950         949
         941         942         951         950
         942         943         952         951
         943         944         953         952
         945         946         955         954
         946         947         956         955
         947         948         957         956
         948         949         958         957
         949         950         959         958
         950         951         960         959
         951         952         961         960
         952         953         962         961
         954         955         964         963
         955         956         965         964
         956         957         966         965
         957         958         967         966
         958         959         968         967
         959         960         969         968
         960         961         970         969
         961         962         971         970
         972         973         982         981
         973         974         983         982
         974         975         984         983
         975         976         985         984
         976         977         986         985
         977         978         987         986
         978         979         988         987
         979         980         989         988
         981         982         991         990
         982         983         992         991
         983         984         993         992
         984         985         994         993
         985         986         995         994
         986         987         996         995
         987         988         997         996
         988         989         998         997
         990         991        1000         999
         991         992        1001        1000
         992         993        1002        1001
         993         994        1003        1002
         994         995        1004        1003
         995         996        1005        1004
         996         997        1006        1005
         997         998        1007        1006
         999        1000        1009        1008
        1000        1001        1010        1009
        1001        1002        1011        1010
        1002        1003        1012        1011
        1003        1004        1013        1012
        1004        1005        1014        1013
        1005        1006        1015        1014
        1006        1007        1016        1015
        1008        1009        1018        1017
        1009        1010        1019        1018
        1010        1011        1020        1019
        1011        1012        1021        1020
        1012        1013        1022        1021
        1013        1014        1023        1022
        1014        1015        1024        1023
        1015        1016        1025        1024
        1017        1018        1027        1026
        1018        1019        1028        1027
        1019        1020        1029        1028
        1020        1021        1030        1029
        1021        1022        1031        1030
        1022        1023        1032        1031
        1023        1024        1033        1032
        1024        1025        1034        1033
        1026        1027        1036        1035
        1027        1028        1037        1036
        1028        1029        1038        1037
        1029        1030        1039        1038
        1030        1031        1040        1039
        1031        1032        1041        1040
        1032        1033        1042        1041
        1033        1034        1043        1042
        1035        1036        1045        1044
        1036        1037        1046        1045
        1037        1038        1047        1046
        1038        1039        1048        1047
        1039        1040        1049        1048
        1040        1041        1050        1049
        1041        1042        1051        1050
        1042        1043        1052        1051
        1053        1054        1063        1062
        1054        1055        1064        1063
        1055        1056        1065        1064
        1056        1057        1066        1065
        1057        1058        1067        1066
        1058        1059        1068        1067
        1059        1060        1069        1068
        1060        1061        1070        1069
        1062        1063        1072        1071
        1063        1064        1073        1072
        1064        1065        1074        1073
        1065        1066        1075        1074
        1066        1067        1076        1075
        1067        1068        1077        1076
        1068        1069        1078        1077
        1069        1070        1079        1078
        1071        1072        1081        1080
        1072        1073        1082        1081
        1073        1074        1083        1082
        1074        1075        1084        1083
        1075        1076        1085        1084
        1076        1077        1086        1085
        1077        1078        1087        1086
        1078        1079        1088        1087
        1080        1081        1090        1089
        1081        1082        1091        1090
        1082        1083        1092        1091
        1083        1084        1093        1092
        1084        1085        1094        1093
        1085        1086        1095        1094
        1086        1087        1096        1095
        1087        1088        1097        1096
        1089        1090        1099        1098
        1090        1091        1100        1099
        1091        1092        1101        1100
        1092        1093        1102        1101
        1093        1094        1103        1102
        1094        1095        1104        1103
        1095        1096        1105        1104
        1096        1097        1106        1105
        1098        1099        1108        1107
        1099        1100        1109        1108
        1100        1101        1110        1109
        1101        1102        1111        1110
        1102        1103        1112        1111
        1103        1104        1113        1112
        1104        1105        1114        1113
        1105        1106        1115        1114
        1107        1108        1117        1116
        1108        1109        1118        1117
        1109        1110        1119        1118
        1110        1111        1120        1119
        1111        1112        1121        1120
        1112        1113        1122        1121
        1113        1114        1123        1122
        1114        1115        1124        1123
        1116        1117        1126        1125
        1117        1118        1127        1126
        1118        1119        1128        1127
        1119        1120        1129        1128
        1120        1121        1130        1129
        1121        1122        1131        1130
        1122        1123        1132        1131
        1123        1124        1133        1132
        1134        1135        1144        1143
        1135        1136        1145        1144
        1136        1137        1146        1145
        1137        1138        1147        1146
        1138        1139        1148        1147
        1139        1140        1149        1148
        1140        1141        1150        1149
        1141        1142        1151        1150
        1143        1144        1153        1152
        1144        1145        1154        1153
        1145        1146        1155        1154
        1146        1147        1156        1155
        1147        1148        1157        1156
        1148        1149        1158        1157
        1149        1150        1159        1158
        1150        1151        1160        1159
        1152        1153        1162        1161
        1153        1154        1163        1162
        1154        1155        1164        1163
        1155        1156        1165        1164
        1156        1157        1166        1165
        1157        1158        1167        1166
        1158        1159        1168        1167
        1159        1160        1169        1168
        1161        1162        1171        1170
        1162        1163        1172        1171
        1163        1164        1173        1172
        1164        1165        1174        1173
        1165        1166        1175        1174
        1166        1167        1176        1175
        1167        1168        1177        1176
        1168        1169        1178        1177
        1170        1171        1180        1179
        1171        1172        1181        1180
        1172        1173        1182        1181
        1173        1174        1183        1182
        1174        1175        1184        1183
        1175        1176        1185        1184
        1176        1177        1186        1185
        1177        1178        1187        1186
        1179        1180        1189        1188
        1180        1181        1190        1189
        1181        1182        1191        1190
        1182        1183        1192        1191
        1183        1184        1193        1192
        1184        1185        1194        1193
        1185        1186        1195        1194
        1186        1187        1196        1195
        1188        1189        1198        1197
        1189        1190        1199        1198
        1190        1191        1200        1199
        1191        1192        1201        1200
        1192        1193        1202        1201
        1193        1194        1203        1202
        1194        1195        1204        1203
        1195        1196        1205        1204
        1197        1198        1207        1206
        1198        1199        1208        1207
        1199        1200        1209        1208
        1200        1201        1210        1209
        1201        1202        1211        1210
        1202        1203        1212        1211
        1203        1204        1213        1212
        1204        1205        1214        1213
        1215        1216        1225        1224
        1216        1217        1226        1225
        1217        1218        1227        1226
        1218        1219        1228        1227
        1219        1220        1229        1228
        1220        1221        1230        1229
        1221        1222        1231        1230
        1222        1223        1232        1231
        1224        1225        1234        1233
        1225        1226        1235        1234
        1226        1227        1236        1235
        1227        1228        1237        1236
        1228        1229        1238        1237
        1229        1230        1239        1238
        1230        1231        1240        1239
        1231        1232        1241        1240
        1233        1234        1243        1242
        1234        1235        1244        1243
        1235        1236        1245        1244
        1236        1237        1246        1245
        1237        1238        1247        1246
        1238        1239        1248        1247
        1239        1240        1249        1248
        1240        1241        1250        1249
        1242        1243        1252        1251
        1243        1244        1253        1252
        1244        1245        1254        1253
        1245        1246        1255        1254
        1246        1247        1256        1255
        1247        1248        1257        1256
        1248        1249        1258        1257
        1249        1250        1259        1258
        1251        1252        1261        1260
        1252        1253        1262        1261
        1253        1254        1263        1262
        1254        1255        1264        1263
        1255        1256        1265        1264
        1256        1257        1266        1265
        1257        1258        1267        1266
        1258        1259        1268        1267
        1260        1261        1270        1269
        1261        1262        1271        1270
        1262        1263        1272        1271
        1263        1264        1273        1272
        1264        1265        1274        1273
        1265        1266        1275        1274
        1266        1267        1276        1275
        1267        1268        1277        1276
        1269        1270        1279        1278
        1270        1271        1280        1279
        1271        1272        1281        1280
        1272        1273        1282        1281
        1273        1274        1283        1282
        1274        1275        1284        1283
        1275        1276        1285        1284
        1276        1277        1286        1285
        1278        1279        1288        1287
        1279        1280        1289        1288
        1280        1281        1290        1289
        1281        1282        1291        1290
        1282        1283        1292        1291
        1283        1284        1293        1292
        1284        1285        1294        1293
        1285        1286        1295        1294
 </DataArray>
 <DataArray  type="Int32"  Name="offsets"  format="ascii"> 
           4
           8
          12
          16
          20
          24
          28
          32
          36
          40
          44
          48
          52
          56
          60
          64
          68
          72
          76
          80
          84
          88
          92
          96
         100
         104
         108
         112
         116
         120
         124
         128
         132
         136
         140
         144
         148
         152
         156
         160
         164
         168
         172
         176
         180
         184
         188
         192
         196
         200
         204
         208
         212
         216
         220
         224
         228
         232
         236
         240
         244
         248
         252
         256
         260
         264
         268
         272
         276
         280
         284
         288
         292
         296
         300
         304
         308
         312
         316
         320
         324
         328
         332
         336
         340
         344
         348
         352
         356
         360
         364
         368
         372
         376
         380
         384
         388
         392
         396
         400
         404
         408
         412
         416
         420
         424
         428
         432
         436
         440
         444
         448
         452
         456
         460
         464
         468
         472
         476
         480
         484
         488
         492
         496
         500
         504
         508
         512
         516
         520
         524
         528
         532
         536
         540
         544
         548
         552
         556
         560
         564
         568
         572
         576
         580
         584
         588
         592
         596
         600
         604
         608
         612
         616
         620
         624
         628
         632
         636
         640
         644
         648
         652
         656
         660
         664
         668
         672
         676
         680
         684
         688
         692
         696
         700
         704
         708
         712
         716
         720
         724
         728
         732
         736
         740
         744
         748
         752
         756
         760
         764
         768
         772
         776
         780
         784
         788
         792
         796
         800
         804
         808
         812
         816
         820
         824
         828
         832
         836
         840
         844
         848
         852
         856
         860
         864
         868
         872
         876
         880
         884
         888
         892
         896
         900
         904
         908
         912
         916
         920
         924
         928
         932
         936
         940
         944
         948
         952
         956
         960
         964
         968
         972
         976
         980
         984
         988
         992
         996
        1000
        1004
        1008
        1012
        1016
        1020
        1024
        1028
        1032
        1036
        1040
        1044
        1048
        1052
        1056
        1060
        1064
        1068
        1072
        1076
        1080
        1084
        1088
        1092
        1096
        1100
        1104
        1108
        1112
        1116
        1120
        1124
        1128
        1132
        1136
        1140
        1144
        1148
        1152
        1156
        1160
        1164
        1168
        1172
        1176
        1180
        1184
        1188
        1192
        1196
        1200
        1204
        1208
        1212
        1216
        1220
        1224
        1228
        1232
        1236
        1240
        1244
        1248
        1252
        1256
        1260
        1264
        1268
        1272
        1276
        1280
        1284
        1288
        1292
        1296
        1300
        1304
        1308
        1312
        1316
        1320
        1324
        1328
        1332
        1336
        1340
        1344
        1348
        1352
        1356
        1360
        1364
        1368
        1372
        1376
        1380
        1384
        1388
        1392
        1396
        1400
        1404
        1408
        1412
        1416
        1420
        1424
        1428
        1432
        1436
        1440
        1444
        1448
        1452
        1456
        1460
        1464
        1468
        1472
        1476
        1480
        1484
        1488
        1492
        1496
        1500
        1504
        1508
        1512
        1516
        1520
        1524
        1528
        1532
        1536
        1540
        1544
        1548
        1552
        1556
        1560
        1564
        1568
        1572
        1576
        1580
        1584
        1588
        1592
        1596
        1600
        1604
        1608
        1612
        1616
        1620
        1624
        1628
        1632
        1636
        1640
        1644
        1648
        1652
        1656
        1660
        1664
        1668
        1672
        1676
        1680
        1684
        1688
        1692
        1696
        1700
        1704
        1708
        1712
        1716
        1720
        1724
        1728
        1732
        1736
        1740
        1744
        1748
        1752
        1756
        1760
        1764
        1768
        1772
        1776
        1780
        1784
        1788
        1792
        1796
        1800
        1804
        1808
        1812
        1816
        1820
        1824
        1828
        1832
        1836
        1840
        1844
        1848
        1852
        1856
        1860
        1864
        1868
        1872
        1876
        1880
        1884
        1888
        1892
        1896
        1900
        1904
        1908
        1912
        1916
        1920
        1924
        1928
        1932
        1936
        1940
        1944
        1948
        1952
        1956
        1960
        1964
        1968
        1972
        1976
        1980
        1984
        1988
        1992
        1996
        2000
        2004
        2008
        2012
        2016
        2020
        2024
        2028
        2032
        2036
        2040
        2044
        2048
        2052
        2056
        2060
        2064
        2068
        2072
        2076
        2080
        2084
        2088
        2092
        2096
        2100
        2104
        2108
        2112
        2116
        2120
        2124
        2128
        2132
        2136
        2140
        2144
        2148
        2152
        2156
        2160
        2164
        2168
        2172
        2176
        2180
        2184
        2188
        2192
        2196
        2200
        2204
        2208
        2212
        2216
        2220
        2224
        2228
        2232
        2236
        2240
        2244
        2248
        2252
        2256
        2260
        2264
        2268
        2272
        2276
        2280
        2284
        2288
        2292
        2296
        2300
        2304
        2308
        2312
        2316
        2320
        2324
        2328
        2332
        2336
        2340
        2344
        2348
        2352
        2356
        2360
        2364
        2368
        2372
        2376
        2380
        2384
        2388
        2392
        2396
        2400
        2404
        2408
        2412
        2416
        2420
        2424
        2428
        2432
        2436
        2440
        2444
        2448
        2452
        2456
        2460
        2464
        2468
        2472
        2476
        2480
        2484
        2488
        2492
        2496
        2500
        2504
        2508
        2512
        2516
        2520
        2524
        2528
        2532
        2536
        2540
        2544
        2548
        2552
        2556
        2560
        2564
        2568
        2572
        2576
        2580
        2584
        2588
        2592
        2596
        2600
        2604
        2608
        2612
        2616
        2620
        2624
        2628
        2632
        2636
        2640
        2644
        2648
        2652
        2656
        2660
        2664
        2668
        2672
        2676
        2680
        2684
        2688
        2692
        2696
        2700
        2704
        2708
        2712
        2716
        2720
        2724
        2728
        2732
        2736
        2740
        2744
        2748
        2752
        2756
        2760
        2764
        2768
        2772
        2776
        2780
        2784
        2788
        2792
        2796
        2800
        2804
        2808
        2812
        2816
        2820
        2824
        2828
        2832
        2836
        2840
        2844
        2848
        2852
        2856
        2860
        2864
        2868
        2872
        2876
        2880
        2884
        2888
        2892
        2896
        2900
        2904
        2908
        2912
        2916
        2920
        2924
        2928
        2932
        2936
        2940
        2944
        2948
        2952
        2956
        2960
        2964
        2968
        2972
        2976
        2980
        2984
        2988
        2992
        2996
        3000
        3004
        3008
        3012
        3016
        3020
        3024
        3028
        3032
        3036
        3040
        3044
        3048
        3052
        3056
        3060
        3064
        3068
        3072
        3076
        3080
        3084
        3088
        3092
        3096
        3100
        3104
        3108
        3112
        3116
        3120
        3124
        3128
        3132
        3136
        3140
        3144
        3148
        3152
        3156
        3160
        3164
        3168
        3172
        3176
        3180
        3184
        3188
        3192
        3196
        3200
        3204
        3208
        3212
        3216
        3220
        3224
        3228
        3232
        3236
        3240
        3244
        3248
        3252
        3256
        3260
        3264
        3268
        3272
        3276
        3280
        3284
        3288
        3292
        3296
        3300
        3304
        3308
        3312
        3316
        3320
        3324
        3328
        3332
        3336
        3340
        3344
        3348
        3352
        3356
        3360
        3364
        3368
        3372
        3376
        3380
        3384
        3388
        3392
        3396
        3400
        3404
        3408
        3412
        3416
        3420
        3424
        3428
        3432
        3436
        3440
        3444
        3448
        3452
        3456
        3460
        3464
        3468
        3472
        3476
        3480
        3484
        3488
        3492
        3496
        3500
        3504
        3508
        3512
        3516
        3520
        3524
        3528
        3532
        3536
        3540
        3544
        3548
        3552
        3556
        3560
        3564
        3568
        3572
        3576
        3580
        3584
        3588
        3592
        3596
        3600
        3604
        3608
        3612
        3616
        3620
        3624
        3628
        3632
        3636
        3640
        3644
        3648
        3652
        3656
        3660
        3664
        3668
        3672
        3676
        3680
        3684
        3688
        3692
        3696
        3700
        3704
        3708
        3712
        3716
        3720
        3724
        3728
        3732
        3736
        3740
        3744
        3748
        3752
        3756
        3760
        3764
        3768
        3772
        3776
        3780
        3784
        3788
        3792
        3796
        3800
        3804
        3808
        3812
        3816
        3820
        3824
        3828
        3832
        3836
        3840
        3844
        3848
        3852
        3856
        3860
        3864
        3868
        3872
        3876
        3880
        3884
        3888
        3892
        3896
        3900
        3904
        3908
        3912
        3916
        3920
        3924
        3928
        3932
        3936
        3940
        3944
        3948
        3952
        3956
        3960
        3964
        3968
        3972
        3976
        3980
        3984
        3988
        3992
        3996
        4000
        4004
        4008
        4012
        4016
        4020
        4024
        4028
        4032
        4036
        4040
        4044
        4048
        4052
        4056
        4060
        4064
        4068
        4072
        4076
        4080
        4084
        4088
        4092
        4096
 </DataArray>
 <DataArray  type="UInt8"  Name="types"  format="ascii">
 9
 9
 9
 9
 9
 9
 9
 9
 9
 9
 9
 9
 9
 9
 9
 9
 9
 9
 9
 9
 9
 9
 9
 9
 9
 9
 9
 9
 9
 9
 9
 9
 9
 9
 9
 9
 9
 9
 9
 9
 9
 9
 9
 9
 9
 9
 9
 9
 9
 9
 9
 9
 9
 9
 9
 9
 9
 9
 9
 9
 9
 9
 9
 9
 9
 9
 9
 9
 9
 9
 9
 9
 9
 9
 9
 9
 9
 9
 9
 9
 9
 9
 9
 9
 9
 9
 9
 9
 9
 9
 9
 9
 9
 9
 9
 9
 9
 9
 9
 9
 9
 9
 9
 9
 9
 9
 9
 9
 9
 9
 9
 9
 9
 9
 9
 9
 9
 9
 9
 9
 9
 9
 9
 9
 9
 9
 9
 9
 9
 9
 9
 9
 9
 9
 9
 9
 9
 9
 9
 9
 9
 9
 9
 9
 9
 9
 9
 9
 9
 9
 9
 9
 9
 9
 9
 9
 9
 9
 9
 9
 9
 9
 9
 9
 9
 9
 9
 9
 9
 9
 9
 9
 9
 9
 9
 9
 9
 9
 9
 9
 9
 9
 9
 9
 9
 9
 9
 9
 9
 9
 9
 9
 9
 9
 9
 9
 9
 9
 9
 9
 9
 9
 9
 9
 9
 9
 9
 9
 9
 9
 9
 9
 9
 9
 9
 9
 9
 9
 9
 9
 9
 9
 9
 9
 9
 9
 9
 9
 9
 9
 9
 9
 9
 9
 9
 9
 9
 9
 9
 9
 9
 9
 9
 9
 9
 9
 9
 9
 9
 9
 9
 9
 9
 9
 9
 9
 9
 9
 9
 9
 9
 9
 9
 9
 9
 9
 9
 9
 9
 9
 9
 9
 9
 9
 9
 9
 9
 9
 9
 9
 9
 9
 9
 9
 9
 9
 9
 9
 9
 9
 9
 9
 9
 9
 9
 9
 9
 9
 9
 9
 9
 9
 9
 9
 9
 9
 9
 9
 9
 9
 9
 9
 9
 9
 9
 9
 9
 9
 9
 9
 9
 9
 9
 9
 9
 9
 9
 9
 9
 9
 9
 9
 9
 9
 9
 9
 9
 9
 9
 9
 9
 9
 9
 9
 9
 9
 9
 9
 9
 9
 9
 9
 9
 9
 9
 9
 9
 9
 9
 9
 9
 9
 9
 9
 9
 9
 9
 9
 9
 9
 9
 9
 9
 9
 9
 9
 9
 9
 9
 9
 9
 9
 9
 9
 9
 9
 9
 9
 9
 9
 9
 9
 9
 9
 9
 9
 9
 9
 9
 9
 9
 9
 9
 9
 9
 9
 9
 9
 9
 9
 9
 9
 9
 9
 9
 9
 9
 9
 9
 9
 9
 9
 9
 9
 9
 9
 9
 9
 9
 9
 9
 9
 9
 9
 9
 9
 9
 9
 9
 9
 9
 9
 9
 9
 9
 9
 9
 9
 9
 9
 9
 9
 9
 9
 9
 9
 9
 9
 9
 9
 9
 9
 9
 9
 9
 9
 9
 9
 9
 9
 9
 9
 9
 9
 9
 9
 9
 9
 9
 9
 9
 9
 9
 9
 9
 9
 9
 9
 9
 9
 9
 9
 9
 9
 9
 9
 9
 9
 9
 9
 9
 9
 9
 9
 9
 9
 9
 9
 9
 9
 9
 9
 9
 9
 9
 9
 9
 9
 9
 9
 9
 9
 9
 9
 9
 9
 9
 9
 9
 9
 9
 9
 9
 9
 9
 9
 9
 9
 9
 9
 9
 9
 9
 9
 9
 9
 9
 9
 9
 9
 9
 9
 9
 9
 9
 9
 9
 9
 9
 9
 9
 9
 9
 9
 9
 9
 9
 9
 9
 9
 9
 9
 9
 9
 9
 9
 9
 9
 9
 9
 9
 9
 9
 9
 9
 9
 9
 9
 9
 9
 9
 9
 9
 9
 9
 9
 9
 9
 9
 9
 9
 9
 9
 9
 9
 9
 9
 9
 9
 9
 9
 9
 9
 9
 9
 9
 9
 9
 9
 9
 9
 9
 9
 9
 9
 9
 9
 9
 9
 9
 9
 9
 9
 9
 9
 9
 9
 9
 9
 9
 9
 9
 9
 9
 9
 9
 9
 9
 9
 9
 9
 9
 9
 9
 9
 9
 9
 9
 9
 9
 9
 9
 9
 9
 9
 9
 9
 9
 9
 9
 9
 9
 9
 9
 9
 9
 9
 9
 9
 9
 9
 9
 9
 9
 9
 9
 9
 9
 9
 9
 9
 9
 9
 9
 9
 9
 9
 9
 9
 9
 9
 9
 9
 9
 9
 9
 9
 9
 9
 9
 9
 9
 9
 9
 9
 9
 9
 9
 9
 9
 9
 9
 9
 9
 9
 9
 9
 9
 9
 9
 9
 9
 9
 9
 9
 9
 9
 9
 9
 9
 9
 9
 9
 9
 9
 9
 9
 9
 9
 9
 9
 9
 9
 9
 9
 9
 9
 9
 9
 9
 9
 9
 9
 9
 9
 9
 9
 9
 9
 9
 9
 9
 9
 9
 9
 9
 9
 9
 9
 9
 9
 9
 9
 9
 9
 9
 9
 9
 9
 9
 9
 9
 9
 9
 9
 9
 9
 9
 9
 9
 9
 9
 9
 9
 9
 9
 9
 9
 9
 9
 9
 9
 9
 9
 9
 9
 9
 9
 9
 9
 9
 9
 9
 9
 9
 9
 9
 9
 9
 9
 9
 9
 9
 9
 9
 9
 9
 9
 9
 9
 9
 9
 9
 9
 9
 9
 9
 9
 9
 9
 9
 9
 9
 9
 9
 9
 9
 9
 9
 9
 9
 9
 9
 9
 9
 9
 9
 9
 9
 9
 9
 9
 9
 9
 9
 9
 9
 9
 9
 9
 9
 9
 9
 9
 9
 9
 9
 9
 9
 9
 9
 9
 9
 9
 9
 9
 9
 9
 9
 9
 9
 9
 9
 9
 9
 9
 9
 9
 9
 9
 9
 9
 9
 9
 9
 9
 9
 9
 9
 9
 9
 9
 9
 9
 9
 9
 9
 9
 9
 9
 9
 9
 9
 9
 9
 9
 9
 9
 9
 9
 9
 9
 9
 9
 9
 9
 9
 9
 9
 9
 9
 9
 9
 9
 9
 9
 9
 9
 9
 9
 9
 9
 9
 9
 9
 9
 9
 9
 9
 9
 9
 9
 9
 9
 9
 9
 9
 9
 9
 9
 9
 9
 9
 9
 9
 9
 9
 9
 9
 9
 9
 9
 9
 9
 9
 9
 9
 9
 9
 9
 9
 9
 9
 9
 9
 9
 9
 9
 9
 9
 9
 9
 9
 9
 9
 9
 9
 9
 9
 9
 9
 9
 9
 9
 </DataArray>
 </Cells> 
 <PointData>
 <DataArray  type="Float64" Name="disp" NumberOfComponents="3" format="ascii">
   3.7568154414950833E-006   1.4223745442859691E-005   0.0000000000000000     
   3.7722186921566940E-006   1.4465024049158330E-005   0.0000000000000000     
   3.7871120948889862E-006   1.4707241044151314E-005   0.0000000000000000     
   3.8015024915603256E-006   1.4950367141878984E-005   0.0000000000000000     
   3.8153967240390782E-006   1.5194373056381687E-005   0.0000000000000000     
   3.8288016341936083E-006   1.5439229501699765E-005   0.0000000000000000     
   3.8417240638922837E-006   1.5684907191873564E-005   0.0000000000000000     
   3.8541708550034679E-006   1.5931376840943426E-005   0.0000000000000000     
   3.8661488493955277E-006   1.6178609162949704E-005   0.0000000000000000     
   3.5165755544398527E-006   1.4219193169389397E-005   0.0000000000000000     
   3.5309956132242005E-006   1.4460632761803685E-005   0.0000000000000000     
   3.5449574141644996E-006   1.4702998360845488E-005   0.0000000000000000     
   3.5584618004010475E-006   1.4946263723525069E-005   0.0000000000000000     
   3.5715096150741419E-006   1.5190402606852701E-005   0.0000000000000000     
   3.5841017013240818E-006   1.5435388767838641E-005   0.0000000000000000     
   3.5962389022911636E-006   1.5681195963493169E-005   0.0000000000000000     
   3.6079220611156866E-006   1.5927797950826547E-005   0.0000000000000000     
   3.6191520209379480E-006   1.6175168486849039E-005   0.0000000000000000     
   3.2773878852487170E-006   1.4214940035881276E-005   0.0000000000000000     
   3.2908333713532817E-006   1.4456521297555578E-005   0.0000000000000000     
   3.3038638101386360E-006   1.4699022405269208E-005   0.0000000000000000     
   3.3164763059522855E-006   1.4942418723251186E-005   0.0000000000000000     
   3.3286679631417361E-006   1.5186685615730540E-005   0.0000000000000000     
   3.3404358860544919E-006   1.5431798446936292E-005   0.0000000000000000     
   3.3517771790380582E-006   1.5677732581097472E-005   0.0000000000000000     
   3.3626889464399400E-006   1.5924463382443096E-005   0.0000000000000000     
   3.3731682926076431E-006   1.6171966215202202E-005   0.0000000000000000     
   3.0391823839035311E-006   1.4210984802451587E-005   0.0000000000000000     
   3.0516603811281981E-006   1.4452690540461921E-005   0.0000000000000000     
   3.0637596630443812E-006   1.4695314967208077E-005   0.0000000000000000     
   3.0754754603402400E-006   1.4938833894494006E-005   0.0000000000000000     
   3.0868030037039325E-006   1.5183223134123673E-005   0.0000000000000000     
   3.0977375238236191E-006   1.5428458497901021E-005   0.0000000000000000     
   3.1082742513874590E-006   1.5674515797630013E-005   0.0000000000000000     
   3.1184084170836094E-006   1.5921370845114605E-005   0.0000000000000000     
   3.1281352516002319E-006   1.6168999452158745E-005   0.0000000000000000     
   2.8018890003861498E-006   1.4207326229216590E-005   0.0000000000000000     
   2.8134050571332121E-006   1.4449141374570616E-005   0.0000000000000000     
   2.8245733531147211E-006   1.4691877836447691E-005   0.0000000000000000     
   2.8353887156911084E-006   1.4935510990690208E-005   0.0000000000000000     
   2.8458459722228055E-006   1.5180016213140563E-005   0.0000000000000000     
   2.8559399500702439E-006   1.5425368879641146E-005   0.0000000000000000     
   2.8656654765938566E-006   1.5671544366034349E-005   0.0000000000000000     
   2.8750173791540753E-006   1.5918518048162564E-005   0.0000000000000000     
   2.8839904851113306E-006   1.6166265301868199E-005   0.0000000000000000     
   2.5654376846784293E-006   1.4203963076292546E-005   0.0000000000000000     
   2.5759958139525855E-006   1.4445874683929571E-005   0.0000000000000000     
   2.5862332605826412E-006   1.4688712802773655E-005   0.0000000000000000     
   2.5961455241310902E-006   1.4932451765276466E-005   0.0000000000000000     
   2.6057281041604274E-006   1.5177065903889681E-005   0.0000000000000000     
   2.6149765002331486E-006   1.5422529551064978E-005   0.0000000000000000     
   2.6238862119117476E-006   1.5668817039254032E-005   0.0000000000000000     
   2.6324527387587180E-006   1.5915902700908512E-005   0.0000000000000000     
   2.6406715803365556E-006   1.6163760868480103E-005   0.0000000000000000     
   2.3297583867622235E-006   1.4200894103795704E-005   0.0000000000000000     
   2.3393610661705789E-006   1.4442891352586693E-005   0.0000000000000000     
   2.3486677656811262E-006   1.4685821655971566E-005   0.0000000000000000     
   2.3576753377863842E-006   1.4929657971689452E-005   0.0000000000000000     
   2.3663806349788734E-006   1.5174373257479494E-005   0.0000000000000000     
   2.3747805097511124E-006   1.5419940471080834E-005   0.0000000000000000     
   2.3828718145956210E-006   1.5666332570232606E-005   0.0000000000000000     
   2.3906514020049195E-006   1.5913522512673948E-005   0.0000000000000000     
   2.3981161244715267E-006   1.6161483256144001E-005   0.0000000000000000     
   2.0947810566193879E-006   1.4198118071842331E-005   0.0000000000000000     
   2.1034292283714551E-006   1.4440192264589892E-005   0.0000000000000000     
   2.1118052486431629E-006   1.4683206185827028E-005   0.0000000000000000     
   2.1199076087831907E-006   1.4927131363365848E-005   0.0000000000000000     
   2.1277348001402153E-006   1.5171939325018476E-005   0.0000000000000000     
   2.1352853140629172E-006   1.5417601598597024E-005   0.0000000000000000     
   2.1425576418999721E-006   1.5664089711913629E-005   0.0000000000000000     
   2.1495502750000596E-006   1.5911375192780389E-005   0.0000000000000000     
   2.1562617047118592E-006   1.6159429569009432E-005   0.0000000000000000     
   1.8604356442317786E-006   1.4195633740548687E-005   0.0000000000000000     
   1.8681287151394752E-006   1.4437778303987069E-005   0.0000000000000000     
   1.8755740897017370E-006   1.4680868182125632E-005   0.0000000000000000     
   1.8827717892477072E-006   1.4924873693742320E-005   0.0000000000000000     
   1.8897218351065275E-006   1.5169765157615082E-005   0.0000000000000000     
   1.8964242486073415E-006   1.5415512892521870E-005   0.0000000000000000     
   1.9028790510792916E-006   1.5662087217240639E-005   0.0000000000000000     
   1.9090862638515208E-006   1.5909458450549340E-005   0.0000000000000000     
   1.9150459082531713E-006   1.6157596911225927E-005   0.0000000000000000     
   3.8661488493955277E-006   1.6178609162949704E-005   0.0000000000000000     
   3.8776628818604716E-006   1.6426574685474238E-005   0.0000000000000000     
   3.8887097588848849E-006   1.6675243190264905E-005   0.0000000000000000     
   3.8992842798789935E-006   1.6924584272611090E-005   0.0000000000000000     
   3.9093812442530252E-006   1.7174567527802160E-005   0.0000000000000000     
   3.9189954514172101E-006   1.7425162551127510E-005   0.0000000000000000     
   3.9281217007817717E-006   1.7676338937876509E-005   0.0000000000000000     
   3.9367547917569410E-006   1.7928066283338534E-005   0.0000000000000000     
   3.9448895237529457E-006   1.8180314182802979E-005   0.0000000000000000     
   3.6191520209379480E-006   1.6175168486849039E-005   0.0000000000000000     
   3.6299297170537467E-006   1.6423280116997691E-005   0.0000000000000000     
   3.6402564533808832E-006   1.6672100540416686E-005   0.0000000000000000     
   3.6501336259926628E-006   1.6921596244676976E-005   0.0000000000000000     
   3.6595626309623843E-006   1.7171733717349517E-005   0.0000000000000000     
   3.6685448643633541E-006   1.7422479446005270E-005   0.0000000000000000     
   3.6770817222688723E-006   1.7673799918215188E-005   0.0000000000000000     
   3.6851746007522407E-006   1.7925661621550226E-005   0.0000000000000000     
   3.6928248958867654E-006   1.8178031043581345E-005   0.0000000000000000     
   3.3731682926076431E-006   1.6171966215202202E-005   0.0000000000000000     
   3.3832136630977884E-006   1.6420214650526735E-005   0.0000000000000000     
   3.3928288683034538E-006   1.6669175087260333E-005   0.0000000000000000     
   3.4020190598268371E-006   1.6918812131169582E-005   0.0000000000000000     
   3.4107893892701327E-006   1.7169090388021054E-005   0.0000000000000000     
   3.4191450082355376E-006   1.7419974463581316E-005   0.0000000000000000     
   3.4270910683252433E-006   1.7671428963616941E-005   0.0000000000000000     
   3.4346327211414495E-006   1.7923418493894501E-005   0.0000000000000000     
   3.4417751182863509E-006   1.8175907660180582E-005   0.0000000000000000     
   3.1281352516002319E-006   1.6168999452158745E-005   0.0000000000000000     
   3.1374518791259081E-006   1.6417375419779796E-005   0.0000000000000000     
   3.1463629978509106E-006   1.6666464505848742E-005   0.0000000000000000     
   3.1548751994659342E-006   1.6916230457449943E-005   0.0000000000000000     
   3.1629950756616768E-006   1.7166637021667794E-005   0.0000000000000000     
   3.1707292181288344E-006   1.7417647945586677E-005   0.0000000000000000     
   3.1780842185581009E-006   1.7669226976290956E-005   0.0000000000000000     
   3.1850666686401740E-006   1.7921337860865021E-005   0.0000000000000000     
   3.1916831600657499E-006   1.8173944346393256E-005   0.0000000000000000     
   2.8839904851113306E-006   1.6166265301868199E-005   0.0000000000000000     
   2.8925815242714151E-006   1.6414759558475319E-005   0.0000000000000000     
   2.9007948362215615E-006   1.6663966471234761E-005   0.0000000000000000     
   2.9086366629943661E-006   1.6913849748879072E-005   0.0000000000000000     
   2.9161132466224196E-006   1.7164373100140766E-005   0.0000000000000000     
   2.9232308291383168E-006   1.7415500233752368E-005   0.0000000000000000     
   2.9299956525746519E-006   1.7667194858446411E-005   0.0000000000000000     
   2.9364139589640179E-006   1.7919420682955419E-005   0.0000000000000000     
   2.9424919903390094E-006   1.8172141416011928E-005   0.0000000000000000     
   2.6406715803365556E-006   1.6163760868480103E-005   0.0000000000000000     
   2.6485397576676202E-006   1.6412364200331729E-005   0.0000000000000000     
   2.6560603776137228E-006   1.6661678658471301E-005   0.0000000000000000     
   2.6632380684965457E-006   1.6911668530817989E-005   0.0000000000000000     
   2.6700774586377648E-006   1.7162298105290977E-005   0.0000000000000000     
   2.6765831763590601E-006   1.7413531669809426E-005   0.0000000000000000     
   2.6827598499821071E-006   1.7665333512292491E-005   0.0000000000000000     
   2.6886121078285866E-006   1.7917667920659358E-005   0.0000000000000000     
   2.6941445782201789E-006   1.8170499182829194E-005   0.0000000000000000     
   2.3981161244715267E-006   1.6161483256144001E-005   0.0000000000000000     
   2.4052637384478323E-006   1.6410186479067458E-005   0.0000000000000000     
   2.4120956162257063E-006   1.6659598742611220E-005   0.0000000000000000     
   2.4186140340568879E-006   1.6909685328627737E-005   0.0000000000000000     
   2.4248212681931169E-006   1.7160411518969463E-005   0.0000000000000000     
   2.4307195948861345E-006   1.7411742595488858E-005   0.0000000000000000     
   2.4363112903876776E-006   1.7663643840038379E-005   0.0000000000000000     
   2.4415986309494879E-006   1.7916080534470476E-005   0.0000000000000000     
   2.4465838928233038E-006   1.8169017960637597E-005   0.0000000000000000     
   2.1562617047118592E-006   1.6159429569009432E-005   0.0000000000000000     
   2.1626906257453626E-006   1.6408223528400944E-005   0.0000000000000000     
   2.1688365462558227E-006   1.6657724398707391E-005   0.0000000000000000     
   2.1746991777598072E-006   1.6907898667669319E-005   0.0000000000000000     
   2.1802782317738815E-006   1.7158712823027239E-005   0.0000000000000000     
   2.1855734198146150E-006   1.7410133352521717E-005   0.0000000000000000     
   2.1905844533985727E-006   1.7662126743893261E-005   0.0000000000000000     
   2.1953110440423226E-006   1.7914659484882416E-005   0.0000000000000000     
   2.1997529032624324E-006   1.8167698063229719E-005   0.0000000000000000     
   1.9150459082531713E-006   1.6157596911225927E-005   0.0000000000000000     
   1.9207575786935213E-006   1.6406472482050617E-005   0.0000000000000000     
   1.9262191619023868E-006   1.6656053301812712E-005   0.0000000000000000     
   1.9314281176897161E-006   1.6906307073303760E-005   0.0000000000000000     
   1.9363819058654620E-006   1.7157201499315336E-005   0.0000000000000000     
   1.9410779862395747E-006   1.7408704282638997E-005   0.0000000000000000     
   1.9455138186220036E-006   1.7660783126066304E-005   0.0000000000000000     
   1.9496868628227004E-006   1.7913405732388831E-005   0.0000000000000000     
   1.9535945786516142E-006   1.8166539804398130E-005   0.0000000000000000     
   3.9448895237529457E-006   1.8180314182802979E-005   0.0000000000000000     
   3.9525280272663588E-006   1.8433054124364005E-005   0.0000000000000000     
   3.9597017571391496E-006   1.8686265167335000E-005   0.0000000000000000     
   3.9664494992996353E-006   1.8939928263834142E-005   0.0000000000000000     
   3.9728100396761279E-006   1.9194024365979587E-005   0.0000000000000000     
   3.9788221641969464E-006   1.9448534425889536E-005   0.0000000000000000     
   3.9845246587904063E-006   1.9703439395682139E-005   0.0000000000000000     
   3.9899563093848220E-006   1.9958720227475588E-005   0.0000000000000000     
   3.9951559019085109E-006   2.0214357873388049E-005   0.0000000000000000     
   3.6928248958867654E-006   1.8178031043581345E-005   0.0000000000000000     
   3.7000361944131407E-006   1.8430878094771677E-005   0.0000000000000000     
   3.7068208457416412E-006   1.8684186377153070E-005   0.0000000000000000     
   3.7131933899499406E-006   1.8937942915649564E-005   0.0000000000000000     
   3.7191683671157073E-006   1.9192134735185182E-005   0.0000000000000000     
   3.7247603173166089E-006   1.9446748860683950E-005   0.0000000000000000     
   3.7299837806303199E-006   1.9701772317069913E-005   0.0000000000000000     
   3.7348532971345075E-006   1.9957192129267081E-005   0.0000000000000000     
   3.7393834069068422E-006   2.0212995322199496E-005   0.0000000000000000     
   3.4417751182863509E-006   1.8175907660180582E-005   0.0000000000000000     
   3.4485222631329051E-006   1.8428865486102620E-005   0.0000000000000000     
   3.4548735661371361E-006   1.8682278666731639E-005   0.0000000000000000     
   3.4608272895258281E-006   1.8936138314999539E-005   0.0000000000000000     
   3.4663816955257688E-006   1.9190435543838203E-005   0.0000000000000000     
   3.4715350463637439E-006   1.9445161466179532E-005   0.0000000000000000     
   3.4762856042665396E-006   1.9700307194955418E-005   0.0000000000000000     
   3.4806316314609403E-006   1.9955863843097760E-005   0.0000000000000000     
   3.4845713901737343E-006   2.0211822523538456E-005   0.0000000000000000     
   3.1916831600657499E-006   1.8173944346393256E-005   0.0000000000000000     
   3.1979372937993780E-006   1.8427015123038714E-005   0.0000000000000000     
   3.2038207079010317E-006   1.8680538653279232E-005   0.0000000000000000     
   3.2093220497045406E-006   1.8934508342671307E-005   0.0000000000000000     
   3.2144299665437305E-006   1.9188917596771461E-005   0.0000000000000000     
   3.2191331057524316E-006   1.9443759821136202E-005   0.0000000000000000     
   3.2234201146644701E-006   1.9699028421322037E-005   0.0000000000000000     
   3.2272796406136748E-006   1.9954716802885479E-005   0.0000000000000000     
   3.2307003309338737E-006   2.0210818371383035E-005   0.0000000000000000     
   2.9424919903390094E-006   1.8172141416011928E-005   0.0000000000000000     
   2.9482323467862806E-006   1.8425325830261817E-005   0.0000000000000000     
   2.9536230606087289E-006   1.8678962954004333E-005   0.0000000000000000     
   2.9586485221633172E-006   1.8933046879452116E-005   0.0000000000000000     
   2.9632931218070051E-006   1.9187571698817760E-005   0.0000000000000000     
   2.9675412498967508E-006   1.9442531504313883E-005   0.0000000000000000     
   2.9713772967895171E-006   1.9697920388153117E-005   0.0000000000000000     
   2.9747856528422615E-006   1.9953732442548067E-005   0.0000000000000000     
   2.9777507084119456E-006   2.0209961759711346E-005   0.0000000000000000     
   2.6941445782201789E-006   1.8170499182829194E-005   0.0000000000000000     
   2.6993584824673351E-006   1.8423796432453786E-005   0.0000000000000000     
   2.7042414138356286E-006   1.8677548186115476E-005   0.0000000000000000     
   2.7087775585794031E-006   1.8931747806129190E-005   0.0000000000000000     
   2.7129511029530061E-006   1.9186388654809886E-005   0.0000000000000000     
   2.7167462332107851E-006   1.9441464094472520E-005   0.0000000000000000     
   2.7201471356070846E-006   1.9696967487432022E-005   0.0000000000000000     
   2.7231379963962518E-006   1.9952892196003368E-005   0.0000000000000000     
   2.7257030018326344E-006   2.0209231582501482E-005   0.0000000000000000     
   2.4465838928233038E-006   1.8169017960637597E-005   0.0000000000000000     
   2.4512667612162672E-006   1.8422425754296507E-005   0.0000000000000000     
   2.4556365571571278E-006   1.8676290966821145E-005   0.0000000000000000     
   2.4596800106300384E-006   1.8930605003489788E-005   0.0000000000000000     
   2.4633838516191484E-006   1.9185359269580659E-005   0.0000000000000000     
   2.4667348101086111E-006   1.9440545170372018E-005   0.0000000000000000     
   2.4697196160825771E-006   1.9696154111142128E-005   0.0000000000000000     
   2.4723249995251983E-006   1.9952177497169220E-005   0.0000000000000000     
   2.4745376904206259E-006   2.0208606733731555E-005   0.0000000000000000     
   2.1997529032624324E-006   1.8167698063229719E-005   0.0000000000000000     
   2.2039082434067987E-006   1.8421212620471826E-005   0.0000000000000000     
   2.2077692801486282E-006   1.8675187913329872E-005   0.0000000000000000     
   2.2113267299924640E-006   1.8929612352321134E-005   0.0000000000000000     
   2.2145713094428461E-006   1.9184474347962861E-005   0.0000000000000000     
   2.2174937350043107E-006   1.9439762310772318E-005   0.0000000000000000     
   2.2200847231813992E-006   1.9695464651266760E-005   0.0000000000000000     
   2.2223349904786532E-006   1.9951569779963468E-005   0.0000000000000000     
   2.2242352534006069E-006   2.0208066107379682E-005   0.0000000000000000     
   1.9535945786516142E-006   1.8166539804398130E-005   0.0000000000000000     
   1.9572339894126503E-006   1.8420155855661615E-005   0.0000000000000000     
   1.9606003723855292E-006   1.8674235642850164E-005   0.0000000000000000     
   1.9636885683439250E-006   1.8928763733410487E-005   0.0000000000000000     
   1.9664934180615122E-006   1.9183724694789305E-005   0.0000000000000000     
   1.9690097623119649E-006   1.9439103094433342E-005   0.0000000000000000     
   1.9712324418689581E-006   1.9694883499789317E-005   0.0000000000000000     
   1.9731562975061651E-006   1.9951050478303946E-005   0.0000000000000000     
   1.9747761699972606E-006   2.0207588597423959E-005   0.0000000000000000     
   3.9951559019085109E-006   2.0214357873388049E-005   0.0000000000000000     
   4.0001449355625460E-006   2.0470377778818270E-005   0.0000000000000000     
   4.0048757626390427E-006   2.0726983362287308E-005   0.0000000000000000     
   4.0092834487028730E-006   2.0984422535596777E-005   0.0000000000000000     
   4.0133030593189108E-006   2.1242943210548295E-005   0.0000000000000000     
   4.0168696600520274E-006   2.1502793298943492E-005   0.0000000000000000     
   4.0199183164670965E-006   2.1764220712583979E-005   0.0000000000000000     
   4.0223840941289929E-006   2.2027473363271382E-005   0.0000000000000000     
   4.0242020586025860E-006   2.2292799162807320E-005   0.0000000000000000     
   3.7393834069068422E-006   2.0212995322199496E-005   0.0000000000000000     
   3.7435826463160885E-006   2.0469206525325663E-005   0.0000000000000000     
   3.7474355368953901E-006   2.0726000786241983E-005   0.0000000000000000     
   3.7509205964689841E-006   2.0983590757079352E-005   0.0000000000000000     
   3.7540163428611074E-006   2.1242189089968653E-005   0.0000000000000000     
   3.7567012938959964E-006   2.1502008437040761E-005   0.0000000000000000     
   3.7589539673978902E-006   2.1763261450426563E-005   0.0000000000000000     
   3.7607528811910251E-006   2.2026160782256953E-005   0.0000000000000000     
   3.7620765530996389E-006   2.2290919084662805E-005   0.0000000000000000     
   3.4845713901737343E-006   2.0211822523538456E-005   0.0000000000000000     
   3.4881053113589459E-006   2.0468204357713793E-005   0.0000000000000000     
   3.4912425008795613E-006   2.0725150501077674E-005   0.0000000000000000     
   3.4939942333258032E-006   2.0982832117588389E-005   0.0000000000000000     
   3.4963717832878950E-006   2.1241420371204245E-005   0.0000000000000000     
   3.4983864253560635E-006   2.1501086425883529E-005   0.0000000000000000     
   3.5000494341205297E-006   2.1762001445584547E-005   0.0000000000000000     
   3.5013720841715195E-006   2.2024336594265587E-005   0.0000000000000000     
   3.5023656500992573E-006   2.2288263035884951E-005   0.0000000000000000     
   3.2307003309338737E-006   2.0210818371383035E-005   0.0000000000000000     
   3.2336785056588353E-006   2.0467348582146176E-005   0.0000000000000000     
   3.2362411756220873E-006   2.0724411089606241E-005   0.0000000000000000     
   3.2384230243570984E-006   2.0982131597969497E-005   0.0000000000000000     
   3.2402587353973373E-006   2.1240635811442232E-005   0.0000000000000000     
   3.2417829922762722E-006   2.1500049434230727E-005   0.0000000000000000     
   3.2430304785273720E-006   2.1760498170541279E-005   0.0000000000000000     
   3.2440358776841051E-006   2.2022107724580158E-005   0.0000000000000000     
   3.2448338732799391E-006   2.2285003800553660E-005   0.0000000000000000     
   2.9777507084119456E-006   2.0209961759711346E-005   0.0000000000000000     
   2.9802678041834701E-006   2.0466616504786346E-005   0.0000000000000000     
   2.9823760821534983E-006   2.0723761134639559E-005   0.0000000000000000     
   2.9841256346466385E-006   2.0981474179068275E-005   0.0000000000000000     
   2.9855665539874943E-006   2.1239834167869756E-005   0.0000000000000000     
   2.9867489325006703E-006   2.1498919630841279E-005   0.0000000000000000     
   2.9877228625107739E-006   2.1758809097780125E-005   0.0000000000000000     
   2.9885384363424088E-006   2.2019581098483552E-005   0.0000000000000000     
   2.9892457463201817E-006   2.2281314162748841E-005   0.0000000000000000     
   2.7257030018326344E-006   2.0209231582501482E-005   0.0000000000000000     
   2.7278387819005653E-006   2.0465985431797782E-005   0.0000000000000000     
   2.7295917415043277E-006   2.0723179218989504E-005   0.0000000000000000     
   2.7310207292781914E-006   2.0980844841730336E-005   0.0000000000000000     
   2.7321845938564255E-006   2.1239014197673969E-005   0.0000000000000000     
   2.7331421838733024E-006   2.1497719184474101E-005   0.0000000000000000     
   2.7339523479630909E-006   2.1756991699784429E-005   0.0000000000000000     
   2.7346739347600612E-006   2.2016863641258634E-005   0.0000000000000000     
   2.7353657928984835E-006   2.2277366906550407E-005   0.0000000000000000     
   2.4745376904206259E-006   2.0208606733731555E-005   0.0000000000000000     
   2.4763570137778371E-006   2.0465432669344012E-005   0.0000000000000000     
   2.4778326747051036E-006   2.0722643925467935E-005   0.0000000000000000     
   2.4790269733355240E-006   2.0980228566801281E-005   0.0000000000000000     
   2.4800022098021951E-006   2.1238174658042023E-005   0.0000000000000000     
   2.4808206842382150E-006   2.1496470263888122E-005   0.0000000000000000     
   2.4815446967766807E-006   2.1755103449037552E-005   0.0000000000000000     
   2.4822365475506898E-006   2.2014062278188279E-005   0.0000000000000000     
   2.4829585366933402E-006   2.2273334816038255E-005   0.0000000000000000     
   2.2242352534006069E-006   2.0208066107379682E-005   0.0000000000000000     
   2.2257880747830007E-006   2.0464935523588561E-005   0.0000000000000000     
   2.2270434027863584E-006   2.0722133836886722E-005   0.0000000000000000     
   2.2280630319024066E-006   2.0979610335126724E-005   0.0000000000000000     
   2.2289087566228635E-006   2.1237314306161061E-005   0.0000000000000000     
   2.2296423714394541E-006   2.1495195037842261E-005   0.0000000000000000     
   2.2303256708438987E-006   2.1753201818022851E-005   0.0000000000000000     
   2.2310204493279236E-006   2.2011283934555355E-005   0.0000000000000000     
   2.2317885013832507E-006   2.2269390675292297E-005   0.0000000000000000     
   1.9747761699972606E-006   2.0207588597423959E-005   0.0000000000000000     
   1.9760975398837714E-006   2.0464471300694908E-005   0.0000000000000000     
   1.9771684467786253E-006   2.0721627536057749E-005   0.0000000000000000     
   1.9780475700626050E-006   2.0978975127552254E-005   0.0000000000000000     
   1.9787935891164907E-006   2.1236431899218231E-005   0.0000000000000000     
   1.9794651833210635E-006   2.1493915675095446E-005   0.0000000000000000     
   1.9801210320571040E-006   2.1751344279223693E-005   0.0000000000000000     
   1.9808198147053936E-006   2.2008635535642769E-005   0.0000000000000000     
   1.9816202106467127E-006   2.2265707268392444E-005   0.0000000000000000     
   1.8604356442317786E-006   1.4195633740548687E-005   0.0000000000000000     
   1.8681287151394752E-006   1.4437778303987069E-005   0.0000000000000000     
   1.8755740897017370E-006   1.4680868182125632E-005   0.0000000000000000     
   1.8827717892477072E-006   1.4924873693742320E-005   0.0000000000000000     
   1.8897218351065275E-006   1.5169765157615082E-005   0.0000000000000000     
   1.8964242486073415E-006   1.5415512892521870E-005   0.0000000000000000     
   1.9028790510792916E-006   1.5662087217240639E-005   0.0000000000000000     
   1.9090862638515208E-006   1.5909458450549340E-005   0.0000000000000000     
   1.9150459082531713E-006   1.6157596911225927E-005   0.0000000000000000     
   1.6266520693119352E-006   1.4193440154394899E-005   0.0000000000000000     
   1.6333882105532799E-006   1.4435650118095374E-005   0.0000000000000000     
   1.6399029440388973E-006   1.4678808951624387E-005   0.0000000000000000     
   1.6461973936591182E-006   1.4922886200267997E-005   0.0000000000000000     
   1.6522726833042730E-006   1.5167851409312265E-005   0.0000000000000000     
   1.6581299368646923E-006   1.5413674124043255E-005   0.0000000000000000     
   1.6637702782307066E-006   1.5660323889747022E-005   0.0000000000000000     
   1.6691948312926467E-006   1.5907770251709635E-005   0.0000000000000000     
   1.6744047199408430E-006   1.6155982755217147E-005   0.0000000000000000     
   1.3933601304951421E-006   1.4191537495316637E-005   0.0000000000000000     
   1.3991374766690265E-006   1.4433807407308874E-005   0.0000000000000000     
   1.4047215666329479E-006   1.4677027868965858E-005   0.0000000000000000     
   1.4101141859085495E-006   1.4921168056441798E-005   0.0000000000000000     
   1.4153171200174759E-006   1.5166197145890902E-005   0.0000000000000000     
   1.4203321544813702E-006   1.5412084313467382E-005   0.0000000000000000     
   1.4251610748218777E-006   1.5658798735325457E-005   0.0000000000000000     
   1.4298056665606410E-006   1.5906309587619327E-005   0.0000000000000000     
   1.4342677152193041E-006   1.6154586046503211E-005   0.0000000000000000     
   1.1604895961473690E-006   1.4189926229613433E-005   0.0000000000000000     
   1.1653065450372519E-006   1.4432249635290882E-005   0.0000000000000000     
   1.1699599874112553E-006   1.4675523825764011E-005   0.0000000000000000     
   1.1744519922401108E-006   1.4919717919775082E-005   0.0000000000000000     
   1.1787846284945491E-006   1.5164801036066336E-005   0.0000000000000000     
   1.1829599651453008E-006   1.5410742293380035E-005   0.0000000000000000     
   1.1869800711630969E-006   1.5657510810458438E-005   0.0000000000000000     
   1.1908470155186688E-006   1.5905075706043791E-005   0.0000000000000000     
   1.1945628671827476E-006   1.6153406098878347E-005   0.0000000000000000     
   9.2797023463458445E-007   1.4188606823584824E-005   0.0000000000000000     
   9.3182544720849134E-007   1.4430976265704704E-005   0.0000000000000000     
   9.3554823630118770E-007   1.4674295713632821E-005   0.0000000000000000     
   9.3914063889791259E-007   1.4918534447779210E-005   0.0000000000000000     
   9.4260469198390644E-007   1.5163661748553920E-005   0.0000000000000000     
   9.4594243254440882E-007   1.5409646896366994E-005   0.0000000000000000     
   9.4915589756465954E-007   1.5656459171628468E-005   0.0000000000000000     
   9.5224712402989837E-007   1.5904067854748383E-005   0.0000000000000000     
   9.5521814892536502E-007   1.6152442226136783E-005   0.0000000000000000     
   6.9573181432275837E-007   1.4187579743530346E-005   0.0000000000000000     
   6.9862421473328207E-007   1.4429986762213647E-005   0.0000000000000000     
   7.0141634323011181E-007   1.4673342424186248E-005   0.0000000000000000     
   7.0410995212606546E-007   1.4917616297965564E-005   0.0000000000000000     
   7.0670679373396190E-007   1.5162777952069011E-005   0.0000000000000000     
   7.0920862036662016E-007   1.5408796955014039E-005   0.0000000000000000     
   7.1161718433685809E-007   1.5655642875318045E-005   0.0000000000000000     
   7.1393423795749500E-007   1.5903285281498481E-005   0.0000000000000000     
   7.1616153354134938E-007   1.6151693742072759E-005   0.0000000000000000     
   4.6370410357785960E-007   1.4186845455749532E-005   0.0000000000000000     
   4.6563287916216042E-007   1.4429280588481039E-005   0.0000000000000000     
   4.6749433812539505E-007   1.4672662849038266E-005   0.0000000000000000     
   4.6928975816867942E-007   1.4916962127845485E-005   0.0000000000000000     
   4.7102041699312910E-007   1.5162148315326957E-005   0.0000000000000000     
   4.7268759229985970E-007   1.5408191301906928E-005   0.0000000000000000     
   4.7429256178998673E-007   1.5655060978009675E-005   0.0000000000000000     
   4.7583660316462606E-007   1.5902727234059449E-005   0.0000000000000000     
   4.7732099412489310E-007   1.6151159960480502E-005   0.0000000000000000     
   2.3181687076585804E-007   1.4186404426541929E-005   0.0000000000000000     
   2.3278147204566224E-007   1.4428857208170159E-005   0.0000000000000000     
   2.3371225091440486E-007   1.4672255879802835E-005   0.0000000000000000     
   2.3460988326986497E-007   1.4916570594930357E-005   0.0000000000000000     
   2.3547504500982136E-007   1.5161771507043111E-005   0.0000000000000000     
   2.3630841203205298E-007   1.5407828769631478E-005   0.0000000000000000     
   2.3711066023433883E-007   1.5654712536185866E-005   0.0000000000000000     
   2.3788246551445767E-007   1.5902392960196658E-005   0.0000000000000000     
   2.3862450377018861E-007   1.6150840195154240E-005   0.0000000000000000     
  -1.1574727712954764E-013   1.4186257122207070E-005   0.0000000000000000     
   2.4934324120572560E-014   1.4428716084944335E-005   0.0000000000000000     
   1.1152450848223119E-013   1.4672120408093934E-005   0.0000000000000000     
   1.5367373228178828E-013   1.4916440356731534E-005   0.0000000000000000     
   1.6103245240808672E-013   1.5161646195932808E-005   0.0000000000000000     
   1.4325112535623137E-013   1.5407708190773443E-005   0.0000000000000000     
   1.0998020805642414E-013   1.5654596606329108E-005   0.0000000000000000     
   7.0870156682617045E-014   1.5902281707675461E-005   0.0000000000000000     
   3.5571428352575173E-014   1.6150733759888207E-005   0.0000000000000000     
   1.9150459082531713E-006   1.6157596911225927E-005   0.0000000000000000     
   1.9207575786935213E-006   1.6406472482050617E-005   0.0000000000000000     
   1.9262191619023868E-006   1.6656053301812712E-005   0.0000000000000000     
   1.9314281176897161E-006   1.6906307073303760E-005   0.0000000000000000     
   1.9363819058654620E-006   1.7157201499315336E-005   0.0000000000000000     
   1.9410779862395747E-006   1.7408704282638997E-005   0.0000000000000000     
   1.9455138186220036E-006   1.7660783126066304E-005   0.0000000000000000     
   1.9496868628227004E-006   1.7913405732388831E-005   0.0000000000000000     
   1.9535945786516142E-006   1.8166539804398130E-005   0.0000000000000000     
   1.6744047199408430E-006   1.6155982755217147E-005   0.0000000000000000     
   1.6794002043749193E-006   1.6404930814687532E-005   0.0000000000000000     
   1.6841780900316712E-006   1.6654583321066383E-005   0.0000000000000000     
   1.6887343186571885E-006   1.6904909034431214E-005   0.0000000000000000     
   1.6930648319975598E-006   1.7155876714859514E-005   0.0000000000000000     
   1.6971655717988742E-006   1.7407455122428800E-005   0.0000000000000000     
   1.7010324798072206E-006   1.7659613017216580E-005   0.0000000000000000     
   1.7046614977686887E-006   1.7912319159300348E-005   0.0000000000000000     
   1.7080485674293668E-006   1.8165542308757613E-005   0.0000000000000000     
   1.4342677152193041E-006   1.6154586046503211E-005   0.0000000000000000     
   1.4385479016693751E-006   1.6403597364793216E-005   0.0000000000000000     
   1.4426424881818111E-006   1.6653313101953040E-005   0.0000000000000000     
   1.4465466323774343E-006   1.6903702894108295E-005   0.0000000000000000     
   1.4502554918770655E-006   1.7154736377384568E-005   0.0000000000000000     
   1.4537642243015259E-006   1.7406383187907463E-005   0.0000000000000000     
   1.4570679872716378E-006   1.7658612961802595E-005   0.0000000000000000     
   1.4601619384082222E-006   1.7911395335195544E-005   0.0000000000000000     
   1.4630412353321000E-006   1.8164699944211929E-005   0.0000000000000000     
   1.1945628671827476E-006   1.6153406098878347E-005   0.0000000000000000     
   1.1981285174060073E-006   1.6402471311801808E-005   0.0000000000000000     
   1.2015401465589003E-006   1.6652241484043637E-005   0.0000000000000000     
   1.2047927572918210E-006   1.6902686958930731E-005   0.0000000000000000     
   1.2078813522551662E-006   1.7153778079790014E-005   0.0000000000000000     
   1.2108009340993306E-006   1.7405485189948369E-005   0.0000000000000000     
   1.2135465054747094E-006   1.7657778632732723E-005   0.0000000000000000     
   1.2161130690316985E-006   1.7910628751469966E-005   0.0000000000000000     
   1.2184956274206933E-006   1.8164005889487016E-005   0.0000000000000000     
   9.5521814892536502E-007   1.6152442226136783E-005   0.0000000000000000     
   9.5806989841393595E-007   1.6401551835147454E-005   0.0000000000000000     
   9.6079885536903421E-007   1.6651367306909125E-005   0.0000000000000000     
   9.6340039184171887E-007   1.6901859535494276E-005   0.0000000000000000     
   9.6586987988305010E-007   1.7152999414975380E-005   0.0000000000000000     
   9.6820269154408698E-007   1.7404757839424913E-005   0.0000000000000000     
   9.7039419887588922E-007   1.7657105702915351E-005   0.0000000000000000     
   9.7243977392951634E-007   1.7910013899519180E-005   0.0000000000000000     
   9.7433478875602743E-007   1.8163453323308849E-005   0.0000000000000000     
   7.1616153354134938E-007   1.6151693742072759E-005   0.0000000000000000     
   7.1829989152227998E-007   1.6400838114264299E-005   0.0000000000000000     
   7.2034640481830847E-007   1.6650689410120471E-005   0.0000000000000000     
   7.2229723446849623E-007   1.6901218930394660E-005   0.0000000000000000     
   7.2414854151190509E-007   1.7152397975840204E-005   0.0000000000000000     
   7.2589648698759655E-007   1.7404197847210492E-005   0.0000000000000000     
   7.2753723193463244E-007   1.7656589845258880E-005   0.0000000000000000     
   7.2906693739207383E-007   1.7909545270738721E-005   0.0000000000000000     
   7.3048176439898328E-007   1.8163035424403403E-005   0.0000000000000000     
   4.7732099412489310E-007   1.6151159960480502E-005   0.0000000000000000     
   4.7874634356015924E-007   1.6400329328586492E-005   0.0000000000000000     
   4.8011058511281900E-007   1.6650206633248657E-005   0.0000000000000000     
   4.8141098361352204E-007   1.6900763450227618E-005   0.0000000000000000     
   4.8264480389291857E-007   1.7151971355284018E-005   0.0000000000000000     
   4.8380931078165908E-007   1.7403801924178499E-005   0.0000000000000000     
   4.8490176911039261E-007   1.7656226732671661E-005   0.0000000000000000     
   4.8591944370977019E-007   1.7909217356524168E-005   0.0000000000000000     
   4.8685959941044128E-007   1.8162745371496638E-005   0.0000000000000000     
   2.3862450377018861E-007   1.6150840195154240E-005   0.0000000000000000     
   2.3933710135669255E-007   1.6400024657548161E-005   0.0000000000000000     
   2.4001918645866036E-007   1.6649917815864602E-005   0.0000000000000000     
   2.4066933771816469E-007   1.6900491401588892E-005   0.0000000000000000     
   2.4128613377727810E-007   1.7151717146206347E-005   0.0000000000000000     
   2.4186815327807399E-007   1.7403566781202313E-005   0.0000000000000000     
   2.4241397486262452E-007   1.7656012038062104E-005   0.0000000000000000     
   2.4292217717300284E-007   1.7909024648271055E-005   0.0000000000000000     
   2.4339133885128161E-007   1.8162576343314501E-005   0.0000000000000000     
   3.5571428352575173E-014   1.6150733759888207E-005   0.0000000000000000     
   1.1740999609491870E-014   1.6399923280583467E-005   0.0000000000000000     
  -9.3807136021092290E-016   1.6649821797539303E-005   0.0000000000000000     
  -4.7762067004579410E-015   1.6900401091074213E-005   0.0000000000000000     
  -2.0838283053653752E-015   1.7151632941506721E-005   0.0000000000000000     
   4.8286419673465306E-015   1.7403489129155337E-005   0.0000000000000000     
   1.3650782208672335E-014   1.7655941434338577E-005   0.0000000000000000     
   2.2072170507719589E-014   1.7908961637374950E-005   0.0000000000000000     
   2.7782385002502900E-014   1.8162521518582984E-005   0.0000000000000000     
   1.9535945786516142E-006   1.8166539804398130E-005   0.0000000000000000     
   1.9572339894126503E-006   1.8420155855661615E-005   0.0000000000000000     
   1.9606003723855292E-006   1.8674235642850164E-005   0.0000000000000000     
   1.9636885683439250E-006   1.8928763733410487E-005   0.0000000000000000     
   1.9664934180615122E-006   1.9183724694789305E-005   0.0000000000000000     
   1.9690097623119649E-006   1.9439103094433342E-005   0.0000000000000000     
   1.9712324418689581E-006   1.9694883499789317E-005   0.0000000000000000     
   1.9731562975061651E-006   1.9951050478303946E-005   0.0000000000000000     
   1.9747761699972606E-006   2.0207588597423959E-005   0.0000000000000000     
   1.7080485674293668E-006   1.8165542308757613E-005   0.0000000000000000     
   1.7111899801727463E-006   1.8419253112863569E-005   0.0000000000000000     
   1.7140834259319268E-006   1.8673429767684147E-005   0.0000000000000000     
   1.7167269442774079E-006   1.8928052356482955E-005   0.0000000000000000     
   1.7191185747796907E-006   1.9183100962523622E-005   0.0000000000000000     
   1.7212563570092764E-006   1.9438555669069774E-005   0.0000000000000000     
   1.7231383305366659E-006   1.9694396559385015E-005   0.0000000000000000     
   1.7247625349323588E-006   1.9950603716732971E-005   0.0000000000000000     
   1.7261270097668570E-006   2.0207157224377250E-005   0.0000000000000000     
   1.4630412353321000E-006   1.8164699944211929E-005   0.0000000000000000     
   1.4657018788868035E-006   1.8418497358338727E-005   0.0000000000000000     
   1.4681432428067058E-006   1.8672761880508508E-005   0.0000000000000000     
   1.4703655440488908E-006   1.8927468747015236E-005   0.0000000000000000     
   1.4723689995704428E-006   1.9182593194152859E-005   0.0000000000000000     
   1.4741538263284453E-006   1.9438110458215334E-005   0.0000000000000000     
   1.4757202412799827E-006   1.9693995775496622E-005   0.0000000000000000     
   1.4770684613821381E-006   1.9950224382290675E-005   0.0000000000000000     
   1.4781987035919959E-006   2.0206771514891449E-005   0.0000000000000000     
   1.2184956274206933E-006   1.8164005889487016E-005   0.0000000000000000     
   1.2206902693197348E-006   1.8417880386663948E-005   0.0000000000000000     
   1.2226974275174465E-006   1.8672222569093577E-005   0.0000000000000000     
   1.2245186208300975E-006   1.8927002759421886E-005   0.0000000000000000     
   1.2261553680739573E-006   1.9182191280294867E-005   0.0000000000000000     
   1.2276091880652939E-006   1.9437758454358492E-005   0.0000000000000000     
   1.2288815996203778E-006   1.9693674604258776E-005   0.0000000000000000     
   1.2299741215554767E-006   1.9949910052641676E-005   0.0000000000000000     
   1.2308882726868605E-006   2.0206435122153199E-005   0.0000000000000000     
   9.7433478875602743E-007   1.8163453323308849E-005   0.0000000000000000     
   9.7607573523645626E-007   1.8417393992416105E-005   0.0000000000000000     
   9.7766358457173073E-007   1.8671802421209659E-005   0.0000000000000000     
   9.7910042779275236E-007   1.8926644248117468E-005   0.0000000000000000     
   9.8038835593042310E-007   1.9181885111567510E-005   0.0000000000000000     
   9.8152946001564531E-007   1.9437490649987735E-005   0.0000000000000000     
   9.8252583107931989E-007   1.9693426501806104E-005   0.0000000000000000     
   9.8337956015234920E-007   1.9949658305450592E-005   0.0000000000000000     
   9.8409273826563498E-007   2.0206151699349171E-005   0.0000000000000000     
   7.3048176439898328E-007   1.8163035424403403E-005   0.0000000000000000     
   7.3177886040188293E-007   1.8417029970172082E-005   0.0000000000000000     
   7.3295931847713920E-007   1.8671492024627084E-005   0.0000000000000000     
   7.3402521810857944E-007   1.8926383067516565E-005   0.0000000000000000     
   7.3497863878003144E-007   1.9181664578588665E-005   0.0000000000000000     
   7.3582165997532203E-007   1.9437298037591521E-005   0.0000000000000000     
   7.3655636117827932E-007   1.9693244924273262E-005   0.0000000000000000     
   7.3718482187273024E-007   1.9949466718382052E-005   0.0000000000000000     
   7.3770912154250226E-007   2.0205924899666001E-005   0.0000000000000000     
   4.8685959941044128E-007   1.8162745371496638E-005   0.0000000000000000     
   4.8772022858092972E-007   1.8416780114508715E-005   0.0000000000000000     
   4.8850223374125305E-007   1.8671281967116154E-005   0.0000000000000000     
   4.8920724494930300E-007   1.8926209072033731E-005   0.0000000000000000     
   4.8983689226297064E-007   1.9181519571976194E-005   0.0000000000000000     
   4.9039280574014729E-007   1.9437171609658321E-005   0.0000000000000000     
   4.9087661543872465E-007   1.9693123327794879E-005   0.0000000000000000     
   4.9128995141659371E-007   1.9949332869100632E-005   0.0000000000000000     
   4.9163444373164555E-007   2.0205758376290339E-005   0.0000000000000000     
   2.4339133885128161E-007   1.8162576343314501E-005   0.0000000000000000     
   2.4382042353851149E-007   1.8416636220002901E-005   0.0000000000000000     
   2.4420993487165367E-007   1.8671162836447208E-005   0.0000000000000000     
   2.4456076148664708E-007   1.8926112116083525E-005   0.0000000000000000     
   2.4487379201943087E-007   1.9181439982347981E-005   0.0000000000000000     
   2.4514991510594392E-007   1.9437102358676626E-005   0.0000000000000000     
   2.4539001938212538E-007   1.9693055168505590E-005   0.0000000000000000     
   2.4559499348391408E-007   1.9949254335270972E-005   0.0000000000000000     
   2.4576572604724905E-007   2.0205655782408839E-005   0.0000000000000000     
   2.7782385002502900E-014   1.8162521518582984E-005   0.0000000000000000     
   2.9039543262622179E-014   1.8416590081231488E-005   0.0000000000000000     
   2.6375921641051980E-014   1.8671125220390549E-005   0.0000000000000000     
   2.0892335749807459E-014   1.8926082054080545E-005   0.0000000000000000     
   1.3689601475527732E-014   1.9181415700321867E-005   0.0000000000000000     
   5.8685345609224907E-015   1.9437081277134901E-005   0.0000000000000000     
  -1.4700491871920761E-015   1.9693033902540039E-005   0.0000000000000000     
  -7.2253340912984495E-015   1.9949228694557664E-005   0.0000000000000000     
  -1.0296504283420775E-014   2.0205620771208157E-005   0.0000000000000000     
   1.9747761699972606E-006   2.0207588597423959E-005   0.0000000000000000     
   1.9760975398837714E-006   2.0464471300694908E-005   0.0000000000000000     
   1.9771684467786253E-006   2.0721627536057749E-005   0.0000000000000000     
   1.9780475700626050E-006   2.0978975127552254E-005   0.0000000000000000     
   1.9787935891164907E-006   2.1236431899218231E-005   0.0000000000000000     
   1.9794651833210635E-006   2.1493915675095446E-005   0.0000000000000000     
   1.9801210320571040E-006   2.1751344279223693E-005   0.0000000000000000     
   1.9808198147053936E-006   2.2008635535642769E-005   0.0000000000000000     
   1.9816202106467127E-006   2.2265707268392444E-005   0.0000000000000000     
   1.7261270097668570E-006   2.0207157224377250E-005   0.0000000000000000     
   1.7272391387075809E-006   2.0464023034402632E-005   0.0000000000000000     
   1.7281436818096303E-006   2.0721110574178496E-005   0.0000000000000000     
   1.7288947432250251E-006   2.0978315139895375E-005   0.0000000000000000     
   1.7295464271057850E-006   2.1235532027743810E-005   0.0000000000000000     
   1.7301528376039301E-006   2.1492656533914341E-005   0.0000000000000000     
   1.7307680788714798E-006   2.1749583954597498E-005   0.0000000000000000     
   1.7314462550604547E-006   2.2006209585983807E-005   0.0000000000000000     
   1.7322414703228743E-006   2.2262428724263814E-005   0.0000000000000000     
   1.4781987035919959E-006   2.0206771514891449E-005   0.0000000000000000     
   1.4791192195207322E-006   2.0463596668755396E-005   0.0000000000000000     
   1.4798703993958925E-006   2.0720596375988949E-005   0.0000000000000000     
   1.4805006680991153E-006   2.0977651427861051E-005   0.0000000000000000     
   1.4810584505120381E-006   2.1234642615640636E-005   0.0000000000000000     
   1.4815921715162992E-006   2.1491450730596626E-005   0.0000000000000000     
   1.4821502559935360E-006   2.1747956563997978E-005   0.0000000000000000     
   1.4827811288253870E-006   2.2004040907113598E-005   0.0000000000000000     
   1.4835332148934902E-006   2.2259584551212429E-005   0.0000000000000000     
   1.2308882726868605E-006   2.0206435122153199E-005   0.0000000000000000     
   1.2316322852492448E-006   2.0463203875372910E-005   0.0000000000000000     
   1.2322412451511296E-006   2.0720105334614730E-005   0.0000000000000000     
   1.2327569517194614E-006   2.0977012262126142E-005   0.0000000000000000     
   1.2332212042811874E-006   2.1233797420154649E-005   0.0000000000000000     
   1.2336758021632542E-006   2.1490333570947735E-005   0.0000000000000000     
   1.2341625446926083E-006   2.1746493476752911E-005   0.0000000000000000     
   1.2347232311961971E-006   2.2002149899817680E-005   0.0000000000000000     
   1.2353996610009673E-006   2.2257175602389526E-005   0.0000000000000000     
   9.8409273826563498E-007   2.0206151699349171E-005   0.0000000000000000     
   9.8467283881913784E-007   2.0462856325874910E-005   0.0000000000000000     
   9.8514886468905655E-007   2.0719657843181438E-005   0.0000000000000000     
   9.8555520112064836E-007   2.0976425913367489E-005   0.0000000000000000     
   9.8592623335917006E-007   2.1233030198531787E-005   0.0000000000000000     
   9.8629634664987996E-007   2.1489340360773088E-005   0.0000000000000000     
   9.8669992623803506E-007   2.1745226062190112E-005   0.0000000000000000     
   9.8717135736889261E-007   2.2000556964881614E-005   0.0000000000000000     
   9.8774502528771024E-007   2.2255202730946318E-005   0.0000000000000000     
   7.3770912154250226E-007   2.0205924899666001E-005   0.0000000000000000     
   7.3813538315643174E-007   2.0462565691881103E-005   0.0000000000000000     
   7.3848590362339105E-007   2.0719274294814695E-005   0.0000000000000000     
   7.3878702333726148E-007   2.0975920652261944E-005   0.0000000000000000     
   7.3906508269192439E-007   2.1232374708018014E-005   0.0000000000000000     
   7.3934642208126106E-007   2.1488506405878106E-005   0.0000000000000000     
   7.3965738189915276E-007   2.1744185689637353E-005   0.0000000000000000     
   7.4002430253948054E-007   2.1999282503090955E-005   0.0000000000000000     
   7.4047352439612590E-007   2.2253666790034064E-005   0.0000000000000000     
   4.9163444373164555E-007   2.0205758376290339E-005   0.0000000000000000     
   4.9191442118714527E-007   2.0462343645011205E-005   0.0000000000000000     
   4.9214500756784910E-007   2.0718975082640103E-005   0.0000000000000000     
   4.9234402540388655E-007   2.0975524749486361E-005   0.0000000000000000     
   4.9252929722538776E-007   2.1231864705859291E-005   0.0000000000000000     
   4.9271864556248180E-007   2.1487867012068208E-005   0.0000000000000000     
   4.9292989294529860E-007   2.1743403728422416E-005   0.0000000000000000     
   4.9318086190396809E-007   2.1998346915231237E-005   0.0000000000000000     
   4.9348937496861935E-007   2.2252568632803983E-005   0.0000000000000000     
   2.4576572604724905E-007   2.0205655782408839E-005   0.0000000000000000     
   2.4590445583729865E-007   2.0462201856884921E-005   0.0000000000000000     
   2.4601882213614709E-007   2.0718780599783279E-005   0.0000000000000000     
   2.4611781435510887E-007   2.0975266475717602E-005   0.0000000000000000     
   2.4621042190549741E-007   2.1231533949301563E-005   0.0000000000000000     
   2.4630563419862656E-007   2.1487457485148830E-005   0.0000000000000000     
   2.4641244064581043E-007   2.1742911547873089E-005   0.0000000000000000     
   2.4653983065836266E-007   2.1997770602088023E-005   0.0000000000000000     
   2.4669679364759736E-007   2.2251909112407307E-005   0.0000000000000000     
  -1.0296504283420775E-014   2.0205620771208157E-005   0.0000000000000000     
  -9.9670891203572982E-015   2.0462151999121977E-005   0.0000000000000000     
  -7.0579982010144730E-015   2.0718711239369833E-005   0.0000000000000000     
  -2.7744866422566822E-015   2.0975174101632503E-005   0.0000000000000000     
   1.6781910222140229E-015   2.1231416195590768E-005   0.0000000000000000     
   5.0947799580154385E-015   2.1487313130925401E-005   0.0000000000000000     
   6.2700251828034286E-015   2.1742740517317177E-005   0.0000000000000000     
   3.9986719856395709E-015   2.1997573964446873E-005   0.0000000000000000     
  -2.9245345104193657E-015   2.2251689081995285E-005   0.0000000000000000     
  -1.1574727712954764E-013   1.4186257122207070E-005   0.0000000000000000     
   2.4934324120572560E-014   1.4428716084944335E-005   0.0000000000000000     
   1.1152450848223119E-013   1.4672120408093934E-005   0.0000000000000000     
   1.5367373228178828E-013   1.4916440356731534E-005   0.0000000000000000     
   1.6103245240808672E-013   1.5161646195932808E-005   0.0000000000000000     
   1.4325112535623137E-013   1.5407708190773443E-005   0.0000000000000000     
   1.0998020805642414E-013   1.5654596606329108E-005   0.0000000000000000     
   7.0870156682617045E-014   1.5902281707675461E-005   0.0000000000000000     
   3.5571428352575173E-014   1.6150733759888207E-005   0.0000000000000000     
  -2.3181708857993116E-007   1.4186403860557204E-005   0.0000000000000000     
  -2.3278142977363184E-007   1.4428856865401754E-005   0.0000000000000000     
  -2.3371204819369598E-007   1.4672255697150666E-005   0.0000000000000000     
  -2.3460960199366924E-007   1.4916570519099351E-005   0.0000000000000000     
  -2.3547474932709792E-007   1.5161771494543200E-005   0.0000000000000000     
  -2.3630814834752746E-007   1.5407828786777610E-005   0.0000000000000000     
  -2.3711045720850370E-007   1.5654712559097989E-005   0.0000000000000000     
  -2.3788233406357295E-007   1.5902392974799729E-005   0.0000000000000000     
  -2.3862443706628049E-007   1.6150840197178236E-005   0.0000000000000000     
  -4.6370428428790722E-007   1.4186844365455455E-005   0.0000000000000000     
  -4.6563285628924196E-007   1.4429279927880109E-005   0.0000000000000000     
  -4.6749418869668646E-007   1.4672662496712763E-005   0.0000000000000000     
  -4.6928954557853598E-007   1.4916961981240030E-005   0.0000000000000000     
  -4.7102019100308510E-007   1.5162148290748502E-005   0.0000000000000000     
  -4.7268738903862807E-007   1.5408191334524788E-005   0.0000000000000000     
  -4.7429240375346066E-007   1.5655061021855492E-005   0.0000000000000000     
  -4.7583649921587679E-007   1.5902727262027216E-005   0.0000000000000000     
  -4.7732093949417152E-007   1.6151159964326570E-005   0.0000000000000000     
  -6.9573194041136356E-007   1.4187578212277667E-005   0.0000000000000000     
  -6.9862421797585654E-007   1.4429985833651988E-005   0.0000000000000000     
  -7.0141626851771067E-007   1.4673341928145100E-005   0.0000000000000000     
  -7.0410983654512474E-007   1.4917616090698756E-005   0.0000000000000000     
  -7.0670666656629815E-007   1.5162777916254728E-005   0.0000000000000000     
  -7.0920850308942948E-007   1.5408796999754780E-005   0.0000000000000000     
  -7.1161709062271813E-007   1.5655642936140672E-005   0.0000000000000000     
  -7.1393417367436341E-007   1.5903285320354176E-005   0.0000000000000000     
  -7.1616149675256400E-007   1.6151693747337048E-005   0.0000000000000000     
  -9.2797029449045746E-007   1.4188604976399669E-005   0.0000000000000000     
  -9.3182547819682622E-007   1.4430975143989973E-005   0.0000000000000000     
  -9.3554824619001519E-007   1.4674295112812534E-005   0.0000000000000000     
  -9.3914063435769254E-007   1.4918534195020718E-005   0.0000000000000000     
  -9.4260467858752620E-007   1.5163661702767885E-005   0.0000000000000000     
  -9.4594241476718319E-007   1.5409646948207389E-005   0.0000000000000000     
  -9.4915587878433270E-007   1.5656459243492587E-005   0.0000000000000000     
  -9.5224710652664173E-007   1.5904067900776851E-005   0.0000000000000000     
  -9.5521813388177718E-007   1.6152442232213523E-005   0.0000000000000000     
  -1.1604895840653474E-006   1.4189924233197307E-005   0.0000000000000000     
  -1.1653066003155008E-006   1.4432248420166631E-005   0.0000000000000000     
  -1.1699600802468481E-006   1.4675523172079952E-005   0.0000000000000000     
  -1.1744520984804968E-006   1.4919717641751108E-005   0.0000000000000000     
  -1.1787847296375588E-006   1.5164800981993981E-005   0.0000000000000000     
  -1.1829600483391432E-006   1.5410742345622432E-005   0.0000000000000000     
  -1.1869801292063599E-006   1.5657510885450307E-005   0.0000000000000000     
  -1.1908470468603187E-006   1.5905075754291492E-005   0.0000000000000000     
  -1.1945628759221297E-006   1.6153406104959820E-005   0.0000000000000000     
  -1.3933600466761906E-006   1.4191535558046416E-005   0.0000000000000000     
  -1.3991375476952315E-006   1.4433806223454558E-005   0.0000000000000000     
  -1.4047217292214553E-006   1.4677027227312209E-005   0.0000000000000000     
  -1.4101143883777951E-006   1.4921167778435113E-005   0.0000000000000000     
  -1.4153173222871850E-006   1.5166197085639025E-005   0.0000000000000000     
  -1.4203323280725604E-006   1.5412084357739704E-005   0.0000000000000000     
  -1.4251612028568549E-006   1.5658798803552890E-005   0.0000000000000000     
  -1.4298057437630035E-006   1.5906309631894339E-005   0.0000000000000000     
  -1.4342677479139413E-006   1.6154586051579805E-005   0.0000000000000000     
  -1.6266519198631452E-006   1.4193438526322832E-005   0.0000000000000000     
  -1.6333882836993689E-006   1.4435649115126326E-005   0.0000000000000000     
  -1.6399031516470850E-006   1.4678808399874188E-005   0.0000000000000000     
  -1.6461976635138429E-006   1.4922885952617915E-005   0.0000000000000000     
  -1.6522729591071938E-006   1.5167851345409025E-005   0.0000000000000000     
  -1.6581301782346875E-006   1.5413674150299017E-005   0.0000000000000000     
  -1.6637704607038743E-006   1.5660323939339389E-005   0.0000000000000000     
  -1.6691949463223046E-006   1.5907770284581649E-005   0.0000000000000000     
  -1.6744047748975296E-006   1.6155982758077303E-005   0.0000000000000000     
  -1.8604354411663695E-006   1.4195632713402398E-005   0.0000000000000000     
  -1.8681287716912634E-006   1.4437777656454511E-005   0.0000000000000000     
  -1.8755743060569846E-006   1.4680867811130753E-005   0.0000000000000000     
  -1.8827720833528994E-006   1.4924873511844715E-005   0.0000000000000000     
  -1.8897221426683740E-006   1.5169765093009983E-005   0.0000000000000000     
  -1.8964245230927769E-006   1.5415512889040172E-005   0.0000000000000000     
  -1.9028792637154729E-006   1.5662087234348864E-005   0.0000000000000000     
  -1.9090864036258298E-006   1.5909458463349664E-005   0.0000000000000000     
  -1.9150459819132156E-006   1.6157596910456167E-005   0.0000000000000000     
   3.5571428352575173E-014   1.6150733759888207E-005   0.0000000000000000     
   1.1740999609491870E-014   1.6399923280583467E-005   0.0000000000000000     
  -9.3807136021092290E-016   1.6649821797539303E-005   0.0000000000000000     
  -4.7762067004579410E-015   1.6900401091074213E-005   0.0000000000000000     
  -2.0838283053653752E-015   1.7151632941506721E-005   0.0000000000000000     
   4.8286419673465306E-015   1.7403489129155337E-005   0.0000000000000000     
   1.3650782208672335E-014   1.7655941434338577E-005   0.0000000000000000     
   2.2072170507719589E-014   1.7908961637374950E-005   0.0000000000000000     
   2.7782385002502900E-014   1.8162521518582984E-005   0.0000000000000000     
  -2.3862443706628049E-007   1.6150840197178236E-005   0.0000000000000000     
  -2.3933707848624272E-007   1.6400024650735306E-005   0.0000000000000000     
  -2.4001918705735680E-007   1.6649917804798330E-005   0.0000000000000000     
  -2.4066934562958964E-007   1.6900491389901121E-005   0.0000000000000000     
  -2.4128613705290883E-007   1.7151717136577470E-005   0.0000000000000000     
  -2.4186814417728153E-007   1.7403566775361174E-005   0.0000000000000000     
  -2.4241394985267486E-007   1.7656012036786042E-005   0.0000000000000000     
  -2.4292213692905626E-007   1.7909024651385863E-005   0.0000000000000000     
  -2.4339128825639303E-007   1.8162576349694434E-005   0.0000000000000000     
  -4.7732093949417152E-007   1.6151159964326570E-005   0.0000000000000000     
  -4.7874632263812759E-007   1.6400329315481550E-005   0.0000000000000000     
  -4.8011058262347853E-007   1.6650206611985792E-005   0.0000000000000000     
  -4.8141098740744667E-007   1.6900763427774313E-005   0.0000000000000000     
  -4.8264480494725266E-007   1.7151971336782121E-005   0.0000000000000000     
  -4.8380930320011916E-007   1.7403801912944254E-005   0.0000000000000000     
  -4.8490175012326723E-007   1.7656226730195750E-005   0.0000000000000000     
  -4.8591941367391920E-007   1.7909217362471603E-005   0.0000000000000000     
  -4.8685956180929604E-007   1.8162745383706858E-005   0.0000000000000000     
  -7.1616149675256400E-007   1.6151693747337048E-005   0.0000000000000000     
  -7.1829987405619019E-007   1.6400838095908871E-005   0.0000000000000000     
  -7.2034639854679563E-007   1.6650689380400406E-005   0.0000000000000000     
  -7.2229723287660559E-007   1.6901218899020258E-005   0.0000000000000000     
  -7.2414853969784491E-007   1.7152397949977005E-005   0.0000000000000000     
  -7.2589648166273833E-007   1.7404197831479227E-005   0.0000000000000000     
  -7.2753722142351080E-007   1.7656589841735515E-005   0.0000000000000000     
  -7.2906692163238718E-007   1.7909545278954453E-005   0.0000000000000000     
  -7.3048174494159241E-007   1.8163035441344621E-005   0.0000000000000000     
  -9.5521813388177718E-007   1.6152442232213523E-005   0.0000000000000000     
  -9.5806988608196654E-007   1.6401551813103896E-005   0.0000000000000000     
  -9.6079884573766714E-007   1.6651367271340917E-005   0.0000000000000000     
  -9.6340038480389618E-007   1.6901859497965475E-005   0.0000000000000000     
  -9.6586987523567043E-007   1.7152999384018454E-005   0.0000000000000000     
  -9.6820268898800624E-007   1.7404757820540727E-005   0.0000000000000000     
  -9.7039419801592081E-007   1.7657105698573172E-005   0.0000000000000000     
  -9.7243977427443028E-007   1.7910013909156687E-005   0.0000000000000000     
  -9.7433478971855184E-007   1.8163453343332135E-005   0.0000000000000000     
  -1.1945628759221297E-006   1.6153406104959820E-005   0.0000000000000000     
  -1.1981285120569906E-006   1.6402471288153261E-005   0.0000000000000000     
  -1.2015401351064507E-006   1.6652241446106031E-005   0.0000000000000000     
  -1.2047927459561458E-006   1.6902686918936434E-005   0.0000000000000000     
  -1.2078813454917137E-006   1.7153778046762783E-005   0.0000000000000000     
  -1.2108009345987908E-006   1.7405485169703387E-005   0.0000000000000000     
  -1.2135465141630130E-006   1.7657778627876554E-005   0.0000000000000000     
  -1.2161130850700177E-006   1.7910628761400580E-005   0.0000000000000000     
  -1.2184956482054419E-006   1.8164005910393795E-005   0.0000000000000000     
  -1.4342677479139413E-006   1.6154586051579805E-005   0.0000000000000000     
  -1.4385479053227995E-006   1.6403597342143630E-005   0.0000000000000000     
  -1.4426424775635060E-006   1.6653313065994486E-005   0.0000000000000000     
  -1.4465466191001846E-006   1.6903702856259634E-005   0.0000000000000000     
  -1.4502554843969599E-006   1.7154736346066331E-005   0.0000000000000000     
  -1.4537642279179581E-006   1.7406383168541864E-005   0.0000000000000000     
  -1.4570680041273029E-006   1.7658612956813469E-005   0.0000000000000000     
  -1.4601619674891188E-006   1.7911395344008414E-005   0.0000000000000000     
  -1.4630412724675313E-006   1.8164699963253972E-005   0.0000000000000000     
  -1.6744047748975296E-006   1.6155982758077303E-005   0.0000000000000000     
  -1.6794002192209280E-006   1.6404930796161637E-005   0.0000000000000000     
  -1.6841780840191910E-006   1.6654583292305004E-005   0.0000000000000000     
  -1.6887343070028395E-006   1.6904909004261551E-005   0.0000000000000000     
  -1.6930648258823948E-006   1.7155876689785438E-005   0.0000000000000000     
  -1.6971655783683760E-006   1.7407455106630785E-005   0.0000000000000000     
  -1.7010325021713057E-006   1.7659613012551746E-005   0.0000000000000000     
  -1.7046615350017037E-006   1.7912319165302467E-005   0.0000000000000000     
  -1.7080486145700887E-006   1.8165542322637075E-005   0.0000000000000000     
  -1.9150459819132156E-006   1.6157596910456167E-005   0.0000000000000000     
  -1.9207576070929114E-006   1.6406472471293922E-005   0.0000000000000000     
  -1.9262191653838650E-006   1.6656053286336316E-005   0.0000000000000000     
  -1.9314281124309400E-006   1.6906307057268701E-005   0.0000000000000000     
  -1.9363819038790020E-006   1.7157201485776416E-005   0.0000000000000000     
  -1.9410779953729133E-006   1.7408704273544810E-005   0.0000000000000000     
  -1.9455138425575373E-006   1.7660783122259220E-005   0.0000000000000000     
  -1.9496869010777406E-006   1.7913405733604997E-005   0.0000000000000000     
  -1.9535946265783842E-006   1.8166539809267488E-005   0.0000000000000000     
   2.7782385002502900E-014   1.8162521518582984E-005   0.0000000000000000     
   2.9039543262622179E-014   1.8416590081231488E-005   0.0000000000000000     
   2.6375921641051980E-014   1.8671125220390549E-005   0.0000000000000000     
   2.0892335749807459E-014   1.8926082054080545E-005   0.0000000000000000     
   1.3689601475527732E-014   1.9181415700321867E-005   0.0000000000000000     
   5.8685345609224907E-015   1.9437081277134901E-005   0.0000000000000000     
  -1.4700491871920761E-015   1.9693033902540039E-005   0.0000000000000000     
  -7.2253340912984495E-015   1.9949228694557664E-005   0.0000000000000000     
  -1.0296504283420775E-014   2.0205620771208157E-005   0.0000000000000000     
  -2.4339128825639303E-007   1.8162576349694434E-005   0.0000000000000000     
  -2.4382037065030890E-007   1.8416636227801157E-005   0.0000000000000000     
  -2.4420988678905449E-007   1.8671162844017752E-005   0.0000000000000000     
  -2.4456072331653710E-007   1.8926112122211565E-005   0.0000000000000000     
  -2.4487376687666375E-007   1.9181439986249906E-005   0.0000000000000000     
  -2.4514990411334181E-007   1.9437102360000108E-005   0.0000000000000000     
  -2.4539002167047854E-007   1.9693055167329515E-005   0.0000000000000000     
  -2.4559500619198072E-007   1.9949254332105433E-005   0.0000000000000000     
  -2.4576574432175608E-007   2.0205655778195192E-005   0.0000000000000000     
  -4.8685956180929604E-007   1.8162745383706858E-005   0.0000000000000000     
  -4.8772018926237563E-007   1.8416780129437749E-005   0.0000000000000000     
  -4.8850219786915807E-007   1.8671281981605442E-005   0.0000000000000000     
  -4.8920721624139934E-007   1.8926209083752331E-005   0.0000000000000000     
  -4.8983687299085531E-007   1.9181519579420780E-005   0.0000000000000000     
  -4.9039279672928226E-007   1.9437171612153176E-005   0.0000000000000000     
  -4.9087661606843605E-007   1.9693123325491911E-005   0.0000000000000000     
  -4.9128995962007265E-007   1.9949332862979352E-005   0.0000000000000000     
  -4.9163445599594783E-007   2.0205758368157894E-005   0.0000000000000000     
  -7.3048174494159241E-007   1.8163035441344621E-005   0.0000000000000000     
  -7.3177884002723638E-007   1.8417029990896929E-005   0.0000000000000000     
  -7.3295929966096487E-007   1.8671492044731512E-005   0.0000000000000000     
  -7.3402520263830881E-007   1.8926383083750829E-005   0.0000000000000000     
  -7.3497862775479935E-007   1.9181664588857333E-005   0.0000000000000000     
  -7.3582165380596773E-007   1.9437298040953503E-005   0.0000000000000000     
  -7.3655635958734435E-007   1.9693244920941769E-005   0.0000000000000000     
  -7.3718482389446035E-007   1.9949466709724607E-005   0.0000000000000000     
  -7.3770912552284655E-007   2.0205924888204473E-005   0.0000000000000000     
  -9.7433478971855184E-007   1.8163453343332135E-005   0.0000000000000000     
  -9.7607573617547106E-007   1.8417394016934348E-005   0.0000000000000000     
  -9.7766358496105143E-007   1.8671802444973826E-005   0.0000000000000000     
  -9.7910042726332416E-007   1.8926644267255046E-005   0.0000000000000000     
  -9.8038835427032344E-007   1.9181885123582455E-005   0.0000000000000000     
  -9.8152945717007984E-007   1.9437490653760507E-005   0.0000000000000000     
  -9.8252582715062649E-007   1.9693426497593667E-005   0.0000000000000000     
  -9.8337955539999589E-007   1.9949658294886394E-005   0.0000000000000000     
  -9.8409273310621902E-007   2.0206151685443122E-005   0.0000000000000000     
  -1.2184956482054419E-006   1.8164005910393795E-005   0.0000000000000000     
  -1.2206902909376591E-006   1.8417880412305651E-005   0.0000000000000000     
  -1.2226974465659929E-006   1.8672222593910277E-005   0.0000000000000000     
  -1.2245186348725040E-006   1.8927002779312950E-005   0.0000000000000000     
  -1.2261553756392524E-006   1.9182191292618963E-005   0.0000000000000000     
  -1.2276091886482983E-006   1.9437758457933595E-005   0.0000000000000000     
  -1.2288815936817036E-006   1.9693674599362136E-005   0.0000000000000000     
  -1.2299741105215277E-006   1.9949910041009857E-005   0.0000000000000000     
  -1.2308882589498319E-006   2.0206435106982046E-005   0.0000000000000000     
  -1.4630412724675313E-006   1.8164699963253972E-005   0.0000000000000000     
  -1.4657019175443801E-006   1.8418497381766496E-005   0.0000000000000000     
  -1.4681432772723666E-006   1.8672761903118734E-005   0.0000000000000000     
  -1.4703655702219050E-006   1.8927468764972528E-005   0.0000000000000000     
  -1.4723690149634126E-006   1.9182593204989728E-005   0.0000000000000000     
  -1.4741538300673059E-006   1.9438110460832185E-005   0.0000000000000000     
  -1.4757202341039985E-006   1.9693995770161713E-005   0.0000000000000000     
  -1.4770684456439094E-006   1.9950224370640194E-005   0.0000000000000000     
  -1.4781986832574519E-006   2.0206771499929452E-005   0.0000000000000000     
  -1.7080486145700887E-006   1.8165542322637075E-005   0.0000000000000000     
  -1.7111900292262143E-006   1.8419253130072541E-005   0.0000000000000000     
  -1.7140834698767474E-006   1.8673429784177091E-005   0.0000000000000000     
  -1.7167269780675867E-006   1.8928052369281762E-005   0.0000000000000000     
  -1.7191185953446323E-006   1.9183100969717615E-005   0.0000000000000000     
  -1.7212563632537818E-006   1.9438555669815664E-005   0.0000000000000000     
  -1.7231383233409351E-006   1.9694396553906975E-005   0.0000000000000000     
  -1.7247625171519906E-006   1.9950603706322587E-005   0.0000000000000000     
  -1.7261269862328461E-006   2.0207157211393539E-005   0.0000000000000000     
  -1.9535946265783842E-006   1.8166539809267488E-005   0.0000000000000000     
  -1.9572340392137407E-006   1.8420155861979434E-005   0.0000000000000000     
  -1.9606004171757111E-006   1.8674235648663219E-005   0.0000000000000000     
  -1.9636886031656074E-006   1.8928763737288631E-005   0.0000000000000000     
  -1.9664934398847354E-006   1.9183724695825453E-005   0.0000000000000000     
  -1.9690097700344088E-006   1.9439103092243470E-005   0.0000000000000000     
  -1.9712324363159338E-006   1.9694883494512455E-005   0.0000000000000000     
  -1.9731562814306219E-006   1.9951050470602218E-005   0.0000000000000000     
  -1.9747761480797808E-006   2.0207588588482513E-005   0.0000000000000000     
  -1.0296504283420775E-014   2.0205620771208157E-005   0.0000000000000000     
  -9.9670891203572982E-015   2.0462151999121977E-005   0.0000000000000000     
  -7.0579982010144730E-015   2.0718711239369833E-005   0.0000000000000000     
  -2.7744866422566822E-015   2.0975174101632503E-005   0.0000000000000000     
   1.6781910222140229E-015   2.1231416195590768E-005   0.0000000000000000     
   5.0947799580154385E-015   2.1487313130925401E-005   0.0000000000000000     
   6.2700251828034286E-015   2.1742740517317177E-005   0.0000000000000000     
   3.9986719856395709E-015   2.1997573964446873E-005   0.0000000000000000     
  -2.9245345104193657E-015   2.2251689081995285E-005   0.0000000000000000     
  -2.4576574432175608E-007   2.0205655778195192E-005   0.0000000000000000     
  -2.4590447352738450E-007   2.0462201852849107E-005   0.0000000000000000     
  -2.4601883457113826E-007   2.0718780596849360E-005   0.0000000000000000     
  -2.4611781903896284E-007   2.0975266474361123E-005   0.0000000000000000     
  -2.4621041851680330E-007   2.1231533949549577E-005   0.0000000000000000     
  -2.4630562459060510E-007   2.1487457486579875E-005   0.0000000000000000     
  -2.4641242884631330E-007   2.1742911549617201E-005   0.0000000000000000     
  -2.4653982286987343E-007   2.1997770602826717E-005   0.0000000000000000     
  -2.4669679824723069E-007   2.2251909110373588E-005   0.0000000000000000     
  -4.9163445599594783E-007   2.0205758368157894E-005   0.0000000000000000     
  -4.9191443305449985E-007   2.0462343637221124E-005   0.0000000000000000     
  -4.9214501564089387E-007   2.0718975076967405E-005   0.0000000000000000     
  -4.9234402784697670E-007   2.0975524746846332E-005   0.0000000000000000     
  -4.9252929376459664E-007   2.1231864706307470E-005   0.0000000000000000     
  -4.9271863748560030E-007   2.1487867014800408E-005   0.0000000000000000     
  -4.9292988310183491E-007   2.1743403731774718E-005   0.0000000000000000     
  -4.9318085470514815E-007   2.1998346916679975E-005   0.0000000000000000     
  -4.9348937638738694E-007   2.2252568628965769E-005   0.0000000000000000     
  -7.3770912552284655E-007   2.0205924888204473E-005   0.0000000000000000     
  -7.3813538698673389E-007   2.0462565680899866E-005   0.0000000000000000     
  -7.3848590567515272E-007   2.0719274286793510E-005   0.0000000000000000     
  -7.3878702269583456E-007   2.0975920648484181E-005   0.0000000000000000     
  -7.3906507915650988E-007   2.1232374708570639E-005   0.0000000000000000     
  -7.3934641616490914E-007   2.1488506409651661E-005   0.0000000000000000     
  -7.3965737482876334E-007   2.1744185694326019E-005   0.0000000000000000     
  -7.4002429625580326E-007   2.1999282505192475E-005   0.0000000000000000     
  -7.4047352155375967E-007   2.2253666784849813E-005   0.0000000000000000     
  -9.8409273310621902E-007   2.0206151685443122E-005   0.0000000000000000     
  -9.8467283376238545E-007   2.0462856312547172E-005   0.0000000000000000     
  -9.8514886008180464E-007   2.0719657833397204E-005   0.0000000000000000     
  -9.8555519708284145E-007   2.0976425908670731E-005   0.0000000000000000     
  -9.8592622978386326E-007   2.1233030199045275E-005   0.0000000000000000     
  -9.8629634320323513E-007   2.1489340365198327E-005   0.0000000000000000     
  -9.8669992235932127E-007   2.1745226067807404E-005   0.0000000000000000     
  -9.8717135227049012E-007   2.2000556967550032E-005   0.0000000000000000     
  -9.8774501795510463E-007   2.2255202725103698E-005   0.0000000000000000     
  -1.2308882589498319E-006   2.0206435106982046E-005   0.0000000000000000     
  -1.2316322718197528E-006   2.0463203860824872E-005   0.0000000000000000     
  -1.2322412342687366E-006   2.0720105323848020E-005   0.0000000000000000     
  -1.2327569445053042E-006   2.0977012256802062E-005   0.0000000000000000     
  -1.2332212007379780E-006   2.1233797420437558E-005   0.0000000000000000     
  -1.2336758011752803E-006   2.1490333575505078E-005   0.0000000000000000     
  -1.2341625440257338E-006   2.1746493482755187E-005   0.0000000000000000     
  -1.2347232274978590E-006   2.2002149902938451E-005   0.0000000000000000     
  -1.2353996498001789E-006   2.2257175596805441E-005   0.0000000000000000     
  -1.4781986832574519E-006   2.0206771499929452E-005   0.0000000000000000     
  -1.4791191995971356E-006   2.0463596654394813E-005   0.0000000000000000     
  -1.4798703836438370E-006   2.0720596365215499E-005   0.0000000000000000     
  -1.4805006584605273E-006   2.0977651422274232E-005   0.0000000000000000     
  -1.4810584471101749E-006   2.1234642615453695E-005   0.0000000000000000     
  -1.4815921726557499E-006   2.1491450734636597E-005   0.0000000000000000     
  -1.4821502581602219E-006   2.1747956569705655E-005   0.0000000000000000     
  -1.4827811266865610E-006   2.2004040910543546E-005   0.0000000000000000     
  -1.4835332012977375E-006   2.2259584547033019E-005   0.0000000000000000     
  -1.7261269862328461E-006   2.0207157211393539E-005   0.0000000000000000     
  -1.7272391155328317E-006   2.0464023021918819E-005   0.0000000000000000     
  -1.7281436636149958E-006   2.0721110564569172E-005   0.0000000000000000     
  -1.7288947324458166E-006   2.0978315134483282E-005   0.0000000000000000     
  -1.7295464239917740E-006   2.1235532026799859E-005   0.0000000000000000     
  -1.7301528402193457E-006   2.1492656536657566E-005   0.0000000000000000     
  -1.7307680830950108E-006   2.1749583959195098E-005   0.0000000000000000     
  -1.7314462545852493E-006   2.2006209589551168E-005   0.0000000000000000     
  -1.7322414566565375E-006   2.2262428722864421E-005   0.0000000000000000     
  -1.9747761480797808E-006   2.0207588588482513E-005   0.0000000000000000     
  -1.9760975180651395E-006   2.0464471292058730E-005   0.0000000000000000     
  -1.9771684295900999E-006   2.0721627528978569E-005   0.0000000000000000     
  -1.9780475599584790E-006   2.0978975122825315E-005   0.0000000000000000     
  -1.9787935864740960E-006   2.1236431897182248E-005   0.0000000000000000     
  -1.9794651864407718E-006   2.1493915675632661E-005   0.0000000000000000     
  -1.9801210371623240E-006   2.1751344281759845E-005   0.0000000000000000     
  -1.9808198159425721E-006   2.2008635539147073E-005   0.0000000000000000     
  -1.9816202000853350E-006   2.2265707271377649E-005   0.0000000000000000     
  -1.8604354411663695E-006   1.4195632713402398E-005   0.0000000000000000     
  -1.8681287716912634E-006   1.4437777656454511E-005   0.0000000000000000     
  -1.8755743060569846E-006   1.4680867811130753E-005   0.0000000000000000     
  -1.8827720833528994E-006   1.4924873511844715E-005   0.0000000000000000     
  -1.8897221426683740E-006   1.5169765093009983E-005   0.0000000000000000     
  -1.8964245230927769E-006   1.5415512889040172E-005   0.0000000000000000     
  -1.9028792637154729E-006   1.5662087234348864E-005   0.0000000000000000     
  -1.9090864036258298E-006   1.5909458463349664E-005   0.0000000000000000     
  -1.9150459819132156E-006   1.6157596910456167E-005   0.0000000000000000     
  -2.0947808181888472E-006   1.4198117935802997E-005   0.0000000000000000     
  -2.1034292473585604E-006   1.4440192147369687E-005   0.0000000000000000     
  -2.1118054300698043E-006   1.4683206087868438E-005   0.0000000000000000     
  -2.1199078741972191E-006   1.4927131284524978E-005   0.0000000000000000     
  -2.1277350876154447E-006   1.5171939264565018E-005   0.0000000000000000     
  -2.1352855781991193E-006   1.5417601555214270E-005   0.0000000000000000     
  -2.1425578538228857E-006   1.5664089683698450E-005   0.0000000000000000     
  -2.1495504223613829E-006   1.5911375177243284E-005   0.0000000000000000     
  -2.1562617916892485E-006   1.6159429563074475E-005   0.0000000000000000     
  -2.3297581387848693E-006   1.4200894974610724E-005   0.0000000000000000     
  -2.3393610356860889E-006   1.4442891842434316E-005   0.0000000000000000     
  -2.3486678776458117E-006   1.4685821878560394E-005   0.0000000000000000     
  -2.3576755297010531E-006   1.4929658022525356E-005   0.0000000000000000     
  -2.3663808568888293E-006   1.5174373213865595E-005   0.0000000000000000     
  -2.3747807242461580E-006   1.5419940392117519E-005   0.0000000000000000     
  -2.3828719968100512E-006   1.5666332496817516E-005   0.0000000000000000     
  -2.3906515396175280E-006   1.5913522467501979E-005   0.0000000000000000     
  -2.3981162177056045E-006   1.6161483243707318E-005   0.0000000000000000     
  -2.5654374608715541E-006   1.4203964852053714E-005   0.0000000000000000     
  -2.5759957339829738E-006   1.4445875734868873E-005   0.0000000000000000     
  -2.5862332818306770E-006   1.4688713337101435E-005   0.0000000000000000     
  -2.5961456103566526E-006   1.4932451958576782E-005   0.0000000000000000     
  -2.6057282255028882E-006   1.5177065899120313E-005   0.0000000000000000     
  -2.6149766332113709E-006   1.5422529458557413E-005   0.0000000000000000     
  -2.6238863394240904E-006   1.5668816936713471E-005   0.0000000000000000     
  -2.6324528500830347E-006   1.5915902633413877E-005   0.0000000000000000     
  -2.6406716711301909E-006   1.6163760848484020E-005   0.0000000000000000     
  -2.8018888423660175E-006   1.4207328590360106E-005   0.0000000000000000     
  -2.8134049395583386E-006   1.4449142817893811E-005   0.0000000000000000     
  -2.8245732756700714E-006   1.4691878617386363E-005   0.0000000000000000     
  -2.8353886766562659E-006   1.4935511325410192E-005   0.0000000000000000     
  -2.8458459684719725E-006   1.5180016278537746E-005   0.0000000000000000     
  -2.8559399770722402E-006   1.5425368813341455E-005   0.0000000000000000     
  -2.8656655284121199E-006   1.5671544266393757E-005   0.0000000000000000     
  -2.8750174484466623E-006   1.5918517974267094E-005   0.0000000000000000     
  -2.8839905631309153E-006   1.6166265273533890E-005   0.0000000000000000     
  -3.0391823411853777E-006   1.4210987211758043E-005   0.0000000000000000     
  -3.0516602497213071E-006   1.4452692084729596E-005   0.0000000000000000     
  -3.0637594922096646E-006   1.4695315873309994E-005   0.0000000000000000     
  -3.0754752890921441E-006   1.4938834355756519E-005   0.0000000000000000     
  -3.0868028608104386E-006   1.5183223310326475E-005   0.0000000000000000     
  -3.0977374278062461E-006   1.5428458515277143E-005   0.0000000000000000     
  -3.1082742105212588E-006   1.5674515748865804E-005   0.0000000000000000     
  -3.1184084293971742E-006   1.5921370789349754E-005   0.0000000000000000     
  -3.1281353048756850E-006   1.6168999414986280E-005   0.0000000000000000     
  -3.2773880152467525E-006   1.4214941738475659E-005   0.0000000000000000     
  -3.2908332617810056E-006   1.4456522528596679E-005   0.0000000000000000     
  -3.3038635644951278E-006   1.4699023258767135E-005   0.0000000000000000     
  -3.3164760081565344E-006   1.4942419282346705E-005   0.0000000000000000     
  -3.3286676775326435E-006   1.5186685952695085E-005   0.0000000000000000     
  -3.3404356573908675E-006   1.5431798623171973E-005   0.0000000000000000     
  -3.3517770324986258E-006   1.5677732647137039E-005   0.0000000000000000     
  -3.3626888876233329E-006   1.5924463377949982E-005   0.0000000000000000     
  -3.3731683075324060E-006   1.6171966168970507E-005   0.0000000000000000     
  -3.5165759224672577E-006   1.4219193192741095E-005   0.0000000000000000     
  -3.5309955730465560E-006   1.4460633142715528E-005   0.0000000000000000     
  -3.5449571255721315E-006   1.4702998927652592E-005   0.0000000000000000     
  -3.5584613943416891E-006   1.4946264337911674E-005   0.0000000000000000     
  -3.5715091936529390E-006   1.5190403163852160E-005   0.0000000000000000     
  -3.5841013378035871E-006   1.5435389195833439E-005   0.0000000000000000     
  -3.5962386410913392E-006   1.5681196224214890E-005   0.0000000000000000     
  -3.6079219178139046E-006   1.5927798039355910E-005   0.0000000000000000     
  -3.6191519822689877E-006   1.6175168431615877E-005   0.0000000000000000     
  -3.7568161207640129E-006   1.4223742596782488E-005   0.0000000000000000     
  -3.7722187808270836E-006   1.4465022920306604E-005   0.0000000000000000     
  -3.7871118084863453E-006   1.4707241033861188E-005   0.0000000000000000     
  -3.8015020081398583E-006   1.4950367755182370E-005   0.0000000000000000     
  -3.8153961841856828E-006   1.5194373902006278E-005   0.0000000000000000     
  -3.8288011410218834E-006   1.5439230292069040E-005   0.0000000000000000     
  -3.8417236830465170E-006   1.5684907743106784E-005   0.0000000000000000     
  -3.8541706146576480E-006   1.5931377072855637E-005   0.0000000000000000     
  -3.8661487402533369E-006   1.6178609099051737E-005   0.0000000000000000     
  -1.9150459819132156E-006   1.6157596910456167E-005   0.0000000000000000     
  -1.9207576070929114E-006   1.6406472471293922E-005   0.0000000000000000     
  -1.9262191653838650E-006   1.6656053286336316E-005   0.0000000000000000     
  -1.9314281124309400E-006   1.6906307057268701E-005   0.0000000000000000     
  -1.9363819038790020E-006   1.7157201485776416E-005   0.0000000000000000     
  -1.9410779953729133E-006   1.7408704273544810E-005   0.0000000000000000     
  -1.9455138425575373E-006   1.7660783122259220E-005   0.0000000000000000     
  -1.9496869010777406E-006   1.7913405733604997E-005   0.0000000000000000     
  -1.9535946265783842E-006   1.8166539809267488E-005   0.0000000000000000     
  -2.1562617916892485E-006   1.6159429563074475E-005   0.0000000000000000     
  -2.1626906697227724E-006   1.6408223528605920E-005   0.0000000000000000     
  -2.1688365645448230E-006   1.6657724402004134E-005   0.0000000000000000     
  -2.1746991842799204E-006   1.6907898671623834E-005   0.0000000000000000     
  -2.1802782370525803E-006   1.7158712825819734E-005   0.0000000000000000     
  -2.1855734309873205E-006   1.7410133352946521E-005   0.0000000000000000     
  -2.1905844742086603E-006   1.7662126741358915E-005   0.0000000000000000     
  -2.1953110748411161E-006   1.7914659479411599E-005   0.0000000000000000     
  -2.1997529410092047E-006   1.8167698055459296E-005   0.0000000000000000     
  -2.3981162177056045E-006   1.6161483243707318E-005   0.0000000000000000     
  -2.4052637976644825E-006   1.6410186489078165E-005   0.0000000000000000     
  -2.4120956522971125E-006   1.6659598763692085E-005   0.0000000000000000     
  -2.4186140559596340E-006   1.6909685351734891E-005   0.0000000000000000     
  -2.4248212830081826E-006   1.7160411537392385E-005   0.0000000000000000     
  -2.4307196077988990E-006   1.7411742604850381E-005   0.0000000000000000     
  -2.4363113046879193E-006   1.7663643838294683E-005   0.0000000000000000     
  -2.4415986480313811E-006   1.7916080521911099E-005   0.0000000000000000     
  -2.4465839121854228E-006   1.8169017939885429E-005   0.0000000000000000     
  -2.6406716711301909E-006   1.6163760848484020E-005   0.0000000000000000     
  -2.6485398289145010E-006   1.6412364213670001E-005   0.0000000000000000     
  -2.6560604314127164E-006   1.6661678688400790E-005   0.0000000000000000     
  -2.6632381070085411E-006   1.6911668564026065E-005   0.0000000000000000     
  -2.6700774840856784E-006   1.7162298131895510E-005   0.0000000000000000     
  -2.6765831910278314E-006   1.7413531683358782E-005   0.0000000000000000     
  -2.6827598562187065E-006   1.7665333509765592E-005   0.0000000000000000     
  -2.6886121080420051E-006   1.7917667902465598E-005   0.0000000000000000     
  -2.6941445748814338E-006   1.8170499152808486E-005   0.0000000000000000     
  -2.8839905631309153E-006   1.6166265273533890E-005   0.0000000000000000     
  -2.8925816014692886E-006   1.6414759563340761E-005   0.0000000000000000     
  -2.9007949046636189E-006   1.6663966493130871E-005   0.0000000000000000     
  -2.9086367169651006E-006   1.6913849774921574E-005   0.0000000000000000     
  -2.9161132826249316E-006   1.7164373120730229E-005   0.0000000000000000     
  -2.9232308458943035E-006   1.7415500242574162E-005   0.0000000000000000     
  -2.9299956510244135E-006   1.7667194852470719E-005   0.0000000000000000     
  -2.9364139422664566E-006   1.7919420662437252E-005   0.0000000000000000     
  -2.9424919638716269E-006   1.8172141384491098E-005   0.0000000000000000     
  -3.1281353048756850E-006   1.6168999414986280E-005   0.0000000000000000     
  -3.1374519533253027E-006   1.6417375399049766E-005   0.0000000000000000     
  -3.1463630748218025E-006   1.6666464494882932E-005   0.0000000000000000     
  -3.1548752653677745E-006   1.6916230450845627E-005   0.0000000000000000     
  -3.1629951209658087E-006   1.7166637015297666E-005   0.0000000000000000     
  -3.1707292376184989E-006   1.7417647936598885E-005   0.0000000000000000     
  -3.1780842113284325E-006   1.7669226963109104E-005   0.0000000000000000     
  -3.1850666380982013E-006   1.7921337843188158E-005   0.0000000000000000     
  -3.1916831139303966E-006   1.8173944325195860E-005   0.0000000000000000     
  -3.3731683075324060E-006   1.6171966168970507E-005   0.0000000000000000     
  -3.3832137224790031E-006   1.6420214581756347E-005   0.0000000000000000     
  -3.3928289446592507E-006   1.6669175010657614E-005   0.0000000000000000     
  -3.4020191317550192E-006   1.6918812058222427E-005   0.0000000000000000     
  -3.4107894414481805E-006   1.7169090326998971E-005   0.0000000000000000     
  -3.4191450314206022E-006   1.7419974419535397E-005   0.0000000000000000     
  -3.4270910593541551E-006   1.7671428938379828E-005   0.0000000000000000     
  -3.4346326829307091E-006   1.7923418486080456E-005   0.0000000000000000     
  -3.4417750598321367E-006   1.8175907665185408E-005   0.0000000000000000     
  -3.6191519822689877E-006   1.6175168431615877E-005   0.0000000000000000     
  -3.6299297469268479E-006   1.6423279972419843E-005   0.0000000000000000     
  -3.6402565169479480E-006   1.6672100357455506E-005   0.0000000000000000     
  -3.6501336956652965E-006   1.6921596063476188E-005   0.0000000000000000     
  -3.6595626864119100E-006   1.7171733567235268E-005   0.0000000000000000     
  -3.6685448925207977E-006   1.7422479345486071E-005   0.0000000000000000     
  -3.6770817173249743E-006   1.7673799874981955E-005   0.0000000000000000     
  -3.6851745641574494E-006   1.7925661632476249E-005   0.0000000000000000     
  -3.6928248363512365E-006   1.8178031094722332E-005   0.0000000000000000     
  -3.8661487402533369E-006   1.6178609099051737E-005   0.0000000000000000     
  -3.8776628646652988E-006   1.6426574431999585E-005   0.0000000000000000     
  -3.8887097944598757E-006   1.6675242852277237E-005   0.0000000000000000     
  -3.8992843366370671E-006   1.6924583933031126E-005   0.0000000000000000     
  -3.9093812981968665E-006   1.7174567247407681E-005   0.0000000000000000     
  -3.9189954861392717E-006   1.7425162368553342E-005   0.0000000000000000     
  -3.9281217074642806E-006   1.7676338869614537E-005   0.0000000000000000     
  -3.9367547691718883E-006   1.7928066323737706E-005   0.0000000000000000     
  -3.9448894782620935E-006   1.8180314304069278E-005   0.0000000000000000     
  -1.9535946265783842E-006   1.8166539809267488E-005   0.0000000000000000     
  -1.9572340392137407E-006   1.8420155861979434E-005   0.0000000000000000     
  -1.9606004171757111E-006   1.8674235648663219E-005   0.0000000000000000     
  -1.9636886031656074E-006   1.8928763737288631E-005   0.0000000000000000     
  -1.9664934398847354E-006   1.9183724695825453E-005   0.0000000000000000     
  -1.9690097700344088E-006   1.9439103092243470E-005   0.0000000000000000     
  -1.9712324363159338E-006   1.9694883494512455E-005   0.0000000000000000     
  -1.9731562814306219E-006   1.9951050470602218E-005   0.0000000000000000     
  -1.9747761480797808E-006   2.0207588588482513E-005   0.0000000000000000     
  -2.1997529410092047E-006   1.8167698055459296E-005   0.0000000000000000     
  -2.2039082824666698E-006   1.8421212611509333E-005   0.0000000000000000     
  -2.2077693154841480E-006   1.8675187904179558E-005   0.0000000000000000     
  -2.2113267579615038E-006   1.8929612343740456E-005   0.0000000000000000     
  -2.2145713277986002E-006   1.9184474340462502E-005   0.0000000000000000     
  -2.2174937428952993E-006   1.9439762304616174E-005   0.0000000000000000     
  -2.2200847211514640E-006   1.9695464646471960E-005   0.0000000000000000     
  -2.2223349804669601E-006   1.9951569776300335E-005   0.0000000000000000     
  -2.2242352387416455E-006   2.0208066104371773E-005   0.0000000000000000     
  -2.4465839121854228E-006   1.8169017939885429E-005   0.0000000000000000     
  -2.4512667808612325E-006   1.8422425729750448E-005   0.0000000000000000     
  -2.4556365751901924E-006   1.8676290942426759E-005   0.0000000000000000     
  -2.4596800256587339E-006   1.8930604982181928E-005   0.0000000000000000     
  -2.4633838627532919E-006   1.9185359253283528E-005   0.0000000000000000     
  -2.4667348169602958E-006   1.9440545159999117E-005   0.0000000000000000     
  -2.4697196187661812E-006   1.9696154106596268E-005   0.0000000000000000     
  -2.4723249986573792E-006   1.9952177497342543E-005   0.0000000000000000     
  -2.4745376871203204E-006   2.0208606736505507E-005   0.0000000000000000     
  -2.6941445748814338E-006   1.8170499152808486E-005   0.0000000000000000     
  -2.6993584780027930E-006   1.8423796397057482E-005   0.0000000000000000     
  -2.7042414102002932E-006   1.8677548151130027E-005   0.0000000000000000     
  -2.7087775571502370E-006   1.8931747775857113E-005   0.0000000000000000     
  -2.7129511045289287E-006   1.9186388632069711E-005   0.0000000000000000     
  -2.7167462380126763E-006   1.9441464080598822E-005   0.0000000000000000     
  -2.7201471432777858E-006   1.9696967482275438E-005   0.0000000000000000     
  -2.7231380060005597E-006   1.9952892197930520E-005   0.0000000000000000     
  -2.7257030118573079E-006   2.0209231588395094E-005   0.0000000000000000     
  -2.9424919638716269E-006   1.8172141384491098E-005   0.0000000000000000     
  -2.9482323174967173E-006   1.8425325793785166E-005   0.0000000000000000     
  -2.9536230344209003E-006   1.8678962918014584E-005   0.0000000000000000     
  -2.9586485033289472E-006   1.8933046848010036E-005   0.0000000000000000     
  -2.9632931129056295E-006   1.9187571674602213E-005   0.0000000000000000     
  -2.9675412518357151E-006   1.9442531488621795E-005   0.0000000000000000     
  -2.9713773088039769E-006   1.9697920380899493E-005   0.0000000000000000     
  -2.9747856724951843E-006   1.9953732442265967E-005   0.0000000000000000     
  -2.9777507315941066E-006   2.0209961763551912E-005   0.0000000000000000     
  -3.1916831139303966E-006   1.8173944325195860E-005   0.0000000000000000     
  -3.1979372429483628E-006   1.8427015100288185E-005   0.0000000000000000     
  -3.2038206617584608E-006   1.8680538630805611E-005   0.0000000000000000     
  -3.2093220150878050E-006   1.8934508321884732E-005   0.0000000000000000     
  -3.2144299476635080E-006   1.9188917578662178E-005   0.0000000000000000     
  -3.2191331042126879E-006   1.9443759806274558E-005   0.0000000000000000     
  -3.2234201294624575E-006   1.9699028409858466E-005   0.0000000000000000     
  -3.2272796681399302E-006   1.9954716794550529E-005   0.0000000000000000     
  -3.2307003649722226E-006   2.0210818365487350E-005   0.0000000000000000     
  -3.4417750598321367E-006   1.8175907665185408E-005   0.0000000000000000     
  -3.4485221979630964E-006   1.8428865496921274E-005   0.0000000000000000     
  -3.4548735061194236E-006   1.8682278677228326E-005   0.0000000000000000     
  -3.4608272433197458E-006   1.8936138320725275E-005   0.0000000000000000     
  -3.4663816685826849E-006   1.9190435542030800E-005   0.0000000000000000     
  -3.4715350409268723E-006   1.9445161455763619E-005   0.0000000000000000     
  -3.4762856193709273E-006   1.9700307176542423E-005   0.0000000000000000     
  -3.4806316629334799E-006   1.9955863818985906E-005   0.0000000000000000     
  -3.4845714306331563E-006   2.0211822497712787E-005   0.0000000000000000     
  -3.6928248363512365E-006   1.8178031094722332E-005   0.0000000000000000     
  -3.7000361261462810E-006   1.8430878164039131E-005   0.0000000000000000     
  -3.7068207814102398E-006   1.8684186445007941E-005   0.0000000000000000     
  -3.7131933389177065E-006   1.8937942967775670E-005   0.0000000000000000     
  -3.7191683354432777E-006   1.9192134762489225E-005   0.0000000000000000     
  -3.7247603077615385E-006   1.9446748859295493E-005   0.0000000000000000     
  -3.7299837926470869E-006   1.9701772288341374E-005   0.0000000000000000     
  -3.7348533268745136E-006   1.9957192079773791E-005   0.0000000000000000     
  -3.7393834472184082E-006   2.0212995263739599E-005   0.0000000000000000     
  -3.9448894782620935E-006   1.8180314304069278E-005   0.0000000000000000     
  -3.9525279711032760E-006   1.8433054281996471E-005   0.0000000000000000     
  -3.9597017015373540E-006   1.8686265321869659E-005   0.0000000000000000     
  -3.9664494527746286E-006   1.8939928386279992E-005   0.0000000000000000     
  -3.9728100080253985E-006   1.9194024437818620E-005   0.0000000000000000     
  -3.9788221504999697E-006   1.9448534439076701E-005   0.0000000000000000     
  -3.9845246634086391E-006   1.9703439352645385E-005   0.0000000000000000     
  -3.9899563299617096E-006   1.9958720141115825E-005   0.0000000000000000     
  -3.9951559333694821E-006   2.0214357767079180E-005   0.0000000000000000     
  -1.9747761480797808E-006   2.0207588588482513E-005   0.0000000000000000     
  -1.9760975180651395E-006   2.0464471292058730E-005   0.0000000000000000     
  -1.9771684295900999E-006   2.0721627528978569E-005   0.0000000000000000     
  -1.9780475599584790E-006   2.0978975122825315E-005   0.0000000000000000     
  -1.9787935864740960E-006   2.1236431897182248E-005   0.0000000000000000     
  -1.9794651864407718E-006   2.1493915675632661E-005   0.0000000000000000     
  -1.9801210371623240E-006   2.1751344281759845E-005   0.0000000000000000     
  -1.9808198159425721E-006   2.2008635539147073E-005   0.0000000000000000     
  -1.9816202000853350E-006   2.2265707271377649E-005   0.0000000000000000     
  -2.2242352387416455E-006   2.0208066104371773E-005   0.0000000000000000     
  -2.2257880597386525E-006   2.0464935520616885E-005   0.0000000000000000     
  -2.2270433906741600E-006   2.0722133833606692E-005   0.0000000000000000     
  -2.2280630246276176E-006   2.0979610331572371E-005   0.0000000000000000     
  -2.2289087546784719E-006   2.1237314302745075E-005   0.0000000000000000     
  -2.2296423739061686E-006   2.1495195035355952E-005   0.0000000000000000     
  -2.2303256753901554E-006   2.1753201817636174E-005   0.0000000000000000     
  -2.2310204522098812E-006   2.2011283937816896E-005   0.0000000000000000     
  -2.2317884974447906E-006   2.2269390684129277E-005   0.0000000000000000     
  -2.4745376871203204E-006   2.0208606736505507E-005   0.0000000000000000     
  -2.4763570095231279E-006   2.0465432671957556E-005   0.0000000000000000     
  -2.4778326707606787E-006   2.0722643925990402E-005   0.0000000000000000     
  -2.4790269706095360E-006   2.0980228564500574E-005   0.0000000000000000     
  -2.4800022088462638E-006   2.1238174653384619E-005   0.0000000000000000     
  -2.4808206852474276E-006   2.1496470258539075E-005   0.0000000000000000     
  -2.4815446995895929E-006   2.1755103445860470E-005   0.0000000000000000     
  -2.4822365516493234E-006   2.2014062281245350E-005   0.0000000000000000     
  -2.4829585412031846E-006   2.2273334830590247E-005   0.0000000000000000     
  -2.7257030118573079E-006   2.0209231588395094E-005   0.0000000000000000     
  -2.7278387904946243E-006   2.0465985437585548E-005   0.0000000000000000     
  -2.7295917474402796E-006   2.0723179221760013E-005   0.0000000000000000     
  -2.7310207321923332E-006   2.0980844840262052E-005   0.0000000000000000     
  -2.7321845942488469E-006   2.1239014192435195E-005   0.0000000000000000     
  -2.7331421831078798E-006   2.1497719177623024E-005   0.0000000000000000     
  -2.7339523482674934E-006   2.1756991695169082E-005   0.0000000000000000     
  -2.7346739392257464E-006   2.2016863644416911E-005   0.0000000000000000     
  -2.7353658054807023E-006   2.2277366924710088E-005   0.0000000000000000     
  -2.9777507315941066E-006   2.0209961763551912E-005   0.0000000000000000     
  -2.9802678257291934E-006   2.0466616509005644E-005   0.0000000000000000     
  -2.9823760983035859E-006   2.0723761136545848E-005   0.0000000000000000     
  -2.9841256436641118E-006   2.0981474177508898E-005   0.0000000000000000     
  -2.9855665561575939E-006   2.1239834163231115E-005   0.0000000000000000     
  -2.9867489301308534E-006   2.1498919625048838E-005   0.0000000000000000     
  -2.9877228599307133E-006   2.1758809094298376E-005   0.0000000000000000     
  -2.9885384399039981E-006   2.2019581102316105E-005   0.0000000000000000     
  -2.9892457643975275E-006   2.2281314180438327E-005   0.0000000000000000     
  -3.2307003649722226E-006   2.0210818365487350E-005   0.0000000000000000     
  -3.2336785383028853E-006   2.0467348577722607E-005   0.0000000000000000     
  -3.2362412009412221E-006   2.0724411085978246E-005   0.0000000000000000     
  -3.2384230393129732E-006   2.0982131594893263E-005   0.0000000000000000     
  -3.2402587398438778E-006   2.1240635809106678E-005   0.0000000000000000     
  -3.2417829889596775E-006   2.1500049433257500E-005   0.0000000000000000     
  -3.2430304730861119E-006   2.1760498171984742E-005   0.0000000000000000     
  -3.2440358786489209E-006   2.2022107729927399E-005   0.0000000000000000     
  -3.2448338920738464E-006   2.2285003811724486E-005   0.0000000000000000     
  -3.4845714306331563E-006   2.0211822497712787E-005   0.0000000000000000     
  -3.4881053512917590E-006   2.0468204335241247E-005   0.0000000000000000     
  -3.4912425329438122E-006   2.0725150485687502E-005   0.0000000000000000     
  -3.4939942534270157E-006   2.0982832111067245E-005   0.0000000000000000     
  -3.4963717905790724E-006   2.1241420373396200E-005   0.0000000000000000     
  -3.4983864222376816E-006   2.1501086434690053E-005   0.0000000000000000     
  -3.5000494262405466E-006   2.1762001456964516E-005   0.0000000000000000     
  -3.5013720804253655E-006   2.2024336602235300E-005   0.0000000000000000     
  -3.5023656626298430E-006   2.2288263032518100E-005   0.0000000000000000     
  -3.7393834472184082E-006   2.0212995263739599E-005   0.0000000000000000     
  -3.7435826877718660E-006   2.0469206473066346E-005   0.0000000000000000     
  -3.7474355719019794E-006   2.0726000751303958E-005   0.0000000000000000     
  -3.7509206202943412E-006   2.0983590744682978E-005   0.0000000000000000     
  -3.7540163536345508E-006   2.1242189099433982E-005   0.0000000000000000     
  -3.7567012926081968E-006   2.1502008461787493E-005   0.0000000000000000     
  -3.7589539579008743E-006   2.1763261477974094E-005   0.0000000000000000     
  -3.7607528701981777E-006   2.2026160794224302E-005   0.0000000000000000     
  -3.7620765501857020E-006   2.2290919056768693E-005   0.0000000000000000     
  -3.9951559333694821E-006   2.0214357767079180E-005   0.0000000000000000     
  -4.0001449708192591E-006   2.0470377682702677E-005   0.0000000000000000     
  -4.0048757954063479E-006   2.0726983298457921E-005   0.0000000000000000     
  -4.0092834742030548E-006   2.0984422514392581E-005   0.0000000000000000     
  -4.0133030742816860E-006   2.1242943230554332E-005   0.0000000000000000     
  -4.0168696627145493E-006   2.1502793346990856E-005   0.0000000000000000     
  -4.0199183065739533E-006   2.1764220763749821E-005   0.0000000000000000     
  -4.0223840729322043E-006   2.2027473380878910E-005   0.0000000000000000     
  -4.0242020288616092E-006   2.2292799098425796E-005   0.0000000000000000     
 </DataArray>
 <DataArray  type="Float64" Name="stress" NumberOfComponents="3" format="ascii">
   6013.0932291245881       -1.7386217125492749        1.5218173426151180     
   5818.1971486830898        5.5919220971818504       -3.6446960402399644     
   5624.1754941053696        7.0796272783495624       -4.8243656664930477     
   5431.5160147582928        4.3503250534165545       -3.0894814535175055     
   5240.7064600086296      -0.97015335437095018       0.48766668158694687     
   5052.2345792235128       -7.2559767218733668        4.8347888216033112     
   4866.5881217697442       -12.881313826101405        8.8795950491582154     
   4684.2548370141740       -16.220333444275639        11.549795447181264     
   4505.7224743236866       -15.647204353572306        11.773100098367498     
   5624.4267747430195       -3.2307548735634555        186.93981299147512     
   5449.9864177085037        2.4110385180765661        181.10622433251797     
   5274.7538609700550        4.3329466483842225        178.36045956560636     
   5099.0176205792532        3.4966896896330582        177.99315842594072     
   4923.0662125878316       0.86398781421894455        179.29496064881911     
   4747.1881530477476       -2.6034388046196000        181.55650596952015     
   4571.6719580110130       -5.9438699936376906        184.06843412345432     
   4396.8061435291384       -8.1955855810938374        186.12138484587700     
   4222.8792256539682       -8.3968653940846707        187.00599787212664     
   5241.3263473315346       -3.5291953006121730        358.62889341765930     
   5083.5977776029822       0.11625659616061057        352.92635230789472     
   4924.2098102968048        1.9368184276243028        349.42225881746191     
   4763.2866815181860        2.3466105443819743        347.71187314082005     
   4600.9526273721031        1.7597532963145568        347.39045547294631     
   4437.3318839635076       0.59036703330821183        348.05326600853437     
   4272.5486873975651      -0.74742789419792643        349.29556494241473     
   4106.7272737792937       -1.8395111360359806        350.71261246910535     
   3939.9918792137187       -2.2717623422070119        351.89966878363208     
   4862.7718060081588       -2.9399852576786998        517.00629890199389     
   4718.7277948871752       -1.3834537128793727        512.03262082570268     
   4572.7900183153006       -3.4754514975020356E-002   508.41843661734572     
   4424.9533858188652        1.0891440907701053        506.00531773785383     
   4275.2128069244836        1.9712738595701467        504.63483564852919     
   4123.5631911588471        2.5946665470685275        504.14856181040500     
   3969.9994480484024        2.9423539080266892        504.38806768474933     
   3814.5164871196080        2.9973676974095724        505.19492473257156     
   3657.1092178989243        2.7427396700688860        506.41070441496674     
   4487.7430098905170       -1.7691670099836756        662.48926972636070     
   4355.0730360822554       -2.1791224525400139        658.64196282610578     
   4220.7411612551168       -1.5077693108462427        655.40639749365675     
   4084.6479217251776       -8.6653197909299706E-002   652.81214726335008     
   3946.6938538089594        1.7526802747822785        650.88878566960545     
   3806.7794938225993        3.6786854943600247        649.66588624677649     
   3664.8053780824639        5.3598168486284976        649.17302252932905     
   3520.6720429048401        6.4645287253326842        649.43976805160560     
   3374.2800246060997        6.6612755122569069        650.49569634793988     
   4115.2198180961486      -0.32278282195989050        795.49504617179605     
   3992.3300677091506       -2.3617796661353623        792.97131124915597     
   3868.3099153460125       -2.4082230908331894        790.44354597507765     
   3743.0004774809795      -0.99172484823270679        788.07101676403977     
   3616.2428705885218        1.3581033098000717        786.01299003062354     
   3487.8782111428950        4.1116496308052319        784.42873218938939     
   3357.7476156186049        6.7393023631600499        783.47750965490593     
   3225.6922004900912        8.7114497548120653        783.31858884179098     
   3091.5530822315282        9.4984800531398150        784.11123616455245     
   3744.1820897428765        1.0931250415872000        916.44086851968336     
   3630.1954562888595       -2.0224553976336210        915.23759903498933     
   3515.7429568175858       -2.6621129860814108        913.58728658990503     
   3400.6412413299777       -1.4370143872852168        911.72058128628953     
   3284.7069598266967        1.0416737339671727        909.86813322576768     
   3167.7567623083246        4.1627847134352578        908.26059250977892     
   3049.6072987758625        7.3151518872321049        907.12860924027245     
   2930.0752192300233        9.8876085914793066        906.70283351869011     
   2808.9771736713487        11.268988161191260        907.21391544674509     
   3373.6096839484717        2.1725143163055236        1025.7439770514620     
   3268.3657683421975       -1.2521796908176839        1025.6577591234434     
   3163.2869618995551       -2.1954361274788425        1024.8950238667492     
   3058.2004015160214       -1.2334653420117547        1023.6994958767625     
   2952.9332240868594        1.0575223163647252        1022.3148997492152     
   2847.3125665074281        4.1013164987589334        1020.9849600798500     
   2741.1655656733619        7.3217068574048199        1019.9534014640851     
   2634.3193584797518        10.142483042604795        1019.4639484977058     
   2526.6010818220007        11.987434705725832        1019.7603257763180     
   3002.4824598304745        2.6093427370133213        1123.8216120480633     
   2906.5375703901609      -0.14198258938006347        1124.4487244547649     
   2811.1886068215263      -0.93418964612476429        1124.4241623338246     
   2716.3081462828395      -0.19202123928573656        1123.9464155819433     
   2621.7687659323947        1.6597798257142813        1123.2139740954797     
   2527.4430429286149        4.1964707435550963        1122.4253277710620     
   2433.2035544296637        6.9933087080205496        1121.7789665051732     
   2338.9228775940178        9.6255509141183211        1121.4733801944435     
   2244.4735895797198        11.668454555355083        1121.7070587352944     
   4505.7224743236866       -15.647204353572306        11.773100098367498     
   4328.7767367799288       -10.835743073319009        8.7749792047066073     
   4150.5584476541799       -3.6093654910689565        3.3024052694738448     
   3970.5880365966523        4.4333605603781052       -3.4346581733622141     
   3788.3859332579782        11.693867250141466       -10.226247589559343     
   3603.4725672888981        16.573586747148738       -15.862399445021913     
   3415.3683683397612        17.473951219202490       -19.133150205554116     
   3223.5937660614218        12.796392835877668       -18.828536336965655     
   3027.6691901042086       0.94234376504709871       -13.738594305146842     
   4222.8792256539682       -8.3968653940846707        187.00599787212664     
   4050.1963736067332       -5.8843558183243658        185.71957441550265     
   3878.6627181339923       -1.3281648214428969        182.23334213643460     
   3707.9667175768641        4.2332354001207477        177.29883044086696     
   3537.7968302747254        9.7613726445197244        171.66756873455358     
   3367.8415145690769        14.217774716534677        166.09108642361980     
   3197.7892288000016        16.563969416476766        161.32091291369605     
   3027.3284313076092        15.761484544791529        158.10857761069599     
   2856.1475804329120        10.771847904827155        157.20560992052219     
   3939.9918792137187       -2.2717623422070119        351.89966878363208     
   3774.1157185830421       -1.2837082403359545        351.78676900916616     
   3610.6763926460867        1.2330773637011134        349.82093227700130     
   3449.5047163222885        4.7146442014663990        346.37289479350233     
   3290.4315045307817        8.5970420033961545        341.81339276522203     
   3133.2875721912128        12.316320501601012        336.51316239884778     
   2977.9037342228894        15.308529427072585        330.84293990087184     
   2824.1108055451441        17.009718511006554        325.17346147767512     
   2671.7396010776242        16.855937485541403        319.87546333592479     
   3657.1092178989243        2.7427396700688860        506.41070441496674     
   3500.1616949122754        2.8542766222308273        507.02371380106445     
   3346.0263659258317        3.9024294842367908        506.17293494323866     
   3194.6507303268495        5.7121962137111950        503.92595177759341     
   3045.9822875030964        8.1085747697479746        500.35034824028907     
   2899.9685368414916        10.916563108868900        495.51370826744932     
   2756.5569777296164        13.961159189543423        489.48361579510487     
   2615.6951095549407        17.067360970092750        482.32765475962151     
   2477.3304317045131        20.060166407396082        474.11340909681945     
   3374.2800246060997        6.6612755122569069        650.49569634793988     
   3227.9612257975050        6.4176757300313056        651.47755960616666     
   3084.1395327086852        6.5079599604642908        651.39710938741166     
   2942.8534570842171        7.0605006853618306        650.09641828630947     
   2804.1415106684763        8.2036703862104332        647.41755889756109     
   2668.0422052057420        10.065841543714214        643.20260381582500     
   2534.5940524404100        12.775386639315798        637.29362563579548     
   2403.8355641169655        16.460678154540005        629.53269695196082     
   2275.8052519796925        21.250088570466460        619.76189035911887     
   3091.5530822315282        9.4984800531398150        784.11123616455245     
   2957.1412344418068        9.2945660436258777        785.19545723962756     
   2824.4427877303860        8.8777372133848758        785.60121486164837     
   2693.5615940876792        8.5941668638145075        785.02271121275987     
   2564.6015055040934        8.7900282963685186        783.15414847509032     
   2437.6663739700566        9.8114948123595696        779.68972883074764     
   2312.8600514758705        12.004739712880905        774.32365446184735     
   2190.2863900120351        15.715936299599775        766.75012755046816     
   2070.0492415689441        21.291257873744144        756.66335027872560     
   2808.9771736713487        11.268988161191260        907.21391544674509     
   2687.3286440484794        11.373024524337552        908.22455751653536     
   2566.3630257264704        10.839829663620208        908.89301061807964     
   2446.2238388307665        10.147803997158348        908.84324745002550     
   2327.0546034868607        9.7753479432273025        907.69924071070568     
   2208.9988398202445        10.200861920258376        905.08496309865745     
   2092.2000679563598        11.902746346234494        900.62438731251655     
   1976.8018080205993        15.359401639245107        893.94148605056671     
   1862.9475801386009        21.049228218068833        884.66023201143707     
   2526.6010818220007        11.987434705725832        1019.7603257763180     
   2418.1503778207771        12.541128133382699        1020.6120112520297     
   2309.3271414325968        12.222305731975212        1021.3802559090589     
   2200.2888888070152        11.556021333341846        1021.6964438911918     
   2091.1931360938020        11.067328770013205        1021.1919593423225     
   1982.1973994423067        11.281281873138823        1019.4981864063283     
   1873.4591950021677        12.722934474887552        1016.2465092268749     
   1765.1360389230636        15.917340407499296        1011.0683119479327     
   1657.3854473545184        21.389553502733861        1003.5949787131595     
   2244.4735895797198        11.668454555355083        1121.7070587352944     
   2149.2333589618006        12.686953831397318        1122.4049692611995     
   2052.7620295842862        12.853233838976848        1123.1707099865268     
   1955.2054415101172        12.653428121067009        1123.7207174293837     
   1856.7094348018290        12.573670219522683        1123.7714281079443     
   1757.4198495222770        13.100093677178961        1123.0392785401671     
   1657.4825257340467        14.718832035925402        1121.2407052441083     
   1557.0433035000212        17.916018838731247        1118.0921447380335     
   1456.2480228827508        23.177787627561486        1113.3100335397753     
   3027.6691901042086       0.94234376504709871       -13.738594305146842     
   2836.6260706646049       -16.134800248241845       -2.7219597025113731     
   2660.4171523294349       -33.410595490961214        11.733702866965151     
   2499.9448363340480       -47.877037845238419        25.394813419475955     
   2356.1115239151404       -56.526123188794827        34.027791971663845     
   2229.8196163081511       -56.349847403480453        33.399058540061681     
   2121.9715147492848       -44.340206368545864        19.275033140981183     
   2033.4696204741037       -17.489195965610747       -12.577864208826110     
   1965.2163347188689        27.211187926408002       -66.393213493143762     
   2856.1475804329120        10.771847904827155        157.20560992052219     
   2686.8668235361633        1.9167212355407628        160.26148965107237     
   2522.7401021297196       -8.3695865504496396        166.45108007873657     
   2364.4065657817951       -17.956576892454450        172.81398581263056     
   2212.5053640614292       -24.713751226919044        176.38981146205077     
   2067.6756465364656       -26.510610994500780        174.21816163611052     
   1930.5565627758062       -21.216657632066813        163.33864094391569     
   1801.7872623475166       -6.7013925795417890        140.79085399465862     
   1682.0068948204078        19.165682725781153        103.61440539752799     
   2671.7396010776242        16.855937485541403        319.87546333592479     
   2519.2621968419885        14.163306684868644        316.90201861635023     
   2365.5300432861413        9.5125278638771533        316.70573936315878     
   2210.9430169679813        4.2365228823132384        317.40667013770866     
   2055.9009944456889      -0.33178639924187792        317.12485550137507     
   1900.8038522774693       -2.8594781200857824        313.98034001573853     
   1746.0514670213747       -2.0136304201359962        306.09316824233798     
   1592.0437152356426        3.5386785614915652        291.58338474251292     
   1439.1804734781811        15.130370684489890        268.57103407769944     
   2477.3304317045131        20.060166407396082        474.11340909681945     
   2337.6638952605549        21.760467504224266        466.92198616180633     
   2193.0545065164756        21.516006967389558        462.12793060071601     
   2043.6868476773921        19.942058813947597        458.73898228716553     
   1889.7455009479575        17.653897059579094        455.76288109452992     
   1731.4150485332852        15.266795721202016        452.20736689611954     
   1568.8800726382424        13.396028814957674        447.08017956543370     
   1402.3251554676356        12.656870356948502        439.38905897600824     
   1231.9348792264009        13.664594363661820        428.14174500106054     
   2275.8052519796925        21.250088570466460        619.76189035911887     
   2145.9236234698228        25.863715096614442        610.04375125518197     
   2009.5810225386917        28.921109976247408        602.34790367170910     
   1866.7707156950751        30.399828238661712        596.37703815370674     
   1717.4859694477238        30.277424913080949        591.83384524618191     
   1561.7200503054833        28.531455029009180        588.42101549416714     
   1399.4662247773872        25.139473616368377        585.84123944260648     
   1230.7177593721617        20.079035704385433        583.79720763659759     
   1055.4679205986643        13.327696322537406        581.99161062113740     
   2070.0492415689441        21.291257873744144        756.66335027872560     
   1947.8930861480901        27.628560866081443        745.98967286480490     
   1819.3771220703579        33.008096105241520        736.99590845645321     
   1684.3272788059176        36.849628491756789        729.88695362983412     
   1542.5694858245270        38.572922924954412        724.86770496118288     
   1393.9296725961626        37.597744304569915        722.14305902681679     
   1238.2337685908558        33.343857530878267        721.91791240296538     
   1075.3077032783722        25.231027502995403        724.39716166586470     
   904.97740612898986        12.679019121868635        729.78570339180567     
   1862.9475801386009        21.049228218068833        884.66023201143707     
   1747.4239879732413        28.210516215335929        874.48210995877696     
   1626.7103358291999        35.057224569605410        865.70219483526876     
   1500.4891947948067        40.531256908648629        858.83484460816612     
   1368.4431359580194        43.574516859125197        854.39441724443122     
   1230.2547304070708        43.128908048253379        852.89527071129510     
   1085.6065492302112        38.136334103738307        854.85176297585883     
   934.18116351549645        27.538698652341054        860.77825200523353     
   775.66114435123632        10.277905321682823        871.18909576659212     
   1657.3854473545184        21.389553502733861        1003.5949787131595     
   1548.3680336235630        28.765092548409086        995.24342150501741     
   1435.8481945330104        36.348754584922631        988.09701268849335     
   1319.3891214466428        42.684510824900201        982.78682698112527     
   1198.5540057278199        46.316332479502705        979.94393910057750     
   1072.9060387401039        45.788190760703742        980.19942376444635     
   942.00841184705644        39.644056880301548        984.18435569042936     
   805.42431641220298        26.427902049962967        992.52980959612978     
   662.71694379901032        4.6836974814355301        1005.8668601992809     
   1456.2480228827508        23.177787627561486        1113.3100335397753     
   1354.5769277769487        30.447801268063699        1107.9959664718988     
   1251.0582288994465        38.162945366302438        1103.8106118965025     
   1145.1597165462470        44.549187575674864        1101.3090166413979     
   1036.3491810134469        47.832495549852467        1101.0462275344858     
   924.09441259705602        46.238836942262225        1103.5772914033303     
   807.86320159307502        37.994179406069065        1109.4572550759569     
   687.12333829751628        21.324490594870412        1119.2411653800448     
   561.34261300647256       -5.5442618379335045        1133.4840691434345     
   1965.2163347188689        27.211187926408002       -66.393213493143762     
   1895.4174414388963        83.494591095199098       -124.77276344853178     
   1799.0276830759738        134.25785428340396       -162.64672124134484     
   1672.0728985964372        166.25377404577114       -172.74135450055144     
   1510.5789269658931        166.23514693366667       -147.78293085429425     
   1310.5716071506210        120.95476950226066       -80.497717931370730     
   1068.0767781158956        17.165438301622657        36.388016639713619     
   779.12027882831330       -158.38005011233730        210.14800523018729     
   439.72794825355891       -418.92889918763984        448.05598021155856     
   1682.0068948204078        19.165682725781153        103.61440539752799     
   1563.3302012007614        53.154613835401733        66.936428752598147     
   1434.1754867492671        79.713993815111223        51.587367907002182     
   1289.6372474151015        82.492142495476060        63.161792840196526     
   1124.8099791480765        45.137379709267350        107.25427353176957     
   934.78817789681727       -48.701974714638652        189.45937996100673     
   714.66633961140462       -215.37760094295913        315.37168210789218     
   459.53896024108542       -471.24117914470133        490.58574995167720     
   164.50053573539640       -832.64438948827308        720.69615347220429     
   1439.1804734781811        15.130370684489890        268.57103407769944     
   1289.6152486452447        31.611889669345942        249.47130387409518     
   1141.5342062147267        38.609207842123055        250.69565083224481     
   989.38621061808499        17.618539974198768        276.35852312611377     
   827.62012628652087       -49.863899163653116        330.57436892928138     
   650.68481765114859       -182.34189480097155        417.45763641570085     
   453.02914914334042       -398.31923216662199        541.12277375892654     
   229.10198519453036       -716.29969648953249        705.68422913287634     
  -26.647809764499357       -1154.7870729994463        915.25645071117299     
   1231.9348792264009        13.664594363661820        428.14174500106054     
   1066.5910187191698        16.561949080608485        422.75332847233051     
   911.11159022147206        7.9458209896451990        435.18931827548124     
   759.58553814475692       -31.887308537634709        468.28308136424772     
   606.10180690079960       -122.64095812876201        524.86798469299026     
   444.74934090075567       -284.01864641311761        607.77739521564433     
   269.61708455655003       -535.72389201769704        719.84467988622259     
   74.793982279633667       -897.46021357105906        863.90320565905347     
  -145.63102151887148       -1388.9311297023726        1042.7863394876945     
   1055.4679205986643        13.327696322537406        581.99161062113740     
   886.57594636942156        5.7003225529628594        586.70396910428383     
   732.91538751826920       -15.273842117965359        605.57956097767772     
   588.50097993509507       -69.545678057224421        640.36971256175445     
   447.34745951032244       -177.06606563020142        692.82575017710963     
   303.46956213400182       -357.78588520322364        764.69900014419386     
   150.88202369664285       -631.65601714142826        857.74078878352793     
  -16.400419911868710       -1018.6273418117772        973.70244241551359     
  -204.36303280109695       -1538.6507395795732        1114.3352873605877     
   904.97740612898986        12.679019121868635        729.78570339180567     
   741.88846654330837       -3.2774594281978580        741.24469232645208     
   596.95334685411660       -34.047456855806018        762.37756967997711     
   464.39828592874329       -98.876843602931245        794.05266172562710     
   338.44952263449125       -217.01149011214937        837.13829473616659     
   213.33329583876218       -407.69726682546309        892.50279498485133     
   83.275844408757052       -690.18004418532053        961.01448874445339     
  -57.496592788066323       -1083.7056926336084        1043.5417022881857     
  -214.75777688433550       -1607.5200826124219        1140.9527618889456     
   775.66114435123632        10.277905321682823        871.18909576659212     
   624.84701418740292       -12.675866380143844        886.29696469538089     
   493.23321697788765       -51.372698599279744        906.09453512356538     
   375.54320606531383       -123.40108019320988        930.76617386277098     
   266.50043479269107       -246.34950001904116        960.49624772466882     
   160.82835650279705       -437.80644693378599        995.46912352075071     
   53.250424538570797       -715.36040979458426        1035.8691680628683     
  -61.509907757246253       -1096.5998774587222        1081.8807481624849     
  -188.72918704168529       -1599.1133387832999        1133.6882306312843     
   662.71694379901032        4.6836974814355301        1005.8668601992809     
   527.77002424879777       -24.799367818339931        1021.7822527678613     
   411.76274663846618       -70.247242723663135        1037.2416480494437     
   310.20149028467500       -146.63866284567780        1051.9444939802631     
   218.59263450442768       -268.95236379448488        1065.5902384967367     
   132.44255861432944       -452.16708118130441        1077.8783295352505     
   47.257641931319796       -711.26155061609768        1088.5082150321184     
  -41.455736227845591       -1061.2145077102086        1097.1793429238571     
  -138.19119654637859       -1517.0046880739158        1103.5911611465128     
   561.34261300647256       -5.5442618379335045        1133.4840691434345     
   442.97593167451686       -41.952433258420854        1147.6220231005584     
   342.54968458476782       -93.668764604593122        1156.3300991987221     
   256.63888852658619       -172.10986657833251        1159.0218670850568     
   181.81856028904920       -288.69234988309597        1155.1108964070793     
   114.66371666127537       -454.83282522157685        1144.0107568117132     
   51.749374432544556       -681.94790329615125        1125.1350179462574     
  -10.349449608165685       -981.45419481030274        1097.8972494579416     
  -75.057738671650043       -1364.7683104665980        1061.7110209937673     
   3002.4824598304745        2.6093427370133213        1123.8216120480633     
   2906.5375703901609      -0.14198258938006347        1124.4487244547649     
   2811.1886068215263      -0.93418964612476429        1124.4241623338246     
   2716.3081462828395      -0.19202123928573656        1123.9464155819433     
   2621.7687659323947        1.6597798257142813        1123.2139740954797     
   2527.4430429286149        4.1964707435550963        1122.4253277710620     
   2433.2035544296637        6.9933087080205496        1121.7789665051732     
   2338.9228775940178        9.6255509141183211        1121.4733801944435     
   2244.4735895797198        11.668454555355083        1121.7070587352944     
   2630.0875883750996        2.5173487892163848        1210.9773221780636     
   2544.3765577976951       0.93513067360231616        1211.8916785358185     
   2459.4620553280301       0.56942662743108485        1212.3348208754924     
   2375.2737112556320        1.1856709488699835        1212.4354834706685     
   2291.7411558699396        2.5492979362451251        1212.3224005943005     
   2208.7940194602461        4.4257418871071650        1212.1243065200385     
   2126.3619323159851        6.5804370996361286        1211.9699355211133     
   2044.3745247266047        8.7788178719624739        1211.9880218709254     
   1962.7614269816024        10.786318502366953        1212.3072998428681     
   2256.5095049355286        2.2494502684594408        1287.1135361956317     
   2181.7845639550505        1.6769962720334206        1288.0471801804156     
   2107.9252000631445        1.7043315332389284        1288.7106814587091     
   2034.9063690483217        2.2479753471142203        1289.1722860254854     
   1962.7030266990466        3.2244470087722448        1289.5002398761926     
   1891.2901288040080        4.5502658136066430        1289.7627890056503     
   1820.6426311517096        6.1419510566653344        1290.0281794092050     
   1750.7354895306842        7.9160220331052642        1290.3646570819435     
   1681.5436597294320        9.7889980379281951        1290.8404680189853     
   1881.9239651798468        1.8583738750156726        1352.0458145111438     
   1818.8123624216109        2.0988462739319402        1352.8012252885585     
   1756.5303106055837        2.4562059447229103        1353.4944932355686     
   1695.0863633875365        2.9589650731995789        1354.1426434141119     
   1634.4890744231177        3.6356358447926596        1354.7627008861098     
   1574.7469973681693        4.5147304456548909        1355.3716907135711     
   1515.8686858783287        5.6247610613144161        1355.9866379581724     
   1457.8626936093833        6.9942398776995560        1356.6245676819763     
   1400.7375742170154        8.6516790804093944        1357.3025049468044     
   1506.5067247763354        1.3968463094458912        1405.5897175354260     
   1455.5107267565472        2.2159127470489466        1406.0398097602326     
   1405.2296565342549        2.8107307356058300        1406.6290053584501     
   1355.6939380002420        3.2827132451970442        1407.3323758035467     
   1306.9339950454098        3.7332732450006461        1408.1249925692912     
   1258.9802515608962        4.2638237055239188        1408.9819271290760     
   1211.8631314374559        4.9757775961049902        1409.8782509565924     
   1165.6130585661681        5.9705478869956323        1410.7890355254817     
   1120.2604568379227        7.3495475475576200        1411.6893523092938     
   1130.4335393929912       0.91759427218704559        1447.5608056786452     
   1091.9304305192777        2.0434277593050751        1447.6489294956318     
   1053.9755074279738        2.7535867798310392        1448.0569669798579     
   1016.6093366132575        3.1832929812698012        1448.7273033613840     
   979.87248456924704        3.4677680106634625        1449.6023238706366     
   943.80551779045095        3.7422335158598798        1450.6244137378735     
   908.44900277071361        4.1419111437354559        1451.7359581932083     
   873.84350600446919        4.8020225418511018        1452.8793424670998     
   840.02959398591429        5.8577893578472526        1453.9969517895581     
   753.88016469799243       0.47334446352115833        1477.7746393515317     
   728.12224726885438        1.5966233781652477        1477.5145803949238     
   702.72013286542119        2.2704549505262719        1477.7211272520315     
   677.71280295330678        2.6247773992524230        1478.3132462548735     
   653.13923899800045        2.7895289426035390        1479.2099037353807     
   629.03842246495799        2.8946477989524340        1480.3300660253331     
   605.44933481970804        3.0700721865113110        1481.5926994566626     
   582.41095752777130        3.4457403238927498        1482.9167703611502     
   559.96227205469017        4.1515904293994481        1484.2212450707541     
   377.02235635953161       0.11682358411403015        1496.0467789643799     
   364.13695056460233       0.89073167157773980        1495.5227583578328     
   351.41580242557495        1.3470161216858401        1495.5642353273156     
   338.88458074734473        1.5712396174540970        1496.0760246513994     
   326.56895433481390        1.6489648418036182        1496.9629411084406     
   314.49459199269933        1.6657544772803021        1498.1297994770352     
   302.68716252595988        1.7071712070053593        1499.4814145354062     
   291.17233473934033        1.8587777135328594        1500.9226010622288     
   279.97577743789344        2.2061366801454483        1502.3581738358935     
   3.5870045716535515E-002  -9.9241665705280216E-002   1502.1927849278932     
   2.5313965783103572E-002  -5.9015292756748480E-002   1501.5594592847333     
   1.4785687177166875E-002  -3.1048833170060606E-002   1501.5290403582192     
   4.9137221901554831E-003  -1.3247246090250110E-002   1502.0014587183098     
  -3.6734170282156811E-003  -3.5154908700364769E-003   1502.8766449350185     
  -1.0347218128748453E-002   2.4147335017171310E-004   1504.0545295783772     
  -1.4479168998029316E-002   1.1868734414270578E-004   1505.4350432183223     
  -1.5440757331178808E-002  -1.7888079903108814E-003   1506.9181164248862     
  -1.2603470855822937E-002  -3.3859719696071222E-003   1508.4036797680158     
   2244.4735895797198        11.668454555355083        1121.7070587352944     
   2149.2333589618006        12.686953831397318        1122.4049692611995     
   2052.7620295842862        12.853233838976848        1123.1707099865268     
   1955.2054415101172        12.653428121067009        1123.7207174293837     
   1856.7094348018290        12.573670219522683        1123.7714281079443     
   1757.4198495222770        13.100093677178961        1123.0392785401671     
   1657.4825257340467        14.718832035925402        1121.2407052441083     
   1557.0433035000212        17.916018838731247        1118.0921447380335     
   1456.2480228827508        23.177787627561486        1113.3100335397753     
   1962.7614269816024        10.786318502366953        1212.3072998428681     
   1880.3909742058429        12.147295055021573        1212.9491586128438     
   1796.2598228205097        12.833841248412455        1213.7375454944540     
   1710.4900850589429        13.252997860275968        1214.5050319672910     
   1623.2038731545149        13.811805668649981        1215.0841895111398     
   1534.5232993404456        14.917305450832885        1215.3075896058165     
   1444.5704758501504        16.976537984868230        1215.0078037310486     
   1353.4675149169589        20.396544048576345        1214.0174033665232     
   1261.3365287742527        25.584364419883912        1212.1689599920212     
   1681.5436597294320        9.7889980379281951        1290.8404680189853     
   1611.6645161706499        11.327317006409999        1291.5353227823398     
   1539.7787647711946        12.375188521381233        1292.4389217283763     
   1465.9863585609135        13.265789348936948        1293.4844955445774     
   1390.3872505697971        14.332296255636152        1294.6052749181665     
   1313.0813938277329        15.907886007883008        1295.7344905363884     
   1234.1687413646539        18.325735371993801        1296.8053730866106     
   1153.7492462104690        21.919021114377415        1297.7511532560611     
   1071.9228613950565        27.020920001403908        1298.5050617320246     
   1400.7375742170154        8.6516790804093944        1357.3025049468044     
   1343.0227668841608        10.217654293855901        1358.1281371942800     
   1283.2949166581911        11.470094024133402        1359.2100779185994     
   1221.6333859915778        12.673539779357384        1360.5667412605239     
   1158.1175373367091        14.092533067583418        1362.2165413606260     
   1092.8267331461318        15.991615397194948        1364.1778923596485     
   1025.8403358722037        18.635328276139091        1366.4692083983657     
   957.23770796731787        22.288213212383994        1369.1089036173680     
   887.09821188390038        27.214811713952543        1372.1153921575331     
   1120.2604568379227        7.3495475475576200        1411.6893523092938     
   1074.4345083743267        8.8089415255347490        1412.6922772737096     
   1026.7843397035670        10.111376123324192        1413.9862532952975     
   977.37029132657904        11.457986344330266        1415.6594022140603     
   926.25270374422564        13.049907191248565        1417.7998458700690     
   873.49191745749613        15.088273667329929        1420.4957061032862     
   819.14827296713838        17.774220775170221        1423.8351047537487     
   763.28211077418223        21.308883518188310        1427.9061636614213     
   705.95377137943365        25.893396899038947        1432.7970046663529     
   840.02959398591429        5.8577893578472526        1453.9969517895581     
   805.86852266920516        7.0918133099161764        1455.1924184452903     
   770.22309512936749        8.2918531859848201        1456.7026870884979     
   733.13619854161414        9.6008662367052011        1458.6701115044018     
   694.65072008123047        11.161809713125223        1461.2370454781922     
   654.80954692369630        13.117640866749070        1464.5458427951273     
   613.65556624410590        15.611316947965179        1468.7388572403174     
   571.23166521786766        18.785795208064172        1473.9584425989533     
   527.58073102035905        22.784032898342133        1480.3469526562994     
   559.96227205469017        4.1515904293994481        1484.2212450707541     
   537.29359179683274        5.0569042555478063        1485.5932361338816     
   513.58724415748918        6.0043435781475125        1487.2946185284140     
   488.87023161220242        7.0839166488458147        1489.5065022305173     
   463.16955663667835        8.3856317200115313        1492.4099972166719     
   436.51222170661595        9.9994970439734914        1496.1862134629002     
   408.92522929753881        12.015520872587842        1501.0162609455865     
   380.43558188517392        14.523711458131771        1507.0812496409619     
   351.07028194521831        17.614077053021305        1514.5622895251965     
   279.97577743789344        2.2061366801454483        1502.3581738358935     
   268.67849778521685        2.6948489709470351        1503.8594057642883     
   256.85284800999148        3.2416656667397206        1505.6972868451785     
   244.51151451402967        3.8888747735769584        1508.0762074916499     
   231.66718369941495        4.6787642983967004        1511.2005581169828     
   218.33254196809384        5.6536222475754556        1515.2747291344217     
   204.52027572192998        6.8557366274720266        1520.5031109570471     
   190.24307136282800        8.3273954443972116        1527.0900939981470     
   175.51361529278992        10.110886705021223        1535.2400686708174     
  -1.2603470855822937E-002  -3.3859719696071222E-003   1508.4036797680158     
  -7.9773376600727960E-003  -3.7179357002951842E-003   1509.9556027613221     
  -4.0320911668363752E-003  -3.3621818429887271E-003   1511.8459312688751     
  -8.2877719170364671E-004  -2.5221961717216473E-003   1514.2868603867000     
   1.5715584705912732E-003  -1.4014648767287667E-003   1517.4905852109250     
   3.1078700618338388E-003  -2.0347388556143215E-004   1521.6693008374020     
   3.7191116767931482E-003   8.6829063497565308E-004   1527.0352023622484     
   3.3442375147875666E-003   1.6103425991478484E-003   1533.8004848814232     
   1.9222017856179278E-003   1.8191960570781108E-003   1542.1773434909771     
   1456.2480228827508        23.177787627561486        1113.3100335397753     
   1354.5769277769487        30.447801268063699        1107.9959664718988     
   1251.0582288994465        38.162945366302438        1103.8106118965025     
   1145.1597165462470        44.549187575674864        1101.3090166413979     
   1036.3491810134469        47.832495549852467        1101.0462275344858     
   924.09441259705602        46.238836942262225        1103.5772914033303     
   807.86320159307502        37.994179406069065        1109.4572550759569     
   687.12333829751628        21.324490594870412        1119.2411653800448     
   561.34261300647256       -5.5442618379335045        1133.4840691434345     
   1261.3365287742527        25.584364419883912        1212.1689599920212     
   1168.6224157198810        32.680385801475495        1210.2246935018397     
   1075.2907467183054        40.227237117995060        1209.3207224737803     
   980.74464300291720        46.235322480827563        1209.8504664126492     
   884.38722580707918        48.715046001206559        1212.2073448230772     
   785.62161636397138        45.676811789622946        1216.7847772101636     
   683.85093590715326        35.131023958003937        1223.9761830784698     
   578.47830566983475        15.088086617100828        1234.1749819329070     
   468.90684688525465       -16.441596122381810        1247.7745932783730     
   1071.9228613950565        27.020920001403908        1298.5050617320246     
   989.73633505155919        33.882617268758963        1299.4672313072042     
   907.75373830841818        41.146374803221278        1301.2511996199432     
   825.35100868872860        46.731984348471144        1304.1103046261985     
   741.90408371553917        48.559237648091568        1308.2978842819207     
   656.78890091196934        44.547926445750221        1314.0672765430504     
   569.38139780107338        32.617842484870550        1321.6718193654729     
   479.05751190604292        10.688777509562215        1331.3648507051134     
   385.19318074981123       -23.319476737236215        1343.3997085179428     
   887.09821188390038        27.214811713952543        1372.1153921575331     
   816.76052891976883        33.707048614516424        1375.5249589598654     
   747.10125818097049        40.516574775079420        1379.4514809925279     
   677.50663883294351        45.597520747114345        1384.0297604365908     
   607.36291004089071        46.904017081333222        1389.3945994732849     
   536.05631097017113        42.390194328878010        1395.6808002836094     
   462.97308078594580        30.010183040275649        1403.0231650487324     
   387.49945865346496        7.7181137664360335        1411.5564959499450     
   309.02168373816011       -26.531882941275583        1421.4155951680120     
   705.95377137943365        25.893396899038947        1432.7970046663529     
   648.53684047208628        31.806232782668303        1438.1992555321226     
   591.98736084726875        37.934053387120343        1443.7710042492665     
   535.73935866512431        42.390279246121480        1449.5500629982205     
   479.22686008527620        43.288330891829148        1455.5742439593771     
   421.88389126777406        38.741628857767651        1461.8813593131460     
   363.14447837252851        26.863593676918583        1468.5092212399350     
   302.44264755953753        5.7676458825696812        1475.4956419202404     
   239.21242498861216       -26.432793992441248        1482.8784335344503     
   527.58073102035905        22.784032898342133        1480.3469526562994     
   483.90711285621080        27.832722717562490        1487.2915000961004     
   441.06610081872145        32.995026993092168        1494.0592070478292     
   398.57699341443151        36.668607413601322        1500.6124414654248     
   355.95908915051047        37.251125669559315        1506.9135713025148     
   312.73168653410687        33.140243451569390        1512.9249645130819     
   268.41408407201260        22.733622448807822        1518.6089890507808     
   222.52558027134720        4.4289243516998908        1523.9280128694984     
   174.58547363909193       -23.376189149756058        1528.8444039230390     
   351.07028194521831        17.614077053021305        1514.5622895251965     
   321.71318922005116        21.439071364093323        1522.6030717239246     
   292.99153260625326        25.295711945375302        1530.1655270459653     
   264.54736831038701        27.990852818808769        1537.1581249926303     
   236.02275253877903        28.331348005678748        1543.4893350651414     
   207.05974149821574        25.124051528347209        1549.0676267648721     
   177.30039139514622        17.175817408469861        1553.8014695929783     
   146.38675843613052        3.2934996677683017        1557.5993330508259     
   113.96089882769319       -17.716047671900697        1560.3696866396883     
   175.51361529278992        10.110886705021223        1535.2400686708174     
   160.79691271113191        12.277831666022635        1543.9353494877664     
   146.41771072136333        14.432324598079603        1551.9394019012716     
   132.17830858225130        15.915363030382743        1559.1283427342908     
   117.88100555208163        16.067944490622057        1565.3782888095052     
   103.32810088953239        14.231066507570549        1570.5653569498993     
   88.321893853045907        9.7457266096181066        1574.5656639782167     
   72.664683701259406        1.9529223253551642        1577.2553267173582     
   56.158769692594483       -9.8063488171144755        1578.5104619901667     
   1.9222017856179278E-003   1.8191960570781108E-003   1542.1773434909771     
   1.2647711924896270E-004   1.5565676423678506E-003   1551.0897124597686     
  -1.3103246319557578E-003   1.0813047772626758E-003   1559.2302692714786     
  -2.3605404953047191E-003   4.8561728073705018E-004   1566.4643238447293     
  -2.9965075485444271E-003  -1.3828504018959529E-004   1572.6571860979307     
  -3.1905628347779717E-003  -6.9819227559292526E-004   1577.6741659495763     
  -2.9150433536950966E-003  -1.1018945045098338E-003   1581.3805733181746     
  -2.1422861202674793E-003  -1.2571817631147155E-003   1583.6417181222319     
  -8.4462814811422135E-004  -1.0718441221163005E-003   1584.3229102804214     
   561.34261300647256       -5.5442618379335045        1133.4840691434345     
   442.97593167451686       -41.952433258420854        1147.6220231005584     
   342.54968458476782       -93.668764604593122        1156.3300991987221     
   256.63888852658619       -172.10986657833251        1159.0218670850568     
   181.81856028904920       -288.69234988309597        1155.1108964070793     
   114.66371666127537       -454.83282522157685        1144.0107568117132     
   51.749374432544556       -681.94790329615125        1125.1350179462574     
  -10.349449608165685       -981.45419481030274        1097.8972494579416     
  -75.057738671650043       -1364.7683104665980        1061.7110209937673     
   468.90684688525465       -16.441596122381810        1247.7745932783730     
   366.08293589931918       -58.851435279558984        1258.7148110293920     
   279.80992708295258       -115.34491512352101        1260.1657237119350     
   207.77640870716647       -193.62674141760502        1251.3661927476332     
   147.67096904274359       -301.40161992589663        1231.5550795584379     
   97.182196360889407       -446.37425641104664        1199.9712455661736     
   53.998678932328147       -636.24935663714973        1155.8535521923320     
   15.809005028184799       -878.73162636735105        1098.4408608590525     
  -19.698237080752790       -1181.5257713654892        1026.9720329878664     
   385.19318074981123       -23.319476737236215        1343.3997085179428     
   297.20741397061181       -68.863293175785572        1350.8610147090108     
   224.00614037371525       -127.10931417008401        1346.0561343711572     
   164.19567623227900       -202.70315214272927        1328.0725202424273     
   116.38233781965451       -300.29041951595758        1295.9976250601192     
   79.172441408922111       -424.51672871291322        1248.9189015620448     
   51.172303273465502       -580.02769215539774        1185.9238024861936     
   30.988239686637542       -771.46892226578620        1106.0997805699139     
   17.226566921583697       -1003.4860314670225        1008.5342885511574     
   309.02168373816011       -26.531882941275583        1421.4155951680120     
   235.41506725373745       -72.268296537488268        1425.3348949238232     
   174.51622816773934       -129.14859063088008        1415.2651883802930     
   125.65336727624401       -199.41209590096281        1390.1658191326042     
   88.154685375440707       -285.29814302732530        1348.9961307755423     
   61.348383261250035       -389.04606269009400        1290.7154669042022     
   44.562661729995085       -512.89518556835287        1214.2831711135132     
   37.125721577425452       -659.08484234282298        1118.6585869988005     
   38.365763599894080       -829.85436369215859        1002.8010581547848     
   239.21242498861216       -26.432793992441248        1482.8784335344503     
   179.77159711383624       -69.346734955503038        1483.4107124581512     
   130.71809417556554       -121.64937339309176        1469.0567429426055     
   91.906158013269831       -183.82656984020767        1438.6710589813865     
   63.190030466172971       -256.36418483286968        1391.1081945681881     
   44.423953373852157       -339.74807890571543        1325.2226836966254     
   35.462168575513175       -434.46411259467266        1239.8690603605180     
   36.158917910822964       -540.99814643460343        1133.9018585532901     
   46.368443218838848       -659.83604096132285        1006.1756122685977     
   174.58547363909193       -23.376189149756058        1528.8444039230390     
   129.34270491623150       -60.378898020118477        1526.3627280964920     
   91.989642107985389       -104.79829134315594        1508.6946552616898     
   62.710724617409952       -156.01957110866221        1474.6132093521692     
   41.690391847877180       -213.42793930547680        1422.8914143017651     
   29.113083202384317       -276.40859792332435        1352.3022940440260     
   25.163238084352415       -344.34674895120207        1261.6188725126465     
   30.025295896746826       -416.62759437892049        1149.6141736412947     
   43.883696043011270       -492.63633619514337        1015.0612213640264     
   113.96089882769319       -17.716047671900697        1560.3696866396883     
   83.194092026285489       -45.645075321564732        1555.4652026231465     
   57.708775675508043       -78.781973368364959        1535.4427825410339     
   37.823743263053537       -116.06409685348942        1499.0172398081895     
   23.857788276330808       -156.42880081876635        1444.9033878397033     
   16.129704202827682       -198.81344030599942        1371.8160400507991     
   14.958284530131635       -242.15537035645903        1278.4700098562935     
   20.662322745629936       -285.39194601217713        1163.5801106714380     
   33.560612336929211       -327.46052231460141        1025.8611559110609     
   56.158769692594483       -9.8063488171144755        1578.5104619901667     
   40.391459809217920       -25.425556450415883        1571.9923968227040     
   27.253398589029686       -43.787048354857788        1550.5649819841929     
   17.001890124311814       -64.033144222715293        1512.9081199126022     
   9.8942385075678274       -85.306163745802664        1457.7017130458098     
   6.1877478309489575       -106.74842661693461        1383.6256638213190     
   6.1397221868008174       -127.50225252822136        1289.3598746771638     
   10.007465667499105       -146.70996117171660        1173.5842480511374     
   18.048282365372472       -163.51387223969857        1034.9786863807074     
  -8.4462814811422135E-004  -1.0718441221163005E-003   1584.3229102804214     
   5.0963035675328551E-004  -6.3099701732040878E-004   1577.2185714792781     
   1.4145590030777411E-003  -1.4518994983434854E-004   1555.3251107947917     
   1.8413755669236603E-003   2.8963638418284332E-004   1517.3108192287957     
   1.7612974736455215E-003   5.7753998586629026E-004   1461.8439877833050     
   1.1455426312058788E-003   6.2258051070506891E-004   1387.5929074601968     
  -3.4671662990177211E-005   3.2881584998108106E-004   1293.2258692612529     
  -1.8081273830741320E-003  -3.9969412307629864E-004   1177.4111641881689     
  -4.2036071629839942E-003  -1.6588914775050416E-003   1038.8170832435060     
   3.5870045716535515E-002  -9.9241665705280216E-002   1502.1927849278932     
   2.5313965783103572E-002  -5.9015292756748480E-002   1501.5594592847333     
   1.4785687177166875E-002  -3.1048833170060606E-002   1501.5290403582192     
   4.9137221901554831E-003  -1.3247246090250110E-002   1502.0014587183098     
  -3.6734170282156811E-003  -3.5154908700364769E-003   1502.8766449350185     
  -1.0347218128748453E-002   2.4147335017171310E-004   1504.0545295783772     
  -1.4479168998029316E-002   1.1868734414270578E-004   1505.4350432183223     
  -1.5440757331178808E-002  -1.7888079903108814E-003   1506.9181164248862     
  -1.2603470855822937E-002  -3.3859719696071222E-003   1508.4036797680158     
  -376.95897877153055      -0.30981399454300629        1496.0887843263870     
  -364.09181027344056       -1.0056208584351793        1495.5487059113564     
  -351.38919800099825       -1.4075119357760570        1495.5779856506911     
  -338.87560105981822       -1.5970175786302718        1496.0809991297010     
  -326.57547855530635       -1.6556681383772798        1496.9621219337591     
  -314.51328959314122       -1.6649939671993508        1498.1257296483395     
  -302.71349327882012       -1.7065254167646486        1499.4761978586348     
  -291.20054871771708       -1.8617928384097979        1500.9179021500352     
  -279.99891501550252       -2.2123265843810600        1502.3552181078949     
  -753.83806527311037      -0.64871330672525573        1477.8549155196288     
  -728.09115531274904       -1.7013639933312845        1477.5651259570548     
  -702.70117373620599       -2.3257685420406915        1477.7488825687992     
  -677.70603428508298       -2.6483060915837768        1478.3243970583162     
  -653.14365070121096       -2.7953557812837460        1479.2098811288784     
  -629.05193672605901       -2.8932967493292949        1480.3235464840038     
  -605.46880610144979       -3.0685081352995951        1481.5836048270605     
  -582.43217256879086       -3.4473690770945780        1482.9082678612554     
  -559.97994986992819       -4.1562587143374117        1484.2157472901074     
  -1130.4199197702260       -1.0614986957908741        1447.6727558309071     
  -1091.9183257137015       -2.1299260659764059        1447.7206227970557     
  -1053.9669886083732       -2.7995727788659224        1448.0975323519447     
  -1016.6056438504216       -3.2028901546123052        1448.7449234193693     
  -979.87402683593598       -3.4723295138142589        1449.6042349234806     
  -943.81187296086966       -3.7403421764249742        1450.6169057884358     
  -908.45891762159818       -4.1393794634056462        1451.7243749382003     
  -873.85489621408874       -4.8018926948124658        1452.8680812968662     
  -840.03954413457041       -5.8603331913346892        1453.9894637884627     
  -1506.5230725738634       -1.4937292547052721        1405.7238825831096     
  -1455.5189260378077       -2.2749884448996340        1406.1270998068549     
  -1405.2324897075132       -2.8426787730523415        1406.6797362394268     
  -1355.6936876521759       -3.2965471360305969        1407.3558491281931     
  -1306.9324439404779       -3.7363404298644127        1408.1294957207660     
  -1258.9786826415902       -4.2618055515936817        1408.9747332644770     
  -1211.8623278242369       -4.9726893969564685        1409.8656190068343     
  -1165.6133035575294       -5.9687388630729856        1410.7762101951610     
  -1120.2615339102663       -7.3497008460781785        1411.6805640769282     
  -1881.9660539952927       -1.8909640772560579        1352.1898731001245     
  -1818.8385608465073       -2.1202324982216396        1352.8964603617724     
  -1756.5435241237044       -2.4688406518109787        1353.5512954705914     
  -1695.0894235869409       -2.9650544047998437        1354.1704451001278     
  -1634.4847389963440       -3.6371396244262542        1354.7699759237942     
  -1574.7379501120279       -4.5133621775668189        1355.3659546151778     
  -1515.8575366940931       -5.6219879313462116        1355.9744478475513     
  -1457.8519785026353       -6.9912827527052173        1356.6115222944734     
  -1400.7297552977611       -8.6495125086534017        1357.2932446292941     
  -2256.5673943455240       -2.1987622563873401        1287.2523047045336     
  -2181.8228347014301       -1.6493395947852605        1288.1406078368589     
  -2107.9459389468570       -1.6918125421482273        1288.7680112847911     
  -2034.9121095513426       -2.2441893303015377        1289.2019822504431     
  -1962.6967489846504       -3.2244781916413103        1289.5099879358211     
  -1891.2752597162792       -4.5506873581010723        1289.7594955433631     
  -1820.6230442159597       -6.1408250619206228        1290.0179722750568     
  -1750.7155049532146       -7.9128995348974058        1290.3528853330999     
  -1681.5280443977206       -9.7849190093481866        1290.8317019196402     
  -2630.1456239357130       -2.3626828857532018        1211.0927547198230     
  -2544.4173521641133      -0.84599110303827274        1211.9714456077634     
  -2459.4855812670053      -0.52534857092234688        1212.3856849213025     
  -2375.2810034420700       -1.1697292814635603        1212.4637314943254     
  -2291.7343108866739       -2.5481072260323572        1212.3338441600260     
  -2208.7761957983403       -4.4294563962292841        1212.1242817521336     
  -2126.3373503746302       -6.5827507841149782        1211.9633031040773     
  -2044.3484668128581       -8.7769643805986561        1211.9791670494012     
  -1962.7402373107461       -10.781071178123057        1212.3001324215986     
  -3002.5192730769713       -2.3282850583433401        1123.8928004690099     
  -2906.5677177959087       0.30613160902044001        1124.5008770495094     
  -2811.2082981741951        1.0167971347940465        1124.4601176197441     
  -2716.3153631555260       0.22254837282298467        1123.9689637471877     
  -2621.7632616835645       -1.6577778215704484        1123.2258569995288     
  -2527.4263427021115       -4.2053445952399215        1122.4292389443488     
  -2433.1789551548154       -7.0013150932182953        1121.7775511492118     
  -2338.8954479853915       -9.6268524612258943        1121.4692351816518     
  -2244.4501701377103       -11.663119845529195        1121.7027326092307     
  -1.2603470855822937E-002  -3.3859719696071222E-003   1508.4036797680158     
  -7.9773376600727960E-003  -3.7179357002951842E-003   1509.9556027613221     
  -4.0320911668363752E-003  -3.3621818429887271E-003   1511.8459312688751     
  -8.2877719170364671E-004  -2.5221961717216473E-003   1514.2868603867000     
   1.5715584705912732E-003  -1.4014648767287667E-003   1517.4905852109250     
   3.1078700618338388E-003  -2.0347388556143215E-004   1521.6693008374020     
   3.7191116767931482E-003   8.6829063497565308E-004   1527.0352023622484     
   3.3442375147875666E-003   1.6103425991478484E-003   1533.8004848814232     
   1.9222017856179278E-003   1.8191960570781108E-003   1542.1773434909771     
  -279.99891501550252       -2.2123265843810600        1502.3552181078949     
  -268.69324244245570       -2.7018218457439218        1503.8582776773465     
  -256.86041092580462       -3.2480726703494440        1505.6973001302620     
  -244.51322405655714       -3.8937576948402608        1508.0767920424269     
  -231.66448542573866       -4.6815555560786635        1511.2012599896552     
  -218.32699862469912       -5.6541448917516988        1515.2752105476482     
  -204.51356724424633       -6.8542043380207645        1520.5031502921859     
  -190.23699487553193       -8.3244125318816771        1527.0895857991450     
  -175.51008510972073       -10.107448110689283        1535.2390236440908     
  -559.97994986992819       -4.1562587143374117        1484.2157472901074     
  -537.30511475920923       -5.0626106480764861        1485.5910319836312     
  -513.59343813495911       -6.0098389597970368        1487.2945079451715     
  -488.87202495453238       -7.0882935069040798        1489.5074825782731     
  -463.16798017502362       -8.3883241468716676        1492.4112632864601     
  -436.50840875384876       -10.000280737420638        1496.1871574731340     
  -408.92041564829395       -12.014513136268818        1501.0164725418888     
  -380.43110581558125       -14.521371200904909        1507.0805158961050     
  -351.06758421299759       -17.611204788795845        1514.5605949393453     
  -840.03954413457041       -5.8603331913346892        1453.9894637884627     
  -805.87542479896956       -7.0956334962635879        1455.1892674833241     
  -770.22725478890413       -8.2959033717983175        1456.7023432216295     
  -733.13799924878140       -9.6043599658562187        1458.6712885827783     
  -694.65062332318450       -11.164220427057586        1461.2387011457597     
  -654.80809215628688       -13.118701902785403        1464.5471784899237     
  -613.65337089277580       -15.611021541872134        1468.7393181943826     
  -571.22942467694622       -18.784396491990833        1473.9577178382538     
  -527.57921865339438       -22.782043901826199        1480.3449750009099     
  -1120.2615339102663       -7.3497008460781785        1411.6805640769282     
  -1074.4360030727325       -8.8104395432132492        1412.6883859796985     
  -1026.7860019575587       -10.113508226952661        1413.9855944678834     
  -977.37191471709252       -11.460187405035413        1415.6605666444464     
  -926.25412550406543       -13.051757586529106        1417.8016796122388     
  -873.49301847088475       -15.089499279513348        1420.4973104740643     
  -819.14897777016404       -17.774692992739830        1423.8358363328848     
  -763.28238755448717       -21.308619234612621        1427.9056342915678     
  -705.95363197628421       -25.892558513442964        1432.7950814529336     
  -1400.7297552977611       -8.6495125086534017        1357.2932446292941     
  -1343.0186800917279       -10.216577942867843        1358.1237892758886     
  -1283.2938207109580       -11.469895846331781        1359.2090501918626     
  -1221.6345391371087       -12.674006157831229        1360.5676733518098     
  -1158.1201973517445       -14.093448815919260        1362.2183047302431     
  -1092.8301573364986       -15.992763759362447        1364.1795903017507     
  -1025.8437810728458       -18.636490926502631        1366.4701760407302     
  -957.24043054251683       -22.289170256349621        1369.1087079218496     
  -887.09946772693525       -27.215341686985312        1372.1138319195750     
  -1681.5280443977206       -9.7849190093481866        1290.8317019196402     
  -1611.6552863668776       -11.323597848064651        1291.5308791751770     
  -1539.7748521191663       -12.372308550993807        1292.4374989017103     
  -1465.9866402864177       -13.264046557131962        1293.4849652934279     
  -1390.3905495001864       -14.331807305348207        1294.6066825444293     
  -1313.0864783918271       -15.908586233478218        1295.7360548488909     
  -1234.1743255931431       -18.327378780800075        1296.8064864010212     
  -1153.7539897356296       -21.921180385636717        1297.7513813950279     
  -1071.9253694508523       -27.022986486528623        1298.5041440249686     
  -1962.7402373107461       -10.781071178123057        1212.3001324215986     
  -1880.3776524091356       -12.141048411883162        1212.9450574807072     
  -1796.2532372522999       -12.827988661907511        1213.7357291054918     
  -1710.4889859428415       -13.248538936772206        1214.5047990577439     
  -1623.2068925831729       -13.809346244678068        1215.0849190992069     
  -1534.5289512758438       -14.917057594030439        1215.3087409917530     
  -1444.5771561234164       -16.978319993329308        1215.0089164970450     
  -1353.4735012283295       -20.399780450789365        1214.0180973769727     
  -1261.3399806932989       -25.588085975385297        1212.1689353932898     
  -2244.4501701377103       -11.663119845529195        1121.7027326092307     
  -2149.2176087297630       -12.678478788165080        1122.4017259957027     
  -2052.7531171804162       -12.844178500366297        1123.1685293112710     
  -1955.2023438838942       -12.645713629576790        1123.7195312333101     
  -1856.7109372347688       -12.568578824251290        1123.7711204391428     
  -1757.4245456274350       -13.098268732626480        1123.0396856062555     
  -1657.4888174561270       -14.720278001961447        1121.2416154119642     
  -1557.0494011153530       -17.920101280744689        1118.0932985336149     
  -1456.2519449996028       -23.183233217051907        1113.3111236486409     
   1.9222017856179278E-003   1.8191960570781108E-003   1542.1773434909771     
   1.2647711924896270E-004   1.5565676423678506E-003   1551.0897124597686     
  -1.3103246319557578E-003   1.0813047772626758E-003   1559.2302692714786     
  -2.3605404953047191E-003   4.8561728073705018E-004   1566.4643238447293     
  -2.9965075485444271E-003  -1.3828504018959529E-004   1572.6571860979307     
  -3.1905628347779717E-003  -6.9819227559292526E-004   1577.6741659495763     
  -2.9150433536950966E-003  -1.1018945045098338E-003   1581.3805733181746     
  -2.1422861202674793E-003  -1.2571817631147155E-003   1583.6417181222319     
  -8.4462814811422135E-004  -1.0718441221163005E-003   1584.3229102804214     
  -175.51008510972073       -10.107448110689283        1535.2390236440908     
  -160.79662383381279       -12.274835909532023        1543.9339674448056     
  -146.42002529970017       -14.430195313129175        1551.9379550825893     
  -132.18253564536963       -15.914346781477697        1559.1270445287462     
  -117.88640100880140       -16.068110774405834        1565.3772937547376     
  -103.33386752800158       -14.232307752205777        1570.5647607317082     
  -88.327181341101593       -9.7477581749325779        1574.5655034310134     
  -72.668588585934117       -1.9552825023031595        1577.2555798240826     
  -56.160335400677880        9.8042988052107916        1578.5110478822128     
  -351.06758421299759       -17.611204788795845        1514.5605949393453     
  -321.71282344279854       -21.436437005596304        1522.6007446940844     
  -292.99306593725646       -25.293723723612970        1530.1630420234178     
  -264.55032139861390       -27.989763950357627        1537.1558570917030     
  -236.02659952917486       -28.331256693369944        1543.4875600634150     
  -207.06391003114490       -25.124900960138632        1549.0665211029102     
  -177.30426260692425       -17.177395758587338        1553.8011103747090     
  -146.38966695864238       -3.2954400958721664        1557.5996980431023     
  -113.96213278869325        17.714267020063403        1560.3706542725517     
  -527.57921865339438       -22.782043901826199        1480.3449750009099     
  -483.90667550562762       -27.830707667134874        1487.2886584492528     
  -441.06658317424257       -32.993349207661382        1494.0561028958566     
  -398.57820468910057       -36.667511955943780        1500.6095548385094     
  -355.96080308009158       -37.250739345198923        1506.9112607750749     
  -312.73364137689384       -33.140574807556987        1512.9234672032128     
  -268.41598260938912       -22.734561776008249        1518.6084206206872     
  -222.52708980742463       -4.4302436833698380        1523.9283675253057     
  -174.58622600078127        23.374836037745247        1528.8455544147921     
  -705.95363197628421       -25.892558513442964        1432.7950814529336     
  -648.53638317801051       -31.805108840659216        1438.1963229517789     
  -591.98672794763047       -37.932917046162714        1443.7677105017310     
  -535.73867240567643       -42.389336865083919        1449.5469310742801     
  -479.22622267286391       -43.287722033106988        1455.5716716406762     
  -421.88338486984975       -38.741426285783447        1461.8796191723309     
  -363.14416511710635       -26.863803357992097        1468.5084606405690     
  -302.44256953543339       -5.7682069856808624        1475.4958830167445     
  -239.21260424551861        26.432009095527704        1482.8795732722260     
  -887.09946772693525       -27.215341686985312        1372.1138319195750     
  -816.76014961590954       -33.707101473220860        1375.5223524433284     
  -747.09965119437129       -40.516272520248322        1379.4484376430903     
  -677.50421143717904       -45.596984744311442        1384.0267791039571     
  -607.36006931904012       -46.903368061038293        1389.3920684111995     
  -536.05346381455990       -42.389552385812806        1395.6789971500102     
  -462.97063389868725       -30.009667635142918        1403.0222569056566     
  -387.49781854595983       -7.7178437240396391        1411.5565392633348     
  -309.02125673119468        26.531789431217717        1421.4165358081000     
  -1071.9253694508523       -27.022986486528623        1298.5041440249686     
  -989.73617797509814       -33.884146511460870        1299.4653611656345     
  -907.75150385156837       -41.147260911420489        1301.2488571217568     
  -825.34730867243752       -46.732201660265247        1304.1078922326003     
  -741.89955402979683       -48.558840731764207        1308.2957268376961     
  -656.78420151576950       -44.547050099561915        1314.0656212761310     
  -569.37721272245835       -32.616701737350667        1321.6708358875462     
  -479.05454924204207       -10.687667619115928        1331.3646310109934     
  -385.19217266656096        23.320180281799168        1343.4002669859308     
  -1261.3399806932989       -25.588085975385297        1212.1689353932898     
  -1168.6226714114027       -32.683704902001352        1210.2239633600866     
  -1075.2884368561506       -40.229727500367801        1209.3195417395420     
  -980.74045100036096       -46.236733679796657        1209.8490637652640     
  -884.38188781669612       -48.715303349184211        1212.2059226711426     
  -785.61592127816039       -45.676016418462666        1216.7835116906649     
  -683.84572535733798       -35.129452796343116        1223.9752240576620     
  -578.47447402691716       -15.086192391791030        1234.1744530058327     
  -468.90534125991161        16.443184885188685        1247.7745917689044     
  -1456.2519449996028       -23.183233217051907        1113.3111236486409     
  -1354.5778330806509       -30.453237591748177        1107.9967732684231     
  -1251.0566011450856       -38.167517568250844        1103.8110642984325     
  -1145.1561253096722       -44.552326869161277        1101.3090870070196     
  -1036.3442816911536       -47.833919216823517        1101.0459316624692     
  -924.08894640627875       -46.238548333655672        1103.5766885331898     
  -807.85799557154587       -37.992467941571419        1109.4564478874629     
  -687.11930530381903       -21.321931763287381        1119.2402999937542     
  -561.34075171979009        5.5468064787013986        1133.4833351203279     
  -8.4462814811422135E-004  -1.0718441221163005E-003   1584.3229102804214     
   5.0963035675328551E-004  -6.3099701732040878E-004   1577.2185714792781     
   1.4145590030777411E-003  -1.4518994983434854E-004   1555.3251107947917     
   1.8413755669236603E-003   2.8963638418284332E-004   1517.3108192287957     
   1.7612974736455215E-003   5.7753998586629026E-004   1461.8439877833050     
   1.1455426312058788E-003   6.2258051070506891E-004   1387.5929074601968     
  -3.4671662990177211E-005   3.2881584998108106E-004   1293.2258692612529     
  -1.8081273830741320E-003  -3.9969412307629864E-004   1177.4111641881689     
  -4.2036071629839942E-003  -1.6588914775050416E-003   1038.8170832435060     
  -56.160335400677880        9.8042988052107916        1578.5110478822128     
  -40.390573821182628        25.424308532361884        1571.9931316527880     
  -27.250864656391165        43.786706887158005        1550.5656622793490     
  -16.998567203543061        64.033629545510834        1512.9086083770817     
  -9.8910407599710837        85.307212182903115        1457.7019385610686     
  -6.1856446230137578        106.74959047471260        1383.6256214466118     
  -6.1397380899716509        127.50290009682875        1289.3596256489070     
  -10.010680458082746        146.70927672513869        1173.5839197832001     
  -18.055831024882352        163.51085603446029        1034.9784724645372     
  -113.96213278869325        17.714267020063403        1560.3706542725517     
  -83.193543444725691        45.643888355438172        1555.4664625033990     
  -57.707003548620953        78.781515762580284        1535.4439759234151     
  -37.821354713577222        116.06434386389314        1499.0181193181941     
  -23.855438552868939        156.42956728203123        1444.9038174731511     
  -16.128096679923345        198.81438063871772        1371.8159951740695     
  -14.958170707867069        242.15597855693233        1278.4695772063312     
  -20.664502250160353        285.39155565862188        1163.5794883555736     
  -33.565932919958001        327.45830656641300        1025.8606534073710     
  -174.58622600078127        23.374836037745247        1528.8455544147921     
  -129.34260425806519        60.377846966657721        1526.3642949659288     
  -91.988912781574555        104.79770823678527        1508.6961781987004     
  -62.709627301570144        156.01950074726116        1474.6143636263928     
  -41.689223548332578        213.42830539730667        1422.8920107617807     
  -29.112177252303582        276.40920308540501        1352.3022791178557     
  -25.162964143718156        344.34727471064690        1261.6183282077595     
  -30.026059952946866        416.62760117189470        1149.6133175443533     
  -43.885940410142439        492.63526336863725        1015.0604066404758     
  -239.21260424551861        26.432009095527704        1482.8795732722260     
  -179.77196127877630        69.345922860612987        1483.4123599750603     
  -130.71850301899579        121.64871111083247        1469.0583955770774     
  -91.906491114412731        183.82616835171672        1438.6723528759062     
  -63.190187213480840        256.36408908861682        1391.1089046688444     
  -44.423852964462696        339.74826782709567        1325.2227237534728     
  -35.461750015768644        434.46449907270448        1239.8684829271201     
  -36.158140015848915        540.99857733036822        1133.9008549873599     
  -46.367284613030989        659.83629710589241        1006.1745127312242     
  -309.02125673119468        26.531789431217717        1421.4165358081000     
  -235.41581952456028        72.267854532329494        1425.3363884656317     
  -174.51768492476688        129.14795118543327        1415.2667545302183     
  -125.65505229915554        199.41141483287581        1390.1670986408137     
  -88.156121015244025        285.29758091615713        1348.9968854365334     
  -61.349090440570421        389.04578487683369        1290.7155795561850     
  -44.562159942481429        512.89536215710621        1214.2826456386949     
  -37.123528888493723        659.08564819858907        1118.6575483232643     
  -38.361396646076912        829.85597844304482        1002.7997522486220     
  -385.19217266656096        23.320180281799168        1343.4002669859308     
  -297.20838401314506        68.863380475921062        1350.8621113725512     
  -224.00836916267951        127.10885526148716        1346.0573815299274     
  -164.19841700278897        202.70230834644349        1328.0736124954583     
  -116.38481642098773        300.28944343896114        1295.9983393068424     
  -79.173856304959685        424.51596424701165        1248.9190970014206     
  -51.171825542169472        580.02757447868134        1185.9234206169456     
  -30.985013020350152        771.46997784173641        1106.0988451907294     
  -17.219707626963157        1003.4888780447284        1008.5329057601589     
  -468.90534125991161        16.443184885188685        1247.7745917689044     
  -366.08385976191903        58.852239187133733        1258.7152596306989     
  -279.81246639649078        115.34485014001768        1260.1664030480101     
  -207.77969137204514        193.62591704912893        1251.3669060139562     
  -147.67406489758974        301.40033921779593        1231.5556525217844     
  -97.184117181683945        446.37301595079458        1199.9715265646478     
  -53.998378433206597        636.24884655179812        1155.8534121356190     
  -15.805378860827147        878.73273032540601        1098.4401932278035     
   19.706351326828326        1181.5295665759791        1026.9707538345815     
  -561.34075171979009        5.5468064787013986        1133.4833351203279     
  -442.97645178889121        41.954169159470268        1147.6215641746478     
  -342.55188729001588        93.669362621773644        1156.3299455560550     
  -256.64198155415295        172.10930909603036        1159.0219907704823     
  -181.82165791223113        288.69093081205784        1155.1112113234931     
  -114.66583969515833        454.83115000038418        1144.0111187210966     
  -51.749450233802264        681.94688889137012        1125.1352244690090     
   10.352587140742116        981.45506971473503        1097.8970400731368     
   75.065349097565672        1364.7726147010046        1061.7100770394268     
  -3002.5192730769713       -2.3282850583433401        1123.8928004690099     
  -2906.5677177959087       0.30613160902044001        1124.5008770495094     
  -2811.2082981741951        1.0167971347940465        1124.4601176197441     
  -2716.3153631555260       0.22254837282298467        1123.9689637471877     
  -2621.7632616835645       -1.6577778215704484        1123.2258569995288     
  -2527.4263427021115       -4.2053445952399215        1122.4292389443488     
  -2433.1789551548154       -7.0013150932182953        1121.7775511492118     
  -2338.8954479853915       -9.6268524612258943        1121.4692351816518     
  -2244.4501701377103       -11.663119845529195        1121.7027326092307     
  -3373.6159454181752       -1.7960542274179261        1025.7502059559372     
  -3268.3786094098282        1.4745591900452837        1025.6673057292646     
  -3163.2990328333876        2.3093873734651424        1024.9059081686012     
  -3058.2065912249172        1.2771785363852359        1023.7101369057871     
  -2952.9306601204194       -1.0533191081452742        1022.3241155728085     
  -2847.3006150557694       -4.1133573465349400        1020.9919678014835     
  -2741.1458315671916       -7.3341879659418510        1019.9578172237589     
  -2634.2956851905747       -10.147062752649731        1019.4657874714595     
  -2526.5795514619967       -11.983233493741636        1019.7600021764781     
  -3744.1658618822185      -0.70726102795993029        916.37442402214174     
  -3630.1939877048899        2.2550374234458559        915.19777842460837     
  -3515.7477884219861        2.7856669404416152        913.56747076363990     
  -3400.6460388355245        1.4887115163828639        911.71491429301955     
  -3284.7075137477973       -1.0317448561752371        909.87152226727585     
  -3167.7509879608310       -4.1716181843285085        908.26870794021261     
  -3049.5952362767966       -7.3268244749924634        907.13788456610916     
  -2930.0590334978397       -9.8932797356429774        906.71046539900885     
  -2808.9611544260638       -11.266899972934539        907.21786369309473     
  -4115.1914786913667       0.63135767327480607        795.36456524801872     
  -3992.3183815718635        2.5562076420164885        792.88716332659612     
  -3868.3080020481752        2.5196047031033686        790.39532975339205     
  -3743.0028868620011        1.0463930505909502        788.04937496283173     
  -3616.2455827556637       -1.3385831232944838        786.00960938896083     
  -3487.8786364711664       -4.1104796249587707        784.43634346617273     
  -3357.7445947504684       -6.7444522611208413        783.48988762861552     
  -3225.6860043357246       -8.7156568386405979        783.33055231059359     
  -3091.5454119690121       -9.4992491649331896        784.11864794642031     
  -4487.7152520677791        1.9130650098288697        662.31974021455767     
  -4355.0563199016269        2.2867111784678400        658.53032862650787     
  -4220.7331108200460        1.5851695292769818        655.34000948722121     
  -4084.6463161787974       0.13946887644942763        652.77959796904918     
  -3946.6966273336111       -1.7193619658016814        650.87990924426322     
  -3806.7847356403486       -3.6602941838962124        649.67175848512613     
  -3664.8113324547530       -5.3522989633022462        649.18596086374316     
  -3520.6771091326864       -6.4643474904949016        649.45333155260732     
  -3374.2827570297309       -6.6654109508262991        650.50468572384284     
  -4862.7596382336305        2.8311241146936936        516.83905950192184     
  -4718.7123315848767        1.3551893657056553        511.92214251527753     
  -4572.7765518461583        5.6330286055072065E-002   508.35203431385185     
  -4424.9455076605709       -1.0428152679453433        505.97166236584098     
  -4275.2124076715354       -1.9196094410256137        504.62395413933035     
  -4123.5704605224528       -2.5514143778959806        504.15183710258833     
  -3970.0128748564794       -2.9155922223840207        504.39823872383579     
  -3814.5328593171075       -2.9895051195683209        505.20608647121020     
  -3657.1236225475868       -2.7505152134226591        506.41830781294050     
  -5241.3470934111365        3.0787981216440130        358.52163369098139     
  -5083.5909455126048      -0.32971646385931308        352.85747318437166     
  -4924.1917622343681       -1.9929441582064555        349.38192858237801     
  -4763.2696421818464       -2.3112136450361049        347.69164720715304     
  -4600.9446839590964       -1.6848536056820649        347.38327638052266     
  -4437.3369861710225      -0.51419272271527916        348.05346342446421     
  -4272.5666474222089       0.80044032207115379        349.29885566129508     
  -4106.7537663174598        1.8587168457884218        350.71610041279462     
  -3940.0184414612636        2.2603081669071798        351.90184500105306     
  -5624.5000738226145        2.3493501636035035        186.96657336224473     
  -5449.9966905753436       -2.8593649769934473        181.13118882463209     
  -5274.7321790935894       -4.4886849372815050        178.38021664179377     
  -5098.9879006172960       -3.4764805177194376        178.00563154686913     
  -4923.0452163860627      -0.76062251663211100        179.29940827393227     
  -4747.1854876400821        2.7210182651479045        181.55352155651241     
  -4571.6900756188297        6.0305710295119752        184.05994612848565     
  -4396.8403415622442        8.2301649766116043        186.11065672360081     
  -4222.9176467101988        8.3819293070059757        186.99762807558614     
  -6013.2410356902265       0.33604337402289275        1.7729890962481030     
  -5818.2340956641474       -6.3251148410265614       -3.4618423722176264     
  -5624.1512395315840       -7.3569231830490480       -4.7025771591334165     
  -5431.4694638413857       -4.3493701476966180       -3.0203055608682927     
  -5240.6657651423047        1.1075557685928743       0.51388212573715031     
  -5052.2171399829240        7.4238660707937925        4.8288956042651057     
  -4866.6005849126796        13.009572260955110        8.8536445778817470     
  -4684.2930964798579        16.274685844739679        11.517038749961406     
  -4505.7716712332476        15.629218325969305        11.747987823917938     
  -2244.4501701377103       -11.663119845529195        1121.7027326092307     
  -2149.2176087297630       -12.678478788165080        1122.4017259957027     
  -2052.7531171804162       -12.844178500366297        1123.1685293112710     
  -1955.2023438838942       -12.645713629576790        1123.7195312333101     
  -1856.7109372347688       -12.568578824251290        1123.7711204391428     
  -1757.4245456274350       -13.098268732626480        1123.0396856062555     
  -1657.4888174561270       -14.720278001961447        1121.2416154119642     
  -1557.0494011153530       -17.920101280744689        1118.0932985336149     
  -1456.2519449996028       -23.183233217051907        1113.3111236486409     
  -2526.5795514619967       -11.983233493741636        1019.7600021764781     
  -2418.1346970855275       -12.532095947697144        1020.6103314710085     
  -2309.3169952999051       -12.211734321979065        1021.3780364628842     
  -2200.2837314422727       -11.546433073596290        1021.6943272486502     
  -2091.1921908501049       -11.060476660780864        1021.1904139242545     
  -1982.1996588609072       -11.278149542212191        1019.4975065859462     
  -1873.4634208118807       -12.723736174874148        1016.2468153298661     
  -1765.1407620405294       -15.921521017200575        1011.0695502522968     
  -1657.3889678842547       -21.395788527261402        1003.5969214492609     
  -2808.9611544260638       -11.266899972934539        907.21786369309473     
  -2687.3157730817829       -11.366301016810326        908.22489082485504     
  -2566.3534327917750       -10.831329718436677        908.89122345048906     
  -2446.2174623176384       -10.139748616497968        908.84057274321981     
  -2327.0511904211376       -9.7693202501569658        907.69664987660849     
  -2208.9979458638477       -10.197807157999250        905.08316602409946     
  -2092.2010574075057       -11.902971879179518        900.62383235901757     
  -1976.8038538136116       -15.362576951998790        893.94236005482628     
  -1862.9496638439321       -21.054384915746368        884.66246028495152     
  -3091.5454119690121       -9.4992491649331896        784.11864794642031     
  -2957.1336380017665       -9.2929343796722605        785.19766111227057     
  -2824.4356574025755       -8.8749330135929085        785.60013270107186     
  -2693.5552488385501       -8.5911739569531846        785.01995462204582     
  -2564.5961909769262       -8.7875861006485820        783.15101878422558     
  -2437.6622624848678       -9.8100983350194610        779.68721709671297     
  -2312.8572420294868       -12.004639550662205        774.32244146865241     
  -2190.2849082779876       -15.717138638110896        766.75058380911037     
  -2070.0490398976535       -21.293524488358912        756.66553602717170     
  -3374.2827570297309       -6.6654109508262991        650.50468572384284     
  -3227.9610931289576       -6.4238364214058947        651.48089938786291     
  -3084.1368968789238       -6.5145125313725885        651.39680664228740     
  -2942.8488033335329       -7.0662227936444424        650.09415979021549     
  -2804.1354475466715       -8.2077507211453167        647.41471113501211     
  -2668.0354645722769       -10.067879827246429        643.20021297992753     
  -2534.5874894645453       -12.775393625624815        637.29241762810079     
  -2403.8301572771893       -16.459075628885330        629.53307738284434     
  -2275.8021030644340       -21.247709350981268        619.76394454730280     
  -3657.1236225475868       -2.7505152134226591        506.41830781294050     
  -3500.1709397470731       -2.8708475278081096        507.02686270649633     
  -3346.0303789674922       -3.9220365958256025        506.17328770111595     
  -3194.6498381309293       -5.7304088246196443        503.92487515259995     
  -3045.9772151593888       -8.1222906204679930        500.34891741685050     
  -2899.9604079747496       -10.924008389887149        495.51270684957194     
  -2756.5473144990719       -13.961888539681809        489.48353580659045     
  -2615.6858326546071       -17.062257477385401        482.32869664372350     
  -2477.3238603631598       -20.051441608985442        474.11548171676424     
  -3940.0184414612636        2.2603081669071798        351.90184500105306     
  -3774.1359791392838        1.2541919169643734        351.78780812287744     
  -3610.6893314148865       -1.2694735312124976        349.82161830506459     
  -3449.5100655594788       -4.7492457490004654        346.37378761430745     
  -3290.4297488442262       -8.6236823070507853        341.81482811764766     
  -3133.2799485406040       -12.331340776972297        336.51525188169904     
  -2977.8922319199264       -15.310778729588151        330.84557097349136     
  -2824.0981662534186       -17.000553735833819        325.17629745962682     
  -2671.7293188127724       -16.839223368038802        319.87794340710605     
  -4222.9176467101988        8.3819293070059757        186.99762807558614     
  -4050.2290125893837        5.8394415269799538        185.71599269179296     
  -3878.6869819678827        1.2712083383116806        182.23384088132011     
  -3707.9811979473825       -4.2882472646144834        177.30258408036801     
  -3537.8013036302386       -9.8044022896351635        171.67363372537230     
  -3367.8369421184216       -14.242733743254348        166.09840125247896     
  -3197.7777565133370       -16.568718630226385        161.32829809800242     
  -3027.3133899172826       -15.747833958203501        158.11473569832268     
  -2856.1334854322699       -10.745556733932403        157.20912548949815     
  -4505.7716712332476        15.629218325969305        11.747987823917938     
  -4328.8228413804727        10.773060918249485        8.7636734679582435     
  -4150.5965583725501        3.5280406903882522        3.3019978571367545     
  -3970.6149476235300       -4.5129270709587672       -3.4270485443389918     
  -3788.4001345469401       -11.756927078039780       -10.213475272225775     
  -3603.4742445566098       -16.611044043068659       -15.847291862185507     
  -3415.3594030661448       -17.482362678468235       -19.118507850472255     
  -3223.5777354896413       -12.777967697546273       -18.817132772579548     
  -3027.6513672405399      -0.90494381204348429       -13.733176164335017     
  -1456.2519449996028       -23.183233217051907        1113.3111236486409     
  -1354.5778330806509       -30.453237591748177        1107.9967732684231     
  -1251.0566011450856       -38.167517568250844        1103.8110642984325     
  -1145.1561253096722       -44.552326869161277        1101.3090870070196     
  -1036.3442816911536       -47.833919216823517        1101.0459316624692     
  -924.08894640627875       -46.238548333655672        1103.5766885331898     
  -807.85799557154587       -37.992467941571419        1109.4564478874629     
  -687.11930530381903       -21.321931763287381        1119.2402999937542     
  -561.34075171979009        5.5468064787013986        1133.4833351203279     
  -1657.3889678842547       -21.395788527261402        1003.5969214492609     
  -1548.3694865909604       -28.771776643727321        995.24565054004654     
  -1435.8477724845998       -36.354743558620271        988.09910857573982     
  -1319.3871200164469       -42.689004109573887        982.78847980059118     
  -1198.5508236377614       -46.318873134177352        979.94494845859811     
  -1072.9021778000611       -45.788665470795593        980.19969879411281     
  -942.00447695449668       -39.642695956496993        984.18391505125305     
  -805.42101555231727       -26.425279429007816        992.52878147398928     
  -662.71508804525661       -4.6807307272297294        1005.8654823067193     
  -1862.9496638439321       -21.054384915746368        884.66246028495152     
  -1747.4254516710687       -28.216352957216145        874.48517793032181     
  -1626.7110658959421       -35.062719690964741        865.70542239761335     
  -1500.4891619225637       -40.535669797040043        858.83770164891359     
  -1368.4423951550284       -43.577387955806785        854.39652364633480     
  -1230.2534209972393       -43.130058846876864        852.89639635186984     
  -1085.6048948534885       -38.135867151247226        854.85182772773601     
  -934.17947212752733       -27.536997548100544        860.77732573592095     
  -775.65980822361632       -10.275634718312517        871.18739833853579     
  -2070.0490398976535       -21.293524488358912        756.66553602717170     
  -1947.8939256576150       -27.631425733469769        745.99305433970687     
  -1819.3786411988849       -33.011093911776811        736.99967463909627     
  -1684.3291454963489       -36.852392272775887        729.89045834728370     
  -1542.5713975247650       -38.575184065833412        724.87046688633109     
  -1393.9313562592279       -37.599332541234389        722.14476167861278     
  -1238.2349806742882       -33.344700947333308        721.91840414612921     
  -1075.3082297450012       -25.231152534458658        724.39645571085100     
  -904.97706244629353       -12.678550552295178        729.78397779522084     
  -2275.8021030644340       -21.247709350981268        619.76394454730280     
  -2145.9231058870650       -25.861454173086713        610.04697866879019     
  -2009.5826582129300       -28.919514166434510        602.35153417517813     
  -1866.7739652055395       -30.399239876276283        596.38045569081737     
  -1717.4902320288786       -30.277981849019852        591.83658783982128     
  -1561.7246638467218       -28.533090630717254        588.42277524650467     
  -1399.4704658226799       -25.141916766605618        585.84186253526173     
  -1230.7208431206489       -20.081810803216570        583.79669433013987     
  -1055.4690009044305       -13.330123286329581        581.99011525566073     
  -2477.3238603631598       -20.051441608985442        474.11548171676424     
  -2337.6611896960926       -21.750897477188232        466.92464981789482     
  -2193.0552767576510       -21.507628400747876        462.13066988099979     
  -2043.6905155184220       -19.936280948487592        458.74139947461265     
  -1889.7512999493731       -17.651501690136911        455.76469616735164     
  -1731.4220240210689       -15.267937194382171        452.20841752760259     
  -1568.8870817044715       -13.400234030996273        447.08042112393156     
  -1402.3308669703204       -12.663038769020886        439.38856452496924     
  -1231.9377737894042       -13.670997977927584        428.14070529913067     
  -2671.7293188127724       -16.839223368038802        319.87794340710605     
  -2519.2563744213658       -14.144214846967088        316.90376668748200     
  -2365.5286566528307       -9.4950845609794214        316.70675063155704     
  -2210.9456909031201       -4.2235838299877742        317.40699549408600     
  -2055.9070025680812       0.33853602646775016        317.12460152993805     
  -1900.8121170435211        2.8595236892352887        313.97966899410301     
  -1746.0605597255458        2.0076278378382995        306.09229814136160     
  -1592.0518560097896       -3.5489028465419779        291.58258922664743     
  -1439.1855312924704       -15.141819684533289        268.57064250482136     
  -2856.1334854322699       -10.745556733932403        157.20912548949815     
  -2686.8568573995344       -1.8858654835620428        160.26202817818344     
  -2522.7349577180216        8.3984694071256172        166.44944530195340     
  -2364.4063858275113        17.978783139264124        172.81094954420635     
  -2212.5097411665934        24.726410917422299        176.38611358853686     
  -2067.6836231750244        26.512687942338857        174.21451011806991     
  -1930.5666312914361        21.208949418660495        163.33571181623546     
  -1801.7973649548439        6.6865305496854717        140.78929136644584     
  -1682.0144236045601       -19.183233462563749        103.61482145201738     
  -3027.6513672405399      -0.90494381204348429       -13.733176164335017     
  -2836.6108359666896        16.179691413485671       -2.7228668097757214     
  -2660.4063397729801        33.453385557456841        11.728422767272374     
  -2499.9394947596193        47.910751619074517        25.386967420504956     
  -2356.1119170277507        56.546402594815731        34.019042004010757     
  -2229.8252226769523        56.354951485668380        33.390921371692286     
  -2121.9810278080472        44.331011289308890        19.268880377559555     
  -2033.4809485217065        17.469195003436084       -12.580806124409326     
  -1965.2266009179652       -27.235884372526243       -66.391863280283019     
  -561.34075171979009        5.5468064787013986        1133.4833351203279     
  -442.97645178889121        41.954169159470268        1147.6215641746478     
  -342.55188729001588        93.669362621773644        1156.3299455560550     
  -256.64198155415295        172.10930909603036        1159.0219907704823     
  -181.82165791223113        288.69093081205784        1155.1112113234931     
  -114.66583969515833        454.83115000038418        1144.0111187210966     
  -51.749450233802264        681.94688889137012        1125.1352244690090     
   10.352587140742116        981.45506971473503        1097.8970400731368     
   75.065349097565672        1364.7726147010046        1061.7100770394268     
  -662.71508804525661       -4.6807307272297294        1005.8654823067193     
  -527.76989964574261        24.801714374450341        1021.7808781706782     
  -411.76397122805912        70.248434562439058        1037.2405837341651     
  -310.20357073481296        146.63853669431177        1051.9439143116460     
  -218.59496610890790        268.95112762732037        1065.5901852176714     
  -132.44442529338897        452.16531421805314        1077.8787117665850     
  -47.258216231109259        711.26020332354710        1088.5088092731637     
   41.457393135288044        1061.2149018016917        1097.1797930517080     
   138.19613486260766        1517.0085165084768        1103.5909784166406     
  -775.65980822361632       -10.275634718312517        871.18739833853579     
  -624.84629972014409        12.677911761571977        886.29497516988022     
  -493.23314874832670        51.373980472066876        906.09277599471181     
  -375.54371904131096        123.40135896944011        930.76499397107466     
  -266.50137433254247        246.34883480884886        960.49582225724089     
  -160.82947835523876        437.80519554609606        995.46945401114851     
  -53.251394842741377        715.35922873701247        1035.8700823908966     
   61.509512471721791        1096.5997219371798        1081.8819005549074     
   188.72987985493245        1599.1154627027063        1133.6891016608672     
  -904.97706244629353       -12.678550552295178        729.78397779522084     
  -741.88739228282782        3.2782392399425362        741.24246668475519     
  -596.95196724452148        34.048236132679534        762.37547440854519     
  -464.39699803316898        98.877404452837027        794.05114600308536     
  -338.44869535118289        217.01170852591412        837.13762650512035     
  -213.33326990060371        407.69711267853273        892.50306095131816     
  -83.276932383691786        690.17958123634196        961.01559437824221     
   57.494106497503651        1083.7050785260064        1043.5433718225299     
   214.75363604085521        1607.5195688735455        1140.9545383209493     
  -1055.4690009044305       -13.330123286329581        581.99011525566073     
  -886.57491760488290       -5.7018252719773272        586.70196422771676     
  -732.91297411022151        15.273437326035349        605.57763104645232     
  -588.49797926961003        69.546301677080208        640.36828666193674     
  -447.34474193286871        177.06740494885864        692.82510202427909     
  -303.46807094929727        357.78738430984617        764.69924808362816     
  -150.88277516855527        631.65687692806512        857.74189579013273     
   16.396336559999611        1018.6265199724172        973.70421609390417     
   204.35445538691397        1538.6469506109956        1114.3373799451094     
  -1231.9377737894042       -13.670997977927584        428.14070529913067     
  -1066.5906159573631       -16.566803855972466        422.75207931123600     
  -911.10871673921542       -7.9481801662206522        435.18819797919451     
  -759.58123431020135        31.887679174209438        468.28233220182153     
  -606.09732684590062        122.64358024649576        524.86775287743683     
  -444.74615252158412        284.02232913306489        607.77773090480571     
  -269.61686951231604        535.72673191701460        719.84553718228449     
  -74.798635993686446        897.45959467996875        863.90444260859090     
   145.61938985924036        1388.9237235047422        1042.7877180821263     
  -1439.1855312924704       -15.141819684533289        268.57064250482136     
  -1289.6162276108237       -31.621218592290916        249.47142344757603     
  -1141.5317425250071       -38.614380561743360        250.69612727758786     
  -989.38133471425658       -17.618834523921123        276.35919887696963     
  -827.61426285856760        49.867890587949262        330.57508312764998     
  -650.67978563722363        182.34826584278383        417.45822491152933     
  -453.02716172982343        398.32476230890268        541.12306911020073     
  -229.10564981588777        716.29985105398828        705.68406060582117     
   26.635491424672182        1154.7760031454891        915.25564428034079     
  -1682.0144236045601       -19.183233462563749        103.61482145201738     
  -1563.3334928363502       -53.169591562331789        66.938608149297707     
  -1434.1745988612745       -79.722928078837583        51.590371012519796     
  -1289.6328520410884       -82.493610884768202        63.164802941946050     
  -1124.8033627385414       -45.132007855721497        107.25659683777469     
  -934.78124131579023        48.711513134396398        189.46044560009031     
  -714.66159813565287        215.38658420949525        315.37104212919058     
  -459.53954355981830        471.24283749743267        490.58307932530272     
  -164.51018795073696        832.62990512267777        720.69125008830156     
  -1965.2266009179652       -27.235884372526243       -66.391863280283019     
  -1895.4241519051800       -83.516444848662331       -124.76775507124050     
  -1799.0298331414017       -134.27158693480010       -162.64011874532412     
  -1672.0703578502205       -166.25702137654980       -172.73493934923556     
  -1510.5724392544698       -166.22845891657454       -147.77820192942596     
  -1310.5627905779950       -120.94161030078942       -80.495891532610656     
  -1068.0681250446266       -17.152186275358758        36.386006794906891     
  -779.11515587774488        158.38410241485701        210.14150800608047     
  -439.73059630049318        418.91154502600847        448.04462705496888     
 </DataArray>
 <DataArray  type="Float64" Name="VM" NumberOfComponents="1" format="ascii">
   6013.9633061053200     
   5815.4066303881937     
   5620.6452358144552     
   5429.3447964182378     
   5241.1916720896161     
   5055.8734077060426     
   4873.0658179096927     
   4692.4286724495532     
   4513.6124809960875     
   5635.3524829845892     
   5457.8032240649500     
   5281.6313011977263     
   5106.5847621296443     
   4932.4201219608985     
   4758.8916195644279     
   4585.7427762957568     
   4412.7009123803309     
   4239.4754557565311     
   5279.7590899914276     
   5120.1607793751718     
   4960.3020524619405     
   4800.0456850248938     
   4639.2577014176331     
   4477.8028284472121     
   4315.5403418302931     
   4152.3203952960357     
   3987.9809459203884     
   4945.9823389853809     
   4802.0260590756661     
   4656.8267519834117     
   4510.3789625495501     
   4362.6814881688779     
   4213.7368415023620     
   4063.5507994891091     
   3912.1320583726906     
   3759.4920215862489     
   4632.9748668823131     
   4503.0638282403943     
   4371.4636868330826     
   4238.3008032242233     
   4103.7113432897231     
   3967.8428640849033     
   3830.8564761402909     
   3692.9297279057878     
   3554.2604014125582     
   4339.9077966193609     
   4223.0965479023534     
   4104.5762451298588     
   3984.5869756992383     
   3863.3861279460493     
   3741.2505524118087     
   3618.4798764609836     
   3495.4012131664745     
   3372.3755600662703     
   4066.2512776942926     
   3962.1515162400274     
   3856.6488200113836     
   3750.0603918680372     
   3642.7269131288863     
   3535.0142087719132     
   3427.3162662225618     
   3320.0598192157099     
   3213.7107347934007     
   3811.8722333632072     
   3720.5148113416658     
   3628.3003524490246     
   3535.5686070346187     
   3442.6844488326255     
   3350.0386278832302     
   3258.0495819707326     
   3167.1664054578587     
   3077.8730685071205     
   3577.1494617332569     
   3498.7895260736695     
   3420.2920240300555     
   3341.9482650977257     
   3264.0697836891359     
   3186.9884615566516     
   3111.0571272688808     
   3036.6506359433010     
   2964.1674186728442     
   4513.6124809960875     
   4334.2314155495515     
   4152.3682465532902     
   3968.3776727118179     
   3782.5940268632653     
   3595.3194029105166     
   3406.8261890612207     
   3217.3799411054397     
   3027.2916533519810     
   4239.4754557565311     
   4065.8865414544152     
   3892.1465441834885     
   3718.5538894569595     
   3545.4163656702699     
   3373.0452335250152     
   3201.7550725743968     
   3031.8716384534837     
   2863.7510118656178     
   3987.9809459203884     
   3823.6184120751500     
   3660.5542399398446     
   3498.9661866233878     
   3339.0469603926176     
   3181.0022718066130     
   3025.0502189339377     
   2871.4225016222485     
   2720.3681513785309     
   3759.4920215862489     
   3607.2661042396448     
   3457.0917197390704     
   3308.9879934479081     
   3162.9775027012729     
   3019.0860374817748     
   2877.3423823122221     
   2737.7781297934621     
   2600.4275401317545     
   3554.2604014125582     
   3416.4788723785259     
   3280.9818860400414     
   3147.6236053406797     
   3016.2428857933019     
   2886.6629883867513     
   2758.6915916797402     
   2632.1211710854614     
   2506.7298319231431     
   3372.3755600662703     
   3250.6739367551691     
   3131.1322266734132     
   3013.4666041637470     
   2897.3619876795260     
   2782.4709674971991     
   2668.4137261968399     
   2554.7791164479158     
   2441.1270972510815     
   3213.7107347934007     
   3109.0058013559369     
   3006.1232938654334     
   2904.6993635911431     
   2804.3331919308739     
   2704.5854785985189     
   2604.9784517494300     
   2504.9975943957588     
   2404.0953237939211     
   3077.8730685071205     
   2990.3559701900590     
   2904.2329124984931     
   2819.1433132917914     
   2734.6967564484044     
   2650.4719818067520     
   2566.0175822405931     
   2480.8546351427553     
   2394.4815604417468     
   2964.1674186728442     
   2893.3503954309440     
   2823.4995761742225     
   2754.3589324156624     
   2685.6598887859104     
   2617.1215941798414     
   2548.4526516143815     
   2479.3545426021165     
   2409.5270488049732     
   3027.2916533519810     
   2844.7316953934624     
   2677.3559443903468     
   2524.6071057992581     
   2385.6052141658406     
   2259.2625595590625     
   2144.7452993043476     
   2042.3865760559077     
   1955.1378458789009     
   2863.7510118656178     
   2700.2144843951578     
   2543.3284983815388     
   2392.2356732451312     
   2245.8428616933097     
   2102.8211146065237     
   1961.7587214399689     
   1821.5441045760349     
   1682.1074704508869     
   2720.3681513785309     
   2571.4747132315447     
   2423.6807296883790     
   2276.2164318154059     
   2128.1719035274000     
   1978.4462919734124     
   1825.7312960778149     
   1668.5456521404826     
   1505.3521947866623     
   2600.4275401317545     
   2463.3972009008203     
   2324.5326205045758     
   2183.4886432897274     
   2039.9136641639172     
   1893.4287664208293     
   1743.6139005324239     
   1590.0047879729750     
   1432.1076910708475     
   2506.7298319231431     
   2380.4654392879597     
   2251.5776678062871     
   2120.3783295267172     
   1987.3287665523731     
   1853.0901997729634     
   1718.5999350304128     
   1585.1861985297701     
   1454.7391200756142     
   2441.1270972510815     
   2326.0986878915123     
   2209.2209891880880     
   2091.5196241021304     
   1974.2863632674723     
   1859.1709722921771     
   1748.2973445294433     
   1644.3983357847781     
   1550.9455683285266     
   2404.0953237939211     
   2301.9877445667516     
   2199.7064455429081     
   2098.8296177582115     
   2001.2185205586425     
   1909.0883399308252     
   1825.0779478237500     
   1752.2968612702132     
   1694.3125438178629     
   2394.4815604417468     
   2307.6525848700621     
   2222.5654310978271     
   2141.0049004806938     
   2064.9539105792396     
   1996.6146926867075     
   1938.4176542048185     
   1893.0048487372703     
   1863.1736742132498     
   2409.5270488049732     
   2340.4117197455730     
   2274.6543993456439     
   2213.8211585185322     
   2159.5473577888069     
   2113.5297435510279     
   2077.5174158745567     
   2053.3005185824732     
   2042.6959889933289     
   1955.1378458789009     
   1867.6258317235352     
   1758.5090409707725     
   1623.2678129002309     
   1457.3575034102189     
   1262.1995701362252     
   1061.4711081566427     
   942.33556139314942     
   1074.8671176307223     
   1682.1074704508869     
   1541.8073726308394     
   1398.8829691238129     
   1255.2101338568841     
   1118.4696395884057     
   1014.5991425414562     
   1004.7071729058088     
   1171.2476768621716     
   1554.1995980697966     
   1505.3521947866623     
   1345.3800282896455     
   1203.7699994186819     
   1091.2772544700456     
   1027.8852506852400     
   1047.9022071240249     
   1192.8056892741931     
   1491.1905817204081     
   1953.6002291147806     
   1432.1076910708475     
   1287.0069943210046     
   1179.4563003913468     
   1122.5307396663868     
   1132.7807887354404     
   1230.0267313937106     
   1434.8041204770627     
   1765.5423654737751     
   2238.3647307160327     
   1454.7391200756142     
   1346.7220483767987     
   1284.0453665858661     
   1273.7024027249088     
   1323.1420014793125     
   1443.2516492896846     
   1650.5205328747634     
   1966.0758017477858     
   2412.4668731390507     
   1550.9455683285266     
   1483.6346685036847     
   1456.5355976474000     
   1470.6867523855442     
   1528.8855663483116     
   1639.6302251709158     
   1819.7266905657941     
   2093.4068774991720     
   2488.0381617012672     
   1694.3125438178629     
   1659.8439308778420     
   1653.5654815062683     
   1673.7920942350554     
   1721.9239043726254     
   1805.7763605187606     
   1942.0978783687597     
   2156.4463504616920     
   2479.2599356896158     
   1863.1736742132498     
   1850.5030360171536     
   1852.3010396752964     
   1866.2735729282185     
   1893.5038391159530     
   1940.9655704402028     
   2023.9291549759050     
   2166.8661500758408     
   2400.9380854807323     
   2042.6959889933289     
   2041.4897806807965     
   2041.9349217301717     
   2041.9722023781048     
   2042.4824205275090     
   2049.0132562089002     
   2073.8388905076768     
   2137.6007690838719     
   2268.8059984257993     
   3577.1494617332569     
   3498.7895260736695     
   3420.2920240300555     
   3341.9482650977257     
   3264.0697836891359     
   3186.9884615566516     
   3111.0571272688808     
   3036.6506359433010     
   2964.1674186728442     
   3363.0558181886017     
   3298.1082364422978     
   3233.7007586329378     
   3170.0330788335496     
   3107.3169298250173     
   3045.7759370565554     
   2985.6455503340444     
   2927.1730336376600     
   2870.6174878891520     
   3171.2376235711677     
   3119.8917395257567     
   3069.5414334939933     
   3020.2930510140582     
   2972.2579871355106     
   2925.5524844248903     
   2880.2974025275712     
   2836.6179513174511     
   2794.6433794134582     
   3003.7023154020021     
   2965.5486630183946     
   2928.6400247367073     
   2892.9945955029098     
   2858.6310136718103     
   2825.5682950976666     
   2793.8257638171385     
   2763.4229796280820     
   2734.3796629603016     
   2862.6050140983875     
   2836.5709829108037     
   2811.8577563190406     
   2788.4080984039465     
   2766.1632719549639     
   2745.0631317149396     
   2725.0462553583179     
   2706.0501121440689     
   2688.0112689088537     
   2750.1164353594204     
   2734.4372782983369     
   2720.0324774405553     
   2706.7879321793498     
   2694.5880637098903     
   2683.3159501406662     
   2672.8535141208904     
   2663.0817613238405     
   2653.8810680760271     
   2668.2264401488837     
   2660.4792848302109     
   2653.9036221152837     
   2648.3490800218756     
   2643.6645993972793     
   2639.6985025517097     
   2636.2986041917798     
   2633.3123633759055     
   2630.5870753077907     
   2618.5052454193733     
   2615.7287944573691     
   2614.0311137907474     
   2613.2438029379173     
   2613.1983547852542     
   2613.7261602163389     
   2614.6585305913773     
   2615.8267377759853     
   2617.0620714139372     
   2601.8742290824957     
   2600.7772751467769     
   2600.7245872562030     
   2601.5428395935592     
   2603.0587065385889     
   2605.0988626048961     
   2607.4899823893156     
   2610.0587405348901     
   2612.6318117064848     
   2964.1674186728442     
   2893.3503954309440     
   2823.4995761742225     
   2754.3589324156624     
   2685.6598887859104     
   2617.1215941798414     
   2548.4526516143815     
   2479.3545426021165     
   2409.5270488049732     
   2870.6174878891520     
   2815.4774182735496     
   2761.0030121646164     
   2707.0925860822595     
   2653.6486139168592     
   2600.5789627510676     
   2547.7990788849170     
   2495.2352675025813     
   2442.8292342730783     
   2794.6433794134582     
   2753.8201567812916     
   2713.5238779917167     
   2673.7896213193890     
   2634.6656586397444     
   2596.2147577614837     
   2558.5159354553202     
   2521.6666869080386     
   2485.7857097997653     
   2734.3796629603016     
   2706.2202647981317     
   2678.5469942805503     
   2651.5074771419136     
   2625.2648888737986     
   2599.9988272378223     
   2575.9062660056247     
   2553.2025469526834     
   2532.1223550379427     
   2688.0112689088537     
   2670.6030948618018     
   2653.6912953573810     
   2637.5101716578661     
   2622.3073939374949     
   2608.3443894437437     
   2595.8966293682124     
   2585.2537585741002     
   2576.7195081878303     
   2653.8810680760271     
   2645.0924794101097     
   2636.8302846385855     
   2629.3911086519352     
   2623.0805856824759     
   2618.2134434986638     
   2615.1134560398109     
   2614.1132247659489     
   2615.5537509069404     
   2630.5870753077907     
   2628.1085829082426     
   2626.1873509219699     
   2625.1609531264526     
   2625.3714379236480     
   2627.1653094236608     
   2630.8934248918445     
   2636.9107896546698     
   2645.5762332871323     
   2617.0620714139372     
   2618.4443256114841     
   2620.4053544646745     
   2623.3054858753108     
   2627.5062396214430     
   2633.3703132811215     
   2641.2615429848911     
   2651.5448342414397     
   2664.5860590832531     
   2612.6318117064848     
   2615.3198211650379     
   2618.5939661766506     
   2622.8217794246689     
   2628.3707935940133     
   2635.6085413701512     
   2644.9025554397831     
   2656.6203684899842     
   2671.1295132086293     
   2409.5270488049732     
   2340.4117197455730     
   2274.6543993456439     
   2213.8211585185322     
   2159.5473577888069     
   2113.5297435510279     
   2077.5174158745567     
   2053.3005185824732     
   2042.6959889933289     
   2442.8292342730783     
   2392.1719739646628     
   2345.6304641095221     
   2304.3149021390186     
   2269.3106656027981     
   2241.6731667832955     
   2222.4344755250690     
   2212.6229520172706     
   2213.2956966992588     
   2485.7857097997653     
   2452.1493516832065     
   2422.4209278248727     
   2397.2753148900774     
   2377.3269515006082     
   2363.1369017277366     
   2355.2359332723968     
   2354.1637384851451     
   2360.5229120785025     
   2532.1223550379427     
   2513.3463903802644     
   2497.6370961476537     
   2485.3202791316462     
   2476.6618643127626     
   2471.8827752856387     
   2471.1885364559948     
   2474.8130956914670     
   2483.0755428565872     
   2576.7195081878303     
   2570.2598024356612     
   2565.7076384091811     
   2563.1405756600566     
   2562.5917488278747     
   2564.0658705468118     
   2567.5665907089615     
   2573.1347820679362     
   2580.8970679866507     
   2615.5537509069404     
   2618.6982110598101     
   2622.5395576975798     
   2626.9956302962901     
   2631.9574800662035     
   2637.3018833672545     
   2642.9114057319684     
   2648.7018453404316     
   2654.6569102428125     
   2645.5762332871323     
   2655.5643693847878     
   2665.2001992889977     
   2674.3091061364003     
   2682.7039614232244     
   2690.1922443893336     
   2696.5871354494307     
   2701.7225713248868     
   2705.4723355590259     
   2664.5860590832531     
   2678.6640784269503     
   2691.6688153632831     
   2703.3801629860263     
   2713.5746840809334     
   2722.0278051417872     
   2728.5171917412008     
   2732.8273195821921     
   2734.7552943933547     
   2671.1295132086293     
   2686.5661890781371     
   2700.6660470782990     
   2713.1957971443803     
   2723.9221492114943     
   2732.6118132150627     
   2739.0314990906650     
   2742.9479167740096     
   2744.1277762012523     
   2042.6959889933289     
   2041.4897806807965     
   2041.9349217301717     
   2041.9722023781048     
   2042.4824205275090     
   2049.0132562089002     
   2073.8388905076768     
   2137.6007690838719     
   2268.8059984257993     
   2213.2956966992588     
   2216.3288655148704     
   2210.8653624054982     
   2195.1413314462893     
   2169.6409064257750     
   2138.1924509430687     
   2109.5208053547303     
   2099.0540828983389     
   2130.0544274269664     
   2360.5229120785025     
   2363.8987974383258     
   2351.6824075927807     
   2322.2105042807125     
   2275.4114393098134     
   2213.4787151232617     
   2141.9565535204842     
   2071.3283676484543     
   2018.9085721704801     
   2483.0755428565872     
   2484.4304567700656     
   2465.4817901556762     
   2424.5192859779268     
   2360.8660126206669     
   2275.2641735633301     
   2170.5653954224808     
   2052.9079988542808     
   1933.5971865423114     
   2580.8970679866507     
   2578.9756485050862     
   2553.8540887049185     
   2503.6886769897374     
   2427.2332526664291     
   2324.0354303929848     
   2194.8233483930817     
   2042.2410836746997     
   1872.2439188442759     
   2654.6569102428125     
   2649.0629003097397     
   2618.6950608811539     
   2561.5446889518453     
   2475.8932527777874     
   2360.3942201587620     
   2214.2536642697078     
   2037.6034163454135     
   1832.2889758732349     
   2705.4723355590259     
   2696.5196309614430     
   2662.1113667009176     
   2600.0864494206303     
   2508.3876513747323     
   2385.0852178925657     
   2228.4393419845878     
   2037.0391200901952     
   1810.1159680091121     
   2734.7552943933547     
   2723.3775337424290     
   2686.3746368083243     
   2621.4787678334701     
   2526.4405652437190     
   2399.0318838874614     
   2237.0569971012255     
   2038.3797778620303     
   1800.9875944145206     
   2744.1277762012523     
   2731.8227004434939     
   2693.9021141846861     
   2628.0594297787898     
   2531.9880595802592     
   2403.3814159434855     
   2239.9329112229434     
   2039.3359577733934     
   1799.2839679519975     
   2601.8742290824957     
   2600.7772751467769     
   2600.7245872562030     
   2601.5428395935592     
   2603.0587065385889     
   2605.0988626048961     
   2607.4899823893156     
   2610.0587405348901     
   2612.6318117064848     
   2618.5542446655199     
   2615.7590704271875     
   2614.0471110062804     
   2613.2495290419001     
   2613.1973456532633     
   2613.7214511705229     
   2614.6526321493548     
   2615.8216142797878     
   2617.0591208231331     
   2668.3231960683074     
   2660.5407310060186     
   2653.9376986442667     
   2648.3630374678942     
   2643.6649354396604     
   2639.6909067476313     
   2636.2879090159977     
   2633.3024995258984     
   2630.5810291089915     
   2750.2580981514143     
   2734.5291123566940     
   2720.0851058384533     
   2706.8111823336044     
   2694.5908843015468     
   2683.3063344359516     
   2672.8384286467303     
   2663.0670786373453     
   2653.8715021673502     
   2862.7858047768236     
   2836.6898831776302     
   2811.9273545777028     
   2788.4401718605372     
   2766.1686967520795     
   2745.0517956728258     
   2725.0269733094106     
   2706.0305437314482     
   2687.9978385957761     
   3003.9130201583112     
   2965.6885107105491     
   2928.7229212860684     
   2893.0336493532236     
   2858.6384529318402     
   2825.5553847071019     
   2793.8027230228813     
   2763.3989001104528     
   2734.3624279989699     
   3171.4657608847879     
   3120.0438638311703     
   3069.6321693498408     
   3020.3362155653308     
   2972.2665223410472     
   2925.5383920550489     
   2880.2716812173026     
   2836.5905350297080     
   2794.6230767407487     
   3363.2862451671335     
   3298.2619935593584     
   3233.7926124324031     
   3170.0769199508959     
   3107.3257165729210     
   3045.7616532815587     
   2985.6191745697333     
   2927.1445162947375     
   2870.5957328854324     
   3577.3651988841320     
   3498.9330447376960     
   3420.3776438421219     
   3341.9892889725784     
   3264.0784342673660     
   3186.9758538949045     
   3111.0332715136715     
   3036.6244627664883     
   2964.1468189519792     
   2612.6318117064848     
   2615.3198211650379     
   2618.5939661766506     
   2622.8217794246689     
   2628.3707935940133     
   2635.6085413701512     
   2644.9025554397831     
   2656.6203684899842     
   2671.1295132086293     
   2617.0591208231331     
   2618.4435367445517     
   2620.4058079341266     
   2623.3064317633175     
   2627.5070970777738     
   2633.3706701297442     
   2641.2611555220487     
   2651.5436274004087     
   2664.5841271319182     
   2630.5810291089915     
   2628.1066174545326     
   2626.1878425004602     
   2625.1625576824354     
   2625.3730925417262     
   2627.1662338836632     
   2630.8931235762248     
   2636.9090540575553     
   2645.5731453369513     
   2653.8715021673502     
   2645.0888008245724     
   2636.8303444466255     
   2629.3930921090241     
   2623.0830182822847     
   2618.2151973810005     
   2615.1137569979046     
   2614.1116600275818     
   2615.5502777789516     
   2687.9978385957761     
   2670.5972221099732     
   2653.6904778580729     
   2637.5122464402439     
   2622.3105493464450     
   2608.3471780468872     
   2595.8979818889275     
   2585.2529988309643     
   2576.7163688831392     
   2734.3624279989699     
   2706.2119613045097     
   2678.5449536440965     
   2651.5093353188581     
   2625.2686030796781     
   2600.0026943310936     
   2575.9089424256181     
   2553.2030699428560     
   2532.1201647187045     
   2794.6230767407487     
   2753.8095949427980     
   2713.5204376178795     
   2673.7909259515518     
   2634.6695919738272     
   2596.2194831878123     
   2558.5199174395470     
   2521.6687136475421     
   2485.7849164494924     
   2870.5957328854324     
   2815.4653082619111     
   2760.9982241560406     
   2707.0929676846004     
   2653.6521946241892     
   2600.5839674884551     
   2547.8039429347123     
   2495.2386518277381     
   2442.8300401310339     
   2964.1468189519792     
   2893.3380665227196     
   2823.4937650483216     
   2754.3579914926222     
   2685.6622738631022     
   2617.1258635345448     
   2548.4574649762867     
   2479.3586584546051     
   2409.5293182016294     
   2671.1295132086293     
   2686.5661890781371     
   2700.6660470782990     
   2713.1957971443803     
   2723.9221492114943     
   2732.6118132150627     
   2739.0314990906650     
   2742.9479167740096     
   2744.1277762012523     
   2664.5841271319182     
   2678.6617481776543     
   2691.6664789792399     
   2703.3781299321104     
   2713.5731778201925     
   2722.0269598802852     
   2728.5170498888215     
   2732.8278305695762     
   2734.7563154905142     
   2645.5731453369513     
   2655.5604621537709     
   2665.1961708301037     
   2674.3055145893768     
   2682.7012188883332     
   2690.1906110272762     
   2696.5867148638454     
   2701.7233082185639     
   2705.4740166486640     
   2615.5502777789516     
   2618.6934555841631     
   2622.5344504664768     
   2626.9909266722443     
   2631.9537517537651     
   2637.2995105511072     
   2642.9105709087439     
   2648.7025298376348     
   2654.6588943662468     
   2576.7163688831392     
   2570.2548949580719     
   2565.7020509950753     
   2563.1352071428446     
   2562.5872983581603     
   2564.0628282743160     
   2567.5652303429310     
   2573.1351560178005     
   2580.8990056470611     
   2532.1201647187045     
   2513.3419822343371     
   2497.6316262479540     
   2485.3147221570148     
   2476.6570021207426     
   2471.8791865886301     
   2471.1865881138801     
   2474.8129358587753     
   2483.0770960003656     
   2485.7849164494924     
   2452.1460287518280     
   2422.4161835522023     
   2397.2701069104164     
   2377.3220761152770     
   2363.1329838507245     
   2355.2334169214441     
   2354.1628774823598     
   2360.5237604428585     
   2442.8300401310339     
   2392.1702235922999     
   2345.6270706810337     
   2304.3106787082588     
   2269.3063189472900     
   2241.6692912848421     
   2222.4315457928874     
   2212.6213129339212     
   2213.2955496732470     
   2409.5293182016294     
   2340.4118812050333     
   2274.6529957041471     
   2213.8186932369608     
   2159.5442982865129     
   2113.5265257930664     
   2077.5144473404448     
   2053.2981763359949     
   2042.6946096047625     
   2744.1277762012523     
   2731.8227004434939     
   2693.9021141846861     
   2628.0594297787898     
   2531.9880595802592     
   2403.3814159434855     
   2239.9329112229434     
   2039.3359577733934     
   1799.2839679519975     
   2734.7563154905142     
   2723.3787680414930     
   2686.3757611449414     
   2621.4795648372497     
   2526.4409265416534     
   2399.0318116412750     
   2237.0566048023215     
   2038.3792914006658     
   1800.9873549965566     
   2705.4740166486640     
   2696.5217512459440     
   2662.1133485057699     
   2600.0878953682641     
   2508.3883496468798     
   2385.0851441510094     
   2228.4386585260499     
   2037.0381717837383     
   1810.1152721781605     
   2654.6588943662468     
   2649.0655530747554     
   2618.6976192953653     
   2561.5466169783399     
   2475.8942457441894     
   2360.3942048842414     
   2214.2527942177030     
   2037.6020581289633     
   1832.2876760158281     
   2580.8990056470611     
   2578.9784715695241     
   2553.8569228137162     
   2503.6908950939892     
   2427.2344745956229     
   2324.0355190823402     
   2194.8224012419578     
   2042.2394132161812     
   1872.2420067011817     
   2483.0770960003656     
   2484.4330757607231     
   2465.4845723581493     
   2424.5215698615839     
   2360.8673681869700     
   2275.2643935590045     
   2170.5644874735090     
   2052.9061752601433     
   1933.5948400293598     
   2360.5237604428585     
   2363.9008216405628     
   2351.6847750129446     
   2322.2125881858246     
   2275.4127962944026     
   2213.4790719452835     
   2141.9558098707830     
   2071.3266210445977     
   2018.9061636886827     
   2213.2955496732470     
   2216.3298824395060     
   2210.8669041625735     
   2195.1428950268132     
   2169.6420863711273     
   2138.1929246885015     
   2109.5203617510697     
   2099.0527147647535     
   2130.0524894773280     
   2042.6946096047625     
   2041.4893489355622     
   2041.9351583476566     
   2041.9728500576575     
   2042.4831857470065     
   2049.0137981015309     
   2073.8388947745389     
   2137.6001409523210     
   2268.8051539902726     
   3577.3651988841320     
   3498.9330447376960     
   3420.3776438421219     
   3341.9892889725784     
   3264.0784342673660     
   3186.9758538949045     
   3111.0332715136715     
   3036.6244627664883     
   2964.1468189519792     
   3812.0491905097510     
   3720.6317464394897     
   3628.3698473331415     
   3535.6021262050517     
   3442.6922613728052     
   3350.0297822927378     
   3258.0319255968170     
   3167.1466388129129     
   3077.8568227196824     
   4066.3689766069906     
   3962.2292485113944     
   3856.6955473607131     
   3750.0840701861421     
   3642.7344257283216     
   3535.0113456636100     
   3427.3077427199719     
   3320.0493260338981     
   3213.7010101075698     
   4339.9555110139236     
   4223.1301128540572     
   4104.5991382887487     
   3984.6020893362456     
   3863.3957316657611     
   3741.2562803925775     
   3618.4827366089312     
   3495.4016151950500     
   3372.3733589269609     
   4632.9450082335252     
   4503.0507565089138     
   4371.4634468513759     
   4238.3096677013700     
   4103.7257940941836     
   3967.8595804980459     
   3830.8723313424744     
   3692.9417953602306     
   3554.2659733477235     
   4945.8643562934558     
   4801.9616297460443     
   4656.8023744272705     
   4510.3826225549528     
   4362.7026122327588     
   4213.7662654932792     
   4063.5807532552667     
   3912.1561671106360     
   3759.5053250704018     
   5279.5339915248833     
   5120.0337943734903     
   4960.2477800949246     
   4800.0419307189977     
   4639.2853250764201     
   4477.8456636036772     
   4315.5851751172240     
   4152.3569925602715     
   3988.0021075037421     
   5634.9880229428936     
   5457.5923351129459     
   5281.5340199268712     
   5106.5664765132533     
   4932.4512197799259     
   4758.9473289782927     
   4585.8031584806440     
   4412.7509532977137     
   4239.5051885257826     
   6013.4098485394679     
   5815.0772095697348     
   5620.4822910049370     
   5429.2986056446553     
   5241.2197063697231     
   5055.9400789003375     
   4873.1425235759734     
   4692.4940068393053     
   4513.6524412701456     
   2964.1468189519792     
   2893.3380665227196     
   2823.4937650483216     
   2754.3579914926222     
   2685.6622738631022     
   2617.1258635345448     
   2548.4574649762867     
   2479.3586584546051     
   2409.5293182016294     
   3077.8568227196824     
   2990.3452169867464     
   2904.2266829107243     
   2819.1406997726185     
   2734.6968964162538     
   2650.4740402190550     
   2566.0207320454369     
   2480.8580340780327     
   2394.4843221441593     
   3213.7010101075698     
   3108.9978729472195     
   3006.1170981345631     
   2904.6948578660094     
   2804.3303298171750     
   2704.5841819580723     
   2604.9785790374285     
   2504.9989048302818     
   2404.0974364096478     
   3372.3733589269609     
   3250.6693716571081     
   3131.1262471325376     
   3013.4601163072693     
   2897.3558271757961     
   2782.4658680712860     
   2668.4102844094655     
   2554.7777534712777     
   2441.1280183712261     
   3554.2659733477235     
   3416.4777589197615     
   3280.9761639200615     
   3147.6151980942414     
   3016.2335379078281     
   2886.6542369878225     
   2758.6847366589013     
   2632.1172448060811     
   2506.7295699220122     
   3759.5053250704018     
   3607.2683724175745     
   3457.0862901139471     
   3308.9778808000465     
   3162.9653763819269     
   3019.0742021191681     
   2877.3327615208864     
   2737.7722522959516     
   2600.4265274591335     
   3988.0021075037421     
   3823.6241236163969     
   3660.5492591852098     
   3498.9547123326979     
   3339.0326157932632     
   3180.9881011006423     
   3025.0386925342277     
   2871.4155241137150     
   2720.3670637809255     
   4239.5051885257826     
   4065.8961519955856     
   3892.1423994476377     
   3718.5414925923978     
   3545.4003543492668     
   3373.0294033703058     
   3201.7424134212370     
   3031.8643662568138     
   2863.7505716457099     
   4513.6524412701456     
   4334.2459931332141     
   4152.3656414822199     
   3968.3648480327320     
   3782.5767415713717     
   3595.3022819452517     
   3406.8128045700896     
   3217.3728684263083     
   3027.2924481274822     
   2409.5293182016294     
   2340.4118812050333     
   2274.6529957041471     
   2213.8186932369608     
   2159.5442982865129     
   2113.5265257930664     
   2077.5144473404448     
   2053.2981763359949     
   2042.6946096047625     
   2394.4843221441593     
   2307.6542756365552     
   2222.5661206530667     
   2141.0046682422089     
   2064.9528559593823     
   1996.6129506390926     
   1938.4154138915333     
   1893.0023714868896     
   1863.1713049999851     
   2404.0974364096478     
   2301.9901992994564     
   2199.7088460077234     
   2098.8316096561930     
   2001.2198008481387     
   1909.0886747706040     
   1825.0772011486824     
   1752.2950345327752     
   1694.3098237863637     
   2441.1280183712261     
   2326.1014737813284     
   2209.2248084884113     
   2091.5237159443377     
   1974.2900412515469     
   1859.1736383743648     
   1748.2985180020867     
   1644.3977040815337     
   1550.9430661707033     
   2506.7295699220122     
   2380.4684513092852     
   2251.5827225546323     
   2120.3843012956777     
   1987.3346359749958     
   1853.0950647068075     
   1718.6030357287177     
   1585.1869639339106     
   1454.7372460056015     
   2600.4265274591335     
   2463.4006162826263     
   2324.5388521539458     
   2183.4962342547451     
   2039.9213165523865     
   1893.4353569900711     
   1743.6185064988463     
   1590.0067216144387     
   1432.1065415892106     
   2720.3670637809255     
   2571.4789183433058     
   2423.6882194574914     
   2276.2254226416399     
   2128.1808558224361     
   1978.4539408532139     
   1825.7366824187047     
   1668.5481379308007     
   1505.3514375134753     
   2863.7505716457099     
   2700.2199967899351     
   2543.3374858774828     
   2392.2459774229064     
   2245.8527018425348     
   2102.8291479432855     
   1961.7640764595956     
   1821.5463488104062     
   1682.1064579740648     
   3027.2924481274822     
   2844.7391000116268     
   2677.3668572751235     
   2524.6188607629974     
   2385.6157276229346     
   2259.2704480382386     
   2144.7499050219590     
   2042.3878294899146     
   1955.1358879664099     
   2042.6946096047625     
   2041.4893489355622     
   2041.9351583476566     
   2041.9728500576575     
   2042.4831857470065     
   2049.0137981015309     
   2073.8388947745389     
   2137.6001409523210     
   2268.8051539902726     
   1863.1713049999851     
   1850.5010887054787     
   1852.2997248241263     
   1866.2729998588909     
   1893.5039369870615     
   1940.9660801238131     
   2023.9297388778814     
   2166.8666490371520     
   2400.9388664109879     
   1694.3098237863637     
   1659.8408727968845     
   1653.5627992837510     
   1673.7903117161788     
   1721.9232583641556     
   1805.7767838755231     
   1942.0990954926460     
   2156.4480972768906     
   2479.2622489621331     
   1550.9430661707033     
   1483.6309909449958     
   1456.5319038937744     
   1470.6839735650883     
   1528.8842820111206     
   1639.6306045362960     
   1819.7285121843126     
   2093.4096400209273     
   2488.0412761100342     
   1454.7372460056015     
   1346.7182647283059     
   1284.0411237783051     
   1273.6989618316582     
   1323.1402883242336     
   1443.2520742553852     
   1650.5228395690997     
   1966.0790383680994     
   2412.4695254997409     
   1432.1065415892106     
   1287.0034829770443     
   1179.4519549501001     
   1122.5269646039205     
   1132.7788122839636     
   1230.0272242078449     
   1434.8066574257978     
   1765.5452334754098     
   2238.3651547922768     
   1505.3514375134753     
   1345.3767697934527     
   1203.7657135610391     
   1091.2732578072826     
   1027.8828770158775     
   1047.9024347054124     
   1192.8079014739385     
   1491.1918717642054     
   1953.5961004455273     
   1682.1064579740648     
   1541.8038603479631     
   1398.8783456850263     
   1255.2055589472318     
   1118.4662719337696     
   1014.5980340424616     
   1004.7078100802898     
   1171.2456597990408     
   1554.1878576577667     
   1955.1358879664099     
   1867.6213758829090     
   1758.5033504740059     
   1623.2619379958737     
   1457.3524134629686     
   1262.1960594605816     
   1061.4687175165677     
   942.32890479857372     
   1074.8442058590588     
 </DataArray>
 </PointData>
 </Piece>
 </UnstructuredGrid>
 </VTKFile>
