 <VTKFile type="UnstructuredGrid"  version="0.1"   >
 <UnstructuredGrid>
 <Piece  NumberOfPoints="          1296 "  NumberOfCells="         1024 ">
 <Points>
 <DataArray  type="Float64" NumberOfComponents="3"  format="ascii" >
  -10.000000000000000        0.0000000000000000        0.0000000000000000     
  -9.8437500000000000        0.0000000000000000        0.0000000000000000     
  -9.6875000000000000        0.0000000000000000        0.0000000000000000     
  -9.5312500000000000        0.0000000000000000        0.0000000000000000     
  -9.3750000000000000        0.0000000000000000        0.0000000000000000     
  -9.2187500000000000        0.0000000000000000        0.0000000000000000     
  -9.0625000000000000        0.0000000000000000        0.0000000000000000     
  -8.9062500000000000        0.0000000000000000        0.0000000000000000     
  -8.7500000000000000        0.0000000000000000        0.0000000000000000     
  -10.000000000000000       0.15624999999999997        0.0000000000000000     
  -9.8437500000000000       0.15625000000000000        0.0000000000000000     
  -9.6875000000000000       0.15624999999999997        0.0000000000000000     
  -9.5312500000000000       0.15625000000000000        0.0000000000000000     
  -9.3750000000000000       0.15624999999999997        0.0000000000000000     
  -9.2187500000000000       0.15625000000000000        0.0000000000000000     
  -9.0625000000000000       0.15625000000000000        0.0000000000000000     
  -8.9062500000000000       0.15624999999999997        0.0000000000000000     
  -8.7499999999999982       0.15625000000000000        0.0000000000000000     
  -10.000000000000000       0.31250000000000000        0.0000000000000000     
  -9.8437500000000000       0.31249999999999994        0.0000000000000000     
  -9.6875000000000000       0.31249999999999994        0.0000000000000000     
  -9.5312500000000000       0.31250000000000000        0.0000000000000000     
  -9.3750000000000000       0.31249999999999994        0.0000000000000000     
  -9.2187500000000000       0.31250000000000000        0.0000000000000000     
  -9.0624999999999982       0.31250000000000000        0.0000000000000000     
  -8.9062499999999982       0.31249999999999994        0.0000000000000000     
  -8.7499999999999982       0.31249999999999994        0.0000000000000000     
  -10.000000000000000       0.46875000000000000        0.0000000000000000     
  -9.8437500000000000       0.46875000000000000        0.0000000000000000     
  -9.6875000000000000       0.46875000000000000        0.0000000000000000     
  -9.5312500000000000       0.46875000000000000        0.0000000000000000     
  -9.3749999999999982       0.46875000000000000        0.0000000000000000     
  -9.2187500000000000       0.46875000000000000        0.0000000000000000     
  -9.0625000000000000       0.46875000000000000        0.0000000000000000     
  -8.9062500000000000       0.46875000000000000        0.0000000000000000     
  -8.7500000000000000       0.46875000000000000        0.0000000000000000     
  -10.000000000000000       0.62499999999999989        0.0000000000000000     
  -9.8437500000000000       0.62499999999999989        0.0000000000000000     
  -9.6875000000000000       0.62500000000000000        0.0000000000000000     
  -9.5312499999999982       0.62499999999999989        0.0000000000000000     
  -9.3749999999999982       0.62499999999999989        0.0000000000000000     
  -9.2187500000000000       0.62500000000000000        0.0000000000000000     
  -9.0624999999999982       0.62499999999999989        0.0000000000000000     
  -8.9062500000000000       0.62499999999999978        0.0000000000000000     
  -8.7500000000000000       0.62500000000000000        0.0000000000000000     
  -10.000000000000000       0.78125000000000011        0.0000000000000000     
  -9.8437500000000000       0.78125000000000000        0.0000000000000000     
  -9.6875000000000000       0.78125000000000000        0.0000000000000000     
  -9.5312500000000000       0.78125000000000011        0.0000000000000000     
  -9.3750000000000000       0.78124999999999989        0.0000000000000000     
  -9.2187500000000000       0.78125000000000011        0.0000000000000000     
  -9.0625000000000000       0.78125000000000000        0.0000000000000000     
  -8.9062499999999982       0.78125000000000000        0.0000000000000000     
  -8.7500000000000000       0.78124999999999989        0.0000000000000000     
  -10.000000000000000       0.93750000000000000        0.0000000000000000     
  -9.8437500000000000       0.93750000000000000        0.0000000000000000     
  -9.6875000000000000       0.93750000000000000        0.0000000000000000     
  -9.5312500000000000       0.93750000000000000        0.0000000000000000     
  -9.3749999999999982       0.93750000000000000        0.0000000000000000     
  -9.2187500000000000       0.93750000000000000        0.0000000000000000     
  -9.0625000000000000       0.93750000000000000        0.0000000000000000     
  -8.9062499999999982       0.93750000000000000        0.0000000000000000     
  -8.7499999999999982       0.93750000000000000        0.0000000000000000     
  -10.000000000000000        1.0937499999999998        0.0000000000000000     
  -9.8437500000000000        1.0937499999999998        0.0000000000000000     
  -9.6875000000000000        1.0937500000000000        0.0000000000000000     
  -9.5312500000000018        1.0937500000000002        0.0000000000000000     
  -9.3750000000000000        1.0937500000000002        0.0000000000000000     
  -9.2187500000000000        1.0937499999999998        0.0000000000000000     
  -9.0625000000000000        1.0937500000000002        0.0000000000000000     
  -8.9062500000000018        1.0937500000000004        0.0000000000000000     
  -8.7500000000000000        1.0937500000000000        0.0000000000000000     
  -10.000000000000002        1.2500000000000002        0.0000000000000000     
  -9.8437499999999982        1.2499999999999998        0.0000000000000000     
  -9.6874999999999982        1.2500000000000000        0.0000000000000000     
  -9.5312500000000000        1.2500000000000002        0.0000000000000000     
  -9.3750000000000000        1.2499999999999998        0.0000000000000000     
  -9.2187500000000000        1.2500000000000000        0.0000000000000000     
  -9.0625000000000000        1.2500000000000002        0.0000000000000000     
  -8.9062500000000000        1.2499999999999998        0.0000000000000000     
  -8.7500000000000000        1.2500000000000002        0.0000000000000000     
  -8.7500000000000000        0.0000000000000000        0.0000000000000000     
  -8.5937500000000000        0.0000000000000000        0.0000000000000000     
  -8.4374999999999982        0.0000000000000000        0.0000000000000000     
  -8.2812500000000018        0.0000000000000000        0.0000000000000000     
  -8.1250000000000000        0.0000000000000000        0.0000000000000000     
  -7.9687500000000018        0.0000000000000000        0.0000000000000000     
  -7.8124999999999991        0.0000000000000000        0.0000000000000000     
  -7.6562500000000000        0.0000000000000000        0.0000000000000000     
  -7.5000000000000018        0.0000000000000000        0.0000000000000000     
  -8.7499999999999982       0.15625000000000000        0.0000000000000000     
  -8.5937500000000000       0.15624999999999997        0.0000000000000000     
  -8.4375000000000000       0.15625000000000000        0.0000000000000000     
  -8.2812500000000000       0.15625000000000003        0.0000000000000000     
  -8.1250000000000000       0.15624999999999997        0.0000000000000000     
  -7.9687500000000009       0.15625000000000000        0.0000000000000000     
  -7.8125000000000018       0.15625000000000003        0.0000000000000000     
  -7.6562499999999991       0.15624999999999997        0.0000000000000000     
  -7.5000000000000009       0.15625000000000000        0.0000000000000000     
  -8.7499999999999982       0.31249999999999994        0.0000000000000000     
  -8.5937500000000000       0.31249999999999994        0.0000000000000000     
  -8.4374999999999982       0.31249999999999994        0.0000000000000000     
  -8.2812499999999982       0.31249999999999994        0.0000000000000000     
  -8.1249999999999982       0.31249999999999994        0.0000000000000000     
  -7.9687500000000000       0.31250000000000000        0.0000000000000000     
  -7.8124999999999991       0.31250000000000000        0.0000000000000000     
  -7.6562500000000000       0.31249999999999994        0.0000000000000000     
  -7.5000000000000000       0.31250000000000000        0.0000000000000000     
  -8.7500000000000000       0.46875000000000000        0.0000000000000000     
  -8.5937499999999982       0.46875000000000000        0.0000000000000000     
  -8.4375000000000000       0.46875000000000006        0.0000000000000000     
  -8.2812500000000000       0.46875000000000000        0.0000000000000000     
  -8.1249999999999982       0.46875000000000000        0.0000000000000000     
  -7.9687500000000018       0.46875000000000006        0.0000000000000000     
  -7.8125000000000000       0.46875000000000000        0.0000000000000000     
  -7.6562500000000000       0.46875000000000000        0.0000000000000000     
  -7.5000000000000018       0.46875000000000011        0.0000000000000000     
  -8.7500000000000000       0.62500000000000000        0.0000000000000000     
  -8.5937500000000000       0.62499999999999989        0.0000000000000000     
  -8.4374999999999982       0.62499999999999989        0.0000000000000000     
  -8.2812500000000000       0.62500000000000000        0.0000000000000000     
  -8.1250000000000000       0.62499999999999989        0.0000000000000000     
  -7.9687500000000000       0.62500000000000000        0.0000000000000000     
  -7.8125000000000000       0.62500000000000011        0.0000000000000000     
  -7.6562499999999991       0.62499999999999989        0.0000000000000000     
  -7.4999999999999991       0.62499999999999978        0.0000000000000000     
  -8.7500000000000000       0.78124999999999989        0.0000000000000000     
  -8.5937499999999982       0.78125000000000011        0.0000000000000000     
  -8.4374999999999982       0.78125000000000000        0.0000000000000000     
  -8.2812499999999982       0.78124999999999989        0.0000000000000000     
  -8.1250000000000000       0.78125000000000000        0.0000000000000000     
  -7.9687500000000009       0.78125000000000022        0.0000000000000000     
  -7.8124999999999991       0.78124999999999989        0.0000000000000000     
  -7.6562499999999991       0.78125000000000000        0.0000000000000000     
  -7.5000000000000009       0.78125000000000022        0.0000000000000000     
  -8.7499999999999982       0.93750000000000000        0.0000000000000000     
  -8.5937500000000000       0.93750000000000000        0.0000000000000000     
  -8.4375000000000018       0.93750000000000000        0.0000000000000000     
  -8.2812500000000000       0.93750000000000000        0.0000000000000000     
  -8.1250000000000000       0.93750000000000000        0.0000000000000000     
  -7.9687500000000000       0.93750000000000011        0.0000000000000000     
  -7.8125000000000000       0.93750000000000000        0.0000000000000000     
  -7.6562500000000000       0.93750000000000000        0.0000000000000000     
  -7.5000000000000018       0.93750000000000011        0.0000000000000000     
  -8.7500000000000000        1.0937500000000000        0.0000000000000000     
  -8.5937500000000000        1.0937500000000000        0.0000000000000000     
  -8.4375000000000000        1.0937500000000000        0.0000000000000000     
  -8.2812499999999982        1.0937500000000000        0.0000000000000000     
  -8.1250000000000000        1.0937500000000000        0.0000000000000000     
  -7.9687500000000000        1.0937499999999998        0.0000000000000000     
  -7.8125000000000000        1.0937500000000000        0.0000000000000000     
  -7.6562500000000000        1.0937500000000000        0.0000000000000000     
  -7.4999999999999982        1.0937499999999998        0.0000000000000000     
  -8.7500000000000000        1.2500000000000002        0.0000000000000000     
  -8.5937499999999982        1.2499999999999998        0.0000000000000000     
  -8.4375000000000018        1.2500000000000002        0.0000000000000000     
  -8.2812500000000000        1.2500000000000000        0.0000000000000000     
  -8.1249999999999982        1.2499999999999998        0.0000000000000000     
  -7.9687500000000000        1.2500000000000002        0.0000000000000000     
  -7.8125000000000000        1.2500000000000002        0.0000000000000000     
  -7.6562500000000000        1.2499999999999998        0.0000000000000000     
  -7.5000000000000009        1.2500000000000002        0.0000000000000000     
  -7.5000000000000018        0.0000000000000000        0.0000000000000000     
  -7.3437500000000000        0.0000000000000000        0.0000000000000000     
  -7.1875000000000000        0.0000000000000000        0.0000000000000000     
  -7.0312500000000009        0.0000000000000000        0.0000000000000000     
  -6.8750000000000000        0.0000000000000000        0.0000000000000000     
  -6.7187500000000000        0.0000000000000000        0.0000000000000000     
  -6.5625000000000000        0.0000000000000000        0.0000000000000000     
  -6.4062500000000000        0.0000000000000000        0.0000000000000000     
  -6.2500000000000000        0.0000000000000000        0.0000000000000000     
  -7.5000000000000009       0.15625000000000000        0.0000000000000000     
  -7.3437500000000009       0.15625000000000000        0.0000000000000000     
  -7.1875000000000000       0.15624999999999997        0.0000000000000000     
  -7.0312500000000009       0.15625000000000000        0.0000000000000000     
  -6.8750000000000009       0.15625000000000000        0.0000000000000000     
  -6.7187500000000000       0.15625000000000000        0.0000000000000000     
  -6.5625000000000009       0.15625000000000000        0.0000000000000000     
  -6.4062500000000009       0.15625000000000000        0.0000000000000000     
  -6.2500000000000000       0.15625000000000000        0.0000000000000000     
  -7.5000000000000000       0.31250000000000000        0.0000000000000000     
  -7.3437500000000000       0.31249999999999994        0.0000000000000000     
  -7.1874999999999991       0.31249999999999994        0.0000000000000000     
  -7.0312500000000000       0.31250000000000000        0.0000000000000000     
  -6.8749999999999991       0.31249999999999994        0.0000000000000000     
  -6.7187499999999991       0.31249999999999994        0.0000000000000000     
  -6.5625000000000000       0.31250000000000000        0.0000000000000000     
  -6.4062499999999991       0.31249999999999994        0.0000000000000000     
  -6.2499999999999991       0.31249999999999994        0.0000000000000000     
  -7.5000000000000018       0.46875000000000011        0.0000000000000000     
  -7.3437500000000000       0.46875000000000000        0.0000000000000000     
  -7.1875000000000000       0.46875000000000000        0.0000000000000000     
  -7.0312500000000000       0.46875000000000000        0.0000000000000000     
  -6.8750000000000000       0.46875000000000000        0.0000000000000000     
  -6.7187500000000000       0.46875000000000000        0.0000000000000000     
  -6.5625000000000000       0.46875000000000006        0.0000000000000000     
  -6.4062500000000000       0.46875000000000000        0.0000000000000000     
  -6.2500000000000000       0.46875000000000000        0.0000000000000000     
  -7.4999999999999991       0.62499999999999978        0.0000000000000000     
  -7.3437500000000009       0.62500000000000022        0.0000000000000000     
  -7.1875000000000000       0.62499999999999989        0.0000000000000000     
  -7.0312499999999991       0.62499999999999978        0.0000000000000000     
  -6.8750000000000000       0.62500000000000022        0.0000000000000000     
  -6.7187500000000000       0.62500000000000000        0.0000000000000000     
  -6.5624999999999991       0.62499999999999978        0.0000000000000000     
  -6.4062500000000000       0.62500000000000011        0.0000000000000000     
  -6.2500000000000000       0.62500000000000000        0.0000000000000000     
  -7.5000000000000009       0.78125000000000022        0.0000000000000000     
  -7.3437500000000000       0.78125000000000000        0.0000000000000000     
  -7.1875000000000009       0.78125000000000000        0.0000000000000000     
  -7.0312500000000009       0.78125000000000011        0.0000000000000000     
  -6.8750000000000000       0.78125000000000000        0.0000000000000000     
  -6.7187500000000000       0.78125000000000022        0.0000000000000000     
  -6.5624999999999991       0.78125000000000000        0.0000000000000000     
  -6.4062499999999991       0.78125000000000000        0.0000000000000000     
  -6.2500000000000009       0.78125000000000022        0.0000000000000000     
  -7.5000000000000018       0.93750000000000011        0.0000000000000000     
  -7.3437500000000000       0.93750000000000000        0.0000000000000000     
  -7.1875000000000000       0.93750000000000000        0.0000000000000000     
  -7.0312500000000000       0.93750000000000000        0.0000000000000000     
  -6.8750000000000000       0.93750000000000000        0.0000000000000000     
  -6.7187500000000000       0.93750000000000000        0.0000000000000000     
  -6.5625000000000009       0.93750000000000000        0.0000000000000000     
  -6.4062500000000000       0.93750000000000000        0.0000000000000000     
  -6.2499999999999982       0.93750000000000000        0.0000000000000000     
  -7.4999999999999982        1.0937499999999998        0.0000000000000000     
  -7.3437500000000009        1.0937500000000002        0.0000000000000000     
  -7.1875000000000000        1.0937499999999998        0.0000000000000000     
  -7.0312499999999991        1.0937499999999998        0.0000000000000000     
  -6.8750000000000009        1.0937500000000002        0.0000000000000000     
  -6.7187500000000000        1.0937500000000000        0.0000000000000000     
  -6.5624999999999991        1.0937499999999998        0.0000000000000000     
  -6.4062500000000009        1.0937500000000002        0.0000000000000000     
  -6.2500000000000000        1.0937500000000000        0.0000000000000000     
  -7.5000000000000009        1.2500000000000002        0.0000000000000000     
  -7.3437500000000000        1.2500000000000000        0.0000000000000000     
  -7.1875000000000000        1.2500000000000002        0.0000000000000000     
  -7.0312500000000000        1.2500000000000000        0.0000000000000000     
  -6.8750000000000000        1.2500000000000000        0.0000000000000000     
  -6.7187500000000000        1.2500000000000000        0.0000000000000000     
  -6.5625000000000000        1.2500000000000000        0.0000000000000000     
  -6.4062500000000000        1.2500000000000000        0.0000000000000000     
  -6.2500000000000000        1.2500000000000002        0.0000000000000000     
  -6.2500000000000000        0.0000000000000000        0.0000000000000000     
  -6.0937500000000000        0.0000000000000000        0.0000000000000000     
  -5.9375000000000000        0.0000000000000000        0.0000000000000000     
  -5.7812500000000000        0.0000000000000000        0.0000000000000000     
  -5.6250000000000000        0.0000000000000000        0.0000000000000000     
  -5.4687500000000000        0.0000000000000000        0.0000000000000000     
  -5.3124999999999991        0.0000000000000000        0.0000000000000000     
  -5.1562500000000000        0.0000000000000000        0.0000000000000000     
  -5.0000000000000000        0.0000000000000000        0.0000000000000000     
  -6.2500000000000000       0.15625000000000000        0.0000000000000000     
  -6.0937500000000000       0.15625000000000000        0.0000000000000000     
  -5.9375000000000000       0.15624999999999997        0.0000000000000000     
  -5.7812500000000000       0.15625000000000000        0.0000000000000000     
  -5.6250000000000000       0.15625000000000000        0.0000000000000000     
  -5.4687500000000000       0.15625000000000000        0.0000000000000000     
  -5.3125000000000000       0.15625000000000000        0.0000000000000000     
  -5.1562499999999991       0.15624999999999997        0.0000000000000000     
  -5.0000000000000000       0.15624999999999997        0.0000000000000000     
  -6.2499999999999991       0.31249999999999994        0.0000000000000000     
  -6.0937499999999991       0.31250000000000000        0.0000000000000000     
  -5.9374999999999991       0.31250000000000000        0.0000000000000000     
  -5.7812500000000000       0.31250000000000000        0.0000000000000000     
  -5.6249999999999991       0.31250000000000000        0.0000000000000000     
  -5.4687500000000000       0.31250000000000000        0.0000000000000000     
  -5.3125000000000000       0.31250000000000000        0.0000000000000000     
  -5.1562500000000000       0.31249999999999994        0.0000000000000000     
  -5.0000000000000000       0.31250000000000000        0.0000000000000000     
  -6.2500000000000000       0.46875000000000000        0.0000000000000000     
  -6.0937500000000000       0.46875000000000000        0.0000000000000000     
  -5.9375000000000000       0.46875000000000000        0.0000000000000000     
  -5.7812500000000000       0.46875000000000000        0.0000000000000000     
  -5.6249999999999991       0.46875000000000000        0.0000000000000000     
  -5.4687500000000000       0.46875000000000000        0.0000000000000000     
  -5.3125000000000000       0.46875000000000000        0.0000000000000000     
  -5.1562500000000000       0.46875000000000000        0.0000000000000000     
  -5.0000000000000000       0.46875000000000000        0.0000000000000000     
  -6.2500000000000000       0.62500000000000000        0.0000000000000000     
  -6.0937500000000000       0.62500000000000000        0.0000000000000000     
  -5.9374999999999991       0.62499999999999989        0.0000000000000000     
  -5.7812500000000000       0.62500000000000000        0.0000000000000000     
  -5.6250000000000000       0.62500000000000000        0.0000000000000000     
  -5.4687499999999991       0.62500000000000000        0.0000000000000000     
  -5.3125000000000000       0.62500000000000000        0.0000000000000000     
  -5.1562499999999991       0.62499999999999989        0.0000000000000000     
  -5.0000000000000000       0.62499999999999989        0.0000000000000000     
  -6.2500000000000009       0.78125000000000022        0.0000000000000000     
  -6.0937500000000000       0.78125000000000000        0.0000000000000000     
  -5.9375000000000000       0.78125000000000000        0.0000000000000000     
  -5.7812500000000000       0.78125000000000000        0.0000000000000000     
  -5.6250000000000000       0.78125000000000000        0.0000000000000000     
  -5.4687500000000000       0.78125000000000011        0.0000000000000000     
  -5.3124999999999991       0.78125000000000011        0.0000000000000000     
  -5.1562500000000000       0.78125000000000011        0.0000000000000000     
  -5.0000000000000000       0.78125000000000011        0.0000000000000000     
  -6.2499999999999982       0.93750000000000000        0.0000000000000000     
  -6.0937500000000000       0.93750000000000000        0.0000000000000000     
  -5.9375000000000000       0.93750000000000000        0.0000000000000000     
  -5.7812500000000000       0.93750000000000000        0.0000000000000000     
  -5.6250000000000000       0.93750000000000000        0.0000000000000000     
  -5.4687500000000000       0.93750000000000000        0.0000000000000000     
  -5.3125000000000000       0.93750000000000000        0.0000000000000000     
  -5.1562500000000000       0.93750000000000000        0.0000000000000000     
  -5.0000000000000000       0.93750000000000000        0.0000000000000000     
  -6.2500000000000000        1.0937500000000000        0.0000000000000000     
  -6.0937500000000000        1.0937500000000000        0.0000000000000000     
  -5.9375000000000000        1.0937500000000000        0.0000000000000000     
  -5.7812500000000000        1.0937500000000000        0.0000000000000000     
  -5.6250000000000000        1.0937500000000000        0.0000000000000000     
  -5.4687500000000000        1.0937500000000000        0.0000000000000000     
  -5.3125000000000000        1.0937499999999998        0.0000000000000000     
  -5.1562500000000000        1.0937500000000000        0.0000000000000000     
  -5.0000000000000000        1.0937499999999998        0.0000000000000000     
  -6.2500000000000000        1.2500000000000002        0.0000000000000000     
  -6.0937499999999991        1.2500000000000000        0.0000000000000000     
  -5.9374999999999991        1.2500000000000000        0.0000000000000000     
  -5.7812500000000000        1.2499999999999998        0.0000000000000000     
  -5.6249999999999991        1.2500000000000000        0.0000000000000000     
  -5.4687499999999991        1.2500000000000000        0.0000000000000000     
  -5.3125000000000000        1.2499999999999998        0.0000000000000000     
  -5.1562500000000009        1.2500000000000000        0.0000000000000000     
  -5.0000000000000009        1.2500000000000002        0.0000000000000000     
  -10.000000000000002        1.2500000000000002        0.0000000000000000     
  -9.8437499999999982        1.2499999999999998        0.0000000000000000     
  -9.6874999999999982        1.2500000000000000        0.0000000000000000     
  -9.5312500000000000        1.2500000000000002        0.0000000000000000     
  -9.3750000000000000        1.2499999999999998        0.0000000000000000     
  -9.2187500000000000        1.2500000000000000        0.0000000000000000     
  -9.0625000000000000        1.2500000000000002        0.0000000000000000     
  -8.9062500000000000        1.2499999999999998        0.0000000000000000     
  -8.7500000000000000        1.2500000000000002        0.0000000000000000     
  -10.000000000000000        1.4062499999999998        0.0000000000000000     
  -9.8437500000000000        1.4062500000000000        0.0000000000000000     
  -9.6875000000000000        1.4062499999999998        0.0000000000000000     
  -9.5312499999999982        1.4062499999999998        0.0000000000000000     
  -9.3749999999999982        1.4062500000000000        0.0000000000000000     
  -9.2187500000000000        1.4062500000000000        0.0000000000000000     
  -9.0625000000000000        1.4062499999999998        0.0000000000000000     
  -8.9062500000000000        1.4062500000000000        0.0000000000000000     
  -8.7499999999999982        1.4062499999999998        0.0000000000000000     
  -9.9999999999999982        1.5624999999999998        0.0000000000000000     
  -9.8437499999999982        1.5624999999999996        0.0000000000000000     
  -9.6875000000000000        1.5625000000000000        0.0000000000000000     
  -9.5312500000000000        1.5625000000000000        0.0000000000000000     
  -9.3750000000000000        1.5625000000000002        0.0000000000000000     
  -9.2187500000000000        1.5624999999999998        0.0000000000000000     
  -9.0625000000000000        1.5625000000000000        0.0000000000000000     
  -8.9062500000000000        1.5625000000000002        0.0000000000000000     
  -8.7500000000000000        1.5625000000000000        0.0000000000000000     
  -10.000000000000002        1.7187500000000004        0.0000000000000000     
  -9.8437500000000000        1.7187500000000004        0.0000000000000000     
  -9.6874999999999982        1.7187499999999998        0.0000000000000000     
  -9.5312500000000000        1.7187500000000002        0.0000000000000000     
  -9.3750000000000000        1.7187499999999998        0.0000000000000000     
  -9.2187500000000000        1.7187499999999998        0.0000000000000000     
  -9.0624999999999982        1.7187500000000000        0.0000000000000000     
  -8.9062500000000000        1.7187500000000000        0.0000000000000000     
  -8.7500000000000000        1.7187500000000000        0.0000000000000000     
  -10.000000000000000        1.8749999999999998        0.0000000000000000     
  -9.8437500000000000        1.8750000000000000        0.0000000000000000     
  -9.6874999999999982        1.8749999999999998        0.0000000000000000     
  -9.5312500000000000        1.8749999999999998        0.0000000000000000     
  -9.3749999999999982        1.8749999999999998        0.0000000000000000     
  -9.2187499999999982        1.8749999999999998        0.0000000000000000     
  -9.0624999999999982        1.8749999999999998        0.0000000000000000     
  -8.9062500000000000        1.8750000000000002        0.0000000000000000     
  -8.7500000000000000        1.8750000000000000        0.0000000000000000     
  -10.000000000000002        2.0312500000000004        0.0000000000000000     
  -9.8437500000000000        2.0312500000000000        0.0000000000000000     
  -9.6875000000000000        2.0312500000000004        0.0000000000000000     
  -9.5312499999999982        2.0312500000000000        0.0000000000000000     
  -9.3750000000000000        2.0312499999999991        0.0000000000000000     
  -9.2187500000000000        2.0312500000000004        0.0000000000000000     
  -9.0624999999999982        2.0312500000000000        0.0000000000000000     
  -8.9062500000000000        2.0312499999999996        0.0000000000000000     
  -8.7500000000000000        2.0312500000000004        0.0000000000000000     
  -10.000000000000000        2.1874999999999996        0.0000000000000000     
  -9.8437500000000000        2.1875000000000004        0.0000000000000000     
  -9.6874999999999982        2.1874999999999996        0.0000000000000000     
  -9.5312500000000000        2.1874999999999996        0.0000000000000000     
  -9.3750000000000000        2.1875000000000009        0.0000000000000000     
  -9.2187500000000000        2.1874999999999996        0.0000000000000000     
  -9.0625000000000000        2.1875000000000000        0.0000000000000000     
  -8.9062500000000000        2.1875000000000009        0.0000000000000000     
  -8.7500000000000000        2.1875000000000000        0.0000000000000000     
  -10.000000000000000        2.3437500000000000        0.0000000000000000     
  -9.8437499999999982        2.3437499999999996        0.0000000000000000     
  -9.6874999999999982        2.3437500000000000        0.0000000000000000     
  -9.5312500000000000        2.3437500000000004        0.0000000000000000     
  -9.3750000000000000        2.3437500000000000        0.0000000000000000     
  -9.2187499999999982        2.3437500000000000        0.0000000000000000     
  -9.0625000000000018        2.3437500000000004        0.0000000000000000     
  -8.9062500000000000        2.3437500000000000        0.0000000000000000     
  -8.7500000000000000        2.3437500000000004        0.0000000000000000     
  -10.000000000000004        2.5000000000000004        0.0000000000000000     
  -9.8437500000000000        2.4999999999999996        0.0000000000000000     
  -9.6875000000000000        2.5000000000000004        0.0000000000000000     
  -9.5312500000000018        2.5000000000000004        0.0000000000000000     
  -9.3750000000000000        2.4999999999999996        0.0000000000000000     
  -9.2187500000000000        2.5000000000000004        0.0000000000000000     
  -9.0625000000000018        2.5000000000000004        0.0000000000000000     
  -8.9062500000000018        2.5000000000000000        0.0000000000000000     
  -8.7500000000000000        2.5000000000000004        0.0000000000000000     
  -8.7500000000000000        1.2500000000000002        0.0000000000000000     
  -8.5937499999999982        1.2499999999999998        0.0000000000000000     
  -8.4375000000000018        1.2500000000000002        0.0000000000000000     
  -8.2812500000000000        1.2500000000000000        0.0000000000000000     
  -8.1249999999999982        1.2499999999999998        0.0000000000000000     
  -7.9687500000000000        1.2500000000000002        0.0000000000000000     
  -7.8125000000000000        1.2500000000000002        0.0000000000000000     
  -7.6562500000000000        1.2499999999999998        0.0000000000000000     
  -7.5000000000000009        1.2500000000000002        0.0000000000000000     
  -8.7499999999999982        1.4062499999999998        0.0000000000000000     
  -8.5937500000000000        1.4062500000000000        0.0000000000000000     
  -8.4375000000000000        1.4062499999999998        0.0000000000000000     
  -8.2812500000000000        1.4062500000000000        0.0000000000000000     
  -8.1250000000000000        1.4062500000000000        0.0000000000000000     
  -7.9687500000000000        1.4062499999999998        0.0000000000000000     
  -7.8125000000000000        1.4062499999999998        0.0000000000000000     
  -7.6562500000000000        1.4062500000000000        0.0000000000000000     
  -7.5000000000000000        1.4062499999999998        0.0000000000000000     
  -8.7500000000000000        1.5625000000000000        0.0000000000000000     
  -8.5937500000000000        1.5625000000000002        0.0000000000000000     
  -8.4375000000000000        1.5625000000000000        0.0000000000000000     
  -8.2812500000000018        1.5625000000000004        0.0000000000000000     
  -8.1250000000000000        1.5625000000000000        0.0000000000000000     
  -7.9687500000000000        1.5625000000000000        0.0000000000000000     
  -7.8125000000000000        1.5624999999999998        0.0000000000000000     
  -7.6562500000000009        1.5625000000000002        0.0000000000000000     
  -7.5000000000000000        1.5625000000000002        0.0000000000000000     
  -8.7500000000000000        1.7187500000000000        0.0000000000000000     
  -8.5937500000000000        1.7187500000000002        0.0000000000000000     
  -8.4375000000000036        1.7187500000000004        0.0000000000000000     
  -8.2812500000000000        1.7187500000000002        0.0000000000000000     
  -8.1249999999999982        1.7187500000000000        0.0000000000000000     
  -7.9687500000000000        1.7187500000000002        0.0000000000000000     
  -7.8125000000000000        1.7187500000000004        0.0000000000000000     
  -7.6562500000000000        1.7187500000000000        0.0000000000000000     
  -7.5000000000000000        1.7187500000000000        0.0000000000000000     
  -8.7500000000000000        1.8750000000000000        0.0000000000000000     
  -8.5937500000000000        1.8750000000000000        0.0000000000000000     
  -8.4374999999999982        1.8749999999999998        0.0000000000000000     
  -8.2812499999999982        1.8749999999999998        0.0000000000000000     
  -8.1250000000000000        1.8749999999999998        0.0000000000000000     
  -7.9687500000000000        1.8749999999999998        0.0000000000000000     
  -7.8125000000000000        1.8749999999999998        0.0000000000000000     
  -7.6562500000000000        1.8750000000000000        0.0000000000000000     
  -7.5000000000000000        1.8749999999999998        0.0000000000000000     
  -8.7500000000000000        2.0312500000000004        0.0000000000000000     
  -8.5937500000000000        2.0312499999999996        0.0000000000000000     
  -8.4374999999999982        2.0312500000000000        0.0000000000000000     
  -8.2812500000000000        2.0312500000000000        0.0000000000000000     
  -8.1250000000000000        2.0312499999999996        0.0000000000000000     
  -7.9687500000000000        2.0312500000000004        0.0000000000000000     
  -7.8125000000000000        2.0312500000000000        0.0000000000000000     
  -7.6562499999999991        2.0312499999999996        0.0000000000000000     
  -7.4999999999999991        2.0312500000000004        0.0000000000000000     
  -8.7500000000000000        2.1875000000000000        0.0000000000000000     
  -8.5937500000000018        2.1875000000000009        0.0000000000000000     
  -8.4375000000000036        2.1875000000000009        0.0000000000000000     
  -8.2812500000000000        2.1875000000000000        0.0000000000000000     
  -8.1250000000000018        2.1875000000000009        0.0000000000000000     
  -7.9687500000000027        2.1875000000000009        0.0000000000000000     
  -7.8125000000000000        2.1874999999999996        0.0000000000000000     
  -7.6562500000000009        2.1875000000000004        0.0000000000000000     
  -7.5000000000000009        2.1875000000000004        0.0000000000000000     
  -8.7500000000000000        2.3437500000000004        0.0000000000000000     
  -8.5937500000000000        2.3437499999999996        0.0000000000000000     
  -8.4375000000000000        2.3437499999999996        0.0000000000000000     
  -8.2812500000000000        2.3437500000000000        0.0000000000000000     
  -8.1250000000000000        2.3437499999999996        0.0000000000000000     
  -7.9687500000000000        2.3437499999999996        0.0000000000000000     
  -7.8125000000000009        2.3437500000000000        0.0000000000000000     
  -7.6562499999999991        2.3437500000000000        0.0000000000000000     
  -7.4999999999999991        2.3437499999999996        0.0000000000000000     
  -8.7500000000000000        2.5000000000000004        0.0000000000000000     
  -8.5937500000000000        2.4999999999999996        0.0000000000000000     
  -8.4375000000000000        2.5000000000000004        0.0000000000000000     
  -8.2812500000000000        2.5000000000000000        0.0000000000000000     
  -8.1250000000000000        2.4999999999999996        0.0000000000000000     
  -7.9687499999999991        2.5000000000000000        0.0000000000000000     
  -7.8125000000000018        2.5000000000000004        0.0000000000000000     
  -7.6562500000000000        2.5000000000000000        0.0000000000000000     
  -7.5000000000000000        2.5000000000000004        0.0000000000000000     
  -7.5000000000000009        1.2500000000000002        0.0000000000000000     
  -7.3437500000000000        1.2500000000000000        0.0000000000000000     
  -7.1875000000000000        1.2500000000000002        0.0000000000000000     
  -7.0312500000000000        1.2500000000000000        0.0000000000000000     
  -6.8750000000000000        1.2500000000000000        0.0000000000000000     
  -6.7187500000000000        1.2500000000000000        0.0000000000000000     
  -6.5625000000000000        1.2500000000000000        0.0000000000000000     
  -6.4062500000000000        1.2500000000000000        0.0000000000000000     
  -6.2500000000000000        1.2500000000000002        0.0000000000000000     
  -7.5000000000000000        1.4062499999999998        0.0000000000000000     
  -7.3437500000000000        1.4062500000000000        0.0000000000000000     
  -7.1875000000000000        1.4062499999999998        0.0000000000000000     
  -7.0312500000000000        1.4062499999999998        0.0000000000000000     
  -6.8750000000000000        1.4062500000000000        0.0000000000000000     
  -6.7187499999999982        1.4062499999999998        0.0000000000000000     
  -6.5625000000000000        1.4062499999999998        0.0000000000000000     
  -6.4062500000000000        1.4062500000000000        0.0000000000000000     
  -6.2499999999999982        1.4062499999999998        0.0000000000000000     
  -7.5000000000000000        1.5625000000000002        0.0000000000000000     
  -7.3437500000000009        1.5625000000000000        0.0000000000000000     
  -7.1875000000000000        1.5625000000000000        0.0000000000000000     
  -7.0312500000000000        1.5625000000000000        0.0000000000000000     
  -6.8750000000000000        1.5624999999999998        0.0000000000000000     
  -6.7187500000000000        1.5625000000000000        0.0000000000000000     
  -6.5624999999999991        1.5625000000000000        0.0000000000000000     
  -6.4062500000000018        1.5625000000000002        0.0000000000000000     
  -6.2500000000000000        1.5625000000000000        0.0000000000000000     
  -7.5000000000000000        1.7187500000000000        0.0000000000000000     
  -7.3437500000000000        1.7187500000000000        0.0000000000000000     
  -7.1875000000000000        1.7187500000000002        0.0000000000000000     
  -7.0312500000000000        1.7187500000000002        0.0000000000000000     
  -6.8750000000000009        1.7187500000000000        0.0000000000000000     
  -6.7187500000000000        1.7187500000000002        0.0000000000000000     
  -6.5625000000000000        1.7187500000000002        0.0000000000000000     
  -6.4062500000000009        1.7187500000000002        0.0000000000000000     
  -6.2500000000000000        1.7187500000000000        0.0000000000000000     
  -7.5000000000000000        1.8749999999999998        0.0000000000000000     
  -7.3437500000000000        1.8750000000000000        0.0000000000000000     
  -7.1875000000000000        1.8750000000000000        0.0000000000000000     
  -7.0312499999999991        1.8749999999999998        0.0000000000000000     
  -6.8749999999999991        1.8750000000000000        0.0000000000000000     
  -6.7187500000000000        1.8750000000000000        0.0000000000000000     
  -6.5624999999999991        1.8749999999999998        0.0000000000000000     
  -6.4062500000000000        1.8750000000000002        0.0000000000000000     
  -6.2499999999999982        1.8749999999999998        0.0000000000000000     
  -7.4999999999999991        2.0312500000000004        0.0000000000000000     
  -7.3437500000000000        2.0312500000000004        0.0000000000000000     
  -7.1875000000000018        2.0312500000000000        0.0000000000000000     
  -7.0312500000000000        2.0312500000000000        0.0000000000000000     
  -6.8750000000000000        2.0312500000000004        0.0000000000000000     
  -6.7187500000000000        2.0312500000000000        0.0000000000000000     
  -6.5624999999999991        2.0312500000000000        0.0000000000000000     
  -6.4062500000000009        2.0312500000000004        0.0000000000000000     
  -6.2500000000000009        2.0312500000000004        0.0000000000000000     
  -7.5000000000000009        2.1875000000000004        0.0000000000000000     
  -7.3437500000000009        2.1875000000000009        0.0000000000000000     
  -7.1874999999999982        2.1874999999999996        0.0000000000000000     
  -7.0312500000000009        2.1875000000000004        0.0000000000000000     
  -6.8750000000000009        2.1875000000000004        0.0000000000000000     
  -6.7187499999999991        2.1875000000000000        0.0000000000000000     
  -6.5625000000000009        2.1875000000000004        0.0000000000000000     
  -6.4062500000000009        2.1875000000000009        0.0000000000000000     
  -6.2499999999999991        2.1875000000000000        0.0000000000000000     
  -7.4999999999999991        2.3437499999999996        0.0000000000000000     
  -7.3437500000000009        2.3437500000000000        0.0000000000000000     
  -7.1875000000000009        2.3437500000000004        0.0000000000000000     
  -7.0312499999999991        2.3437499999999996        0.0000000000000000     
  -6.8750000000000009        2.3437500000000000        0.0000000000000000     
  -6.7187500000000000        2.3437500000000000        0.0000000000000000     
  -6.5624999999999991        2.3437499999999996        0.0000000000000000     
  -6.4062500000000009        2.3437500000000000        0.0000000000000000     
  -6.2499999999999991        2.3437500000000000        0.0000000000000000     
  -7.5000000000000000        2.5000000000000004        0.0000000000000000     
  -7.3437500000000018        2.5000000000000000        0.0000000000000000     
  -7.1875000000000018        2.5000000000000004        0.0000000000000000     
  -7.0312500000000000        2.5000000000000000        0.0000000000000000     
  -6.8750000000000000        2.5000000000000000        0.0000000000000000     
  -6.7187500000000009        2.5000000000000000        0.0000000000000000     
  -6.5625000000000009        2.5000000000000004        0.0000000000000000     
  -6.4062500000000009        2.5000000000000000        0.0000000000000000     
  -6.2500000000000009        2.5000000000000004        0.0000000000000000     
  -6.2500000000000000        1.2500000000000002        0.0000000000000000     
  -6.0937499999999991        1.2500000000000000        0.0000000000000000     
  -5.9374999999999991        1.2500000000000000        0.0000000000000000     
  -5.7812500000000000        1.2499999999999998        0.0000000000000000     
  -5.6249999999999991        1.2500000000000000        0.0000000000000000     
  -5.4687499999999991        1.2500000000000000        0.0000000000000000     
  -5.3125000000000000        1.2499999999999998        0.0000000000000000     
  -5.1562500000000009        1.2500000000000000        0.0000000000000000     
  -5.0000000000000009        1.2500000000000002        0.0000000000000000     
  -6.2499999999999982        1.4062499999999998        0.0000000000000000     
  -6.0937500000000000        1.4062500000000000        0.0000000000000000     
  -5.9375000000000000        1.4062500000000000        0.0000000000000000     
  -5.7812500000000000        1.4062499999999998        0.0000000000000000     
  -5.6249999999999991        1.4062500000000000        0.0000000000000000     
  -5.4687500000000000        1.4062499999999998        0.0000000000000000     
  -5.3125000000000000        1.4062499999999998        0.0000000000000000     
  -5.1562500000000000        1.4062500000000000        0.0000000000000000     
  -5.0000000000000000        1.4062499999999998        0.0000000000000000     
  -6.2500000000000000        1.5625000000000000        0.0000000000000000     
  -6.0937500000000009        1.5625000000000000        0.0000000000000000     
  -5.9374999999999991        1.5625000000000000        0.0000000000000000     
  -5.7812499999999991        1.5625000000000000        0.0000000000000000     
  -5.6250000000000000        1.5625000000000000        0.0000000000000000     
  -5.4687499999999991        1.5624999999999998        0.0000000000000000     
  -5.3125000000000000        1.5625000000000000        0.0000000000000000     
  -5.1562499999999991        1.5624999999999996        0.0000000000000000     
  -4.9999999999999991        1.5624999999999998        0.0000000000000000     
  -6.2500000000000000        1.7187500000000000        0.0000000000000000     
  -6.0937499999999991        1.7187500000000000        0.0000000000000000     
  -5.9375000000000000        1.7187500000000002        0.0000000000000000     
  -5.7812499999999991        1.7187499999999998        0.0000000000000000     
  -5.6249999999999991        1.7187500000000000        0.0000000000000000     
  -5.4687499999999991        1.7187499999999998        0.0000000000000000     
  -5.3124999999999991        1.7187499999999998        0.0000000000000000     
  -5.1562500000000000        1.7187500000000004        0.0000000000000000     
  -5.0000000000000009        1.7187500000000004        0.0000000000000000     
  -6.2499999999999982        1.8749999999999998        0.0000000000000000     
  -6.0937499999999991        1.8750000000000000        0.0000000000000000     
  -5.9374999999999991        1.8749999999999998        0.0000000000000000     
  -5.7812499999999991        1.8749999999999998        0.0000000000000000     
  -5.6249999999999991        1.8750000000000000        0.0000000000000000     
  -5.4687499999999991        1.8749999999999998        0.0000000000000000     
  -5.3124999999999991        1.8749999999999998        0.0000000000000000     
  -5.1562500000000000        1.8750000000000000        0.0000000000000000     
  -5.0000000000000000        1.8749999999999998        0.0000000000000000     
  -6.2500000000000009        2.0312500000000004        0.0000000000000000     
  -6.0937500000000009        2.0312500000000004        0.0000000000000000     
  -5.9375000000000009        2.0312500000000004        0.0000000000000000     
  -5.7812499999999991        2.0312500000000000        0.0000000000000000     
  -5.6249999999999991        2.0312500000000000        0.0000000000000000     
  -5.4687500000000000        2.0312500000000004        0.0000000000000000     
  -5.3125000000000009        2.0312500000000004        0.0000000000000000     
  -5.1562500000000009        2.0312500000000004        0.0000000000000000     
  -5.0000000000000009        2.0312500000000004        0.0000000000000000     
  -6.2499999999999991        2.1875000000000000        0.0000000000000000     
  -6.0937500000000000        2.1875000000000004        0.0000000000000000     
  -5.9375000000000000        2.1875000000000000        0.0000000000000000     
  -5.7812499999999991        2.1874999999999996        0.0000000000000000     
  -5.6250000000000000        2.1875000000000004        0.0000000000000000     
  -5.4687500000000000        2.1874999999999996        0.0000000000000000     
  -5.3124999999999991        2.1874999999999996        0.0000000000000000     
  -5.1562500000000009        2.1875000000000009        0.0000000000000000     
  -5.0000000000000000        2.1874999999999996        0.0000000000000000     
  -6.2499999999999991        2.3437500000000000        0.0000000000000000     
  -6.0937500000000000        2.3437500000000000        0.0000000000000000     
  -5.9375000000000000        2.3437500000000004        0.0000000000000000     
  -5.7812499999999991        2.3437500000000000        0.0000000000000000     
  -5.6250000000000009        2.3437500000000000        0.0000000000000000     
  -5.4687500000000000        2.3437500000000000        0.0000000000000000     
  -5.3124999999999991        2.3437500000000000        0.0000000000000000     
  -5.1562500000000000        2.3437499999999996        0.0000000000000000     
  -5.0000000000000000        2.3437500000000000        0.0000000000000000     
  -6.2500000000000009        2.5000000000000004        0.0000000000000000     
  -6.0937500000000009        2.5000000000000000        0.0000000000000000     
  -5.9374999999999991        2.5000000000000000        0.0000000000000000     
  -5.7812500000000009        2.5000000000000004        0.0000000000000000     
  -5.6250000000000009        2.5000000000000000        0.0000000000000000     
  -5.4687500000000009        2.5000000000000004        0.0000000000000000     
  -5.3125000000000000        2.5000000000000004        0.0000000000000000     
  -5.1562500000000000        2.4999999999999996        0.0000000000000000     
  -5.0000000000000018        2.5000000000000004        0.0000000000000000     
  -10.000000000000004        2.5000000000000004        0.0000000000000000     
  -9.8437500000000000        2.4999999999999996        0.0000000000000000     
  -9.6875000000000000        2.5000000000000004        0.0000000000000000     
  -9.5312500000000018        2.5000000000000004        0.0000000000000000     
  -9.3750000000000000        2.4999999999999996        0.0000000000000000     
  -9.2187500000000000        2.5000000000000004        0.0000000000000000     
  -9.0625000000000018        2.5000000000000004        0.0000000000000000     
  -8.9062500000000018        2.5000000000000000        0.0000000000000000     
  -8.7500000000000000        2.5000000000000004        0.0000000000000000     
  -10.000000000000000        2.6562499999999996        0.0000000000000000     
  -9.8437500000000000        2.6562500000000009        0.0000000000000000     
  -9.6874999999999982        2.6562499999999996        0.0000000000000000     
  -9.5312500000000000        2.6562499999999996        0.0000000000000000     
  -9.3750000000000000        2.6562500000000009        0.0000000000000000     
  -9.2187499999999982        2.6562499999999996        0.0000000000000000     
  -9.0625000000000000        2.6562500000000000        0.0000000000000000     
  -8.9062500000000000        2.6562500000000009        0.0000000000000000     
  -8.7500000000000018        2.6562500000000004        0.0000000000000000     
  -10.000000000000000        2.8125000000000000        0.0000000000000000     
  -9.8437499999999982        2.8125000000000000        0.0000000000000000     
  -9.6874999999999982        2.8125000000000000        0.0000000000000000     
  -9.5312500000000000        2.8125000000000000        0.0000000000000000     
  -9.3750000000000000        2.8125000000000004        0.0000000000000000     
  -9.2187500000000000        2.8125000000000000        0.0000000000000000     
  -9.0625000000000000        2.8125000000000000        0.0000000000000000     
  -8.9062500000000018        2.8125000000000004        0.0000000000000000     
  -8.7500000000000000        2.8125000000000000        0.0000000000000000     
  -10.000000000000002        2.9687500000000004        0.0000000000000000     
  -9.8437500000000000        2.9687499999999996        0.0000000000000000     
  -9.6875000000000000        2.9687500000000004        0.0000000000000000     
  -9.5312500000000000        2.9687500000000004        0.0000000000000000     
  -9.3750000000000018        2.9687500000000000        0.0000000000000000     
  -9.2187500000000018        2.9687500000000004        0.0000000000000000     
  -9.0625000000000000        2.9687500000000000        0.0000000000000000     
  -8.9062500000000018        2.9687500000000000        0.0000000000000000     
  -8.7500000000000000        2.9687500000000004        0.0000000000000000     
  -10.000000000000000        3.1249999999999996        0.0000000000000000     
  -9.8437500000000000        3.1250000000000009        0.0000000000000000     
  -9.6874999999999982        3.1249999999999996        0.0000000000000000     
  -9.5312500000000000        3.1249999999999996        0.0000000000000000     
  -9.3750000000000018        3.1250000000000009        0.0000000000000000     
  -9.2187499999999982        3.1249999999999996        0.0000000000000000     
  -9.0625000000000000        3.1249999999999996        0.0000000000000000     
  -8.9062500000000018        3.1250000000000009        0.0000000000000000     
  -8.7499999999999982        3.1250000000000004        0.0000000000000000     
  -10.000000000000002        3.2812500000000004        0.0000000000000000     
  -9.8437500000000000        3.2812500000000000        0.0000000000000000     
  -9.6875000000000018        3.2812500000000004        0.0000000000000000     
  -9.5312500000000000        3.2812500000000000        0.0000000000000000     
  -9.3750000000000018        3.2812500000000000        0.0000000000000000     
  -9.2187500000000000        3.2812500000000009        0.0000000000000000     
  -9.0624999999999964        3.2812499999999996        0.0000000000000000     
  -8.9062500000000018        3.2812500000000013        0.0000000000000000     
  -8.7500000000000000        3.2812500000000004        0.0000000000000000     
  -10.000000000000002        3.4375000000000004        0.0000000000000000     
  -9.8437500000000000        3.4375000000000000        0.0000000000000000     
  -9.6875000000000018        3.4375000000000004        0.0000000000000000     
  -9.5312499999999982        3.4375000000000004        0.0000000000000000     
  -9.3750000000000018        3.4375000000000000        0.0000000000000000     
  -9.2187500000000000        3.4375000000000004        0.0000000000000000     
  -9.0625000000000000        3.4375000000000009        0.0000000000000000     
  -8.9062500000000018        3.4375000000000000        0.0000000000000000     
  -8.7500000000000000        3.4375000000000000        0.0000000000000000     
  -10.000000000000000        3.5937499999999996        0.0000000000000000     
  -9.8437500000000000        3.5937500000000000        0.0000000000000000     
  -9.6874999999999982        3.5937499999999996        0.0000000000000000     
  -9.5312500000000000        3.5937499999999996        0.0000000000000000     
  -9.3750000000000018        3.5937500000000009        0.0000000000000000     
  -9.2187499999999982        3.5937500000000000        0.0000000000000000     
  -9.0625000000000000        3.5937499999999996        0.0000000000000000     
  -8.9062500000000018        3.5937500000000004        0.0000000000000000     
  -8.7499999999999982        3.5937499999999991        0.0000000000000000     
  -10.000000000000000        3.7500000000000000        0.0000000000000000     
  -9.8437500000000000        3.7500000000000000        0.0000000000000000     
  -9.6875000000000018        3.7500000000000004        0.0000000000000000     
  -9.5312500000000000        3.7500000000000000        0.0000000000000000     
  -9.3750000000000000        3.7500000000000000        0.0000000000000000     
  -9.2187500000000000        3.7500000000000004        0.0000000000000000     
  -9.0624999999999982        3.7499999999999996        0.0000000000000000     
  -8.9062500000000000        3.7500000000000000        0.0000000000000000     
  -8.7500000000000000        3.7500000000000004        0.0000000000000000     
  -8.7500000000000000        2.5000000000000004        0.0000000000000000     
  -8.5937500000000000        2.4999999999999996        0.0000000000000000     
  -8.4375000000000000        2.5000000000000004        0.0000000000000000     
  -8.2812500000000000        2.5000000000000000        0.0000000000000000     
  -8.1250000000000000        2.4999999999999996        0.0000000000000000     
  -7.9687499999999991        2.5000000000000000        0.0000000000000000     
  -7.8125000000000018        2.5000000000000004        0.0000000000000000     
  -7.6562500000000000        2.5000000000000000        0.0000000000000000     
  -7.5000000000000000        2.5000000000000004        0.0000000000000000     
  -8.7500000000000018        2.6562500000000004        0.0000000000000000     
  -8.5937500000000018        2.6562500000000009        0.0000000000000000     
  -8.4375000000000018        2.6562500000000004        0.0000000000000000     
  -8.2812500000000000        2.6562500000000000        0.0000000000000000     
  -8.1250000000000000        2.6562500000000009        0.0000000000000000     
  -7.9687500000000018        2.6562500000000000        0.0000000000000000     
  -7.8125000000000018        2.6562500000000000        0.0000000000000000     
  -7.6562500000000009        2.6562500000000013        0.0000000000000000     
  -7.5000000000000009        2.6562499999999996        0.0000000000000000     
  -8.7500000000000000        2.8125000000000000        0.0000000000000000     
  -8.5937500000000000        2.8125000000000000        0.0000000000000000     
  -8.4375000000000000        2.8124999999999996        0.0000000000000000     
  -8.2812500000000036        2.8125000000000004        0.0000000000000000     
  -8.1250000000000000        2.8125000000000004        0.0000000000000000     
  -7.9687500000000000        2.8125000000000000        0.0000000000000000     
  -7.8125000000000009        2.8125000000000000        0.0000000000000000     
  -7.6562500000000009        2.8125000000000004        0.0000000000000000     
  -7.5000000000000009        2.8125000000000004        0.0000000000000000     
  -8.7500000000000000        2.9687500000000004        0.0000000000000000     
  -8.5937500000000000        2.9687499999999996        0.0000000000000000     
  -8.4375000000000000        2.9687500000000000        0.0000000000000000     
  -8.2812500000000000        2.9687500000000000        0.0000000000000000     
  -8.1250000000000000        2.9687499999999996        0.0000000000000000     
  -7.9687500000000000        2.9687500000000004        0.0000000000000000     
  -7.8125000000000000        2.9687500000000000        0.0000000000000000     
  -7.6562499999999991        2.9687499999999996        0.0000000000000000     
  -7.4999999999999982        2.9687499999999996        0.0000000000000000     
  -8.7499999999999982        3.1250000000000004        0.0000000000000000     
  -8.5937500000000000        3.1250000000000009        0.0000000000000000     
  -8.4375000000000000        3.1250000000000000        0.0000000000000000     
  -8.2812500000000000        3.1250000000000000        0.0000000000000000     
  -8.1250000000000000        3.1250000000000009        0.0000000000000000     
  -7.9687500000000018        3.1250000000000000        0.0000000000000000     
  -7.8125000000000009        3.1250000000000000        0.0000000000000000     
  -7.6562500000000000        3.1250000000000009        0.0000000000000000     
  -7.5000000000000009        3.1249999999999996        0.0000000000000000     
  -8.7500000000000000        3.2812500000000004        0.0000000000000000     
  -8.5937500000000000        3.2812500000000000        0.0000000000000000     
  -8.4375000000000000        3.2812500000000000        0.0000000000000000     
  -8.2812500000000000        3.2812499999999996        0.0000000000000000     
  -8.1250000000000018        3.2812500000000000        0.0000000000000000     
  -7.9687500000000000        3.2812500000000000        0.0000000000000000     
  -7.8125000000000000        3.2812499999999996        0.0000000000000000     
  -7.6562500000000000        3.2812499999999996        0.0000000000000000     
  -7.4999999999999991        3.2812500000000004        0.0000000000000000     
  -8.7500000000000000        3.4375000000000000        0.0000000000000000     
  -8.5937500000000000        3.4375000000000000        0.0000000000000000     
  -8.4375000000000000        3.4375000000000000        0.0000000000000000     
  -8.2812500000000018        3.4375000000000004        0.0000000000000000     
  -8.1250000000000000        3.4375000000000000        0.0000000000000000     
  -7.9687499999999991        3.4375000000000000        0.0000000000000000     
  -7.8125000000000009        3.4375000000000004        0.0000000000000000     
  -7.6562499999999991        3.4375000000000000        0.0000000000000000     
  -7.4999999999999991        3.4374999999999996        0.0000000000000000     
  -8.7499999999999982        3.5937499999999991        0.0000000000000000     
  -8.5937500000000000        3.5937500000000009        0.0000000000000000     
  -8.4374999999999982        3.5937499999999996        0.0000000000000000     
  -8.2812499999999982        3.5937499999999991        0.0000000000000000     
  -8.1250000000000000        3.5937500000000009        0.0000000000000000     
  -7.9687500000000009        3.5937499999999996        0.0000000000000000     
  -7.8125000000000000        3.5937499999999996        0.0000000000000000     
  -7.6562500000000009        3.5937500000000009        0.0000000000000000     
  -7.5000000000000009        3.5937499999999996        0.0000000000000000     
  -8.7500000000000000        3.7500000000000004        0.0000000000000000     
  -8.5937500000000000        3.7500000000000000        0.0000000000000000     
  -8.4375000000000000        3.7500000000000000        0.0000000000000000     
  -8.2812500000000000        3.7499999999999996        0.0000000000000000     
  -8.1250000000000000        3.7500000000000004        0.0000000000000000     
  -7.9687499999999991        3.7500000000000004        0.0000000000000000     
  -7.8125000000000000        3.7499999999999996        0.0000000000000000     
  -7.6562500000000018        3.7500000000000004        0.0000000000000000     
  -7.5000000000000000        3.7500000000000009        0.0000000000000000     
  -7.5000000000000000        2.5000000000000004        0.0000000000000000     
  -7.3437500000000018        2.5000000000000000        0.0000000000000000     
  -7.1875000000000018        2.5000000000000004        0.0000000000000000     
  -7.0312500000000000        2.5000000000000000        0.0000000000000000     
  -6.8750000000000000        2.5000000000000000        0.0000000000000000     
  -6.7187500000000009        2.5000000000000000        0.0000000000000000     
  -6.5625000000000009        2.5000000000000004        0.0000000000000000     
  -6.4062500000000009        2.5000000000000000        0.0000000000000000     
  -6.2500000000000009        2.5000000000000004        0.0000000000000000     
  -7.5000000000000009        2.6562499999999996        0.0000000000000000     
  -7.3437500000000018        2.6562500000000009        0.0000000000000000     
  -7.1875000000000009        2.6562500000000004        0.0000000000000000     
  -7.0312500000000018        2.6562500000000000        0.0000000000000000     
  -6.8750000000000018        2.6562500000000009        0.0000000000000000     
  -6.7187500000000009        2.6562500000000000        0.0000000000000000     
  -6.5625000000000018        2.6562500000000004        0.0000000000000000     
  -6.4062500000000009        2.6562500000000004        0.0000000000000000     
  -6.2500000000000009        2.6562500000000000        0.0000000000000000     
  -7.5000000000000009        2.8125000000000004        0.0000000000000000     
  -7.3437500000000009        2.8125000000000000        0.0000000000000000     
  -7.1875000000000000        2.8125000000000000        0.0000000000000000     
  -7.0312500000000000        2.8125000000000000        0.0000000000000000     
  -6.8750000000000018        2.8125000000000000        0.0000000000000000     
  -6.7187500000000000        2.8125000000000000        0.0000000000000000     
  -6.5625000000000000        2.8125000000000000        0.0000000000000000     
  -6.4062500000000018        2.8125000000000000        0.0000000000000000     
  -6.2500000000000000        2.8125000000000004        0.0000000000000000     
  -7.4999999999999982        2.9687499999999996        0.0000000000000000     
  -7.3437500000000000        2.9687499999999996        0.0000000000000000     
  -7.1875000000000009        2.9687500000000000        0.0000000000000000     
  -7.0312499999999973        2.9687500000000000        0.0000000000000000     
  -6.8749999999999991        2.9687499999999996        0.0000000000000000     
  -6.7187500000000009        2.9687500000000000        0.0000000000000000     
  -6.5624999999999973        2.9687500000000000        0.0000000000000000     
  -6.4062499999999991        2.9687499999999996        0.0000000000000000     
  -6.2500000000000000        2.9687500000000004        0.0000000000000000     
  -7.5000000000000009        3.1249999999999996        0.0000000000000000     
  -7.3437500000000018        3.1250000000000009        0.0000000000000000     
  -7.1875000000000009        3.1250000000000000        0.0000000000000000     
  -7.0312500000000018        3.1250000000000000        0.0000000000000000     
  -6.8750000000000018        3.1250000000000009        0.0000000000000000     
  -6.7187499999999991        3.1250000000000000        0.0000000000000000     
  -6.5625000000000009        3.1250000000000000        0.0000000000000000     
  -6.4062500000000018        3.1250000000000009        0.0000000000000000     
  -6.2499999999999991        3.1250000000000000        0.0000000000000000     
  -7.4999999999999991        3.2812500000000004        0.0000000000000000     
  -7.3437499999999991        3.2812499999999996        0.0000000000000000     
  -7.1875000000000000        3.2812500000000000        0.0000000000000000     
  -7.0312500000000000        3.2812500000000000        0.0000000000000000     
  -6.8750000000000000        3.2812500000000000        0.0000000000000000     
  -6.7187500000000000        3.2812500000000000        0.0000000000000000     
  -6.5624999999999991        3.2812500000000000        0.0000000000000000     
  -6.4062500000000000        3.2812500000000000        0.0000000000000000     
  -6.2500000000000000        3.2812500000000000        0.0000000000000000     
  -7.4999999999999991        3.4374999999999996        0.0000000000000000     
  -7.3437499999999991        3.4375000000000000        0.0000000000000000     
  -7.1875000000000009        3.4375000000000000        0.0000000000000000     
  -7.0312499999999982        3.4374999999999996        0.0000000000000000     
  -6.8749999999999991        3.4375000000000000        0.0000000000000000     
  -6.7187500000000027        3.4375000000000009        0.0000000000000000     
  -6.5624999999999973        3.4374999999999996        0.0000000000000000     
  -6.4062499999999991        3.4375000000000000        0.0000000000000000     
  -6.2499999999999991        3.4375000000000000        0.0000000000000000     
  -7.5000000000000009        3.5937499999999996        0.0000000000000000     
  -7.3437500000000018        3.5937500000000013        0.0000000000000000     
  -7.1875000000000009        3.5937500000000000        0.0000000000000000     
  -7.0312500000000009        3.5937499999999996        0.0000000000000000     
  -6.8750000000000018        3.5937500000000009        0.0000000000000000     
  -6.7187499999999991        3.5937500000000000        0.0000000000000000     
  -6.5625000000000009        3.5937499999999996        0.0000000000000000     
  -6.4062500000000009        3.5937500000000009        0.0000000000000000     
  -6.2499999999999991        3.5937500000000000        0.0000000000000000     
  -7.5000000000000000        3.7500000000000009        0.0000000000000000     
  -7.3437500000000000        3.7500000000000000        0.0000000000000000     
  -7.1875000000000018        3.7500000000000000        0.0000000000000000     
  -7.0312499999999991        3.7500000000000004        0.0000000000000000     
  -6.8749999999999991        3.7500000000000000        0.0000000000000000     
  -6.7187500000000000        3.7500000000000000        0.0000000000000000     
  -6.5624999999999991        3.7500000000000004        0.0000000000000000     
  -6.4062500000000000        3.7500000000000000        0.0000000000000000     
  -6.2500000000000000        3.7500000000000000        0.0000000000000000     
  -6.2500000000000009        2.5000000000000004        0.0000000000000000     
  -6.0937500000000009        2.5000000000000000        0.0000000000000000     
  -5.9374999999999991        2.5000000000000000        0.0000000000000000     
  -5.7812500000000009        2.5000000000000004        0.0000000000000000     
  -5.6250000000000009        2.5000000000000000        0.0000000000000000     
  -5.4687500000000009        2.5000000000000004        0.0000000000000000     
  -5.3125000000000000        2.5000000000000004        0.0000000000000000     
  -5.1562500000000000        2.4999999999999996        0.0000000000000000     
  -5.0000000000000018        2.5000000000000004        0.0000000000000000     
  -6.2500000000000009        2.6562500000000000        0.0000000000000000     
  -6.0937500000000009        2.6562500000000009        0.0000000000000000     
  -5.9375000000000000        2.6562500000000000        0.0000000000000000     
  -5.7812499999999982        2.6562499999999996        0.0000000000000000     
  -5.6250000000000009        2.6562500000000009        0.0000000000000000     
  -5.4687499999999991        2.6562499999999996        0.0000000000000000     
  -5.3124999999999991        2.6562499999999996        0.0000000000000000     
  -5.1562500000000009        2.6562500000000009        0.0000000000000000     
  -5.0000000000000000        2.6562499999999996        0.0000000000000000     
  -6.2500000000000000        2.8125000000000004        0.0000000000000000     
  -6.0937500000000009        2.8125000000000000        0.0000000000000000     
  -5.9375000000000000        2.8125000000000000        0.0000000000000000     
  -5.7812499999999991        2.8125000000000000        0.0000000000000000     
  -5.6250000000000000        2.8125000000000000        0.0000000000000000     
  -5.4687500000000000        2.8125000000000000        0.0000000000000000     
  -5.3125000000000009        2.8125000000000000        0.0000000000000000     
  -5.1562499999999991        2.8125000000000000        0.0000000000000000     
  -5.0000000000000000        2.8125000000000000        0.0000000000000000     
  -6.2500000000000000        2.9687500000000004        0.0000000000000000     
  -6.0937500000000000        2.9687499999999996        0.0000000000000000     
  -5.9375000000000009        2.9687500000000004        0.0000000000000000     
  -5.7812500000000009        2.9687500000000004        0.0000000000000000     
  -5.6250000000000009        2.9687500000000000        0.0000000000000000     
  -5.4687500000000000        2.9687500000000004        0.0000000000000000     
  -5.3125000000000000        2.9687500000000004        0.0000000000000000     
  -5.1562500000000000        2.9687499999999991        0.0000000000000000     
  -5.0000000000000009        2.9687500000000004        0.0000000000000000     
  -6.2499999999999991        3.1250000000000000        0.0000000000000000     
  -6.0937500000000009        3.1250000000000004        0.0000000000000000     
  -5.9375000000000000        3.1250000000000000        0.0000000000000000     
  -5.7812499999999982        3.1249999999999996        0.0000000000000000     
  -5.6250000000000009        3.1250000000000009        0.0000000000000000     
  -5.4687500000000000        3.1249999999999996        0.0000000000000000     
  -5.3124999999999991        3.1249999999999996        0.0000000000000000     
  -5.1562500000000018        3.1250000000000009        0.0000000000000000     
  -5.0000000000000000        3.1249999999999996        0.0000000000000000     
  -6.2500000000000000        3.2812500000000000        0.0000000000000000     
  -6.0937499999999991        3.2812500000000000        0.0000000000000000     
  -5.9375000000000000        3.2812500000000000        0.0000000000000000     
  -5.7812500000000009        3.2812500000000009        0.0000000000000000     
  -5.6249999999999991        3.2812499999999987        0.0000000000000000     
  -5.4687500000000000        3.2812500000000000        0.0000000000000000     
  -5.3125000000000009        3.2812500000000004        0.0000000000000000     
  -5.1562500000000000        3.2812500000000004        0.0000000000000000     
  -5.0000000000000009        3.2812500000000004        0.0000000000000000     
  -6.2499999999999991        3.4375000000000000        0.0000000000000000     
  -6.0937500000000009        3.4375000000000004        0.0000000000000000     
  -5.9374999999999991        3.4375000000000000        0.0000000000000000     
  -5.7812500000000009        3.4375000000000004        0.0000000000000000     
  -5.6250000000000009        3.4375000000000004        0.0000000000000000     
  -5.4687500000000000        3.4375000000000004        0.0000000000000000     
  -5.3125000000000000        3.4375000000000004        0.0000000000000000     
  -5.1562499999999991        3.4374999999999982        0.0000000000000000     
  -5.0000000000000009        3.4375000000000004        0.0000000000000000     
  -6.2499999999999991        3.5937500000000000        0.0000000000000000     
  -6.0937500000000009        3.5937500000000004        0.0000000000000000     
  -5.9375000000000000        3.5937500000000000        0.0000000000000000     
  -5.7812499999999982        3.5937499999999991        0.0000000000000000     
  -5.6250000000000009        3.5937500000000009        0.0000000000000000     
  -5.4687500000000000        3.5937499999999996        0.0000000000000000     
  -5.3124999999999991        3.5937499999999996        0.0000000000000000     
  -5.1562500000000009        3.5937500000000013        0.0000000000000000     
  -5.0000000000000000        3.5937499999999996        0.0000000000000000     
  -6.2500000000000000        3.7500000000000000        0.0000000000000000     
  -6.0937499999999991        3.7499999999999991        0.0000000000000000     
  -5.9375000000000000        3.7500000000000000        0.0000000000000000     
  -5.7812500000000009        3.7500000000000009        0.0000000000000000     
  -5.6249999999999982        3.7499999999999991        0.0000000000000000     
  -5.4687500000000000        3.7500000000000000        0.0000000000000000     
  -5.3125000000000009        3.7500000000000004        0.0000000000000000     
  -5.1562500000000000        3.7500000000000000        0.0000000000000000     
  -5.0000000000000000        3.7500000000000000        0.0000000000000000     
  -10.000000000000000        3.7500000000000000        0.0000000000000000     
  -9.8437500000000000        3.7500000000000000        0.0000000000000000     
  -9.6875000000000018        3.7500000000000004        0.0000000000000000     
  -9.5312500000000000        3.7500000000000000        0.0000000000000000     
  -9.3750000000000000        3.7500000000000000        0.0000000000000000     
  -9.2187500000000000        3.7500000000000004        0.0000000000000000     
  -9.0624999999999982        3.7499999999999996        0.0000000000000000     
  -8.9062500000000000        3.7500000000000000        0.0000000000000000     
  -8.7500000000000000        3.7500000000000004        0.0000000000000000     
  -10.000000000000000        3.9062500000000000        0.0000000000000000     
  -9.8437500000000000        3.9062500000000000        0.0000000000000000     
  -9.6874999999999982        3.9062500000000000        0.0000000000000000     
  -9.5312500000000000        3.9062500000000000        0.0000000000000000     
  -9.3750000000000000        3.9062500000000000        0.0000000000000000     
  -9.2187500000000000        3.9062500000000004        0.0000000000000000     
  -9.0624999999999982        3.9062500000000000        0.0000000000000000     
  -8.9062500000000000        3.9062500000000000        0.0000000000000000     
  -8.7500000000000000        3.9062500000000004        0.0000000000000000     
  -10.000000000000000        4.0625000000000000        0.0000000000000000     
  -9.8437500000000000        4.0625000000000000        0.0000000000000000     
  -9.6875000000000000        4.0625000000000000        0.0000000000000000     
  -9.5312500000000000        4.0625000000000000        0.0000000000000000     
  -9.3749999999999982        4.0625000000000000        0.0000000000000000     
  -9.2187500000000000        4.0625000000000000        0.0000000000000000     
  -9.0624999999999982        4.0625000000000000        0.0000000000000000     
  -8.9062499999999982        4.0625000000000000        0.0000000000000000     
  -8.7499999999999982        4.0624999999999991        0.0000000000000000     
  -10.000000000000000        4.2187500000000000        0.0000000000000000     
  -9.8437500000000000        4.2187499999999991        0.0000000000000000     
  -9.6875000000000018        4.2187500000000000        0.0000000000000000     
  -9.5312500000000000        4.2187500000000000        0.0000000000000000     
  -9.3749999999999982        4.2187499999999991        0.0000000000000000     
  -9.2187500000000000        4.2187500000000009        0.0000000000000000     
  -9.0625000000000000        4.2187500000000009        0.0000000000000000     
  -8.9062499999999982        4.2187499999999991        0.0000000000000000     
  -8.7500000000000000        4.2187500000000000        0.0000000000000000     
  -10.000000000000000        4.3749999999999991        0.0000000000000000     
  -9.8437500000000000        4.3750000000000000        0.0000000000000000     
  -9.6874999999999982        4.3749999999999991        0.0000000000000000     
  -9.5312500000000000        4.3749999999999991        0.0000000000000000     
  -9.3750000000000000        4.3750000000000009        0.0000000000000000     
  -9.2187499999999982        4.3749999999999991        0.0000000000000000     
  -9.0624999999999982        4.3749999999999991        0.0000000000000000     
  -8.9062500000000000        4.3750000000000009        0.0000000000000000     
  -8.7499999999999964        4.3749999999999991        0.0000000000000000     
  -10.000000000000000        4.5312500000000000        0.0000000000000000     
  -9.8437500000000000        4.5312500000000000        0.0000000000000000     
  -9.6875000000000000        4.5312500000000000        0.0000000000000000     
  -9.5312500000000000        4.5312500000000000        0.0000000000000000     
  -9.3749999999999982        4.5312500000000000        0.0000000000000000     
  -9.2187500000000000        4.5312500000000000        0.0000000000000000     
  -9.0625000000000000        4.5312500000000000        0.0000000000000000     
  -8.9062500000000000        4.5312500000000000        0.0000000000000000     
  -8.7499999999999982        4.5312499999999991        0.0000000000000000     
  -10.000000000000000        4.6875000000000000        0.0000000000000000     
  -9.8437500000000000        4.6874999999999991        0.0000000000000000     
  -9.6875000000000000        4.6875000000000000        0.0000000000000000     
  -9.5312500000000000        4.6875000000000000        0.0000000000000000     
  -9.3749999999999982        4.6874999999999991        0.0000000000000000     
  -9.2187500000000000        4.6875000000000000        0.0000000000000000     
  -9.0625000000000000        4.6875000000000000        0.0000000000000000     
  -8.9062499999999982        4.6874999999999991        0.0000000000000000     
  -8.7499999999999982        4.6875000000000000        0.0000000000000000     
  -10.000000000000000        4.8437499999999991        0.0000000000000000     
  -9.8437500000000000        4.8437500000000009        0.0000000000000000     
  -9.6875000000000000        4.8437500000000000        0.0000000000000000     
  -9.5312500000000000        4.8437500000000000        0.0000000000000000     
  -9.3750000000000000        4.8437500000000000        0.0000000000000000     
  -9.2187500000000000        4.8437500000000000        0.0000000000000000     
  -9.0625000000000000        4.8437500000000000        0.0000000000000000     
  -8.9062500000000000        4.8437500000000000        0.0000000000000000     
  -8.7500000000000000        4.8437499999999991        0.0000000000000000     
  -10.000000000000000        5.0000000000000000        0.0000000000000000     
  -9.8437500000000000        5.0000000000000000        0.0000000000000000     
  -9.6875000000000000        5.0000000000000000        0.0000000000000000     
  -9.5312500000000000        5.0000000000000000        0.0000000000000000     
  -9.3750000000000000        5.0000000000000000        0.0000000000000000     
  -9.2187500000000000        5.0000000000000000        0.0000000000000000     
  -9.0625000000000000        5.0000000000000000        0.0000000000000000     
  -8.9062500000000000        5.0000000000000000        0.0000000000000000     
  -8.7500000000000000        5.0000000000000009        0.0000000000000000     
  -8.7500000000000000        3.7500000000000004        0.0000000000000000     
  -8.5937500000000000        3.7500000000000000        0.0000000000000000     
  -8.4375000000000000        3.7500000000000000        0.0000000000000000     
  -8.2812500000000000        3.7499999999999996        0.0000000000000000     
  -8.1250000000000000        3.7500000000000004        0.0000000000000000     
  -7.9687499999999991        3.7500000000000004        0.0000000000000000     
  -7.8125000000000000        3.7499999999999996        0.0000000000000000     
  -7.6562500000000018        3.7500000000000004        0.0000000000000000     
  -7.5000000000000000        3.7500000000000009        0.0000000000000000     
  -8.7500000000000000        3.9062500000000004        0.0000000000000000     
  -8.5937500000000018        3.9062500000000004        0.0000000000000000     
  -8.4375000000000000        3.9062500000000000        0.0000000000000000     
  -8.2812500000000000        3.9062500000000004        0.0000000000000000     
  -8.1250000000000018        3.9062500000000004        0.0000000000000000     
  -7.9687500000000009        3.9062500000000000        0.0000000000000000     
  -7.8125000000000009        3.9062500000000009        0.0000000000000000     
  -7.6562500000000009        3.9062500000000004        0.0000000000000000     
  -7.5000000000000009        3.9062499999999996        0.0000000000000000     
  -8.7499999999999982        4.0624999999999991        0.0000000000000000     
  -8.5937500000000000        4.0625000000000000        0.0000000000000000     
  -8.4374999999999982        4.0625000000000000        0.0000000000000000     
  -8.2812500000000000        4.0625000000000000        0.0000000000000000     
  -8.1250000000000000        4.0625000000000000        0.0000000000000000     
  -7.9687499999999991        4.0625000000000000        0.0000000000000000     
  -7.8125000000000000        4.0625000000000000        0.0000000000000000     
  -7.6562500000000000        4.0625000000000000        0.0000000000000000     
  -7.5000000000000000        4.0625000000000000        0.0000000000000000     
  -8.7500000000000000        4.2187500000000000        0.0000000000000000     
  -8.5937500000000018        4.2187499999999991        0.0000000000000000     
  -8.4375000000000000        4.2187500000000009        0.0000000000000000     
  -8.2812500000000000        4.2187500000000009        0.0000000000000000     
  -8.1250000000000000        4.2187499999999991        0.0000000000000000     
  -7.9687499999999973        4.2187499999999991        0.0000000000000000     
  -7.8124999999999991        4.2187500000000000        0.0000000000000000     
  -7.6562500000000000        4.2187499999999991        0.0000000000000000     
  -7.5000000000000000        4.2187500000000009        0.0000000000000000     
  -8.7499999999999964        4.3749999999999991        0.0000000000000000     
  -8.5937499999999982        4.3750000000000018        0.0000000000000000     
  -8.4375000000000000        4.3750000000000000        0.0000000000000000     
  -8.2812499999999982        4.3749999999999991        0.0000000000000000     
  -8.1250000000000000        4.3750000000000018        0.0000000000000000     
  -7.9687500000000000        4.3750000000000000        0.0000000000000000     
  -7.8125000000000009        4.3750000000000000        0.0000000000000000     
  -7.6562500000000009        4.3750000000000018        0.0000000000000000     
  -7.5000000000000009        4.3750000000000000        0.0000000000000000     
  -8.7499999999999982        4.5312499999999991        0.0000000000000000     
  -8.5937500000000000        4.5312500000000000        0.0000000000000000     
  -8.4374999999999982        4.5312499999999991        0.0000000000000000     
  -8.2812500000000000        4.5312500000000000        0.0000000000000000     
  -8.1250000000000000        4.5312500000000000        0.0000000000000000     
  -7.9687500000000000        4.5312500000000000        0.0000000000000000     
  -7.8125000000000000        4.5312500000000000        0.0000000000000000     
  -7.6562500000000000        4.5312500000000000        0.0000000000000000     
  -7.5000000000000000        4.5312500000000000        0.0000000000000000     
  -8.7499999999999982        4.6875000000000000        0.0000000000000000     
  -8.5937499999999982        4.6874999999999991        0.0000000000000000     
  -8.4375000000000000        4.6875000000000000        0.0000000000000000     
  -8.2812500000000000        4.6874999999999991        0.0000000000000000     
  -8.1250000000000018        4.6874999999999991        0.0000000000000000     
  -7.9687500000000000        4.6875000000000000        0.0000000000000000     
  -7.8124999999999991        4.6875000000000000        0.0000000000000000     
  -7.6562499999999991        4.6874999999999991        0.0000000000000000     
  -7.5000000000000000        4.6875000000000000        0.0000000000000000     
  -8.7500000000000000        4.8437499999999991        0.0000000000000000     
  -8.5937500000000000        4.8437500000000009        0.0000000000000000     
  -8.4374999999999982        4.8437500000000000        0.0000000000000000     
  -8.2812500000000000        4.8437499999999991        0.0000000000000000     
  -8.1249999999999982        4.8437500000000000        0.0000000000000000     
  -7.9687500000000000        4.8437500000000000        0.0000000000000000     
  -7.8125000000000018        4.8437500000000009        0.0000000000000000     
  -7.6562499999999991        4.8437500000000000        0.0000000000000000     
  -7.4999999999999964        4.8437499999999991        0.0000000000000000     
  -8.7500000000000000        5.0000000000000009        0.0000000000000000     
  -8.5937500000000000        5.0000000000000000        0.0000000000000000     
  -8.4374999999999982        4.9999999999999991        0.0000000000000000     
  -8.2812500000000018        5.0000000000000009        0.0000000000000000     
  -8.1250000000000000        5.0000000000000000        0.0000000000000000     
  -7.9687500000000018        5.0000000000000009        0.0000000000000000     
  -7.8124999999999991        5.0000000000000000        0.0000000000000000     
  -7.6562500000000000        5.0000000000000000        0.0000000000000000     
  -7.5000000000000018        5.0000000000000018        0.0000000000000000     
  -7.5000000000000000        3.7500000000000009        0.0000000000000000     
  -7.3437500000000000        3.7500000000000000        0.0000000000000000     
  -7.1875000000000018        3.7500000000000000        0.0000000000000000     
  -7.0312499999999991        3.7500000000000004        0.0000000000000000     
  -6.8749999999999991        3.7500000000000000        0.0000000000000000     
  -6.7187500000000000        3.7500000000000000        0.0000000000000000     
  -6.5624999999999991        3.7500000000000004        0.0000000000000000     
  -6.4062500000000000        3.7500000000000000        0.0000000000000000     
  -6.2500000000000000        3.7500000000000000        0.0000000000000000     
  -7.5000000000000009        3.9062499999999996        0.0000000000000000     
  -7.3437500000000009        3.9062500000000009        0.0000000000000000     
  -7.1875000000000009        3.9062500000000004        0.0000000000000000     
  -7.0312500000000009        3.9062500000000004        0.0000000000000000     
  -6.8750000000000009        3.9062500000000004        0.0000000000000000     
  -6.7187500000000009        3.9062500000000004        0.0000000000000000     
  -6.5625000000000000        3.9062499999999996        0.0000000000000000     
  -6.4062500000000027        3.9062500000000009        0.0000000000000000     
  -6.2499999999999982        3.9062499999999991        0.0000000000000000     
  -7.5000000000000000        4.0625000000000000        0.0000000000000000     
  -7.3437500000000000        4.0625000000000000        0.0000000000000000     
  -7.1875000000000000        4.0625000000000000        0.0000000000000000     
  -7.0312499999999991        4.0625000000000000        0.0000000000000000     
  -6.8750000000000000        4.0625000000000000        0.0000000000000000     
  -6.7187499999999991        4.0624999999999991        0.0000000000000000     
  -6.5624999999999991        4.0625000000000000        0.0000000000000000     
  -6.4062500000000000        4.0625000000000000        0.0000000000000000     
  -6.2499999999999982        4.0624999999999991        0.0000000000000000     
  -7.5000000000000000        4.2187500000000009        0.0000000000000000     
  -7.3437499999999973        4.2187499999999982        0.0000000000000000     
  -7.1874999999999991        4.2187500000000000        0.0000000000000000     
  -7.0312500000000000        4.2187500000000009        0.0000000000000000     
  -6.8749999999999991        4.2187499999999982        0.0000000000000000     
  -6.7187499999999991        4.2187500000000000        0.0000000000000000     
  -6.5625000000000009        4.2187500000000000        0.0000000000000000     
  -6.4062499999999982        4.2187499999999991        0.0000000000000000     
  -6.2500000000000009        4.2187500000000009        0.0000000000000000     
  -7.5000000000000009        4.3750000000000000        0.0000000000000000     
  -7.3437500000000009        4.3750000000000009        0.0000000000000000     
  -7.1875000000000000        4.3750000000000000        0.0000000000000000     
  -7.0312500000000009        4.3750000000000000        0.0000000000000000     
  -6.8750000000000009        4.3750000000000009        0.0000000000000000     
  -6.7187499999999982        4.3749999999999991        0.0000000000000000     
  -6.5625000000000009        4.3750000000000009        0.0000000000000000     
  -6.4062500000000000        4.3750000000000018        0.0000000000000000     
  -6.2499999999999982        4.3749999999999991        0.0000000000000000     
  -7.5000000000000000        4.5312500000000000        0.0000000000000000     
  -7.3437500000000000        4.5312500000000000        0.0000000000000000     
  -7.1875000000000000        4.5312500000000000        0.0000000000000000     
  -7.0312499999999991        4.5312500000000000        0.0000000000000000     
  -6.8750000000000000        4.5312500000000000        0.0000000000000000     
  -6.7187499999999991        4.5312499999999991        0.0000000000000000     
  -6.5624999999999991        4.5312500000000000        0.0000000000000000     
  -6.4062500000000000        4.5312500000000000        0.0000000000000000     
  -6.2500000000000000        4.5312499999999991        0.0000000000000000     
  -7.5000000000000000        4.6875000000000000        0.0000000000000000     
  -7.3437500000000000        4.6874999999999991        0.0000000000000000     
  -7.1875000000000009        4.6875000000000009        0.0000000000000000     
  -7.0312500000000000        4.6874999999999991        0.0000000000000000     
  -6.8750000000000000        4.6874999999999991        0.0000000000000000     
  -6.7187500000000000        4.6875000000000009        0.0000000000000000     
  -6.5624999999999991        4.6875000000000000        0.0000000000000000     
  -6.4062500000000000        4.6874999999999991        0.0000000000000000     
  -6.2500000000000000        4.6875000000000009        0.0000000000000000     
  -7.4999999999999964        4.8437499999999991        0.0000000000000000     
  -7.3437500000000009        4.8437500000000018        0.0000000000000000     
  -7.1875000000000000        4.8437499999999991        0.0000000000000000     
  -7.0312499999999991        4.8437499999999991        0.0000000000000000     
  -6.8750000000000009        4.8437500000000009        0.0000000000000000     
  -6.7187500000000000        4.8437499999999991        0.0000000000000000     
  -6.5625000000000000        4.8437499999999991        0.0000000000000000     
  -6.4062500000000009        4.8437500000000009        0.0000000000000000     
  -6.2500000000000000        4.8437499999999991        0.0000000000000000     
  -7.5000000000000018        5.0000000000000018        0.0000000000000000     
  -7.3437500000000000        5.0000000000000000        0.0000000000000000     
  -7.1875000000000000        5.0000000000000000        0.0000000000000000     
  -7.0312500000000009        5.0000000000000009        0.0000000000000000     
  -6.8750000000000000        5.0000000000000000        0.0000000000000000     
  -6.7187500000000000        5.0000000000000009        0.0000000000000000     
  -6.5625000000000000        5.0000000000000009        0.0000000000000000     
  -6.4062500000000000        5.0000000000000000        0.0000000000000000     
  -6.2500000000000000        5.0000000000000000        0.0000000000000000     
  -6.2500000000000000        3.7500000000000000        0.0000000000000000     
  -6.0937499999999991        3.7499999999999991        0.0000000000000000     
  -5.9375000000000000        3.7500000000000000        0.0000000000000000     
  -5.7812500000000009        3.7500000000000009        0.0000000000000000     
  -5.6249999999999982        3.7499999999999991        0.0000000000000000     
  -5.4687500000000000        3.7500000000000000        0.0000000000000000     
  -5.3125000000000009        3.7500000000000004        0.0000000000000000     
  -5.1562500000000000        3.7500000000000000        0.0000000000000000     
  -5.0000000000000000        3.7500000000000000        0.0000000000000000     
  -6.2499999999999982        3.9062499999999991        0.0000000000000000     
  -6.0937500000000009        3.9062500000000009        0.0000000000000000     
  -5.9375000000000000        3.9062500000000000        0.0000000000000000     
  -5.7812499999999991        3.9062499999999996        0.0000000000000000     
  -5.6250000000000000        3.9062500000000000        0.0000000000000000     
  -5.4687500000000000        3.9062500000000000        0.0000000000000000     
  -5.3125000000000000        3.9062500000000000        0.0000000000000000     
  -5.1562500000000000        3.9062500000000000        0.0000000000000000     
  -5.0000000000000000        3.9062500000000000        0.0000000000000000     
  -6.2499999999999982        4.0624999999999991        0.0000000000000000     
  -6.0937499999999991        4.0625000000000000        0.0000000000000000     
  -5.9374999999999991        4.0625000000000000        0.0000000000000000     
  -5.7812500000000000        4.0625000000000000        0.0000000000000000     
  -5.6249999999999991        4.0625000000000000        0.0000000000000000     
  -5.4687500000000000        4.0625000000000000        0.0000000000000000     
  -5.3125000000000000        4.0625000000000000        0.0000000000000000     
  -5.1562500000000000        4.0625000000000000        0.0000000000000000     
  -5.0000000000000000        4.0625000000000000        0.0000000000000000     
  -6.2500000000000009        4.2187500000000009        0.0000000000000000     
  -6.0937499999999991        4.2187499999999991        0.0000000000000000     
  -5.9374999999999991        4.2187500000000000        0.0000000000000000     
  -5.7812500000000009        4.2187500000000000        0.0000000000000000     
  -5.6250000000000000        4.2187499999999991        0.0000000000000000     
  -5.4687500000000000        4.2187500000000000        0.0000000000000000     
  -5.3125000000000000        4.2187500000000000        0.0000000000000000     
  -5.1562499999999991        4.2187499999999991        0.0000000000000000     
  -5.0000000000000000        4.2187500000000000        0.0000000000000000     
  -6.2499999999999982        4.3749999999999991        0.0000000000000000     
  -6.0937500000000009        4.3750000000000018        0.0000000000000000     
  -5.9375000000000000        4.3749999999999991        0.0000000000000000     
  -5.7812499999999973        4.3749999999999991        0.0000000000000000     
  -5.6250000000000000        4.3750000000000009        0.0000000000000000     
  -5.4687500000000000        4.3749999999999991        0.0000000000000000     
  -5.3124999999999991        4.3749999999999991        0.0000000000000000     
  -5.1562500000000000        4.3750000000000018        0.0000000000000000     
  -5.0000000000000000        4.3749999999999991        0.0000000000000000     
  -6.2500000000000000        4.5312499999999991        0.0000000000000000     
  -6.0937500000000000        4.5312500000000000        0.0000000000000000     
  -5.9375000000000000        4.5312500000000000        0.0000000000000000     
  -5.7812500000000000        4.5312500000000000        0.0000000000000000     
  -5.6250000000000000        4.5312500000000000        0.0000000000000000     
  -5.4687500000000000        4.5312500000000000        0.0000000000000000     
  -5.3125000000000000        4.5312500000000000        0.0000000000000000     
  -5.1562500000000000        4.5312500000000000        0.0000000000000000     
  -5.0000000000000000        4.5312500000000000        0.0000000000000000     
  -6.2500000000000000        4.6875000000000009        0.0000000000000000     
  -6.0937499999999991        4.6874999999999991        0.0000000000000000     
  -5.9375000000000000        4.6875000000000009        0.0000000000000000     
  -5.7812499999999991        4.6875000000000000        0.0000000000000000     
  -5.6250000000000000        4.6874999999999991        0.0000000000000000     
  -5.4687500000000000        4.6875000000000000        0.0000000000000000     
  -5.3124999999999991        4.6875000000000000        0.0000000000000000     
  -5.1562500000000000        4.6874999999999991        0.0000000000000000     
  -5.0000000000000000        4.6875000000000000        0.0000000000000000     
  -6.2500000000000000        4.8437499999999991        0.0000000000000000     
  -6.0937500000000000        4.8437500000000018        0.0000000000000000     
  -5.9375000000000000        4.8437499999999991        0.0000000000000000     
  -5.7812499999999982        4.8437499999999991        0.0000000000000000     
  -5.6250000000000000        4.8437500000000009        0.0000000000000000     
  -5.4687500000000000        4.8437499999999991        0.0000000000000000     
  -5.3125000000000000        4.8437500000000000        0.0000000000000000     
  -5.1562500000000000        4.8437500000000000        0.0000000000000000     
  -5.0000000000000000        4.8437499999999991        0.0000000000000000     
  -6.2500000000000000        5.0000000000000000        0.0000000000000000     
  -6.0937500000000000        5.0000000000000000        0.0000000000000000     
  -5.9375000000000000        5.0000000000000000        0.0000000000000000     
  -5.7812500000000000        5.0000000000000000        0.0000000000000000     
  -5.6250000000000000        5.0000000000000000        0.0000000000000000     
  -5.4687500000000000        5.0000000000000000        0.0000000000000000     
  -5.3124999999999991        5.0000000000000000        0.0000000000000000     
  -5.1562500000000000        5.0000000000000000        0.0000000000000000     
  -5.0000000000000000        5.0000000000000000        0.0000000000000000     
 </DataArray>
 </Points>
 <Cells>
 <DataArray  type="Int32"  Name="connectivity"  format="ascii">
           0           1          10           9
           1           2          11          10
           2           3          12          11
           3           4          13          12
           4           5          14          13
           5           6          15          14
           6           7          16          15
           7           8          17          16
           9          10          19          18
          10          11          20          19
          11          12          21          20
          12          13          22          21
          13          14          23          22
          14          15          24          23
          15          16          25          24
          16          17          26          25
          18          19          28          27
          19          20          29          28
          20          21          30          29
          21          22          31          30
          22          23          32          31
          23          24          33          32
          24          25          34          33
          25          26          35          34
          27          28          37          36
          28          29          38          37
          29          30          39          38
          30          31          40          39
          31          32          41          40
          32          33          42          41
          33          34          43          42
          34          35          44          43
          36          37          46          45
          37          38          47          46
          38          39          48          47
          39          40          49          48
          40          41          50          49
          41          42          51          50
          42          43          52          51
          43          44          53          52
          45          46          55          54
          46          47          56          55
          47          48          57          56
          48          49          58          57
          49          50          59          58
          50          51          60          59
          51          52          61          60
          52          53          62          61
          54          55          64          63
          55          56          65          64
          56          57          66          65
          57          58          67          66
          58          59          68          67
          59          60          69          68
          60          61          70          69
          61          62          71          70
          63          64          73          72
          64          65          74          73
          65          66          75          74
          66          67          76          75
          67          68          77          76
          68          69          78          77
          69          70          79          78
          70          71          80          79
          81          82          91          90
          82          83          92          91
          83          84          93          92
          84          85          94          93
          85          86          95          94
          86          87          96          95
          87          88          97          96
          88          89          98          97
          90          91         100          99
          91          92         101         100
          92          93         102         101
          93          94         103         102
          94          95         104         103
          95          96         105         104
          96          97         106         105
          97          98         107         106
          99         100         109         108
         100         101         110         109
         101         102         111         110
         102         103         112         111
         103         104         113         112
         104         105         114         113
         105         106         115         114
         106         107         116         115
         108         109         118         117
         109         110         119         118
         110         111         120         119
         111         112         121         120
         112         113         122         121
         113         114         123         122
         114         115         124         123
         115         116         125         124
         117         118         127         126
         118         119         128         127
         119         120         129         128
         120         121         130         129
         121         122         131         130
         122         123         132         131
         123         124         133         132
         124         125         134         133
         126         127         136         135
         127         128         137         136
         128         129         138         137
         129         130         139         138
         130         131         140         139
         131         132         141         140
         132         133         142         141
         133         134         143         142
         135         136         145         144
         136         137         146         145
         137         138         147         146
         138         139         148         147
         139         140         149         148
         140         141         150         149
         141         142         151         150
         142         143         152         151
         144         145         154         153
         145         146         155         154
         146         147         156         155
         147         148         157         156
         148         149         158         157
         149         150         159         158
         150         151         160         159
         151         152         161         160
         162         163         172         171
         163         164         173         172
         164         165         174         173
         165         166         175         174
         166         167         176         175
         167         168         177         176
         168         169         178         177
         169         170         179         178
         171         172         181         180
         172         173         182         181
         173         174         183         182
         174         175         184         183
         175         176         185         184
         176         177         186         185
         177         178         187         186
         178         179         188         187
         180         181         190         189
         181         182         191         190
         182         183         192         191
         183         184         193         192
         184         185         194         193
         185         186         195         194
         186         187         196         195
         187         188         197         196
         189         190         199         198
         190         191         200         199
         191         192         201         200
         192         193         202         201
         193         194         203         202
         194         195         204         203
         195         196         205         204
         196         197         206         205
         198         199         208         207
         199         200         209         208
         200         201         210         209
         201         202         211         210
         202         203         212         211
         203         204         213         212
         204         205         214         213
         205         206         215         214
         207         208         217         216
         208         209         218         217
         209         210         219         218
         210         211         220         219
         211         212         221         220
         212         213         222         221
         213         214         223         222
         214         215         224         223
         216         217         226         225
         217         218         227         226
         218         219         228         227
         219         220         229         228
         220         221         230         229
         221         222         231         230
         222         223         232         231
         223         224         233         232
         225         226         235         234
         226         227         236         235
         227         228         237         236
         228         229         238         237
         229         230         239         238
         230         231         240         239
         231         232         241         240
         232         233         242         241
         243         244         253         252
         244         245         254         253
         245         246         255         254
         246         247         256         255
         247         248         257         256
         248         249         258         257
         249         250         259         258
         250         251         260         259
         252         253         262         261
         253         254         263         262
         254         255         264         263
         255         256         265         264
         256         257         266         265
         257         258         267         266
         258         259         268         267
         259         260         269         268
         261         262         271         270
         262         263         272         271
         263         264         273         272
         264         265         274         273
         265         266         275         274
         266         267         276         275
         267         268         277         276
         268         269         278         277
         270         271         280         279
         271         272         281         280
         272         273         282         281
         273         274         283         282
         274         275         284         283
         275         276         285         284
         276         277         286         285
         277         278         287         286
         279         280         289         288
         280         281         290         289
         281         282         291         290
         282         283         292         291
         283         284         293         292
         284         285         294         293
         285         286         295         294
         286         287         296         295
         288         289         298         297
         289         290         299         298
         290         291         300         299
         291         292         301         300
         292         293         302         301
         293         294         303         302
         294         295         304         303
         295         296         305         304
         297         298         307         306
         298         299         308         307
         299         300         309         308
         300         301         310         309
         301         302         311         310
         302         303         312         311
         303         304         313         312
         304         305         314         313
         306         307         316         315
         307         308         317         316
         308         309         318         317
         309         310         319         318
         310         311         320         319
         311         312         321         320
         312         313         322         321
         313         314         323         322
         324         325         334         333
         325         326         335         334
         326         327         336         335
         327         328         337         336
         328         329         338         337
         329         330         339         338
         330         331         340         339
         331         332         341         340
         333         334         343         342
         334         335         344         343
         335         336         345         344
         336         337         346         345
         337         338         347         346
         338         339         348         347
         339         340         349         348
         340         341         350         349
         342         343         352         351
         343         344         353         352
         344         345         354         353
         345         346         355         354
         346         347         356         355
         347         348         357         356
         348         349         358         357
         349         350         359         358
         351         352         361         360
         352         353         362         361
         353         354         363         362
         354         355         364         363
         355         356         365         364
         356         357         366         365
         357         358         367         366
         358         359         368         367
         360         361         370         369
         361         362         371         370
         362         363         372         371
         363         364         373         372
         364         365         374         373
         365         366         375         374
         366         367         376         375
         367         368         377         376
         369         370         379         378
         370         371         380         379
         371         372         381         380
         372         373         382         381
         373         374         383         382
         374         375         384         383
         375         376         385         384
         376         377         386         385
         378         379         388         387
         379         380         389         388
         380         381         390         389
         381         382         391         390
         382         383         392         391
         383         384         393         392
         384         385         394         393
         385         386         395         394
         387         388         397         396
         388         389         398         397
         389         390         399         398
         390         391         400         399
         391         392         401         400
         392         393         402         401
         393         394         403         402
         394         395         404         403
         405         406         415         414
         406         407         416         415
         407         408         417         416
         408         409         418         417
         409         410         419         418
         410         411         420         419
         411         412         421         420
         412         413         422         421
         414         415         424         423
         415         416         425         424
         416         417         426         425
         417         418         427         426
         418         419         428         427
         419         420         429         428
         420         421         430         429
         421         422         431         430
         423         424         433         432
         424         425         434         433
         425         426         435         434
         426         427         436         435
         427         428         437         436
         428         429         438         437
         429         430         439         438
         430         431         440         439
         432         433         442         441
         433         434         443         442
         434         435         444         443
         435         436         445         444
         436         437         446         445
         437         438         447         446
         438         439         448         447
         439         440         449         448
         441         442         451         450
         442         443         452         451
         443         444         453         452
         444         445         454         453
         445         446         455         454
         446         447         456         455
         447         448         457         456
         448         449         458         457
         450         451         460         459
         451         452         461         460
         452         453         462         461
         453         454         463         462
         454         455         464         463
         455         456         465         464
         456         457         466         465
         457         458         467         466
         459         460         469         468
         460         461         470         469
         461         462         471         470
         462         463         472         471
         463         464         473         472
         464         465         474         473
         465         466         475         474
         466         467         476         475
         468         469         478         477
         469         470         479         478
         470         471         480         479
         471         472         481         480
         472         473         482         481
         473         474         483         482
         474         475         484         483
         475         476         485         484
         486         487         496         495
         487         488         497         496
         488         489         498         497
         489         490         499         498
         490         491         500         499
         491         492         501         500
         492         493         502         501
         493         494         503         502
         495         496         505         504
         496         497         506         505
         497         498         507         506
         498         499         508         507
         499         500         509         508
         500         501         510         509
         501         502         511         510
         502         503         512         511
         504         505         514         513
         505         506         515         514
         506         507         516         515
         507         508         517         516
         508         509         518         517
         509         510         519         518
         510         511         520         519
         511         512         521         520
         513         514         523         522
         514         515         524         523
         515         516         525         524
         516         517         526         525
         517         518         527         526
         518         519         528         527
         519         520         529         528
         520         521         530         529
         522         523         532         531
         523         524         533         532
         524         525         534         533
         525         526         535         534
         526         527         536         535
         527         528         537         536
         528         529         538         537
         529         530         539         538
         531         532         541         540
         532         533         542         541
         533         534         543         542
         534         535         544         543
         535         536         545         544
         536         537         546         545
         537         538         547         546
         538         539         548         547
         540         541         550         549
         541         542         551         550
         542         543         552         551
         543         544         553         552
         544         545         554         553
         545         546         555         554
         546         547         556         555
         547         548         557         556
         549         550         559         558
         550         551         560         559
         551         552         561         560
         552         553         562         561
         553         554         563         562
         554         555         564         563
         555         556         565         564
         556         557         566         565
         567         568         577         576
         568         569         578         577
         569         570         579         578
         570         571         580         579
         571         572         581         580
         572         573         582         581
         573         574         583         582
         574         575         584         583
         576         577         586         585
         577         578         587         586
         578         579         588         587
         579         580         589         588
         580         581         590         589
         581         582         591         590
         582         583         592         591
         583         584         593         592
         585         586         595         594
         586         587         596         595
         587         588         597         596
         588         589         598         597
         589         590         599         598
         590         591         600         599
         591         592         601         600
         592         593         602         601
         594         595         604         603
         595         596         605         604
         596         597         606         605
         597         598         607         606
         598         599         608         607
         599         600         609         608
         600         601         610         609
         601         602         611         610
         603         604         613         612
         604         605         614         613
         605         606         615         614
         606         607         616         615
         607         608         617         616
         608         609         618         617
         609         610         619         618
         610         611         620         619
         612         613         622         621
         613         614         623         622
         614         615         624         623
         615         616         625         624
         616         617         626         625
         617         618         627         626
         618         619         628         627
         619         620         629         628
         621         622         631         630
         622         623         632         631
         623         624         633         632
         624         625         634         633
         625         626         635         634
         626         627         636         635
         627         628         637         636
         628         629         638         637
         630         631         640         639
         631         632         641         640
         632         633         642         641
         633         634         643         642
         634         635         644         643
         635         636         645         644
         636         637         646         645
         637         638         647         646
         648         649         658         657
         649         650         659         658
         650         651         660         659
         651         652         661         660
         652         653         662         661
         653         654         663         662
         654         655         664         663
         655         656         665         664
         657         658         667         666
         658         659         668         667
         659         660         669         668
         660         661         670         669
         661         662         671         670
         662         663         672         671
         663         664         673         672
         664         665         674         673
         666         667         676         675
         667         668         677         676
         668         669         678         677
         669         670         679         678
         670         671         680         679
         671         672         681         680
         672         673         682         681
         673         674         683         682
         675         676         685         684
         676         677         686         685
         677         678         687         686
         678         679         688         687
         679         680         689         688
         680         681         690         689
         681         682         691         690
         682         683         692         691
         684         685         694         693
         685         686         695         694
         686         687         696         695
         687         688         697         696
         688         689         698         697
         689         690         699         698
         690         691         700         699
         691         692         701         700
         693         694         703         702
         694         695         704         703
         695         696         705         704
         696         697         706         705
         697         698         707         706
         698         699         708         707
         699         700         709         708
         700         701         710         709
         702         703         712         711
         703         704         713         712
         704         705         714         713
         705         706         715         714
         706         707         716         715
         707         708         717         716
         708         709         718         717
         709         710         719         718
         711         712         721         720
         712         713         722         721
         713         714         723         722
         714         715         724         723
         715         716         725         724
         716         717         726         725
         717         718         727         726
         718         719         728         727
         729         730         739         738
         730         731         740         739
         731         732         741         740
         732         733         742         741
         733         734         743         742
         734         735         744         743
         735         736         745         744
         736         737         746         745
         738         739         748         747
         739         740         749         748
         740         741         750         749
         741         742         751         750
         742         743         752         751
         743         744         753         752
         744         745         754         753
         745         746         755         754
         747         748         757         756
         748         749         758         757
         749         750         759         758
         750         751         760         759
         751         752         761         760
         752         753         762         761
         753         754         763         762
         754         755         764         763
         756         757         766         765
         757         758         767         766
         758         759         768         767
         759         760         769         768
         760         761         770         769
         761         762         771         770
         762         763         772         771
         763         764         773         772
         765         766         775         774
         766         767         776         775
         767         768         777         776
         768         769         778         777
         769         770         779         778
         770         771         780         779
         771         772         781         780
         772         773         782         781
         774         775         784         783
         775         776         785         784
         776         777         786         785
         777         778         787         786
         778         779         788         787
         779         780         789         788
         780         781         790         789
         781         782         791         790
         783         784         793         792
         784         785         794         793
         785         786         795         794
         786         787         796         795
         787         788         797         796
         788         789         798         797
         789         790         799         798
         790         791         800         799
         792         793         802         801
         793         794         803         802
         794         795         804         803
         795         796         805         804
         796         797         806         805
         797         798         807         806
         798         799         808         807
         799         800         809         808
         810         811         820         819
         811         812         821         820
         812         813         822         821
         813         814         823         822
         814         815         824         823
         815         816         825         824
         816         817         826         825
         817         818         827         826
         819         820         829         828
         820         821         830         829
         821         822         831         830
         822         823         832         831
         823         824         833         832
         824         825         834         833
         825         826         835         834
         826         827         836         835
         828         829         838         837
         829         830         839         838
         830         831         840         839
         831         832         841         840
         832         833         842         841
         833         834         843         842
         834         835         844         843
         835         836         845         844
         837         838         847         846
         838         839         848         847
         839         840         849         848
         840         841         850         849
         841         842         851         850
         842         843         852         851
         843         844         853         852
         844         845         854         853
         846         847         856         855
         847         848         857         856
         848         849         858         857
         849         850         859         858
         850         851         860         859
         851         852         861         860
         852         853         862         861
         853         854         863         862
         855         856         865         864
         856         857         866         865
         857         858         867         866
         858         859         868         867
         859         860         869         868
         860         861         870         869
         861         862         871         870
         862         863         872         871
         864         865         874         873
         865         866         875         874
         866         867         876         875
         867         868         877         876
         868         869         878         877
         869         870         879         878
         870         871         880         879
         871         872         881         880
         873         874         883         882
         874         875         884         883
         875         876         885         884
         876         877         886         885
         877         878         887         886
         878         879         888         887
         879         880         889         888
         880         881         890         889
         891         892         901         900
         892         893         902         901
         893         894         903         902
         894         895         904         903
         895         896         905         904
         896         897         906         905
         897         898         907         906
         898         899         908         907
         900         901         910         909
         901         902         911         910
         902         903         912         911
         903         904         913         912
         904         905         914         913
         905         906         915         914
         906         907         916         915
         907         908         917         916
         909         910         919         918
         910         911         920         919
         911         912         921         920
         912         913         922         921
         913         914         923         922
         914         915         924         923
         915         916         925         924
         916         917         926         925
         918         919         928         927
         919         920         929         928
         920         921         930         929
         921         922         931         930
         922         923         932         931
         923         924         933         932
         924         925         934         933
         925         926         935         934
         927         928         937         936
         928         929         938         937
         929         930         939         938
         930         931         940         939
         931         932         941         940
         932         933         942         941
         933         934         943         942
         934         935         944         943
         936         937         946         945
         937         938         947         946
         938         939         948         947
         939         940         949         948
         940         941         950         949
         941         942         951         950
         942         943         952         951
         943         944         953         952
         945         946         955         954
         946         947         956         955
         947         948         957         956
         948         949         958         957
         949         950         959         958
         950         951         960         959
         951         952         961         960
         952         953         962         961
         954         955         964         963
         955         956         965         964
         956         957         966         965
         957         958         967         966
         958         959         968         967
         959         960         969         968
         960         961         970         969
         961         962         971         970
         972         973         982         981
         973         974         983         982
         974         975         984         983
         975         976         985         984
         976         977         986         985
         977         978         987         986
         978         979         988         987
         979         980         989         988
         981         982         991         990
         982         983         992         991
         983         984         993         992
         984         985         994         993
         985         986         995         994
         986         987         996         995
         987         988         997         996
         988         989         998         997
         990         991        1000         999
         991         992        1001        1000
         992         993        1002        1001
         993         994        1003        1002
         994         995        1004        1003
         995         996        1005        1004
         996         997        1006        1005
         997         998        1007        1006
         999        1000        1009        1008
        1000        1001        1010        1009
        1001        1002        1011        1010
        1002        1003        1012        1011
        1003        1004        1013        1012
        1004        1005        1014        1013
        1005        1006        1015        1014
        1006        1007        1016        1015
        1008        1009        1018        1017
        1009        1010        1019        1018
        1010        1011        1020        1019
        1011        1012        1021        1020
        1012        1013        1022        1021
        1013        1014        1023        1022
        1014        1015        1024        1023
        1015        1016        1025        1024
        1017        1018        1027        1026
        1018        1019        1028        1027
        1019        1020        1029        1028
        1020        1021        1030        1029
        1021        1022        1031        1030
        1022        1023        1032        1031
        1023        1024        1033        1032
        1024        1025        1034        1033
        1026        1027        1036        1035
        1027        1028        1037        1036
        1028        1029        1038        1037
        1029        1030        1039        1038
        1030        1031        1040        1039
        1031        1032        1041        1040
        1032        1033        1042        1041
        1033        1034        1043        1042
        1035        1036        1045        1044
        1036        1037        1046        1045
        1037        1038        1047        1046
        1038        1039        1048        1047
        1039        1040        1049        1048
        1040        1041        1050        1049
        1041        1042        1051        1050
        1042        1043        1052        1051
        1053        1054        1063        1062
        1054        1055        1064        1063
        1055        1056        1065        1064
        1056        1057        1066        1065
        1057        1058        1067        1066
        1058        1059        1068        1067
        1059        1060        1069        1068
        1060        1061        1070        1069
        1062        1063        1072        1071
        1063        1064        1073        1072
        1064        1065        1074        1073
        1065        1066        1075        1074
        1066        1067        1076        1075
        1067        1068        1077        1076
        1068        1069        1078        1077
        1069        1070        1079        1078
        1071        1072        1081        1080
        1072        1073        1082        1081
        1073        1074        1083        1082
        1074        1075        1084        1083
        1075        1076        1085        1084
        1076        1077        1086        1085
        1077        1078        1087        1086
        1078        1079        1088        1087
        1080        1081        1090        1089
        1081        1082        1091        1090
        1082        1083        1092        1091
        1083        1084        1093        1092
        1084        1085        1094        1093
        1085        1086        1095        1094
        1086        1087        1096        1095
        1087        1088        1097        1096
        1089        1090        1099        1098
        1090        1091        1100        1099
        1091        1092        1101        1100
        1092        1093        1102        1101
        1093        1094        1103        1102
        1094        1095        1104        1103
        1095        1096        1105        1104
        1096        1097        1106        1105
        1098        1099        1108        1107
        1099        1100        1109        1108
        1100        1101        1110        1109
        1101        1102        1111        1110
        1102        1103        1112        1111
        1103        1104        1113        1112
        1104        1105        1114        1113
        1105        1106        1115        1114
        1107        1108        1117        1116
        1108        1109        1118        1117
        1109        1110        1119        1118
        1110        1111        1120        1119
        1111        1112        1121        1120
        1112        1113        1122        1121
        1113        1114        1123        1122
        1114        1115        1124        1123
        1116        1117        1126        1125
        1117        1118        1127        1126
        1118        1119        1128        1127
        1119        1120        1129        1128
        1120        1121        1130        1129
        1121        1122        1131        1130
        1122        1123        1132        1131
        1123        1124        1133        1132
        1134        1135        1144        1143
        1135        1136        1145        1144
        1136        1137        1146        1145
        1137        1138        1147        1146
        1138        1139        1148        1147
        1139        1140        1149        1148
        1140        1141        1150        1149
        1141        1142        1151        1150
        1143        1144        1153        1152
        1144        1145        1154        1153
        1145        1146        1155        1154
        1146        1147        1156        1155
        1147        1148        1157        1156
        1148        1149        1158        1157
        1149        1150        1159        1158
        1150        1151        1160        1159
        1152        1153        1162        1161
        1153        1154        1163        1162
        1154        1155        1164        1163
        1155        1156        1165        1164
        1156        1157        1166        1165
        1157        1158        1167        1166
        1158        1159        1168        1167
        1159        1160        1169        1168
        1161        1162        1171        1170
        1162        1163        1172        1171
        1163        1164        1173        1172
        1164        1165        1174        1173
        1165        1166        1175        1174
        1166        1167        1176        1175
        1167        1168        1177        1176
        1168        1169        1178        1177
        1170        1171        1180        1179
        1171        1172        1181        1180
        1172        1173        1182        1181
        1173        1174        1183        1182
        1174        1175        1184        1183
        1175        1176        1185        1184
        1176        1177        1186        1185
        1177        1178        1187        1186
        1179        1180        1189        1188
        1180        1181        1190        1189
        1181        1182        1191        1190
        1182        1183        1192        1191
        1183        1184        1193        1192
        1184        1185        1194        1193
        1185        1186        1195        1194
        1186        1187        1196        1195
        1188        1189        1198        1197
        1189        1190        1199        1198
        1190        1191        1200        1199
        1191        1192        1201        1200
        1192        1193        1202        1201
        1193        1194        1203        1202
        1194        1195        1204        1203
        1195        1196        1205        1204
        1197        1198        1207        1206
        1198        1199        1208        1207
        1199        1200        1209        1208
        1200        1201        1210        1209
        1201        1202        1211        1210
        1202        1203        1212        1211
        1203        1204        1213        1212
        1204        1205        1214        1213
        1215        1216        1225        1224
        1216        1217        1226        1225
        1217        1218        1227        1226
        1218        1219        1228        1227
        1219        1220        1229        1228
        1220        1221        1230        1229
        1221        1222        1231        1230
        1222        1223        1232        1231
        1224        1225        1234        1233
        1225        1226        1235        1234
        1226        1227        1236        1235
        1227        1228        1237        1236
        1228        1229        1238        1237
        1229        1230        1239        1238
        1230        1231        1240        1239
        1231        1232        1241        1240
        1233        1234        1243        1242
        1234        1235        1244        1243
        1235        1236        1245        1244
        1236        1237        1246        1245
        1237        1238        1247        1246
        1238        1239        1248        1247
        1239        1240        1249        1248
        1240        1241        1250        1249
        1242        1243        1252        1251
        1243        1244        1253        1252
        1244        1245        1254        1253
        1245        1246        1255        1254
        1246        1247        1256        1255
        1247        1248        1257        1256
        1248        1249        1258        1257
        1249        1250        1259        1258
        1251        1252        1261        1260
        1252        1253        1262        1261
        1253        1254        1263        1262
        1254        1255        1264        1263
        1255        1256        1265        1264
        1256        1257        1266        1265
        1257        1258        1267        1266
        1258        1259        1268        1267
        1260        1261        1270        1269
        1261        1262        1271        1270
        1262        1263        1272        1271
        1263        1264        1273        1272
        1264        1265        1274        1273
        1265        1266        1275        1274
        1266        1267        1276        1275
        1267        1268        1277        1276
        1269        1270        1279        1278
        1270        1271        1280        1279
        1271        1272        1281        1280
        1272        1273        1282        1281
        1273        1274        1283        1282
        1274        1275        1284        1283
        1275        1276        1285        1284
        1276        1277        1286        1285
        1278        1279        1288        1287
        1279        1280        1289        1288
        1280        1281        1290        1289
        1281        1282        1291        1290
        1282        1283        1292        1291
        1283        1284        1293        1292
        1284        1285        1294        1293
        1285        1286        1295        1294
 </DataArray>
 <DataArray  type="Int32"  Name="offsets"  format="ascii"> 
           4
           8
          12
          16
          20
          24
          28
          32
          36
          40
          44
          48
          52
          56
          60
          64
          68
          72
          76
          80
          84
          88
          92
          96
         100
         104
         108
         112
         116
         120
         124
         128
         132
         136
         140
         144
         148
         152
         156
         160
         164
         168
         172
         176
         180
         184
         188
         192
         196
         200
         204
         208
         212
         216
         220
         224
         228
         232
         236
         240
         244
         248
         252
         256
         260
         264
         268
         272
         276
         280
         284
         288
         292
         296
         300
         304
         308
         312
         316
         320
         324
         328
         332
         336
         340
         344
         348
         352
         356
         360
         364
         368
         372
         376
         380
         384
         388
         392
         396
         400
         404
         408
         412
         416
         420
         424
         428
         432
         436
         440
         444
         448
         452
         456
         460
         464
         468
         472
         476
         480
         484
         488
         492
         496
         500
         504
         508
         512
         516
         520
         524
         528
         532
         536
         540
         544
         548
         552
         556
         560
         564
         568
         572
         576
         580
         584
         588
         592
         596
         600
         604
         608
         612
         616
         620
         624
         628
         632
         636
         640
         644
         648
         652
         656
         660
         664
         668
         672
         676
         680
         684
         688
         692
         696
         700
         704
         708
         712
         716
         720
         724
         728
         732
         736
         740
         744
         748
         752
         756
         760
         764
         768
         772
         776
         780
         784
         788
         792
         796
         800
         804
         808
         812
         816
         820
         824
         828
         832
         836
         840
         844
         848
         852
         856
         860
         864
         868
         872
         876
         880
         884
         888
         892
         896
         900
         904
         908
         912
         916
         920
         924
         928
         932
         936
         940
         944
         948
         952
         956
         960
         964
         968
         972
         976
         980
         984
         988
         992
         996
        1000
        1004
        1008
        1012
        1016
        1020
        1024
        1028
        1032
        1036
        1040
        1044
        1048
        1052
        1056
        1060
        1064
        1068
        1072
        1076
        1080
        1084
        1088
        1092
        1096
        1100
        1104
        1108
        1112
        1116
        1120
        1124
        1128
        1132
        1136
        1140
        1144
        1148
        1152
        1156
        1160
        1164
        1168
        1172
        1176
        1180
        1184
        1188
        1192
        1196
        1200
        1204
        1208
        1212
        1216
        1220
        1224
        1228
        1232
        1236
        1240
        1244
        1248
        1252
        1256
        1260
        1264
        1268
        1272
        1276
        1280
        1284
        1288
        1292
        1296
        1300
        1304
        1308
        1312
        1316
        1320
        1324
        1328
        1332
        1336
        1340
        1344
        1348
        1352
        1356
        1360
        1364
        1368
        1372
        1376
        1380
        1384
        1388
        1392
        1396
        1400
        1404
        1408
        1412
        1416
        1420
        1424
        1428
        1432
        1436
        1440
        1444
        1448
        1452
        1456
        1460
        1464
        1468
        1472
        1476
        1480
        1484
        1488
        1492
        1496
        1500
        1504
        1508
        1512
        1516
        1520
        1524
        1528
        1532
        1536
        1540
        1544
        1548
        1552
        1556
        1560
        1564
        1568
        1572
        1576
        1580
        1584
        1588
        1592
        1596
        1600
        1604
        1608
        1612
        1616
        1620
        1624
        1628
        1632
        1636
        1640
        1644
        1648
        1652
        1656
        1660
        1664
        1668
        1672
        1676
        1680
        1684
        1688
        1692
        1696
        1700
        1704
        1708
        1712
        1716
        1720
        1724
        1728
        1732
        1736
        1740
        1744
        1748
        1752
        1756
        1760
        1764
        1768
        1772
        1776
        1780
        1784
        1788
        1792
        1796
        1800
        1804
        1808
        1812
        1816
        1820
        1824
        1828
        1832
        1836
        1840
        1844
        1848
        1852
        1856
        1860
        1864
        1868
        1872
        1876
        1880
        1884
        1888
        1892
        1896
        1900
        1904
        1908
        1912
        1916
        1920
        1924
        1928
        1932
        1936
        1940
        1944
        1948
        1952
        1956
        1960
        1964
        1968
        1972
        1976
        1980
        1984
        1988
        1992
        1996
        2000
        2004
        2008
        2012
        2016
        2020
        2024
        2028
        2032
        2036
        2040
        2044
        2048
        2052
        2056
        2060
        2064
        2068
        2072
        2076
        2080
        2084
        2088
        2092
        2096
        2100
        2104
        2108
        2112
        2116
        2120
        2124
        2128
        2132
        2136
        2140
        2144
        2148
        2152
        2156
        2160
        2164
        2168
        2172
        2176
        2180
        2184
        2188
        2192
        2196
        2200
        2204
        2208
        2212
        2216
        2220
        2224
        2228
        2232
        2236
        2240
        2244
        2248
        2252
        2256
        2260
        2264
        2268
        2272
        2276
        2280
        2284
        2288
        2292
        2296
        2300
        2304
        2308
        2312
        2316
        2320
        2324
        2328
        2332
        2336
        2340
        2344
        2348
        2352
        2356
        2360
        2364
        2368
        2372
        2376
        2380
        2384
        2388
        2392
        2396
        2400
        2404
        2408
        2412
        2416
        2420
        2424
        2428
        2432
        2436
        2440
        2444
        2448
        2452
        2456
        2460
        2464
        2468
        2472
        2476
        2480
        2484
        2488
        2492
        2496
        2500
        2504
        2508
        2512
        2516
        2520
        2524
        2528
        2532
        2536
        2540
        2544
        2548
        2552
        2556
        2560
        2564
        2568
        2572
        2576
        2580
        2584
        2588
        2592
        2596
        2600
        2604
        2608
        2612
        2616
        2620
        2624
        2628
        2632
        2636
        2640
        2644
        2648
        2652
        2656
        2660
        2664
        2668
        2672
        2676
        2680
        2684
        2688
        2692
        2696
        2700
        2704
        2708
        2712
        2716
        2720
        2724
        2728
        2732
        2736
        2740
        2744
        2748
        2752
        2756
        2760
        2764
        2768
        2772
        2776
        2780
        2784
        2788
        2792
        2796
        2800
        2804
        2808
        2812
        2816
        2820
        2824
        2828
        2832
        2836
        2840
        2844
        2848
        2852
        2856
        2860
        2864
        2868
        2872
        2876
        2880
        2884
        2888
        2892
        2896
        2900
        2904
        2908
        2912
        2916
        2920
        2924
        2928
        2932
        2936
        2940
        2944
        2948
        2952
        2956
        2960
        2964
        2968
        2972
        2976
        2980
        2984
        2988
        2992
        2996
        3000
        3004
        3008
        3012
        3016
        3020
        3024
        3028
        3032
        3036
        3040
        3044
        3048
        3052
        3056
        3060
        3064
        3068
        3072
        3076
        3080
        3084
        3088
        3092
        3096
        3100
        3104
        3108
        3112
        3116
        3120
        3124
        3128
        3132
        3136
        3140
        3144
        3148
        3152
        3156
        3160
        3164
        3168
        3172
        3176
        3180
        3184
        3188
        3192
        3196
        3200
        3204
        3208
        3212
        3216
        3220
        3224
        3228
        3232
        3236
        3240
        3244
        3248
        3252
        3256
        3260
        3264
        3268
        3272
        3276
        3280
        3284
        3288
        3292
        3296
        3300
        3304
        3308
        3312
        3316
        3320
        3324
        3328
        3332
        3336
        3340
        3344
        3348
        3352
        3356
        3360
        3364
        3368
        3372
        3376
        3380
        3384
        3388
        3392
        3396
        3400
        3404
        3408
        3412
        3416
        3420
        3424
        3428
        3432
        3436
        3440
        3444
        3448
        3452
        3456
        3460
        3464
        3468
        3472
        3476
        3480
        3484
        3488
        3492
        3496
        3500
        3504
        3508
        3512
        3516
        3520
        3524
        3528
        3532
        3536
        3540
        3544
        3548
        3552
        3556
        3560
        3564
        3568
        3572
        3576
        3580
        3584
        3588
        3592
        3596
        3600
        3604
        3608
        3612
        3616
        3620
        3624
        3628
        3632
        3636
        3640
        3644
        3648
        3652
        3656
        3660
        3664
        3668
        3672
        3676
        3680
        3684
        3688
        3692
        3696
        3700
        3704
        3708
        3712
        3716
        3720
        3724
        3728
        3732
        3736
        3740
        3744
        3748
        3752
        3756
        3760
        3764
        3768
        3772
        3776
        3780
        3784
        3788
        3792
        3796
        3800
        3804
        3808
        3812
        3816
        3820
        3824
        3828
        3832
        3836
        3840
        3844
        3848
        3852
        3856
        3860
        3864
        3868
        3872
        3876
        3880
        3884
        3888
        3892
        3896
        3900
        3904
        3908
        3912
        3916
        3920
        3924
        3928
        3932
        3936
        3940
        3944
        3948
        3952
        3956
        3960
        3964
        3968
        3972
        3976
        3980
        3984
        3988
        3992
        3996
        4000
        4004
        4008
        4012
        4016
        4020
        4024
        4028
        4032
        4036
        4040
        4044
        4048
        4052
        4056
        4060
        4064
        4068
        4072
        4076
        4080
        4084
        4088
        4092
        4096
 </DataArray>
 <DataArray  type="UInt8"  Name="types"  format="ascii">
 9
 9
 9
 9
 9
 9
 9
 9
 9
 9
 9
 9
 9
 9
 9
 9
 9
 9
 9
 9
 9
 9
 9
 9
 9
 9
 9
 9
 9
 9
 9
 9
 9
 9
 9
 9
 9
 9
 9
 9
 9
 9
 9
 9
 9
 9
 9
 9
 9
 9
 9
 9
 9
 9
 9
 9
 9
 9
 9
 9
 9
 9
 9
 9
 9
 9
 9
 9
 9
 9
 9
 9
 9
 9
 9
 9
 9
 9
 9
 9
 9
 9
 9
 9
 9
 9
 9
 9
 9
 9
 9
 9
 9
 9
 9
 9
 9
 9
 9
 9
 9
 9
 9
 9
 9
 9
 9
 9
 9
 9
 9
 9
 9
 9
 9
 9
 9
 9
 9
 9
 9
 9
 9
 9
 9
 9
 9
 9
 9
 9
 9
 9
 9
 9
 9
 9
 9
 9
 9
 9
 9
 9
 9
 9
 9
 9
 9
 9
 9
 9
 9
 9
 9
 9
 9
 9
 9
 9
 9
 9
 9
 9
 9
 9
 9
 9
 9
 9
 9
 9
 9
 9
 9
 9
 9
 9
 9
 9
 9
 9
 9
 9
 9
 9
 9
 9
 9
 9
 9
 9
 9
 9
 9
 9
 9
 9
 9
 9
 9
 9
 9
 9
 9
 9
 9
 9
 9
 9
 9
 9
 9
 9
 9
 9
 9
 9
 9
 9
 9
 9
 9
 9
 9
 9
 9
 9
 9
 9
 9
 9
 9
 9
 9
 9
 9
 9
 9
 9
 9
 9
 9
 9
 9
 9
 9
 9
 9
 9
 9
 9
 9
 9
 9
 9
 9
 9
 9
 9
 9
 9
 9
 9
 9
 9
 9
 9
 9
 9
 9
 9
 9
 9
 9
 9
 9
 9
 9
 9
 9
 9
 9
 9
 9
 9
 9
 9
 9
 9
 9
 9
 9
 9
 9
 9
 9
 9
 9
 9
 9
 9
 9
 9
 9
 9
 9
 9
 9
 9
 9
 9
 9
 9
 9
 9
 9
 9
 9
 9
 9
 9
 9
 9
 9
 9
 9
 9
 9
 9
 9
 9
 9
 9
 9
 9
 9
 9
 9
 9
 9
 9
 9
 9
 9
 9
 9
 9
 9
 9
 9
 9
 9
 9
 9
 9
 9
 9
 9
 9
 9
 9
 9
 9
 9
 9
 9
 9
 9
 9
 9
 9
 9
 9
 9
 9
 9
 9
 9
 9
 9
 9
 9
 9
 9
 9
 9
 9
 9
 9
 9
 9
 9
 9
 9
 9
 9
 9
 9
 9
 9
 9
 9
 9
 9
 9
 9
 9
 9
 9
 9
 9
 9
 9
 9
 9
 9
 9
 9
 9
 9
 9
 9
 9
 9
 9
 9
 9
 9
 9
 9
 9
 9
 9
 9
 9
 9
 9
 9
 9
 9
 9
 9
 9
 9
 9
 9
 9
 9
 9
 9
 9
 9
 9
 9
 9
 9
 9
 9
 9
 9
 9
 9
 9
 9
 9
 9
 9
 9
 9
 9
 9
 9
 9
 9
 9
 9
 9
 9
 9
 9
 9
 9
 9
 9
 9
 9
 9
 9
 9
 9
 9
 9
 9
 9
 9
 9
 9
 9
 9
 9
 9
 9
 9
 9
 9
 9
 9
 9
 9
 9
 9
 9
 9
 9
 9
 9
 9
 9
 9
 9
 9
 9
 9
 9
 9
 9
 9
 9
 9
 9
 9
 9
 9
 9
 9
 9
 9
 9
 9
 9
 9
 9
 9
 9
 9
 9
 9
 9
 9
 9
 9
 9
 9
 9
 9
 9
 9
 9
 9
 9
 9
 9
 9
 9
 9
 9
 9
 9
 9
 9
 9
 9
 9
 9
 9
 9
 9
 9
 9
 9
 9
 9
 9
 9
 9
 9
 9
 9
 9
 9
 9
 9
 9
 9
 9
 9
 9
 9
 9
 9
 9
 9
 9
 9
 9
 9
 9
 9
 9
 9
 9
 9
 9
 9
 9
 9
 9
 9
 9
 9
 9
 9
 9
 9
 9
 9
 9
 9
 9
 9
 9
 9
 9
 9
 9
 9
 9
 9
 9
 9
 9
 9
 9
 9
 9
 9
 9
 9
 9
 9
 9
 9
 9
 9
 9
 9
 9
 9
 9
 9
 9
 9
 9
 9
 9
 9
 9
 9
 9
 9
 9
 9
 9
 9
 9
 9
 9
 9
 9
 9
 9
 9
 9
 9
 9
 9
 9
 9
 9
 9
 9
 9
 9
 9
 9
 9
 9
 9
 9
 9
 9
 9
 9
 9
 9
 9
 9
 9
 9
 9
 9
 9
 9
 9
 9
 9
 9
 9
 9
 9
 9
 9
 9
 9
 9
 9
 9
 9
 9
 9
 9
 9
 9
 9
 9
 9
 9
 9
 9
 9
 9
 9
 9
 9
 9
 9
 9
 9
 9
 9
 9
 9
 9
 9
 9
 9
 9
 9
 9
 9
 9
 9
 9
 9
 9
 9
 9
 9
 9
 9
 9
 9
 9
 9
 9
 9
 9
 9
 9
 9
 9
 9
 9
 9
 9
 9
 9
 9
 9
 9
 9
 9
 9
 9
 9
 9
 9
 9
 9
 9
 9
 9
 9
 9
 9
 9
 9
 9
 9
 9
 9
 9
 9
 9
 9
 9
 9
 9
 9
 9
 9
 9
 9
 9
 9
 9
 9
 9
 9
 9
 9
 9
 9
 9
 9
 9
 9
 9
 9
 9
 9
 9
 9
 9
 9
 9
 9
 9
 9
 9
 9
 9
 9
 9
 9
 9
 9
 9
 9
 9
 9
 9
 9
 9
 9
 9
 9
 9
 9
 9
 9
 9
 9
 9
 9
 9
 9
 9
 9
 9
 9
 9
 9
 9
 9
 9
 9
 9
 9
 9
 9
 9
 9
 9
 9
 9
 9
 9
 9
 9
 9
 9
 9
 9
 9
 9
 9
 9
 9
 9
 9
 9
 9
 9
 9
 9
 9
 9
 9
 9
 9
 9
 9
 9
 9
 9
 9
 9
 9
 9
 9
 9
 9
 9
 9
 9
 9
 9
 9
 9
 9
 9
 9
 9
 9
 9
 9
 9
 9
 9
 9
 9
 9
 9
 9
 9
 9
 9
 9
 9
 9
 9
 9
 9
 9
 9
 9
 9
 9
 9
 9
 9
 9
 9
 9
 9
 9
 9
 9
 9
 9
 9
 9
 9
 9
 9
 9
 9
 9
 9
 9
 9
 9
 9
 9
 9
 9
 9
 9
 9
 9
 9
 9
 9
 9
 9
 9
 9
 9
 9
 9
 9
 9
 9
 9
 9
 9
 9
 9
 9
 9
 9
 9
 9
 9
 </DataArray>
 </Cells> 
 <PointData>
 <DataArray  type="Float64" Name="disp" NumberOfComponents="3" format="ascii">
   0.0000000000000000        0.0000000000000000        0.0000000000000000     
   7.2287943611330767E-008   3.9791495729569122E-008   0.0000000000000000     
   1.4057587713210570E-007   7.5971204280706439E-008   0.0000000000000000     
   2.0544007468478720E-007   1.0956908614078970E-007   0.0000000000000000     
   2.6745681039183761E-007   1.4161510179719666E-007   0.0000000000000000     
   3.2720235837571951E-007   1.7313921173730512E-007   0.0000000000000000     
   3.8525299275889524E-007   2.0517137644849271E-007   0.0000000000000000     
   4.4218498766382707E-007   2.3874155641813730E-007   0.0000000000000000     
   4.9857461721297777E-007   2.7487971213361653E-007   0.0000000000000000     
   0.0000000000000000        0.0000000000000000        0.0000000000000000     
   6.1602141024372665E-008   3.1239474564998297E-008   0.0000000000000000     
   1.2170735808133027E-007   6.1635708423010646E-008   0.0000000000000000     
   1.8046999423060785E-007   9.1758418404422433E-008   0.0000000000000000     
   2.3804439253194037E-007   1.2217732133961907E-007   0.0000000000000000     
   2.9458489604506290E-007   1.5346213405898601E-007   0.0000000000000000     
   3.5024584782971041E-007   1.8618257339290857E-007   0.0000000000000000     
   4.0518159094561782E-007   2.2090835617177222E-007   0.0000000000000000     
   4.5954646845252021E-007   2.5820919922596233E-007   0.0000000000000000     
   0.0000000000000000        0.0000000000000000        0.0000000000000000     
   5.2895598457559869E-008   2.4281971156169906E-008   0.0000000000000000     
   1.0600828379519871E-007   4.9823004216690996E-008   0.0000000000000000     
   1.5921090322992032E-007   7.6856011370352898E-008   0.0000000000000000     
   2.1237630397872847E-007   1.0561390480594521E-007   0.0000000000000000     
   2.6537733325862714E-007   1.3632959671225759E-007   0.0000000000000000     
   3.1808683828661988E-007   1.6923599927807964E-007   0.0000000000000000     
   3.7037766627971068E-007   2.0456602469220092E-007   0.0000000000000000     
   4.2212266445490338E-007   2.4255258514341117E-007   0.0000000000000000     
   0.0000000000000000        0.0000000000000000        0.0000000000000000     
   4.5874030416502678E-008   1.8721476651070722E-008   0.0000000000000000     
   9.3015640440575752E-008   4.0233154687898482E-008   0.0000000000000000     
   1.4113366759689206E-007   6.4535987758296739E-008   0.0000000000000000     
   1.8993694941012432E-007   9.1630929510078968E-008   0.0000000000000000     
   2.3913432340494544E-007   1.2151893359105865E-007   0.0000000000000000     
   2.8843462710602819E-007   1.5420095364904919E-007   0.0000000000000000     
   3.3754669803804532E-007   1.8967794333186414E-007   0.0000000000000000     
   3.8617937372566973E-007   2.2795085628731689E-007   0.0000000000000000     
   0.0000000000000000        0.0000000000000000        0.0000000000000000     
   4.0243151406811360E-008   1.4360482197687510E-008   0.0000000000000000     
   8.2266414184326171E-008   3.2566222862784048E-008   0.0000000000000000     
   1.2570915324569046E-007   5.4472470287969613E-008   0.0000000000000000     
   1.7021073350405009E-007   7.9934472765924233E-008   0.0000000000000000     
   2.1541051987255114E-007   1.0880747858932793E-007   0.0000000000000000     
   2.6094787726433944E-007   1.4094673605086067E-007   0.0000000000000000     
   3.0646217059256116E-007   1.7620749344320250E-007   0.0000000000000000     
   3.5159276477036218E-007   2.1444499905903344E-007   0.0000000000000000     
   0.0000000000000000        0.0000000000000000        0.0000000000000000     
   3.5708675934096193E-008   1.1001478944007042E-008   0.0000000000000000     
   7.3297591193314754E-008   2.6522271767498656E-008   0.0000000000000000     
   1.1240822609048295E-007   4.6339581679087177E-008   0.0000000000000000     
   1.5268206093842809E-007   7.0230611887384916E-008   0.0000000000000000     
   1.9376057604997744E-007   9.7972565601004231E-008   0.0000000000000000     
   2.3528525173795820E-007   1.2934264602855741E-007   0.0000000000000000     
   2.7689756831519776E-007   1.6411805637865674E-007   0.0000000000000000     
   3.1823900609452328E-007   2.0207599985991466E-007   0.0000000000000000     
   0.0000000000000000        0.0000000000000000        0.0000000000000000     
   3.1976318503967435E-008   8.4469580380160804E-009   0.0000000000000000     
   6.5646157634406215E-008   2.1801364428193281E-008   0.0000000000000000     
   1.0070175204543706E-007   3.9811444651365068E-008   0.0000000000000000     
   1.3683533639118059E-007   6.2225424188364913E-008   0.0000000000000000     
   1.7373914532575764E-007   8.8791528520026349E-008   0.0000000000000000     
   2.1110541350328871E-007   1.1925798312718275E-007   0.0000000000000000     
   2.4862637557789464E-007   1.5337301349066766E-007   0.0000000000000000     
   2.8599426620369602E-007   1.9088484509131457E-007   0.0000000000000000     
   0.0000000000000000        0.0000000000000000        0.0000000000000000     
   2.8751793622035369E-008   6.4994106277014013E-009   0.0000000000000000     
   5.8849099674465345E-008   1.8103563871018876E-008   0.0000000000000000     
   9.0060597024720123E-008   3.4562181924518962E-008   0.0000000000000000     
   1.2215496454022991E-007   5.5624986982768176E-008   0.0000000000000000     
   1.5490088108842488E-007   8.1041701240333058E-008   0.0000000000000000     
   1.8806702553673529E-007   1.1056204689178014E-007   0.0000000000000000     
   2.2142207675259131E-007   1.4393574613167593E-007   0.0000000000000000     
   2.5473471360342304E-007   1.8091252115458699E-007   0.0000000000000000     
   0.0000000000000000        0.0000000000000000        0.0000000000000000     
   2.5740815793910266E-008   4.9613278610497657E-009   0.0000000000000000     
   5.2443403480356879E-008   1.5128933122126406E-008   0.0000000000000000     
   7.9955626942499646E-008   3.0265916218264476E-008   0.0000000000000000     
   1.0812535006349826E-007   5.0135377584498536E-008   0.0000000000000000     
   1.3680043672651257E-007   7.4500417655863133E-008   0.0000000000000000     
   1.6582875081470230E-007   1.0312413686739286E-007   0.0000000000000000     
   1.9505815621122721E-007   1.3576963565412223E-007   0.0000000000000000     
   2.2433651679924710E-007   1.7220001445108580E-007   0.0000000000000000     
   4.9857461721297777E-007   2.7487971213361653E-007   0.0000000000000000     
   5.5489139154189291E-007   3.1443713902651891E-007   0.0000000000000000     
   6.1117776483845312E-007   3.5755047230527548E-007   0.0000000000000000     
   6.6736942730362247E-007   4.0417768212252815E-007   0.0000000000000000     
   7.2340206913836476E-007   4.5427673863091846E-007   0.0000000000000000     
   7.7921138054364425E-007   5.0780561198308852E-007   0.0000000000000000     
   8.3473305172042446E-007   5.6472227233167965E-007   0.0000000000000000     
   8.8990277286966963E-007   6.2498468982933397E-007   0.0000000000000000     
   9.4465623419234391E-007   6.8855083462869339E-007   0.0000000000000000     
   4.5954646845252021E-007   2.5820919922596233E-007   0.0000000000000000     
   5.1347021013187580E-007   2.9856606576544538E-007   0.0000000000000000     
   5.6698409265203445E-007   3.4210490451851188E-007   0.0000000000000000     
   6.2009477940306964E-007   3.8886291059303336E-007   0.0000000000000000     
   6.7280893377505425E-007   4.3887727909688135E-007   0.0000000000000000     
   7.2513321915806202E-007   4.9218520513792771E-007   0.0000000000000000     
   7.7707429894216585E-007   5.4882388382404370E-007   0.0000000000000000     
   8.2863883651743872E-007   6.0883051026310075E-007   0.0000000000000000     
   8.7983349527395447E-007   6.7224227956297086E-007   0.0000000000000000     
   4.2212266445490338E-007   2.4255258514341117E-007   0.0000000000000000     
   4.7322382545547625E-007   2.8340342739444117E-007   0.0000000000000000     
   5.2369972362980575E-007   3.2722563650378671E-007   0.0000000000000000     
   5.7359807875254326E-007   3.7410113210388491E-007   0.0000000000000000     
   6.2296661059833964E-007   4.2411183382717276E-007   0.0000000000000000     
   6.7185303894184641E-007   4.7733966130608737E-007   0.0000000000000000     
   7.2030508355771394E-007   5.3386653417306559E-007   0.0000000000000000     
   7.6837046422059399E-007   5.9377437206054457E-007   0.0000000000000000     
   8.1609690070513755E-007   6.5714509460096164E-007   0.0000000000000000     
   3.8617937372566973E-007   2.2795085628731689E-007   0.0000000000000000     
   4.3410074518305145E-007   2.6903689109472468E-007   0.0000000000000000     
   4.8131591738224933E-007   3.1301822605941936E-007   0.0000000000000000     
   5.2788924878479934E-007   3.5999328441823643E-007   0.0000000000000000     
   5.7388509785223803E-007   4.1006048940801173E-007   0.0000000000000000     
   6.1936782304610105E-007   4.6331826426558067E-007   0.0000000000000000     
   6.6440178282792457E-007   5.1986503222777890E-007   0.0000000000000000     
   7.0905133565924509E-007   5.7979921653144187E-007   0.0000000000000000     
   7.5338084000159858E-007   6.4321924041340550E-007   0.0000000000000000     
   3.5159276477036218E-007   2.1444499905903344E-007   0.0000000000000000     
   3.9604947698495851E-007   2.5555412404751422E-007   0.0000000000000000     
   4.3982393351984673E-007   2.9958823098372875E-007   0.0000000000000000     
   4.8297821293259378E-007   3.4664030529924169E-007   0.0000000000000000     
   5.2557439378076582E-007   3.9680333242561719E-007   0.0000000000000000     
   5.6767455462193013E-007   4.5017029779442053E-007   0.0000000000000000     
   6.0934077401365293E-007   5.0683418683721582E-007   0.0000000000000000     
   6.5063513051350115E-007   5.6688798498556789E-007   0.0000000000000000     
   6.9161970267904151E-007   6.3042467767104108E-007   0.0000000000000000     
   3.1823900609452328E-007   2.0207599985991466E-007   0.0000000000000000     
   3.5901852853155452E-007   2.4304279343402821E-007   0.0000000000000000     
   3.9921503165308021E-007   2.8704120907503420E-007   0.0000000000000000     
   4.3887489462868181E-007   3.3414313251005384E-007   0.0000000000000000     
   4.7804449662794043E-007   3.8442044946620867E-007   0.0000000000000000     
   5.1677021682043763E-007   4.3794504567062012E-007   0.0000000000000000     
   5.5509843437575432E-007   4.9478880685040949E-007   0.0000000000000000     
   5.9307552846347191E-007   5.5502361873269843E-007   0.0000000000000000     
   6.3074787825317189E-007   6.1872136704460847E-007   0.0000000000000000     
   2.8599426620369602E-007   1.9088484509131457E-007   0.0000000000000000     
   3.2295640749319660E-007   2.3159056643548522E-007   0.0000000000000000     
   3.5948047139243169E-007   2.7548271813165480E-007   0.0000000000000000     
   3.9558921730581947E-007   3.2260270381382698E-007   0.0000000000000000     
   4.3130540463777872E-007   3.7299192711600493E-007   0.0000000000000000     
   4.6665179279272750E-007   4.2669179167219254E-007   0.0000000000000000     
   5.0165114117508404E-007   4.8374370111639296E-007   0.0000000000000000     
   5.3632620918926670E-007   5.4418905908260988E-007   0.0000000000000000     
   5.7069975623969419E-007   6.0806926920484694E-007   0.0000000000000000     
   2.5473471360342304E-007   1.8091252115458699E-007   0.0000000000000000     
   2.8781162154024183E-007   2.2128511023310343E-007   0.0000000000000000     
   3.2061151234838289E-007   2.6501831595190987E-007   0.0000000000000000     
   3.5313110439676275E-007   3.1211995697371437E-007   0.0000000000000000     
   3.8536711605429744E-007   3.6259785196122513E-007   0.0000000000000000     
   4.1731626568990361E-007   4.1645981957715061E-007   0.0000000000000000     
   4.4897527167249729E-007   4.7371367848419868E-007   0.0000000000000000     
   4.8034085237099476E-007   5.3436724734507752E-007   0.0000000000000000     
   5.1140972615431311E-007   5.9842834482249543E-007   0.0000000000000000     
   2.2433651679924710E-007   1.7220001445108580E-007   0.0000000000000000     
   2.5353267834304739E-007   2.1221409200810122E-007   0.0000000000000000     
   2.8259941413141620E-007   2.5575356033411833E-007   0.0000000000000000     
   3.1151047933426700E-007   3.0279582975286977E-007   0.0000000000000000     
   3.4023962912151372E-007   3.5331831058808857E-007   0.0000000000000000     
   3.6876061866307004E-007   4.0729841316350755E-007   0.0000000000000000     
   3.9704720312884958E-007   4.6471354780285969E-007   0.0000000000000000     
   4.2507313768876614E-007   5.2554112482987744E-007   0.0000000000000000     
   4.5281217751273334E-007   5.8975855456829405E-007   0.0000000000000000     
   9.4465623419234391E-007   6.8855083462869339E-007   0.0000000000000000     
   9.9893996796553911E-007   7.5538573926990646E-007   0.0000000000000000     
   1.0527438747708599E-006   8.2548268584315169E-007   0.0000000000000000     
   1.1060686972660394E-006   8.9884201882611434E-007   0.0000000000000000     
   1.1589151781088095E-006   9.7546408269647915E-007   0.0000000000000000     
   1.2112840599569035E-006   1.0553492219319323E-006   0.0000000000000000     
   1.2631760854680537E-006   1.1384977810101586E-006   0.0000000000000000     
   1.3145919972999928E-006   1.2249101044088435E-006   0.0000000000000000     
   1.3655325381104539E-006   1.3145865366056726E-006   0.0000000000000000     
   8.7983349527395447E-007   6.7224227956297086E-007   0.0000000000000000     
   9.3066107416449886E-007   7.3908392552536167E-007   0.0000000000000000     
   9.8110891439271153E-007   8.0933033672732671E-007   0.0000000000000000     
   1.0311604927249457E-006   8.8294394043975620E-007   0.0000000000000000     
   1.0807992859275529E-006   9.5988716393353961E-007   0.0000000000000000     
   1.1300087707668861E-006   1.0401224344795666E-006   0.0000000000000000     
   1.1787724240092987E-006   1.1236121793487281E-006   0.0000000000000000     
   1.2270737224211421E-006   1.2103188258119129E-006   0.0000000000000000     
   1.2748961427687693E-006   1.3002048011400114E-006   0.0000000000000000     
   8.1609690070513755E-007   6.5714509460096164E-007   0.0000000000000000     
   8.6351996857350238E-007   7.2403716598656913E-007   0.0000000000000000     
   9.1062666653787458E-007   7.9441522864888371E-007   0.0000000000000000     
   9.5739184909794656E-007   8.6822046957923738E-007   0.0000000000000000     
   1.0037903707534111E-006   9.4539407576896180E-007   0.0000000000000000     
   1.0497970860039604E-006   1.0258772342093893E-006   0.0000000000000000     
   1.0953868493492880E-006   1.1096111318918524E-006   0.0000000000000000     
   1.1405345152890859E-006   1.1965369558076819E-006   0.0000000000000000     
   1.1852149383230468E-006   1.2865958929482111E-006   0.0000000000000000     
   7.5338084000159858E-007   6.4321924041340550E-007   0.0000000000000000     
   7.9743946158059903E-007   7.1019601591243293E-007   0.0000000000000000     
   8.4121559517817562E-007   7.8069041027500189E-007   0.0000000000000000     
   8.8468244284033506E-007   8.5463577954951678E-007   0.0000000000000000     
   9.2781320661308401E-007   9.3196547978438264E-007   0.0000000000000000     
   9.7058108854242961E-007   1.0126128670280044E-006   0.0000000000000000     
   1.0129592906743790E-006   1.0965112973287875E-006   0.0000000000000000     
   1.0549210150549381E-006   1.1835941267351366E-006   0.0000000000000000     
   1.0964394637301150E-006   1.2737947112954567E-006   0.0000000000000000     
   6.9161970267904151E-007   6.3042467767104108E-007   0.0000000000000000     
   7.3234236357383793E-007   6.9751103056185652E-007   0.0000000000000000     
   7.7279416428544189E-007   7.6810893027285948E-007   0.0000000000000000     
   8.1295195040740365E-007   8.4215404365555237E-007   0.0000000000000000     
   8.5279256753327230E-007   9.1958203756143716E-007   0.0000000000000000     
   8.9229286125659683E-007   1.0003285788420154E-006   0.0000000000000000     
   9.3142967717092687E-007   1.0843293343487892E-006   0.0000000000000000     
   9.7017986086981225E-007   1.1715199709332608E-006   0.0000000000000000     
   1.0085202579468012E-006   1.2618361554469318E-006   0.0000000000000000     
   6.3074787825317189E-007   6.1872136704460847E-007   0.0000000000000000     
   6.6815148494126716E-007   6.8593276519374304E-007   0.0000000000000000     
   7.0528083783150058E-007   7.5662383730963623E-007   0.0000000000000000     
   7.4212004825444493E-007   8.3073943520230392E-007   0.0000000000000000     
   7.7865322754067554E-007   9.0822441068176186E-007   0.0000000000000000     
   8.1486448702076549E-007   9.8902361555802635E-007   0.0000000000000000     
   8.5073793802528895E-007   1.0730819016411136E-006   0.0000000000000000     
   8.8625769188482071E-007   1.1603441207410396E-006   0.0000000000000000     
   9.2140785992993471E-007   1.2507551246678203E-006   0.0000000000000000     
   5.7069975623969419E-007   6.0806926920484694E-007   0.0000000000000000     
   6.0478963607093701E-007   6.7541177506699688E-007   0.0000000000000000     
   6.3859407978817816E-007   7.4618818005251059E-007   0.0000000000000000     
   6.7210641283675204E-007   8.2035612749472918E-007   0.0000000000000000     
   7.0531996066199387E-007   8.9787326072699239E-007   0.0000000000000000     
   7.3822804870923898E-007   9.7869722308264144E-007   0.0000000000000000     
   7.7082400242382217E-007   1.0627856578950163E-006   0.0000000000000000     
   8.0310114725107816E-007   1.1500962084974580E-006   0.0000000000000000     
   8.3505280863634247E-007   1.2405865182233063E-006   0.0000000000000000     
   5.1140972615431311E-007   5.9842834482249543E-007   0.0000000000000000     
   5.4217962735089608E-007   6.6589861544052077E-007   0.0000000000000000     
   5.7265235412730185E-007   7.3675500716866166E-007   0.0000000000000000     
   6.0283072060961705E-007   8.1096829383778696E-007   0.0000000000000000     
   6.3271754092392786E-007   8.8850924927876514E-007   0.0000000000000000     
   6.6231562919632068E-007   9.6934864732246433E-007   0.0000000000000000     
   6.9162779955288161E-007   1.0534572617997533E-006   0.0000000000000000     
   7.2065686611969746E-007   1.1408058665415008E-006   0.0000000000000000     
   7.4940564302285359E-007   1.2313652353785752E-006   0.0000000000000000     
   4.5281217751273334E-007   5.8975855456829405E-007   0.0000000000000000     
   4.8024426916919297E-007   6.5734384157321900E-007   0.0000000000000000     
   5.0737412482069896E-007   7.2827736732526842E-007   0.0000000000000000     
   5.3421264802833319E-007   8.0254010753643629E-007   0.0000000000000000     
   5.6077074235317764E-007   8.8011303791871514E-007   0.0000000000000000     
   5.8705931135631410E-007   9.6097713418409864E-007   0.0000000000000000     
   6.1308925859882466E-007   1.0451133720445802E-006   0.0000000000000000     
   6.3887148764179141E-007   1.1325027272121527E-006   0.0000000000000000     
   6.6441690204629591E-007   1.2231261753988095E-006   0.0000000000000000     
   1.3655325381104539E-006   1.3145865366056726E-006   0.0000000000000000     
   1.4159983952895333E-006   1.4075164386919416E-006   0.0000000000000000     
   1.4659900351567845E-006   1.5036452382133952E-006   0.0000000000000000     
   1.5155078687641250E-006   1.6029073793293873E-006   0.0000000000000000     
   1.5645523071634720E-006   1.7052373061992717E-006   0.0000000000000000     
   1.6131237614067426E-006   1.8105694629824043E-006   0.0000000000000000     
   1.6612226425458546E-006   1.9188382938381392E-006   0.0000000000000000     
   1.7088493616327248E-006   2.0299782429258304E-006   0.0000000000000000     
   1.7560043297192711E-006   2.1439237544048329E-006   0.0000000000000000     
   1.2748961427687693E-006   1.3002048011400114E-006   0.0000000000000000     
   1.3222281568186077E-006   1.3932351511931874E-006   0.0000000000000000     
   1.3690782163373808E-006   1.4893853961887018E-006   0.0000000000000000     
   1.4154597680918878E-006   1.5886336749330914E-006   0.0000000000000000     
   1.4613862588489276E-006   1.6909581262328901E-006   0.0000000000000000     
   1.5068711353752980E-006   1.7963368888946326E-006   0.0000000000000000     
   1.5519278444377988E-006   1.9047481017248561E-006   0.0000000000000000     
   1.5965698328032279E-006   2.0161699035300944E-006   0.0000000000000000     
   1.6408105472383841E-006   2.1305804331168838E-006   0.0000000000000000     
   1.1852149383230468E-006   1.2865958929482111E-006   0.0000000000000000     
   1.2294104903331120E-006   1.3797392707995651E-006   0.0000000000000000     
   1.2731336127302162E-006   1.4759589788270436E-006   0.0000000000000000     
   1.3164042643075429E-006   1.5752570469907395E-006   0.0000000000000000     
   1.3592424038582748E-006   1.6776355052507471E-006   0.0000000000000000     
   1.4016679901755959E-006   1.7830963835671589E-006   0.0000000000000000     
   1.4437009820526891E-006   1.8916417119000683E-006   0.0000000000000000     
   1.4853613382827374E-006   2.0032735202095687E-006   0.0000000000000000     
   1.5266690176589250E-006   2.1179938384557530E-006   0.0000000000000000     
   1.0964394637301150E-006   1.2737947112954567E-006   0.0000000000000000     
   1.1374958397076426E-006   1.3670591940230592E-006   0.0000000000000000     
   1.1781033498421631E-006   1.4633848657908841E-006   0.0000000000000000     
   1.2182832019500451E-006   1.5627818044367771E-006   0.0000000000000000     
   1.2580566038476567E-006   1.6652600877985830E-006   0.0000000000000000     
   1.2974447633513672E-006   1.7708297937141483E-006   0.0000000000000000     
   1.3364688882775439E-006   1.8795010000213190E-006   0.0000000000000000     
   1.3751501864425570E-006   1.9912837845579397E-006   0.0000000000000000     
   1.4135098656627743E-006   2.1061882251618581E-006   0.0000000000000000     
   1.0085202579468012E-006   1.2618361554469318E-006   0.0000000000000000     
   1.0464346488167947E-006   1.3552253173756551E-006   0.0000000000000000     
   1.0839345531800936E-006   1.4516819367426903E-006   0.0000000000000000     
   1.1210384255583500E-006   1.5512122562056472E-006   0.0000000000000000     
   1.1577647204732156E-006   1.6538225184221365E-006   0.0000000000000000     
   1.1941318924463427E-006   1.7595189660497672E-006   0.0000000000000000     
   1.2301583959993831E-006   1.8683078417461508E-006   0.0000000000000000     
   1.2658626856539887E-006   1.9801953881688974E-006   0.0000000000000000     
   1.3012632159318116E-006   2.0951878479756154E-006   0.0000000000000000     
   9.2140785992993471E-007   1.2507551246678203E-006   0.0000000000000000     
   9.5617736153516345E-007   1.3442680373693362E-006   0.0000000000000000     
   9.9057434825087952E-007   1.4408690713449264E-006   0.0000000000000000     
   1.0246117796714129E-006   1.5405527112317948E-006   0.0000000000000000     
   1.0583026153910939E-006   1.6433134416671455E-006   0.0000000000000000     
   1.0916598150042545E-006   1.7491457472881821E-006   0.0000000000000000     
   1.1246963381052253E-006   1.8580441127321079E-006   0.0000000000000000     
   1.1574251442883358E-006   1.9700030226361268E-006   0.0000000000000000     
   1.1898591931479179E-006   2.0850169616374426E-006   0.0000000000000000     
   8.3505280863634247E-007   1.2405865182233063E-006   0.0000000000000000     
   8.6667442173734468E-007   1.3342177505160865E-006   0.0000000000000000     
   8.9796986056139253E-007   1.4309651492600580E-006   0.0000000000000000     
   9.2894510882818843E-007   1.5308074784496644E-006   0.0000000000000000     
   9.5960615025743487E-007   1.6337235020793497E-006   0.0000000000000000     
   9.8995896856883394E-007   1.7396919841435583E-006   0.0000000000000000     
   1.0200095474820886E-006   1.8486916886367330E-006   0.0000000000000000     
   1.0497638707169008E-006   1.9607013795533181E-006   0.0000000000000000     
   1.0792279219929731E-006   2.0756998208877571E-006   0.0000000000000000     
   7.4940564302285359E-007   1.2313652353785752E-006   0.0000000000000000     
   7.7787627329793389E-007   1.3251048533278913E-006   0.0000000000000000     
   8.0606821561850515E-007   1.4219890501505504E-006   0.0000000000000000     
   8.3398025756763250E-007   1.5219808667936996E-006   0.0000000000000000     
   8.6161118672838011E-007   1.6250433442044879E-006   0.0000000000000000     
   8.8895979068381184E-007   1.7311395233300618E-006   0.0000000000000000     
   9.1602485701699260E-007   1.8402324451175693E-006   0.0000000000000000     
   9.4280517331098616E-007   1.9522851505141584E-006   0.0000000000000000     
   9.6929952714885721E-007   2.0672606804669767E-006   0.0000000000000000     
   6.6441690204629591E-007   1.2231261753988095E-006   0.0000000000000000     
   6.8973336009152576E-007   1.3169597423167339E-006   0.0000000000000000     
   7.1481653892908914E-007   1.4139596536788685E-006   0.0000000000000000     
   7.3965907042870006E-007   1.5140771851983459E-006   0.0000000000000000     
   7.6425358646007263E-007   1.6172636125882986E-006   0.0000000000000000     
   7.8859271889291980E-007   1.7234702115618595E-006   0.0000000000000000     
   8.1266909959695600E-007   1.8326482578321606E-006   0.0000000000000000     
   8.3647536044189533E-007   1.9447490271123367E-006   0.0000000000000000     
   8.6000413329745074E-007   2.0597237951155171E-006   0.0000000000000000     
   0.0000000000000000        0.0000000000000000        0.0000000000000000     
   2.5740815793910266E-008   4.9613278610497657E-009   0.0000000000000000     
   5.2443403480356879E-008   1.5128933122126406E-008   0.0000000000000000     
   7.9955626942499646E-008   3.0265916218264476E-008   0.0000000000000000     
   1.0812535006349826E-007   5.0135377584498536E-008   0.0000000000000000     
   1.3680043672651257E-007   7.4500417655863133E-008   0.0000000000000000     
   1.6582875081470230E-007   1.0312413686739286E-007   0.0000000000000000     
   1.9505815621122721E-007   1.3576963565412223E-007   0.0000000000000000     
   2.2433651679924710E-007   1.7220001445108580E-007   0.0000000000000000     
   0.0000000000000000        0.0000000000000000        0.0000000000000000     
   2.2699829158446168E-008   3.6665749676107034E-009   0.0000000000000000     
   4.6044716942536966E-008   1.2624020339561313E-008   0.0000000000000000     
   6.9945749834484617E-008   2.6645413523164646E-008   0.0000000000000000     
   9.4314014316501303E-008   4.5503831925733529E-008   0.0000000000000000     
   1.1906059687079930E-007   6.8972352954580784E-008   0.0000000000000000     
   1.4409658397959074E-007   9.6824054017019186E-008   0.0000000000000000     
   1.6933306212508793E-007   1.2883201252036160E-007   0.0000000000000000     
   1.9468111778950305E-007   1.6476930587192087E-007   0.0000000000000000     
   0.0000000000000000        0.0000000000000000        0.0000000000000000     
   1.9588196387472151E-008   2.5745135031847702E-009   0.0000000000000000     
   3.9583334845827082E-008   1.0521314208946979E-008   0.0000000000000000     
   5.9942042222550484E-008   2.3618012913171967E-008   0.0000000000000000     
   8.0620945365128034E-008   4.1642220411745072E-008   0.0000000000000000     
   1.0157667112104548E-007   6.4371547500551672E-008   0.0000000000000000     
   1.2276584633778848E-007   9.1583604975477064E-008   0.0000000000000000     
   1.4414509786284266E-007   1.2305600363240665E-007   0.0000000000000000     
   1.6567105254369386E-007   1.5856635426722574E-007   0.0000000000000000     
   0.0000000000000000        0.0000000000000000        0.0000000000000000     
   1.6416009786061063E-008   1.6758791051352815E-009   0.0000000000000000     
   3.3068213698640081E-008   8.7997885478012503E-009   0.0000000000000000     
   4.9943622750114259E-008   2.1149696733086270E-008   0.0000000000000000     
   6.7029247952860787E-008   3.8503572066078696E-008   0.0000000000000000     
   8.4312100319256869E-008   6.0639382951866894E-008   0.0000000000000000     
   1.0177919086167970E-007   8.7335097795539222E-008   0.0000000000000000     
   1.1941753059250654E-007   1.1836868500218408E-007   0.0000000000000000     
   1.3721413052411450E-007   1.5351811297688976E-007   0.0000000000000000     
   0.0000000000000000        0.0000000000000000        0.0000000000000000     
   1.3193361659285749E-008   9.6140741082555224E-010   0.0000000000000000     
   2.6508310009388825E-008   7.4384171736420006E-009   0.0000000000000000     
   3.9949610060592964E-008   1.9206447327707432E-008   0.0000000000000000     
   5.3522026823181879E-008   3.6040915912279923E-008   0.0000000000000000     
   6.7230325307439318E-008   5.7717240966617572E-008   0.0000000000000000     
   8.1079270523649010E-008   8.4010840529978456E-008   0.0000000000000000     
   9.5073627482094723E-008   1.1469713264162068E-007   0.0000000000000000     
   1.0921816119306010E-007   1.4955153534080227E-007   0.0000000000000000     
   0.0000000000000000        0.0000000000000000        0.0000000000000000     
   9.9303443122190582E-009   4.2183405761889704E-010   0.0000000000000000     
   1.9912580286486173E-008   6.4161739039870802E-009   0.0000000000000000     
   2.9959122797403596E-008   1.7754247041835292E-008   0.0000000000000000     
   4.0082386719573645E-008   3.4207280973894263E-008   0.0000000000000000     
   5.0294786927598598E-008   5.5546503202894790E-008   0.0000000000000000     
   6.0608738296080697E-008   8.1543141231567531E-008   0.0000000000000000     
   7.1036655699622316E-008   1.1196842256264330E-007   0.0000000000000000     
   8.1590954012825638E-008   1.4659357469885278E-007   0.0000000000000000     
   0.0000000000000000        0.0000000000000000        0.0000000000000000     
   6.6370500499338367E-009   4.7894682878630255E-011   0.0000000000000000     
   1.3289981038344952E-008   5.7120325563543491E-009   0.0000000000000000     
   1.9971279603963205E-008   1.6759078220269713E-008   0.0000000000000000     
   2.6693432385518442E-008   3.2955696274467272E-008   0.0000000000000000     
   3.3468926021740500E-008   5.4068551318789610E-008   0.0000000000000000     
   4.0310247151359240E-008   7.9864307953079244E-008   0.0000000000000000     
   4.7229882413104509E-008   1.1010963077717874E-007   0.0000000000000000     
   5.4240318445706133E-008   1.4457118439093068E-007   0.0000000000000000     
   0.0000000000000000        0.0000000000000000        0.0000000000000000     
   3.3235711775029194E-009  -1.6967507603193228E-010   0.0000000000000000     
   6.6494687733780426E-009   5.3049669482616671E-009   0.0000000000000000     
   9.9851991236887888E-009   1.6186923207810547E-008   0.0000000000000000     
   1.3338268564498582E-008   3.2239190837544454E-008   0.0000000000000000     
   1.6716183431870840E-008   5.3224766972393129E-008   0.0000000000000000     
   2.0126450061868993E-008   7.8906648747286347E-008   0.0000000000000000     
   2.3576574790556453E-008   1.0904783329715382E-007   0.0000000000000000     
   2.7074063953996643E-008   1.4341131775692540E-007   0.0000000000000000     
   0.0000000000000000        0.0000000000000000        0.0000000000000000     
  -8.4041550235387612E-022  -2.4013958174947655E-010   0.0000000000000000     
  -1.7163997710475324E-021   5.1739508972268933E-009   0.0000000000000000     
  -2.6378789734316053E-021   1.6003764349257654E-008   0.0000000000000000     
  -3.5957541227680113E-021   3.2010793686671318E-008   0.0000000000000000     
  -4.5949883027320687E-021   5.2956531821796489E-008   0.0000000000000000     
  -5.6273097071982473E-021   7.8602471666961650E-008   0.0000000000000000     
  -6.7092619484176075E-021   1.0871010613449533E-007   0.0000000000000000     
  -7.8247150044453653E-021   1.4304092813672615E-007   0.0000000000000000     
   2.2433651679924710E-007   1.7220001445108580E-007   0.0000000000000000     
   2.5353267834304739E-007   2.1221409200810122E-007   0.0000000000000000     
   2.8259941413141620E-007   2.5575356033411833E-007   0.0000000000000000     
   3.1151047933426700E-007   3.0279582975286977E-007   0.0000000000000000     
   3.4023962912151372E-007   3.5331831058808857E-007   0.0000000000000000     
   3.6876061866307004E-007   4.0729841316350755E-007   0.0000000000000000     
   3.9704720312884958E-007   4.6471354780285969E-007   0.0000000000000000     
   4.2507313768876614E-007   5.2554112482987744E-007   0.0000000000000000     
   4.5281217751273334E-007   5.8975855456829405E-007   0.0000000000000000     
   1.9468111778950305E-007   1.6476930587192087E-007   0.0000000000000000     
   2.2005970199303340E-007   2.0443935803427410E-007   0.0000000000000000     
   2.4541922390781685E-007   2.4776697919105580E-007   0.0000000000000000     
   2.7071795724397644E-007   2.9470732608116477E-007   0.0000000000000000     
   2.9591417571163495E-007   3.4521555544349982E-007   0.0000000000000000     
   3.2096615302091559E-007   3.9924682401695987E-007   0.0000000000000000     
   3.4583216288194121E-007   4.5675628854044360E-007   0.0000000000000000     
   3.7047047900483486E-007   5.1769910575284984E-007   0.0000000000000000     
   3.9483937509971930E-007   5.8203043239307767E-007   0.0000000000000000     
   1.6567105254369386E-007   1.5856635426722574E-007   0.0000000000000000     
   1.8729928226587219E-007   1.9791947095572599E-007   0.0000000000000000     
   2.0898113906708595E-007   2.4102898089332419E-007   0.0000000000000000     
   2.3066692002308817E-007   2.8783571455534358E-007   0.0000000000000000     
   2.5230692220963141E-007   3.3828050241710714E-007   0.0000000000000000     
   2.7385144270246875E-007   3.9230417495393802E-007   0.0000000000000000     
   2.9525077857735292E-007   4.4984756264115938E-007   0.0000000000000000     
   3.1645522691003691E-007   5.1085149595409439E-007   0.0000000000000000     
   3.3741508477627332E-007   5.7525680536806603E-007   0.0000000000000000     
   1.3721413052411450E-007   1.5351811297688976E-007   0.0000000000000000     
   1.5514962535829901E-007   1.9258717250913768E-007   0.0000000000000000     
   1.7317914455452800E-007   2.3548294392598160E-007   0.0000000000000000     
   1.9125144126168748E-007   2.8213832993886814E-007   0.0000000000000000     
   2.0931526862866363E-007   3.3248623325924394E-007   0.0000000000000000     
   2.2731937980434262E-007   3.8645955659855584E-007   0.0000000000000000     
   2.4521252793761038E-007   4.4399120266825040E-007   0.0000000000000000     
   2.6294346617735321E-007   5.0501407417977465E-007   0.0000000000000000     
   2.8046094767245708E-007   5.6946107384457490E-007   0.0000000000000000     
   1.0921816119306010E-007   1.4955153534080227E-007   0.0000000000000000     
   1.2350893746704921E-007   1.8837520443119008E-007   0.0000000000000000     
   1.3790722531544734E-007   2.3107224677408598E-007   0.0000000000000000     
   1.5236559454985987E-007   2.7757250699520050E-007   0.0000000000000000     
   1.6683661498189240E-007   3.2780582972024395E-007   0.0000000000000000     
   1.8127285642315041E-007   3.8170205957492715E-007   0.0000000000000000     
   1.9562688868523936E-007   4.3919104118496047E-007   0.0000000000000000     
   2.0985128157976481E-007   5.0020261917605449E-007   0.0000000000000000     
   2.2389860491833216E-007   5.6466663817391976E-007   0.0000000000000000     
   8.1590954012825638E-008   1.4659357469885278E-007   0.0000000000000000     
   9.2275424788858222E-008   1.8521630845856428E-007   0.0000000000000000     
   1.0305936629514870E-007   2.2774026792269574E-007   0.0000000000000000     
   1.1390345347769083E-007   2.7409558048780279E-007   0.0000000000000000     
   1.2476836128247846E-007   3.2421237355044107E-007   0.0000000000000000     
   1.3561476465550546E-007   3.7802077450716611E-007   0.0000000000000000     
   1.4640333854276558E-007   4.3545091075453315E-007   0.0000000000000000     
   1.5709475789025263E-007   4.9643290968909812E-007   0.0000000000000000     
   1.6764969764396046E-007   5.6089689870741658E-007   0.0000000000000000     
   5.4240318445706133E-008   1.4457118439093068E-007   0.0000000000000000     
   6.1347293520461318E-008   1.8304322632794099E-007   0.0000000000000000     
   6.8529552438936571E-008   2.2543038585686898E-007   0.0000000000000000     
   7.5759091635265694E-008   2.7166488518013736E-007   0.0000000000000000     
   8.3007907543582512E-008   3.2167894650016893E-007   0.0000000000000000     
   9.0247996598020918E-008   3.7540479201938631E-007   0.0000000000000000     
   9.7451355232714660E-008   4.3277464394021211E-007   0.0000000000000000     
   1.0458997988179768E-007   4.9372072446506940E-007   0.0000000000000000     
   1.1163586697940375E-007   5.5817525579638051E-007   0.0000000000000000     
   2.7074063953996643E-008   1.4341131775692540E-007   0.0000000000000000     
   3.0622749858593801E-008   1.8178869977600114E-007   0.0000000000000000     
   3.4211768692115407E-008   2.2408597906166364E-007   0.0000000000000000     
   3.7826582612669774E-008   2.7023775583566595E-007   0.0000000000000000     
   4.1452653778365203E-008   3.2017863031976098E-007   0.0000000000000000     
   4.5075444347310025E-008   3.7384320273570157E-007   0.0000000000000000     
   4.8680416477612494E-008   4.3116607330524114E-007   0.0000000000000000     
   5.2253032327380936E-008   4.9208184225013201E-007   0.0000000000000000     
   5.5778754054723662E-008   5.5652510979212765E-007   0.0000000000000000     
  -7.8247150044453653E-021   1.4304092813672615E-007   0.0000000000000000     
  -8.9860765844698161E-021   1.8138547053942564E-007   0.0000000000000000     
  -1.0182800135680909E-020   2.2365042602213824E-007   0.0000000000000000     
  -1.1418918163564840E-020   2.6977152721785094E-007   0.0000000000000000     
  -1.2693500089932486E-020   3.1968450675955117E-007   0.0000000000000000     
  -1.3971313190567918E-020   3.7332509728022632E-007   0.0000000000000000     
  -1.5298440472878288E-020   4.3062903141286362E-007   0.0000000000000000     
  -1.6664451706327187E-020   4.9153204179045003E-007   0.0000000000000000     
  -1.8035018895493662E-020   5.5596986104597366E-007   0.0000000000000000     
   4.5281217751273334E-007   5.8975855456829405E-007   0.0000000000000000     
   4.8024426916919297E-007   6.5734384157321900E-007   0.0000000000000000     
   5.0737412482069896E-007   7.2827736732526842E-007   0.0000000000000000     
   5.3421264802833319E-007   8.0254010753643629E-007   0.0000000000000000     
   5.6077074235317764E-007   8.8011303791871514E-007   0.0000000000000000     
   5.8705931135631410E-007   9.6097713418409864E-007   0.0000000000000000     
   6.1308925859882466E-007   1.0451133720445802E-006   0.0000000000000000     
   6.3887148764179141E-007   1.1325027272121527E-006   0.0000000000000000     
   6.6441690204629591E-007   1.2231261753988095E-006   0.0000000000000000     
   3.9483937509971930E-007   5.8203043239307767E-007   0.0000000000000000     
   4.1890678974656921E-007   6.4971052313096607E-007   0.0000000000000000     
   4.4267932100476458E-007   7.2072002436011737E-007   0.0000000000000000     
   4.6617323180353687E-007   7.9504468040507359E-007   0.0000000000000000     
   4.8940478507211757E-007   8.7267023559037789E-007   0.0000000000000000     
   5.1239024373973836E-007   9.5358243424057206E-007   0.0000000000000000     
   5.3514587073563067E-007   1.0377670206801997E-006   0.0000000000000000     
   5.5768792898902628E-007   1.1252097392338022E-006   0.0000000000000000     
   5.8003268142915625E-007   1.2158963342259222E-006   0.0000000000000000     
   3.3741508477627332E-007   5.7525680536806603E-007   0.0000000000000000     
   3.5809208863453435E-007   6.4301178740752429E-007   0.0000000000000000     
   3.7849373247416797E-007   7.1409460279342452E-007   0.0000000000000000     
   3.9863894966724123E-007   7.8849087829584997E-007   0.0000000000000000     
   4.1854667358582154E-007   8.6618624068488259E-007   0.0000000000000000     
   4.3823583760197596E-007   9.4716631673060521E-007   0.0000000000000000     
   4.5772537508777174E-007   1.0314167332031005E-006   0.0000000000000000     
   4.7703421941527620E-007   1.1189231168724505E-006   0.0000000000000000     
   4.9618130395655606E-007   1.2096710945087384E-006   0.0000000000000000     
   2.8046094767245708E-007   5.6946107384457490E-007   0.0000000000000000     
   2.9772548321728982E-007   6.3727327610362597E-007   0.0000000000000000     
   3.1474461418814633E-007   7.0842444231601402E-007   0.0000000000000000     
   3.3153763960680331E-007   7.8289650557035321E-007   0.0000000000000000     
   3.4812385849503733E-007   8.6067139895525769E-007   0.0000000000000000     
   3.6452256987462493E-007   9.4173105555934140E-007   0.0000000000000000     
   3.8075307276734270E-007   1.0260574084712187E-006   0.0000000000000000     
   3.9683466619496742E-007   1.1136323907795037E-006   0.0000000000000000     
   4.1278664917927542E-007   1.2044379355728100E-006   0.0000000000000000     
   2.2389860491833216E-007   5.6466663817391976E-007   0.0000000000000000     
   2.3773229087903737E-007   6.3252063092000479E-007   0.0000000000000000     
   2.5135922110593765E-007   7.0373288261870970E-007   0.0000000000000000     
   2.6479713960958027E-007   7.7827936659017236E-007   0.0000000000000000     
   2.7806379040051299E-007   8.5613605615453129E-007   0.0000000000000000     
   2.9117691748928321E-007   9.3727892463192448E-007   0.0000000000000000     
   3.0415426488643855E-007   1.0216839453424895E-006   0.0000000000000000     
   3.1701357660252657E-007   1.1093270916063653E-006   0.0000000000000000     
   3.2977259664809457E-007   1.2001843367436893E-006   0.0000000000000000     
   1.6764969764396046E-007   5.6089689870741658E-007   0.0000000000000000     
   1.7803782900397860E-007   6.2877949355739380E-007   0.0000000000000000     
   1.8826480818677896E-007   7.0004326339233517E-007   0.0000000000000000     
   1.9834528766292915E-007   7.7465726571689624E-007   0.0000000000000000     
   2.0829391990299673E-007   8.5259055803573214E-007   0.0000000000000000     
   2.1812535737754937E-007   9.3381219785349808E-007   0.0000000000000000     
   2.2785425255715465E-007   1.0182912426748494E-006   0.0000000000000000     
   2.3749525791238024E-007   1.1059967500044418E-006   0.0000000000000000     
   2.4706302591379365E-007   1.1968977773469301E-006   0.0000000000000000     
   1.1163586697940375E-007   5.5817525579638051E-007   0.0000000000000000     
   1.1856741497631516E-007   6.2607550571652593E-007   0.0000000000000000     
   1.2538863038990800E-007   6.9737892432771438E-007   0.0000000000000000     
   1.3210992175420691E-007   7.7204800731211285E-007   0.0000000000000000     
   1.3874169760323648E-007   8.5004525035188803E-007   0.0000000000000000     
   1.4529436647102127E-007   9.3133314912920562E-007   0.0000000000000000     
   1.5177833689158579E-007   1.0158741993262335E-006   0.0000000000000000     
   1.5820401739895473E-007   1.1036308966251376E-006   0.0000000000000000     
   1.6458181652715257E-007   1.1945657367080839E-006   0.0000000000000000     
   5.5778754054723662E-008   5.5652510979212765E-007   0.0000000000000000     
   5.9246366180248582E-008   6.2443430909813443E-007   0.0000000000000000     
   6.2657942674562275E-008   6.9576320511567146E-007   0.0000000000000000     
   6.6018879870770782E-008   7.7046939573741113E-007   0.0000000000000000     
   6.9334574101980353E-008   8.4851047885602728E-007   0.0000000000000000     
   7.2610421701297069E-008   9.2984405236419177E-007   0.0000000000000000     
   7.5851819001827052E-008   1.0144277141545773E-006   0.0000000000000000     
   7.9064162336676569E-008   1.1022190621198578E-006   0.0000000000000000     
   8.2252848038951624E-008   1.1931756941527039E-006   0.0000000000000000     
  -1.8035018895493662E-020   5.5596986104597366E-007   0.0000000000000000     
  -1.9407311531719135E-020   6.2388154540295225E-007   0.0000000000000000     
  -2.0810623440915347E-020   6.9521944544702963E-007   0.0000000000000000     
  -2.2228411010831236E-020   7.6993923535438022E-007   0.0000000000000000     
  -2.3652712628070981E-020   8.4799658930117875E-007   0.0000000000000000     
  -2.5056800019091461E-020   9.2934718146359954E-007   0.0000000000000000     
  -2.6424530237250821E-020   1.0139466860178179E-006   0.0000000000000000     
  -2.7795470627045226E-020   1.1017507771400074E-006   0.0000000000000000     
  -2.9153153508818907E-020   1.1927151290063434E-006   0.0000000000000000     
   6.6441690204629591E-007   1.2231261753988095E-006   0.0000000000000000     
   6.8973336009152576E-007   1.3169597423167339E-006   0.0000000000000000     
   7.1481653892908914E-007   1.4139596536788685E-006   0.0000000000000000     
   7.3965907042870006E-007   1.5140771851983459E-006   0.0000000000000000     
   7.6425358646007263E-007   1.6172636125882986E-006   0.0000000000000000     
   7.8859271889291980E-007   1.7234702115618595E-006   0.0000000000000000     
   8.1266909959695600E-007   1.8326482578321606E-006   0.0000000000000000     
   8.3647536044189533E-007   1.9447490271123367E-006   0.0000000000000000     
   8.6000413329745074E-007   2.0597237951155171E-006   0.0000000000000000     
   5.8003268142915625E-007   1.2158963342259222E-006   0.0000000000000000     
   6.0219176703220877E-007   1.3098060063688506E-006   0.0000000000000000     
   6.2415832896219747E-007   1.4068917819258669E-006   0.0000000000000000     
   6.4592088643009187E-007   1.5071001435479989E-006   0.0000000000000000     
   6.6746795864686221E-007   1.6103775738862734E-006   0.0000000000000000     
   6.8878806482347832E-007   1.7166705555917195E-006   0.0000000000000000     
   7.0986972417090991E-007   1.8259255713153638E-006   0.0000000000000000     
   7.3070145590012713E-007   1.9380891037082353E-006   0.0000000000000000     
   7.5127177922209979E-007   2.0531076354213592E-006   0.0000000000000000     
   4.9618130395655606E-007   1.2096710945087384E-006   0.0000000000000000     
   5.1518014319204082E-007   1.3036400038674838E-006   0.0000000000000000     
   5.3402257603560613E-007   1.4007840266459571E-006   0.0000000000000000     
   5.5269502250949017E-007   1.5010510555268667E-006   0.0000000000000000     
   5.7118390263593061E-007   1.6043889831929204E-006   0.0000000000000000     
   5.8947563643716541E-007   1.7107457023268255E-006   0.0000000000000000     
   6.0755664393543277E-007   1.8200691056112912E-006   0.0000000000000000     
   6.2541334515296970E-007   1.9323070857290246E-006   0.0000000000000000     
   6.4303216011201482E-007   2.0474075353627342E-006   0.0000000000000000     
   4.1278664917927542E-007   1.2044379355728100E-006   0.0000000000000000     
   4.2862277868257166E-007   1.2984512855701268E-006   0.0000000000000000     
   4.4433464342927256E-007   1.3956309220119397E-006   0.0000000000000000     
   4.5990829008432254E-007   1.4959306357691097E-006   0.0000000000000000     
   4.7532976531266649E-007   1.5993042177124973E-006   0.0000000000000000     
   4.9058511577924862E-007   1.7057054587129628E-006   0.0000000000000000     
   5.0566038814901403E-007   1.8150881496413675E-006   0.0000000000000000     
   5.2054162908690702E-007   1.9274060813685727E-006   0.0000000000000000     
   5.3521488525787206E-007   2.0426130447654370E-006   0.0000000000000000     
   3.2977259664809457E-007   1.2001843367436893E-006   0.0000000000000000     
   3.4244396361535188E-007   1.2942294022342725E-006   0.0000000000000000     
   3.5501989442315373E-007   1.3914270021966148E-006   0.0000000000000000     
   3.6748750057201697E-007   1.4917395989088881E-006   0.0000000000000000     
   3.7983389356245859E-007   1.5951296546492651E-006   0.0000000000000000     
   3.9204618489499565E-007   1.7015596316959184E-006   0.0000000000000000     
   4.0411148607014500E-007   1.8109919923270202E-006   0.0000000000000000     
   4.1601690858842336E-007   1.9233891988207432E-006   0.0000000000000000     
   4.2774956395034805E-007   2.0387137134552592E-006   0.0000000000000000     
   2.4706302591379365E-007   1.1968977773469301E-006   0.0000000000000000     
   2.5656798810193150E-007   1.2909639046174156E-006   0.0000000000000000     
   2.6600369229720668E-007   1.3881668013727833E-006   0.0000000000000000     
   2.7535946539000077E-007   1.4884786595803622E-006   0.0000000000000000     
   2.8462463427069579E-007   1.5918716712074837E-006   0.0000000000000000     
   2.9378852582967336E-007   1.6983180282214780E-006   0.0000000000000000     
   3.0284046695731523E-007   1.8077899225896751E-006   0.0000000000000000     
   3.1176978454400326E-007   1.9202595462794049E-006   0.0000000000000000     
   3.2056580548011913E-007   2.0356990912579978E-006   0.0000000000000000     
   1.6458181652715257E-007   1.1945657367080839E-006   0.0000000000000000     
   1.7091914225386089E-007   1.2886443434770492E-006   0.0000000000000000     
   1.7721140033138876E-007   1.3858448537132450E-006   0.0000000000000000     
   1.8345099595570211E-007   1.4861485324176926E-006   0.0000000000000000     
   1.8963033432276699E-007   1.5895366445914127E-006   0.0000000000000000     
   1.9574182062854934E-007   1.6959904552354275E-006   0.0000000000000000     
   2.0177786006901528E-007   1.8054912293507559E-006   0.0000000000000000     
   2.0773085784013080E-007   1.9180202319384222E-006   0.0000000000000000     
   2.1359321913786165E-007   2.0335587279994445E-006   0.0000000000000000     
   8.2252848038951624E-008   1.1931756941527039E-006   0.0000000000000000     
   8.5421716182690221E-008   1.2872602695706670E-006   0.0000000000000000     
   8.8568381805656918E-008   1.3844556933908012E-006   0.0000000000000000     
   9.1688903686548394E-008   1.4847499320550390E-006   0.0000000000000000     
   9.4779340604060958E-008   1.5881309520053123E-006   0.0000000000000000     
   9.7835751336891155E-008   1.6945867196835522E-006   0.0000000000000000     
   1.0085419466373544E-007   1.8041052015316916E-006   0.0000000000000000     
   1.0383072936329031E-007   1.9166743639916609E-006   0.0000000000000000     
   1.0676141421425217E-007   2.0322821735053941E-006   0.0000000000000000     
  -2.9153153508818907E-020   1.1927151290063434E-006   0.0000000000000000     
  -3.0415431123574828E-020   1.2868012336557626E-006   0.0000000000000000     
  -3.1603262483200975E-020   1.3839938545782522E-006   0.0000000000000000     
  -3.2602910253471309E-020   1.4842835731265623E-006   0.0000000000000000     
  -3.3394522099684557E-020   1.5876609706534414E-006   0.0000000000000000     
  -3.3906546898854881E-020   1.6941166285116396E-006   0.0000000000000000     
  -3.4059110023082630E-020   1.8036411280539055E-006   0.0000000000000000     
  -3.3774714988729242E-020   1.9162250506329903E-006   0.0000000000000000     
  -3.3034284942917713E-020   2.0318589776016421E-006   0.0000000000000000     
   0.0000000000000000        0.0000000000000000        0.0000000000000000     
  -8.4041550235387612E-022  -2.4013958174947655E-010   0.0000000000000000     
  -1.7163997710475324E-021   5.1739508972268933E-009   0.0000000000000000     
  -2.6378789734316053E-021   1.6003764349257654E-008   0.0000000000000000     
  -3.5957541227680113E-021   3.2010793686671318E-008   0.0000000000000000     
  -4.5949883027320687E-021   5.2956531821796489E-008   0.0000000000000000     
  -5.6273097071982473E-021   7.8602471666961650E-008   0.0000000000000000     
  -6.7092619484176075E-021   1.0871010613449533E-007   0.0000000000000000     
  -7.8247150044453653E-021   1.4304092813672615E-007   0.0000000000000000     
   0.0000000000000000        0.0000000000000000        0.0000000000000000     
  -3.3235711775045969E-009  -1.6967507603179287E-010   0.0000000000000000     
  -6.6494687733814737E-009   5.3049669482619277E-009   0.0000000000000000     
  -9.9851991236940480E-009   1.6186923207810911E-008   0.0000000000000000     
  -1.3338268564505759E-008   3.2239190837544917E-008   0.0000000000000000     
  -1.6716183431880005E-008   5.3224766972393678E-008   0.0000000000000000     
  -2.0126450061880213E-008   7.8906648747286943E-008   0.0000000000000000     
  -2.3576574790569817E-008   1.0904783329715450E-007   0.0000000000000000     
  -2.7074063954012241E-008   1.4341131775692603E-007   0.0000000000000000     
   0.0000000000000000        0.0000000000000000        0.0000000000000000     
  -6.6370500499355026E-009   4.7894682878907412E-011   0.0000000000000000     
  -1.3289981038348365E-008   5.7120325563548686E-009   0.0000000000000000     
  -1.9971279603968442E-008   1.6759078220270445E-008   0.0000000000000000     
  -2.6693432385525562E-008   3.2955696274468192E-008   0.0000000000000000     
  -3.3468926021749586E-008   5.4068551318790675E-008   0.0000000000000000     
  -4.0310247151370370E-008   7.9864307953080475E-008   0.0000000000000000     
  -4.7229882413117750E-008   1.1010963077718009E-007   0.0000000000000000     
  -5.4240318445721552E-008   1.4457118439093213E-007   0.0000000000000000     
   0.0000000000000000        0.0000000000000000        0.0000000000000000     
  -9.9303443122207175E-009   4.2183405761930655E-010   0.0000000000000000     
  -1.9912580286489551E-008   6.4161739039878479E-009   0.0000000000000000     
  -2.9959122797408771E-008   1.7754247041836377E-008   0.0000000000000000     
  -4.0082386719580679E-008   3.4207280973895632E-008   0.0000000000000000     
  -5.0294786927607551E-008   5.5546503202896391E-008   0.0000000000000000     
  -6.0608738296091669E-008   8.1543141231569358E-008   0.0000000000000000     
  -7.1036655699635340E-008   1.1196842256264530E-007   0.0000000000000000     
  -8.1590954012840805E-008   1.4659357469885497E-007   0.0000000000000000     
   0.0000000000000000        0.0000000000000000        0.0000000000000000     
  -1.3193361659287388E-008   9.6140741082608742E-010   0.0000000000000000     
  -2.6508310009392154E-008   7.4384171736430081E-009   0.0000000000000000     
  -3.9949610060598039E-008   1.9206447327708855E-008   0.0000000000000000     
  -5.3522026823188781E-008   3.6040915912281723E-008   0.0000000000000000     
  -6.7230325307448106E-008   5.7717240966619690E-008   0.0000000000000000     
  -8.1079270523659731E-008   8.4010840529980864E-008   0.0000000000000000     
  -9.5073627482107481E-008   1.1469713264162334E-007   0.0000000000000000     
  -1.0921816119307493E-007   1.4955153534080521E-007   0.0000000000000000     
   0.0000000000000000        0.0000000000000000        0.0000000000000000     
  -1.6416009786062661E-008   1.6758791051359335E-009   0.0000000000000000     
  -3.3068213698643343E-008   8.7997885478024828E-009   0.0000000000000000     
  -4.9943622750119228E-008   2.1149696733088014E-008   0.0000000000000000     
  -6.7029247952867537E-008   3.8503572066080899E-008   0.0000000000000000     
  -8.4312100319265458E-008   6.0639382951869514E-008   0.0000000000000000     
  -1.0177919086169017E-007   8.7335097795542174E-008   0.0000000000000000     
  -1.1941753059251901E-007   1.1836868500218740E-007   0.0000000000000000     
  -1.3721413052412892E-007   1.5351811297689331E-007   0.0000000000000000     
   0.0000000000000000        0.0000000000000000        0.0000000000000000     
  -1.9588196387473702E-008   2.5745135031855254E-009   0.0000000000000000     
  -3.9583334845830252E-008   1.0521314208948418E-008   0.0000000000000000     
  -5.9942042222555328E-008   2.3618012913174015E-008   0.0000000000000000     
  -8.0620945365134599E-008   4.1642220411747673E-008   0.0000000000000000     
  -1.0157667112105381E-007   6.4371547500554782E-008   0.0000000000000000     
  -1.2276584633779862E-007   9.1583604975480611E-008   0.0000000000000000     
  -1.4414509786285473E-007   1.2305600363241055E-007   0.0000000000000000     
  -1.6567105254370789E-007   1.5856635426723003E-007   0.0000000000000000     
   0.0000000000000000        0.0000000000000000        0.0000000000000000     
  -2.2699829158447654E-008   3.6665749676115483E-009   0.0000000000000000     
  -4.6044716942540010E-008   1.2624020339562940E-008   0.0000000000000000     
  -6.9945749834489275E-008   2.6645413523166979E-008   0.0000000000000000     
  -9.4314014316507630E-008   4.5503831925736507E-008   0.0000000000000000     
  -1.1906059687080734E-007   6.8972352954584357E-008   0.0000000000000000     
  -1.4409658397960061E-007   9.6824054017023249E-008   0.0000000000000000     
  -1.6933306212509953E-007   1.2883201252036618E-007   0.0000000000000000     
  -1.9468111778951649E-007   1.6476930587192580E-007   0.0000000000000000     
   0.0000000000000000        0.0000000000000000        0.0000000000000000     
  -2.5740815793911679E-008   4.9613278610506855E-009   0.0000000000000000     
  -5.2443403480359791E-008   1.5128933122128189E-008   0.0000000000000000     
  -7.9955626942504093E-008   3.0265916218267057E-008   0.0000000000000000     
  -1.0812535006350429E-007   5.0135377584501845E-008   0.0000000000000000     
  -1.3680043672652033E-007   7.4500417655867130E-008   0.0000000000000000     
  -1.6582875081471167E-007   1.0312413686739741E-007   0.0000000000000000     
  -1.9505815621123835E-007   1.3576963565412734E-007   0.0000000000000000     
  -2.2433651679925999E-007   1.7220001445109138E-007   0.0000000000000000     
  -7.8247150044453653E-021   1.4304092813672615E-007   0.0000000000000000     
  -8.9860765844698161E-021   1.8138547053942564E-007   0.0000000000000000     
  -1.0182800135680909E-020   2.2365042602213824E-007   0.0000000000000000     
  -1.1418918163564840E-020   2.6977152721785094E-007   0.0000000000000000     
  -1.2693500089932486E-020   3.1968450675955117E-007   0.0000000000000000     
  -1.3971313190567918E-020   3.7332509728022632E-007   0.0000000000000000     
  -1.5298440472878288E-020   4.3062903141286362E-007   0.0000000000000000     
  -1.6664451706327187E-020   4.9153204179045003E-007   0.0000000000000000     
  -1.8035018895493662E-020   5.5596986104597366E-007   0.0000000000000000     
  -2.7074063954012241E-008   1.4341131775692603E-007   0.0000000000000000     
  -3.0622749858611701E-008   1.8178869977600196E-007   0.0000000000000000     
  -3.4211768692135689E-008   2.2408597906166454E-007   0.0000000000000000     
  -3.7826582612692538E-008   2.7023775583566685E-007   0.0000000000000000     
  -4.1452653778390462E-008   3.2017863031976193E-007   0.0000000000000000     
  -4.5075444347337845E-008   3.7384320273570258E-007   0.0000000000000000     
  -4.8680416477642974E-008   4.3116607330524199E-007   0.0000000000000000     
  -5.2253032327414102E-008   4.9208184225013307E-007   0.0000000000000000     
  -5.5778754054759575E-008   5.5652510979212850E-007   0.0000000000000000     
  -5.4240318445721552E-008   1.4457118439093213E-007   0.0000000000000000     
  -6.1347293520479026E-008   1.8304322632794250E-007   0.0000000000000000     
  -6.8529552438956596E-008   2.2543038585687054E-007   0.0000000000000000     
  -7.5759091635288180E-008   2.7166488518013910E-007   0.0000000000000000     
  -8.3007907543607486E-008   3.2167894650017062E-007   0.0000000000000000     
  -9.0247996598048420E-008   3.7540479201938801E-007   0.0000000000000000     
  -9.7451355232744796E-008   4.3277464394021391E-007   0.0000000000000000     
  -1.0458997988183047E-007   4.9372072446507110E-007   0.0000000000000000     
  -1.1163586697943922E-007   5.5817525579638231E-007   0.0000000000000000     
  -8.1590954012840805E-008   1.4659357469885497E-007   0.0000000000000000     
  -9.2275424788875612E-008   1.8521630845856661E-007   0.0000000000000000     
  -1.0305936629516843E-007   2.2774026792269828E-007   0.0000000000000000     
  -1.1390345347771291E-007   2.7409558048780549E-007   0.0000000000000000     
  -1.2476836128250294E-007   3.2421237355044377E-007   0.0000000000000000     
  -1.3561476465553246E-007   3.7802077450716875E-007   0.0000000000000000     
  -1.4640333854279507E-007   4.3545091075453580E-007   0.0000000000000000     
  -1.5709475789028468E-007   4.9643290968910055E-007   0.0000000000000000     
  -1.6764969764399521E-007   5.6089689870741870E-007   0.0000000000000000     
  -1.0921816119307493E-007   1.4955153534080521E-007   0.0000000000000000     
  -1.2350893746706626E-007   1.8837520443119328E-007   0.0000000000000000     
  -1.3790722531546664E-007   2.3107224677408937E-007   0.0000000000000000     
  -1.5236559454988139E-007   2.7757250699520395E-007   0.0000000000000000     
  -1.6683661498191628E-007   3.2780582972024761E-007   0.0000000000000000     
  -1.8127285642317675E-007   3.8170205957493075E-007   0.0000000000000000     
  -1.9562688868526810E-007   4.3919104118496391E-007   0.0000000000000000     
  -2.0985128157979602E-007   5.0020261917605777E-007   0.0000000000000000     
  -2.2389860491836591E-007   5.6466663817392283E-007   0.0000000000000000     
  -1.3721413052412892E-007   1.5351811297689331E-007   0.0000000000000000     
  -1.5514962535831550E-007   1.9258717250914152E-007   0.0000000000000000     
  -1.7317914455454653E-007   2.3548294392598563E-007   0.0000000000000000     
  -1.9125144126170825E-007   2.8213832993887232E-007   0.0000000000000000     
  -2.0931526862868671E-007   3.3248623325924828E-007   0.0000000000000000     
  -2.2731937980436795E-007   3.8645955659856013E-007   0.0000000000000000     
  -2.4521252793763812E-007   4.4399120266825464E-007   0.0000000000000000     
  -2.6294346617738333E-007   5.0501407417977867E-007   0.0000000000000000     
  -2.8046094767248958E-007   5.6946107384457861E-007   0.0000000000000000     
  -1.6567105254370789E-007   1.5856635426723003E-007   0.0000000000000000     
  -1.8729928226588809E-007   1.9791947095573059E-007   0.0000000000000000     
  -2.0898113906710395E-007   2.4102898089332906E-007   0.0000000000000000     
  -2.3066692002310821E-007   2.8783571455534861E-007   0.0000000000000000     
  -2.5230692220965348E-007   3.3828050241711211E-007   0.0000000000000000     
  -2.7385144270249315E-007   3.9230417495394310E-007   0.0000000000000000     
  -2.9525077857737955E-007   4.4984756264116441E-007   0.0000000000000000     
  -3.1645522691006565E-007   5.1085149595409905E-007   0.0000000000000000     
  -3.3741508477630445E-007   5.7525680536807005E-007   0.0000000000000000     
  -1.9468111778951649E-007   1.6476930587192580E-007   0.0000000000000000     
  -2.2005970199304880E-007   2.0443935803427945E-007   0.0000000000000000     
  -2.4541922390783411E-007   2.4776697919106131E-007   0.0000000000000000     
  -2.7071795724399560E-007   2.9470732608117049E-007   0.0000000000000000     
  -2.9591417571165629E-007   3.4521555544350575E-007   0.0000000000000000     
  -3.2096615302093888E-007   3.9924682401696559E-007   0.0000000000000000     
  -3.4583216288196652E-007   4.5675628854044922E-007   0.0000000000000000     
  -3.7047047900486229E-007   5.1769910575285545E-007   0.0000000000000000     
  -3.9483937509974879E-007   5.8203043239308232E-007   0.0000000000000000     
  -2.2433651679925999E-007   1.7220001445109138E-007   0.0000000000000000     
  -2.5353267834306210E-007   2.1221409200810718E-007   0.0000000000000000     
  -2.8259941413143261E-007   2.5575356033412442E-007   0.0000000000000000     
  -3.1151047933428526E-007   3.0279582975287618E-007   0.0000000000000000     
  -3.4023962912153383E-007   3.5331831058809508E-007   0.0000000000000000     
  -3.6876061866309201E-007   4.0729841316351406E-007   0.0000000000000000     
  -3.9704720312887346E-007   4.6471354780286578E-007   0.0000000000000000     
  -4.2507313768879192E-007   5.2554112482988337E-007   0.0000000000000000     
  -4.5281217751276103E-007   5.8975855456829945E-007   0.0000000000000000     
  -1.8035018895493662E-020   5.5596986104597366E-007   0.0000000000000000     
  -1.9407311531719135E-020   6.2388154540295225E-007   0.0000000000000000     
  -2.0810623440915347E-020   6.9521944544702963E-007   0.0000000000000000     
  -2.2228411010831236E-020   7.6993923535438022E-007   0.0000000000000000     
  -2.3652712628070981E-020   8.4799658930117875E-007   0.0000000000000000     
  -2.5056800019091461E-020   9.2934718146359954E-007   0.0000000000000000     
  -2.6424530237250821E-020   1.0139466860178179E-006   0.0000000000000000     
  -2.7795470627045226E-020   1.1017507771400074E-006   0.0000000000000000     
  -2.9153153508818907E-020   1.1927151290063434E-006   0.0000000000000000     
  -5.5778754054759575E-008   5.5652510979212850E-007   0.0000000000000000     
  -5.9246366180287288E-008   6.2443430909813507E-007   0.0000000000000000     
  -6.2657942674603753E-008   6.9576320511567189E-007   0.0000000000000000     
  -6.6018879870815066E-008   7.7046939573741176E-007   0.0000000000000000     
  -6.9334574102027456E-008   8.4851047885602760E-007   0.0000000000000000     
  -7.2610421701346938E-008   9.2984405236419145E-007   0.0000000000000000     
  -7.5851819001879727E-008   1.0144277141545771E-006   0.0000000000000000     
  -7.9064162336731891E-008   1.1022190621198568E-006   0.0000000000000000     
  -8.2252848039009593E-008   1.1931756941527029E-006   0.0000000000000000     
  -1.1163586697943922E-007   5.5817525579638231E-007   0.0000000000000000     
  -1.1856741497635334E-007   6.2607550571652720E-007   0.0000000000000000     
  -1.2538863038994892E-007   6.9737892432771533E-007   0.0000000000000000     
  -1.3210992175425067E-007   7.7204800731211370E-007   0.0000000000000000     
  -1.3874169760328302E-007   8.5004525035188813E-007   0.0000000000000000     
  -1.4529436647107045E-007   9.3133314912920551E-007   0.0000000000000000     
  -1.5177833689163765E-007   1.0158741993262320E-006   0.0000000000000000     
  -1.5820401739900923E-007   1.1036308966251353E-006   0.0000000000000000     
  -1.6458181652720956E-007   1.1945657367080810E-006   0.0000000000000000     
  -1.6764969764399521E-007   5.6089689870741870E-007   0.0000000000000000     
  -1.7803782900401601E-007   6.2877949355739571E-007   0.0000000000000000     
  -1.8826480818681909E-007   7.0004326339233655E-007   0.0000000000000000     
  -1.9834528766297192E-007   7.7465726571689709E-007   0.0000000000000000     
  -2.0829391990304215E-007   8.5259055803573214E-007   0.0000000000000000     
  -2.1812535737759755E-007   9.3381219785349713E-007   0.0000000000000000     
  -2.2785425255720534E-007   1.0182912426748473E-006   0.0000000000000000     
  -2.3749525791243340E-007   1.1059967500044384E-006   0.0000000000000000     
  -2.4706302591384919E-007   1.1968977773469257E-006   0.0000000000000000     
  -2.2389860491836591E-007   5.6466663817392283E-007   0.0000000000000000     
  -2.3773229087907376E-007   6.3252063092000744E-007   0.0000000000000000     
  -2.5135922110597661E-007   7.0373288261871171E-007   0.0000000000000000     
  -2.6479713960962183E-007   7.7827936659017352E-007   0.0000000000000000     
  -2.7806379040055730E-007   8.5613605615453161E-007   0.0000000000000000     
  -2.9117691748932991E-007   9.3727892463192353E-007   0.0000000000000000     
  -3.0415426488648778E-007   1.0216839453424872E-006   0.0000000000000000     
  -3.1701357660257803E-007   1.1093270916063613E-006   0.0000000000000000     
  -3.2977259664814830E-007   1.2001843367436832E-006   0.0000000000000000     
  -2.8046094767248958E-007   5.6946107384457861E-007   0.0000000000000000     
  -2.9772548321732486E-007   6.3727327610362915E-007   0.0000000000000000     
  -3.1474461418818386E-007   7.0842444231601635E-007   0.0000000000000000     
  -3.3153763960684328E-007   7.8289650557035480E-007   0.0000000000000000     
  -3.4812385849507963E-007   8.6067139895525780E-007   0.0000000000000000     
  -3.6452256987466961E-007   9.4173105555934045E-007   0.0000000000000000     
  -3.8075307276738977E-007   1.0260574084712157E-006   0.0000000000000000     
  -3.9683466619501655E-007   1.1136323907794984E-006   0.0000000000000000     
  -4.1278664917932672E-007   1.2044379355728019E-006   0.0000000000000000     
  -3.3741508477630445E-007   5.7525680536807005E-007   0.0000000000000000     
  -3.5809208863456765E-007   6.4301178740752778E-007   0.0000000000000000     
  -3.7849373247420365E-007   7.1409460279342749E-007   0.0000000000000000     
  -3.9863894966727919E-007   7.8849087829585156E-007   0.0000000000000000     
  -4.1854667358586188E-007   8.6618624068488291E-007   0.0000000000000000     
  -4.3823583760201863E-007   9.4716631673060415E-007   0.0000000000000000     
  -4.5772537508781637E-007   1.0314167332030971E-006   0.0000000000000000     
  -4.7703421941532279E-007   1.1189231168724448E-006   0.0000000000000000     
  -4.9618130395660455E-007   1.2096710945087295E-006   0.0000000000000000     
  -3.9483937509974879E-007   5.8203043239308232E-007   0.0000000000000000     
  -4.1890678974660092E-007   6.4971052313097041E-007   0.0000000000000000     
  -4.4267932100479840E-007   7.2072002436012076E-007   0.0000000000000000     
  -4.6617323180357261E-007   7.9504468040507592E-007   0.0000000000000000     
  -4.8940478507215579E-007   8.7267023559037863E-007   0.0000000000000000     
  -5.1239024373977849E-007   9.5358243424057100E-007   0.0000000000000000     
  -5.3514587073567281E-007   1.0377670206801955E-006   0.0000000000000000     
  -5.5768792898907012E-007   1.1252097392337956E-006   0.0000000000000000     
  -5.8003268142920178E-007   1.2158963342259125E-006   0.0000000000000000     
  -4.5281217751276103E-007   5.8975855456829945E-007   0.0000000000000000     
  -4.8024426916922262E-007   6.5734384157322345E-007   0.0000000000000000     
  -5.0737412482073051E-007   7.2827736732527202E-007   0.0000000000000000     
  -5.3421264802836686E-007   8.0254010753643862E-007   0.0000000000000000     
  -5.6077074235321311E-007   8.8011303791871567E-007   0.0000000000000000     
  -5.8705931135635127E-007   9.6097713418409716E-007   0.0000000000000000     
  -6.1308925859886373E-007   1.0451133720445761E-006   0.0000000000000000     
  -6.3887148764183196E-007   1.1325027272121455E-006   0.0000000000000000     
  -6.6441690204633805E-007   1.2231261753987983E-006   0.0000000000000000     
  -2.9153153508818907E-020   1.1927151290063434E-006   0.0000000000000000     
  -3.0415431123574828E-020   1.2868012336557626E-006   0.0000000000000000     
  -3.1603262483200975E-020   1.3839938545782522E-006   0.0000000000000000     
  -3.2602910253471309E-020   1.4842835731265623E-006   0.0000000000000000     
  -3.3394522099684557E-020   1.5876609706534414E-006   0.0000000000000000     
  -3.3906546898854881E-020   1.6941166285116396E-006   0.0000000000000000     
  -3.4059110023082630E-020   1.8036411280539055E-006   0.0000000000000000     
  -3.3774714988729242E-020   1.9162250506329903E-006   0.0000000000000000     
  -3.3034284942917713E-020   2.0318589776016421E-006   0.0000000000000000     
  -8.2252848039009593E-008   1.1931756941527029E-006   0.0000000000000000     
  -8.5421716182750678E-008   1.2872602695706649E-006   0.0000000000000000     
  -8.8568381805719718E-008   1.3844556933907985E-006   0.0000000000000000     
  -9.1688903686613139E-008   1.4847499320550347E-006   0.0000000000000000     
  -9.4779340604127251E-008   1.5881309520053072E-006   0.0000000000000000     
  -9.7835751336958415E-008   1.6945867196835457E-006   0.0000000000000000     
  -1.0085419466380299E-007   1.8041052015316831E-006   0.0000000000000000     
  -1.0383072936335726E-007   1.9166743639916520E-006   0.0000000000000000     
  -1.0676141421431760E-007   2.0322821735053822E-006   0.0000000000000000     
  -1.6458181652720956E-007   1.1945657367080810E-006   0.0000000000000000     
  -1.7091914225392034E-007   1.2886443434770450E-006   0.0000000000000000     
  -1.7721140033145038E-007   1.3858448537132391E-006   0.0000000000000000     
  -1.8345099595576554E-007   1.4861485324176848E-006   0.0000000000000000     
  -1.8963033432283184E-007   1.5895366445914030E-006   0.0000000000000000     
  -1.9574182062861506E-007   1.6959904552354145E-006   0.0000000000000000     
  -2.0177786006908130E-007   1.8054912293507406E-006   0.0000000000000000     
  -2.0773085784019592E-007   1.9180202319384019E-006   0.0000000000000000     
  -2.1359321913792531E-007   2.0335587279994195E-006   0.0000000000000000     
  -2.4706302591384919E-007   1.1968977773469257E-006   0.0000000000000000     
  -2.5656798810198931E-007   1.2909639046174092E-006   0.0000000000000000     
  -2.6600369229726650E-007   1.3881668013727744E-006   0.0000000000000000     
  -2.7535946539006239E-007   1.4884786595803508E-006   0.0000000000000000     
  -2.8462463427075852E-007   1.5918716712074693E-006   0.0000000000000000     
  -2.9378852582973683E-007   1.6983180282214594E-006   0.0000000000000000     
  -3.0284046695737871E-007   1.8077899225896511E-006   0.0000000000000000     
  -3.1176978454406583E-007   1.9202595462793748E-006   0.0000000000000000     
  -3.2056580548018011E-007   2.0356990912579614E-006   0.0000000000000000     
  -3.2977259664814830E-007   1.2001843367436832E-006   0.0000000000000000     
  -3.4244396361540768E-007   1.2942294022342641E-006   0.0000000000000000     
  -3.5501989442321117E-007   1.3914270021966030E-006   0.0000000000000000     
  -3.6748750057207584E-007   1.4917395989088728E-006   0.0000000000000000     
  -3.7983389356251868E-007   1.5951296546492461E-006   0.0000000000000000     
  -3.9204618489505611E-007   1.7015596316958940E-006   0.0000000000000000     
  -4.0411148607020519E-007   1.8109919923269893E-006   0.0000000000000000     
  -4.1601690858848291E-007   1.9233891988207047E-006   0.0000000000000000     
  -4.2774956395040570E-007   2.0387137134552118E-006   0.0000000000000000     
  -4.1278664917932672E-007   1.2044379355728019E-006   0.0000000000000000     
  -4.2862277868262475E-007   1.2984512855701158E-006   0.0000000000000000     
  -4.4433464342932735E-007   1.3956309220119253E-006   0.0000000000000000     
  -4.5990829008437860E-007   1.4959306357690913E-006   0.0000000000000000     
  -4.7532976531272319E-007   1.5993042177124729E-006   0.0000000000000000     
  -4.9058511577930580E-007   1.7057054587129329E-006   0.0000000000000000     
  -5.0566038814907099E-007   1.8150881496413302E-006   0.0000000000000000     
  -5.2054162908696292E-007   1.9274060813685253E-006   0.0000000000000000     
  -5.3521488525792606E-007   2.0426130447653790E-006   0.0000000000000000     
  -4.9618130395660455E-007   1.2096710945087295E-006   0.0000000000000000     
  -5.1518014319209058E-007   1.3036400038674713E-006   0.0000000000000000     
  -5.3402257603565780E-007   1.4007840266459400E-006   0.0000000000000000     
  -5.5269502250954290E-007   1.5010510555268447E-006   0.0000000000000000     
  -5.7118390263598408E-007   1.6043889831928921E-006   0.0000000000000000     
  -5.8947563643721899E-007   1.7107457023267899E-006   0.0000000000000000     
  -6.0755664393548571E-007   1.8200691056112471E-006   0.0000000000000000     
  -6.2541334515302158E-007   1.9323070857289696E-006   0.0000000000000000     
  -6.4303216011206501E-007   2.0474075353626677E-006   0.0000000000000000     
  -5.8003268142920178E-007   1.2158963342259125E-006   0.0000000000000000     
  -6.0219176703225567E-007   1.3098060063688364E-006   0.0000000000000000     
  -6.2415832896224533E-007   1.4068917819258481E-006   0.0000000000000000     
  -6.4592088643014079E-007   1.5071001435479731E-006   0.0000000000000000     
  -6.6746795864691176E-007   1.6103775738862422E-006   0.0000000000000000     
  -6.8878806482352776E-007   1.7166705555916794E-006   0.0000000000000000     
  -7.0986972417095914E-007   1.8259255713153136E-006   0.0000000000000000     
  -7.3070145590017551E-007   1.9380891037081738E-006   0.0000000000000000     
  -7.5127177922214638E-007   2.0531076354212843E-006   0.0000000000000000     
  -6.6441690204633805E-007   1.2231261753987983E-006   0.0000000000000000     
  -6.8973336009156874E-007   1.3169597423167182E-006   0.0000000000000000     
  -7.1481653892913350E-007   1.4139596536788471E-006   0.0000000000000000     
  -7.3965907042874527E-007   1.5140771851983181E-006   0.0000000000000000     
  -7.6425358646011795E-007   1.6172636125882630E-006   0.0000000000000000     
  -7.8859271889296554E-007   1.7234702115618149E-006   0.0000000000000000     
  -8.1266909959700174E-007   1.8326482578321060E-006   0.0000000000000000     
  -8.3647536044193980E-007   1.9447490271122686E-006   0.0000000000000000     
  -8.6000413329749426E-007   2.0597237951154357E-006   0.0000000000000000     
   0.0000000000000000        0.0000000000000000        0.0000000000000000     
  -2.5740815793911679E-008   4.9613278610506855E-009   0.0000000000000000     
  -5.2443403480359791E-008   1.5128933122128189E-008   0.0000000000000000     
  -7.9955626942504093E-008   3.0265916218267057E-008   0.0000000000000000     
  -1.0812535006350429E-007   5.0135377584501845E-008   0.0000000000000000     
  -1.3680043672652033E-007   7.4500417655867130E-008   0.0000000000000000     
  -1.6582875081471167E-007   1.0312413686739741E-007   0.0000000000000000     
  -1.9505815621123835E-007   1.3576963565412734E-007   0.0000000000000000     
  -2.2433651679925999E-007   1.7220001445109138E-007   0.0000000000000000     
   0.0000000000000000        0.0000000000000000        0.0000000000000000     
  -2.8751793622036696E-008   6.4994106277023798E-009   0.0000000000000000     
  -5.8849099674468078E-008   1.8103563871020792E-008   0.0000000000000000     
  -9.0060597024724345E-008   3.4562181924521755E-008   0.0000000000000000     
  -1.2215496454023573E-007   5.5624986982771802E-008   0.0000000000000000     
  -1.5490088108843226E-007   8.1041701240337439E-008   0.0000000000000000     
  -1.8806702553674431E-007   1.1056204689178518E-007   0.0000000000000000     
  -2.2142207675260200E-007   1.4393574613168160E-007   0.0000000000000000     
  -2.5473471360343538E-007   1.8091252115459316E-007   0.0000000000000000     
   0.0000000000000000        0.0000000000000000        0.0000000000000000     
  -3.1976318503968672E-008   8.4469580380171111E-009   0.0000000000000000     
  -6.5646157634408809E-008   2.1801364428195316E-008   0.0000000000000000     
  -1.0070175204544108E-007   3.9811444651368079E-008   0.0000000000000000     
  -1.3683533639118615E-007   6.2225424188368857E-008   0.0000000000000000     
  -1.7373914532576470E-007   8.8791528520031101E-008   0.0000000000000000     
  -2.1110541350329739E-007   1.1925798312718828E-007   0.0000000000000000     
  -2.4862637557790491E-007   1.5337301349067390E-007   0.0000000000000000     
  -2.8599426620370782E-007   1.9088484509132129E-007   0.0000000000000000     
   0.0000000000000000        0.0000000000000000        0.0000000000000000     
  -3.5708675934097377E-008   1.1001478944008124E-008   0.0000000000000000     
  -7.3297591193317242E-008   2.6522271767500816E-008   0.0000000000000000     
  -1.1240822609048687E-007   4.6339581679090387E-008   0.0000000000000000     
  -1.5268206093843346E-007   7.0230611887389138E-008   0.0000000000000000     
  -1.9376057604998430E-007   9.7972565601009379E-008   0.0000000000000000     
  -2.3528525173796665E-007   1.2934264602856342E-007   0.0000000000000000     
  -2.7689756831520766E-007   1.6411805637866349E-007   0.0000000000000000     
  -3.1823900609453466E-007   2.0207599985992197E-007   0.0000000000000000     
   0.0000000000000000        0.0000000000000000        0.0000000000000000     
  -4.0243151406812557E-008   1.4360482197688665E-008   0.0000000000000000     
  -8.2266414184328686E-008   3.2566222862786357E-008   0.0000000000000000     
  -1.2570915324569432E-007   5.4472470287973061E-008   0.0000000000000000     
  -1.7021073350405544E-007   7.9934472765928760E-008   0.0000000000000000     
  -2.1541051987255789E-007   1.0880747858933343E-007   0.0000000000000000     
  -2.6094787726434765E-007   1.4094673605086707E-007   0.0000000000000000     
  -3.0646217059257090E-007   1.7620749344320970E-007   0.0000000000000000     
  -3.5159276477037309E-007   2.1444499905904122E-007   0.0000000000000000     
   0.0000000000000000        0.0000000000000000        0.0000000000000000     
  -4.5874030416503981E-008   1.8721476651071973E-008   0.0000000000000000     
  -9.3015640440578399E-008   4.0233154687900976E-008   0.0000000000000000     
  -1.4113366759689603E-007   6.4535987758300431E-008   0.0000000000000000     
  -1.8993694941012972E-007   9.1630929510083812E-008   0.0000000000000000     
  -2.3913432340495222E-007   1.2151893359106455E-007   0.0000000000000000     
  -2.8843462710603635E-007   1.5420095364905608E-007   0.0000000000000000     
  -3.3754669803805474E-007   1.8967794333187174E-007   0.0000000000000000     
  -3.8617937372568043E-007   2.2795085628732520E-007   0.0000000000000000     
   0.0000000000000000        0.0000000000000000        0.0000000000000000     
  -5.2895598457561372E-008   2.4281971156171299E-008   0.0000000000000000     
  -1.0600828379520168E-007   4.9823004216693723E-008   0.0000000000000000     
  -1.5921090322992471E-007   7.6856011370356895E-008   0.0000000000000000     
  -2.1237630397873424E-007   1.0561390480595045E-007   0.0000000000000000     
  -2.6537733325863418E-007   1.3632959671226391E-007   0.0000000000000000     
  -3.1808683828662830E-007   1.6923599927808692E-007   0.0000000000000000     
  -3.7037766627972015E-007   2.0456602469220894E-007   0.0000000000000000     
  -4.2212266445491392E-007   2.4255258514341974E-007   0.0000000000000000     
   0.0000000000000000        0.0000000000000000        0.0000000000000000     
  -6.1602141024374505E-008   3.1239474564999866E-008   0.0000000000000000     
  -1.2170735808133377E-007   6.1635708423013690E-008   0.0000000000000000     
  -1.8046999423061290E-007   9.1758418404426867E-008   0.0000000000000000     
  -2.3804439253194675E-007   1.2217732133962474E-007   0.0000000000000000     
  -2.9458489604507052E-007   1.5346213405899273E-007   0.0000000000000000     
  -3.5024584782971904E-007   1.8618257339291622E-007   0.0000000000000000     
  -4.0518159094562745E-007   2.2090835617178064E-007   0.0000000000000000     
  -4.5954646845253085E-007   2.5820919922597128E-007   0.0000000000000000     
   0.0000000000000000        0.0000000000000000        0.0000000000000000     
  -7.2287943611333123E-008   3.9791495729570949E-008   0.0000000000000000     
  -1.4057587713211001E-007   7.5971204280709906E-008   0.0000000000000000     
  -2.0544007468479313E-007   1.0956908614079460E-007   0.0000000000000000     
  -2.6745681039184497E-007   1.4161510179720283E-007   0.0000000000000000     
  -3.2720235837572798E-007   1.7313921173731229E-007   0.0000000000000000     
  -3.8525299275890456E-007   2.0517137644850076E-007   0.0000000000000000     
  -4.4218498766383729E-007   2.3874155641814603E-007   0.0000000000000000     
  -4.9857461721298867E-007   2.7487971213362585E-007   0.0000000000000000     
  -2.2433651679925999E-007   1.7220001445109138E-007   0.0000000000000000     
  -2.5353267834306210E-007   2.1221409200810718E-007   0.0000000000000000     
  -2.8259941413143261E-007   2.5575356033412442E-007   0.0000000000000000     
  -3.1151047933428526E-007   3.0279582975287618E-007   0.0000000000000000     
  -3.4023962912153383E-007   3.5331831058809508E-007   0.0000000000000000     
  -3.6876061866309201E-007   4.0729841316351406E-007   0.0000000000000000     
  -3.9704720312887346E-007   4.6471354780286578E-007   0.0000000000000000     
  -4.2507313768879192E-007   5.2554112482988337E-007   0.0000000000000000     
  -4.5281217751276103E-007   5.8975855456829945E-007   0.0000000000000000     
  -2.5473471360343538E-007   1.8091252115459316E-007   0.0000000000000000     
  -2.8781162154025597E-007   2.2128511023311002E-007   0.0000000000000000     
  -3.2061151234839867E-007   2.6501831595191665E-007   0.0000000000000000     
  -3.5313110439678006E-007   3.1211995697372146E-007   0.0000000000000000     
  -3.8536711605431655E-007   3.6259785196123233E-007   0.0000000000000000     
  -4.1731626568992436E-007   4.1645981957715760E-007   0.0000000000000000     
  -4.4897527167251969E-007   4.7371367848420546E-007   0.0000000000000000     
  -4.8034085237101900E-007   5.3436724734508398E-007   0.0000000000000000     
  -5.1140972615433884E-007   5.9842834482250136E-007   0.0000000000000000     
  -2.8599426620370782E-007   1.9088484509132129E-007   0.0000000000000000     
  -3.2295640749320989E-007   2.3159056643549239E-007   0.0000000000000000     
  -3.5948047139244651E-007   2.7548271813166226E-007   0.0000000000000000     
  -3.9558921730583589E-007   3.2260270381383455E-007   0.0000000000000000     
  -4.3130540463779651E-007   3.7299192711601261E-007   0.0000000000000000     
  -4.6665179279274677E-007   4.2669179167219995E-007   0.0000000000000000     
  -5.0165114117510480E-007   4.8374370111640027E-007   0.0000000000000000     
  -5.3632620918928883E-007   5.4418905908261666E-007   0.0000000000000000     
  -5.7069975623971780E-007   6.0806926920485287E-007   0.0000000000000000     
  -3.1823900609453466E-007   2.0207599985992197E-007   0.0000000000000000     
  -3.5901852853156733E-007   2.4304279343403605E-007   0.0000000000000000     
  -3.9921503165309446E-007   2.8704120907504225E-007   0.0000000000000000     
  -4.3887489462869721E-007   3.3414313251006194E-007   0.0000000000000000     
  -4.7804449662795715E-007   3.8442044946621677E-007   0.0000000000000000     
  -5.1677021682045531E-007   4.3794504567062780E-007   0.0000000000000000     
  -5.5509843437577359E-007   4.9478880685041712E-007   0.0000000000000000     
  -5.9307552846349234E-007   5.5502361873270563E-007   0.0000000000000000     
  -6.3074787825319349E-007   6.1872136704461482E-007   0.0000000000000000     
  -3.5159276477037309E-007   2.1444499905904122E-007   0.0000000000000000     
  -3.9604947698497084E-007   2.5555412404752248E-007   0.0000000000000000     
  -4.3982393351986023E-007   2.9958823098373722E-007   0.0000000000000000     
  -4.8297821293260829E-007   3.4664030529925021E-007   0.0000000000000000     
  -5.2557439378078159E-007   3.9680333242562582E-007   0.0000000000000000     
  -5.6767455462194686E-007   4.5017029779442879E-007   0.0000000000000000     
  -6.0934077401367061E-007   5.0683418683722376E-007   0.0000000000000000     
  -6.5063513051352010E-007   5.6688798498557531E-007   0.0000000000000000     
  -6.9161970267906120E-007   6.3042467767104775E-007   0.0000000000000000     
  -3.8617937372568043E-007   2.2795085628732520E-007   0.0000000000000000     
  -4.3410074518306336E-007   2.6903689109473341E-007   0.0000000000000000     
  -4.8131591738226214E-007   3.1301822605942821E-007   0.0000000000000000     
  -5.2788924878481353E-007   3.5999328441824553E-007   0.0000000000000000     
  -5.7388509785225264E-007   4.1006048940802052E-007   0.0000000000000000     
  -6.1936782304611651E-007   4.6331826426558914E-007   0.0000000000000000     
  -6.6440178282794088E-007   5.1986503222778673E-007   0.0000000000000000     
  -7.0905133565926203E-007   5.7979921653144928E-007   0.0000000000000000     
  -7.5338084000161594E-007   6.4321924041341217E-007   0.0000000000000000     
  -4.2212266445491392E-007   2.4255258514341974E-007   0.0000000000000000     
  -4.7322382545548779E-007   2.8340342739445011E-007   0.0000000000000000     
  -5.2369972362981835E-007   3.2722563650379598E-007   0.0000000000000000     
  -5.7359807875255639E-007   3.7410113210389407E-007   0.0000000000000000     
  -6.2296661059835372E-007   4.2411183382718192E-007   0.0000000000000000     
  -6.7185303894186091E-007   4.7733966130609616E-007   0.0000000000000000     
  -7.2030508355772919E-007   5.3386653417307395E-007   0.0000000000000000     
  -7.6837046422060955E-007   5.9377437206055241E-007   0.0000000000000000     
  -8.1609690070515364E-007   6.5714509460096852E-007   0.0000000000000000     
  -4.5954646845253085E-007   2.5820919922597128E-007   0.0000000000000000     
  -5.1347021013188734E-007   2.9856606576545481E-007   0.0000000000000000     
  -5.6698409265204652E-007   3.4210490451852130E-007   0.0000000000000000     
  -6.2009477940308235E-007   3.8886291059304289E-007   0.0000000000000000     
  -6.7280893377506770E-007   4.3887727909689072E-007   0.0000000000000000     
  -7.2513321915807579E-007   4.9218520513793660E-007   0.0000000000000000     
  -7.7707429894218014E-007   5.4882388382405217E-007   0.0000000000000000     
  -8.2863883651745333E-007   6.0883051026310858E-007   0.0000000000000000     
  -8.7983349527396845E-007   6.7224227956297753E-007   0.0000000000000000     
  -4.9857461721298867E-007   2.7487971213362585E-007   0.0000000000000000     
  -5.5489139154190445E-007   3.1443713902652844E-007   0.0000000000000000     
  -6.1117776483846530E-007   3.5755047230528517E-007   0.0000000000000000     
  -6.6736942730363528E-007   4.0417768212253789E-007   0.0000000000000000     
  -7.2340206913837789E-007   4.5427673863092794E-007   0.0000000000000000     
  -7.7921138054365770E-007   5.0780561198309752E-007   0.0000000000000000     
  -8.3473305172043801E-007   5.6472227233168823E-007   0.0000000000000000     
  -8.8990277286968329E-007   6.2498468982934181E-007   0.0000000000000000     
  -9.4465623419235746E-007   6.8855083462870037E-007   0.0000000000000000     
  -4.5281217751276103E-007   5.8975855456829945E-007   0.0000000000000000     
  -4.8024426916922262E-007   6.5734384157322345E-007   0.0000000000000000     
  -5.0737412482073051E-007   7.2827736732527202E-007   0.0000000000000000     
  -5.3421264802836686E-007   8.0254010753643862E-007   0.0000000000000000     
  -5.6077074235321311E-007   8.8011303791871567E-007   0.0000000000000000     
  -5.8705931135635127E-007   9.6097713418409716E-007   0.0000000000000000     
  -6.1308925859886373E-007   1.0451133720445761E-006   0.0000000000000000     
  -6.3887148764183196E-007   1.1325027272121455E-006   0.0000000000000000     
  -6.6441690204633805E-007   1.2231261753987983E-006   0.0000000000000000     
  -5.1140972615433884E-007   5.9842834482250136E-007   0.0000000000000000     
  -5.4217962735092339E-007   6.6589861544052575E-007   0.0000000000000000     
  -5.7265235412733118E-007   7.3675500716866568E-007   0.0000000000000000     
  -6.0283072060964796E-007   8.1096829383778972E-007   0.0000000000000000     
  -6.3271754092396057E-007   8.8850924927876578E-007   0.0000000000000000     
  -6.6231562919635477E-007   9.6934864732246285E-007   0.0000000000000000     
  -6.9162779955291740E-007   1.0534572617997493E-006   0.0000000000000000     
  -7.2065686611973431E-007   1.1408058665414928E-006   0.0000000000000000     
  -7.4940564302289192E-007   1.2313652353785629E-006   0.0000000000000000     
  -5.7069975623971780E-007   6.0806926920485287E-007   0.0000000000000000     
  -6.0478963607096231E-007   6.7541177506700196E-007   0.0000000000000000     
  -6.3859407978820463E-007   7.4618818005251493E-007   0.0000000000000000     
  -6.7210641283677989E-007   8.2035612749473193E-007   0.0000000000000000     
  -7.0531996066202330E-007   8.9787326072699324E-007   0.0000000000000000     
  -7.3822804870926958E-007   9.7869722308263996E-007   0.0000000000000000     
  -7.7082400242385404E-007   1.0627856578950120E-006   0.0000000000000000     
  -8.0310114725111172E-007   1.1500962084974500E-006   0.0000000000000000     
  -8.3505280863637678E-007   1.2405865182232938E-006   0.0000000000000000     
  -6.3074787825319349E-007   6.1872136704461482E-007   0.0000000000000000     
  -6.6815148494128992E-007   6.8593276519374844E-007   0.0000000000000000     
  -7.0528083783152430E-007   7.5662383730964079E-007   0.0000000000000000     
  -7.4212004825447024E-007   8.3073943520230699E-007   0.0000000000000000     
  -7.7865322754070158E-007   9.0822441068176292E-007   0.0000000000000000     
  -8.1486448702079270E-007   9.8902361555802508E-007   0.0000000000000000     
  -8.5073793802531775E-007   1.0730819016411091E-006   0.0000000000000000     
  -8.8625769188485004E-007   1.1603441207410309E-006   0.0000000000000000     
  -9.2140785992996489E-007   1.2507551246678069E-006   0.0000000000000000     
  -6.9161970267906120E-007   6.3042467767104775E-007   0.0000000000000000     
  -7.3234236357385826E-007   6.9751103056186224E-007   0.0000000000000000     
  -7.7279416428546306E-007   7.6810893027286457E-007   0.0000000000000000     
  -8.1295195040742578E-007   8.4215404365555576E-007   0.0000000000000000     
  -8.5279256753329517E-007   9.1958203756143844E-007   0.0000000000000000     
  -8.9229286125662044E-007   1.0003285788420144E-006   0.0000000000000000     
  -9.3142967717095165E-007   1.0843293343487849E-006   0.0000000000000000     
  -9.7017986086983745E-007   1.1715199709332522E-006   0.0000000000000000     
  -1.0085202579468273E-006   1.2618361554469178E-006   0.0000000000000000     
  -7.5338084000161594E-007   6.4321924041341217E-007   0.0000000000000000     
  -7.9743946158061745E-007   7.1019601591243886E-007   0.0000000000000000     
  -8.4121559517819426E-007   7.8069041027500634E-007   0.0000000000000000     
  -8.8468244284035433E-007   8.5463577954951964E-007   0.0000000000000000     
  -9.2781320661310360E-007   9.3196547978438370E-007   0.0000000000000000     
  -9.7058108854244951E-007   1.0126128670280027E-006   0.0000000000000000     
  -1.0129592906743992E-006   1.0965112973287824E-006   0.0000000000000000     
  -1.0549210150549593E-006   1.1835941267351273E-006   0.0000000000000000     
  -1.0964394637301359E-006   1.2737947112954423E-006   0.0000000000000000     
  -8.1609690070515364E-007   6.5714509460096852E-007   0.0000000000000000     
  -8.6351996857351858E-007   7.2403716598657528E-007   0.0000000000000000     
  -9.1062666653789109E-007   7.9441522864888880E-007   0.0000000000000000     
  -9.5739184909796286E-007   8.6822046957924087E-007   0.0000000000000000     
  -1.0037903707534274E-006   9.4539407576896296E-007   0.0000000000000000     
  -1.0497970860039771E-006   1.0258772342093882E-006   0.0000000000000000     
  -1.0953868493493047E-006   1.1096111318918475E-006   0.0000000000000000     
  -1.1405345152891022E-006   1.1965369558076730E-006   0.0000000000000000     
  -1.1852149383230631E-006   1.2865958929481969E-006   0.0000000000000000     
  -8.7983349527396845E-007   6.7224227956297753E-007   0.0000000000000000     
  -9.3066107416451336E-007   7.3908392552536760E-007   0.0000000000000000     
  -9.8110891439272572E-007   8.0933033672733148E-007   0.0000000000000000     
  -1.0311604927249590E-006   8.8294394043975906E-007   0.0000000000000000     
  -1.0807992859275667E-006   9.5988716393354046E-007   0.0000000000000000     
  -1.1300087707668990E-006   1.0401224344795649E-006   0.0000000000000000     
  -1.1787724240093108E-006   1.1236121793487224E-006   0.0000000000000000     
  -1.2270737224211539E-006   1.2103188258119034E-006   0.0000000000000000     
  -1.2748961427687803E-006   1.3002048011399966E-006   0.0000000000000000     
  -9.4465623419235746E-007   6.8855083462870037E-007   0.0000000000000000     
  -9.9893996796555224E-007   7.5538573926991239E-007   0.0000000000000000     
  -1.0527438747708724E-006   8.2548268584315624E-007   0.0000000000000000     
  -1.1060686972660511E-006   8.9884201882611709E-007   0.0000000000000000     
  -1.1589151781088201E-006   9.7546408269647979E-007   0.0000000000000000     
  -1.2112840599569131E-006   1.0553492219319302E-006   0.0000000000000000     
  -1.2631760854680621E-006   1.1384977810101530E-006   0.0000000000000000     
  -1.3145919972999995E-006   1.2249101044088337E-006   0.0000000000000000     
  -1.3655325381104596E-006   1.3145865366056575E-006   0.0000000000000000     
  -6.6441690204633805E-007   1.2231261753987983E-006   0.0000000000000000     
  -6.8973336009156874E-007   1.3169597423167182E-006   0.0000000000000000     
  -7.1481653892913350E-007   1.4139596536788471E-006   0.0000000000000000     
  -7.3965907042874527E-007   1.5140771851983181E-006   0.0000000000000000     
  -7.6425358646011795E-007   1.6172636125882630E-006   0.0000000000000000     
  -7.8859271889296554E-007   1.7234702115618149E-006   0.0000000000000000     
  -8.1266909959700174E-007   1.8326482578321060E-006   0.0000000000000000     
  -8.3647536044193980E-007   1.9447490271122686E-006   0.0000000000000000     
  -8.6000413329749426E-007   2.0597237951154357E-006   0.0000000000000000     
  -7.4940564302289192E-007   1.2313652353785629E-006   0.0000000000000000     
  -7.7787627329797328E-007   1.3251048533278741E-006   0.0000000000000000     
  -8.0606821561854570E-007   1.4219890501505268E-006   0.0000000000000000     
  -8.3398025756767379E-007   1.5219808667936697E-006   0.0000000000000000     
  -8.6161118672842182E-007   1.6250433442044496E-006   0.0000000000000000     
  -8.8895979068385376E-007   1.7311395233300139E-006   0.0000000000000000     
  -9.1602485701703442E-007   1.8402324451175104E-006   0.0000000000000000     
  -9.4280517331102809E-007   1.9522851505140868E-006   0.0000000000000000     
  -9.6929952714889787E-007   2.0672606804668898E-006   0.0000000000000000     
  -8.3505280863637678E-007   1.2405865182232938E-006   0.0000000000000000     
  -8.6667442173738015E-007   1.3342177505160683E-006   0.0000000000000000     
  -8.9796986056142917E-007   1.4309651492600332E-006   0.0000000000000000     
  -9.2894510882822570E-007   1.5308074784496320E-006   0.0000000000000000     
  -9.5960615025747256E-007   1.6337235020793090E-006   0.0000000000000000     
  -9.8995896856887206E-007   1.7396919841435075E-006   0.0000000000000000     
  -1.0200095474821271E-006   1.8486916886366703E-006   0.0000000000000000     
  -1.0497638707169390E-006   1.9607013795532427E-006   0.0000000000000000     
  -1.0792279219930112E-006   2.0756998208876677E-006   0.0000000000000000     
  -9.2140785992996489E-007   1.2507551246678069E-006   0.0000000000000000     
  -9.5617736153519479E-007   1.3442680373693171E-006   0.0000000000000000     
  -9.9057434825091149E-007   1.4408690713449008E-006   0.0000000000000000     
  -1.0246117796714455E-006   1.5405527112317609E-006   0.0000000000000000     
  -1.0583026153911280E-006   1.6433134416671026E-006   0.0000000000000000     
  -1.0916598150042893E-006   1.7491457472881286E-006   0.0000000000000000     
  -1.1246963381052596E-006   1.8580441127320429E-006   0.0000000000000000     
  -1.1574251442883710E-006   1.9700030226360493E-006   0.0000000000000000     
  -1.1898591931479537E-006   2.0850169616373512E-006   0.0000000000000000     
  -1.0085202579468273E-006   1.2618361554469178E-006   0.0000000000000000     
  -1.0464346488168218E-006   1.3552253173756358E-006   0.0000000000000000     
  -1.0839345531801207E-006   1.4516819367426634E-006   0.0000000000000000     
  -1.1210384255583778E-006   1.5512122562056116E-006   0.0000000000000000     
  -1.1577647204732446E-006   1.6538225184220914E-006   0.0000000000000000     
  -1.1941318924463724E-006   1.7595189660497120E-006   0.0000000000000000     
  -1.2301583959994140E-006   1.8683078417460843E-006   0.0000000000000000     
  -1.2658626856540213E-006   1.9801953881688178E-006   0.0000000000000000     
  -1.3012632159318447E-006   2.0951878479755218E-006   0.0000000000000000     
  -1.0964394637301359E-006   1.2737947112954423E-006   0.0000000000000000     
  -1.1374958397076644E-006   1.3670591940230393E-006   0.0000000000000000     
  -1.1781033498421856E-006   1.4633848657908565E-006   0.0000000000000000     
  -1.2182832019500679E-006   1.5627818044367407E-006   0.0000000000000000     
  -1.2580566038476800E-006   1.6652600877985373E-006   0.0000000000000000     
  -1.2974447633513915E-006   1.7708297937140920E-006   0.0000000000000000     
  -1.3364688882775704E-006   1.8795010000212508E-006   0.0000000000000000     
  -1.3751501864425848E-006   1.9912837845578596E-006   0.0000000000000000     
  -1.4135098656628041E-006   2.1061882251617640E-006   0.0000000000000000     
  -1.1852149383230631E-006   1.2865958929481969E-006   0.0000000000000000     
  -1.2294104903331281E-006   1.3797392707995443E-006   0.0000000000000000     
  -1.2731336127302323E-006   1.4759589788270154E-006   0.0000000000000000     
  -1.3164042643075596E-006   1.5752570469907031E-006   0.0000000000000000     
  -1.3592424038582922E-006   1.6776355052507010E-006   0.0000000000000000     
  -1.4016679901756143E-006   1.7830963835671021E-006   0.0000000000000000     
  -1.4437009820527094E-006   1.8916417118999999E-006   0.0000000000000000     
  -1.4853613382827603E-006   2.0032735202094878E-006   0.0000000000000000     
  -1.5266690176589502E-006   2.1179938384556586E-006   0.0000000000000000     
  -1.2748961427687803E-006   1.3002048011399966E-006   0.0000000000000000     
  -1.3222281568186180E-006   1.3932351511931663E-006   0.0000000000000000     
  -1.3690782163373907E-006   1.4893853961886737E-006   0.0000000000000000     
  -1.4154597680918976E-006   1.5886336749330543E-006   0.0000000000000000     
  -1.4613862588489382E-006   1.6909581262328431E-006   0.0000000000000000     
  -1.5068711353753094E-006   1.7963368888945763E-006   0.0000000000000000     
  -1.5519278444378122E-006   1.9047481017247873E-006   0.0000000000000000     
  -1.5965698328032440E-006   2.0161699035300140E-006   0.0000000000000000     
  -1.6408105472384043E-006   2.1305804331167889E-006   0.0000000000000000     
  -1.3655325381104596E-006   1.3145865366056575E-006   0.0000000000000000     
  -1.4159983952895375E-006   1.4075164386919209E-006   0.0000000000000000     
  -1.4659900351567875E-006   1.5036452382133673E-006   0.0000000000000000     
  -1.5155078687641269E-006   1.6029073793293509E-006   0.0000000000000000     
  -1.5645523071634739E-006   1.7052373061992262E-006   0.0000000000000000     
  -1.6131237614067452E-006   1.8105694629823482E-006   0.0000000000000000     
  -1.6612226425458590E-006   1.9188382938380710E-006   0.0000000000000000     
  -1.7088493616327330E-006   2.0299782429257487E-006   0.0000000000000000     
  -1.7560043297192842E-006   2.1439237544047372E-006   0.0000000000000000     
 </DataArray>
 <DataArray  type="Float64" Name="stress" NumberOfComponents="3" format="ascii">
   31428.939969025108        9428.6819907075333        6194.3201695375983     
   28427.544466725263        4912.8586706621390        3845.9688808314295     
   26065.986945653145        1792.1977446238361        2083.8728487736262     
   24277.405730534243       -156.17303832232210        834.21569981234234     
   22994.939146093973       -1155.1259290914513        23.181060395621330     
   22151.725517057934       -1427.5331785984126       -423.04744302832876     
   21680.903168151592       -1196.2670377582863       -578.28618401144161     
   21515.610424100450       -684.19975748608249       -516.35153610561679     
   21588.985609629985       -114.20358869674328       -311.05987286268680     
   26332.293919504107        7899.6881758512318        4704.1477703807341     
   24690.525659695784        4441.9695463449334        3112.7300546885667     
   23420.189369213938        2024.7983647995388        1913.7808864073986     
   22471.226808459749        481.31383255226956        1055.9197942319315     
   21793.579737834370       -355.34484905983754        487.76630685674104     
   21337.189917738964       -652.03847869949641        157.93995297657065     
   21051.999108574608       -575.62785502972110        15.060261285976569     
   20887.949070742503       -292.97377671325557        7.7467604796802227     
   20794.981564643804        29.062957587053461        84.618979252316933     
   22257.091835718966        6677.1275507156897        3504.7499224995618     
   21587.344787809096        4085.3884033974809        2519.2874863276984     
   21091.920867209188        2237.4819093475744        1769.2817074370739     
   20735.211529575921        1014.7129207548560        1222.3986157208262     
   20481.608230565904        298.38628980820249        846.30424107208580     
   20295.502425835904       -30.193131303350128        608.66461338408726     
   20141.285571042514       -89.720490391012390        477.14576254990681     
   19983.349121842457        1.1090647341980002        419.41371846273813     
   19786.084533892375        123.60038626114965        403.13451101571604     
   19049.432525759967        5714.8297577279909        2559.0193980253484     
   19021.925020836799        3814.2921927512680        2043.9496555821722     
   19033.244968097286        2415.8674368053948        1641.3534689078697     
   19059.879778033428        1441.1801915306296        1334.5539680460422     
   19078.316861137377        811.85515856732673        1106.8742830403530     
   19065.043627901210        449.51703955578978        941.63754393442844     
   18996.547488817014        275.79053613630003        822.16688077188326     
   18849.315854376895        212.30034994916696        731.78542359635264     
   18599.836135072917        180.67118263471366        653.81630245147198     
   16555.414797717687        4966.6244393153065        1829.8489690894173     
   16898.189528550578        3599.8578653377926        1665.0250422853430     
   17196.225200336576        2545.5740057105490        1520.9743278650672     
   17435.751437983094        1757.8716101248956        1393.2876549746657     
   17602.997866397545        1190.8494282721640        1277.5558527602202     
   17684.194110487326        798.60620984367324        1169.3697503678047     
   17665.569795159812        535.24070453074637        1064.3201769434979     
   17533.354545322440        354.85166202472010        957.99796163338601     
   17273.777985882545        211.53783201687838        845.99393358352575     
   14621.137459682735        4386.3412379048232        1280.1314078230935     
   15120.061480722008        3413.2623720885344        1360.8221262705561     
   15532.925092385454        2612.2206746005504        1399.1224413539285     
   15853.346393575637        1961.9431417828205        1399.5014802736914     
   16074.943483195173        1441.1567699773204        1366.4283702303512     
   16191.334460146631        1028.5885555260083        1304.3722384243983     
   16196.137423332615        702.96549477085773        1217.8022120563376     
   16082.970471655713        443.01458405382527        1111.1874183266593     
   15845.451704018507        227.46281971689768        988.99698443587022     
   13092.699319745503        3927.8097959236511        872.75948635766144     
   13591.464047122727        3225.6826639349820        1109.6493873711613     
   13995.408172702293        2601.4265020129092        1266.7759664197017     
   14303.184528961847        2050.5507517496599        1354.0972477101679     
   14513.445948379056        1568.5648547374522        1381.5712554494378     
   14624.845263431595        1150.9782525685396        1359.1560138444138     
   14636.035306597132        793.30038683513249        1296.8095471019685     
   14545.668910353339        491.04069912949581        1204.4898794290079     
   14352.398907177867        239.70863104377804        1092.1550350323823     
   11816.199185996522        3544.8597557989569        570.62597682444664     
   12216.320397524374        3008.2956918086261        889.81530542050973     
   12535.737969745471        2498.8105464851405        1114.9130601076513     
   12775.785728292452        2020.8504052706214        1257.9767610511201     
   12937.797498797925        1578.8613536071834        1331.0639284161580     
   13023.107106894604        1177.2894769369727        1346.2320823680309     
   13033.048378215055        820.58086070207219        1315.5387430719672     
   12968.955138391917        513.18159034464543        1251.0414306932275     
   12832.161213057865        259.53775130680151        1164.7976653970672     
   10637.735866526355        3191.3207599579059        336.62365135475812     
   10898.553701698562        2732.2784066409517        679.62836025194838     
   11105.978011973348        2289.9918665547511        934.51187946303094     
   11261.669875718195        1869.9980675909294        1112.0418240635790     
   11367.290371300598        1477.8339376411382        1222.9858091291865     
   11424.500577088047        1119.0364045970259        1278.1114497354351     
   11434.961571448055        799.14239635021249        1288.1863609579073     
   11400.334432748085        523.68884079232930        1263.9781578721795     
   11322.280239355627        298.21266581500822        1216.2544555538323     
   21588.985609629985       -114.20358869674328       -311.05987286268680     
   21712.234177631573        294.38002133985901       -100.92684204077743     
   21749.454765869505        498.52024159702614        33.384264498865583     
   21713.125476378755        539.81074552472728        104.83560704984495     
   21615.724411194387        459.84520657306985        126.38934590579123     
   21469.729672351270        300.21729819173379        111.00764136017978     
   21287.619361884477        102.52069383088565        71.652653706641971     
   21081.871581828964       -91.650933059632735        21.286543238738993     
   20864.964434219677       -240.70390902991676       -27.128529749978455     
   20794.981564643804        29.062957587053461        84.618979252316933     
   20701.508120280188        246.36910312715736        164.89144221957270     
   20574.454495836315        343.21217577258449        207.45738186997352     
   20421.533793987634        345.30251777494686        220.45438870753605     
   20250.459117409548        278.35047138560549        212.02005323615145     
   20068.943568777540        168.06637885617420        190.29196595979320     
   19884.700250767102        40.160582438154051        163.40771738244044     
   19705.442266053593       -79.656575617129420        139.50489800798280     
   19538.882717312470       -165.67475305815969        126.72109834034603     
   19786.084533892375        123.60038626114965        403.13451101571604     
   19557.338049550228        191.98917848872225        390.90047832270204     
   19331.190306030516        207.95912857099574        369.61006956449540     
   19111.384351274719        183.98706297955687        343.38848123457501     
   18901.663233224404        132.54980818634158        316.36090982657748     
   18705.769999821048        66.124190662841102        292.65255183395533     
   18527.447699006185       -2.8129631190759028        276.38860375032391     
   18370.439378721323       -61.784826687767236        271.69426206918979     
   18238.488086907950       -98.314573571567053        282.69472328408381     
   18599.836135072917        180.67118263471366        653.81630245147198     
   18303.620173475374        138.40910983467074        581.71404301690131     
   18032.233497048626        96.532490171043719        520.66773645147634     
   17786.244043625855        56.934449754421621        471.60236101753611     
   17566.219751040215        21.508114695396216        435.44289497744001     
   17372.728557124934       -7.8533888953779751        413.11431659355731     
   17206.338399713168       -29.256934907317373        405.54160412823603     
   17067.617216638107       -40.809397229778369        413.64973584383716     
   16957.132945732934       -40.617649752198304        438.36369000271532     
   17273.777985882545        211.53783201687838        845.99393358352575     
   16964.250700089335        92.797759575124473        741.94591305043082     
   16690.155369487242        12.703650751807800        661.45579140008635     
   16449.679766426758       -34.785253284876489        603.06050444289372     
   16241.011663258318       -55.709711366706870        565.29698798924392     
   16062.338832332403       -56.110482325520934        546.70217784952615     
   15911.849045999445       -42.028324993159003        545.81300983411450     
   15787.730076609922       -19.503998201376817        561.16641975342031     
   15688.169696514276        5.4217392179607486        591.29934341780279     
   15845.451704018507        227.46281971689768        988.99698443587022     
   15563.125837425794        62.323990120191411        876.20986517155688     
   15317.527223942938       -39.755999507729030        792.79964327946436     
   15105.258415063247       -90.101977522455854        735.72738789721268     
   14922.921962280045       -100.03877227956855        701.95416816244040     
   14767.120417086679       -80.891212134592024        688.44105321279369     
   14634.456330976460       -43.984125443158518        692.14911218588384     
   14521.532255442748      -0.64234056073019019        710.03941421938214     
   14424.950741978862        37.809314157070730        739.07302845091112     
   14352.398907177867        239.70863104377804        1092.1550350323823     
   14124.141793518476        54.156663879998632        989.11967612855483     
   13926.920361012253       -57.075070428644722        915.52470095871263     
   13756.546884921059       -107.94565434270044        867.56748776698919     
   13608.833640506680       -112.41417032284335        841.44541479747340     
   13479.592903030943       -84.439700829676440        833.35586029426997     
   13364.636947755613       -37.981328323910020        839.49620250148121     
   13259.778049942535        13.001864733878392        856.06381966320851     
   13160.828484853522        54.550795883060346        879.25609002356566     
   12832.161213057865        259.53775130680151        1164.7976653970672     
   12671.194776401044        75.464643264617280        1085.2891226696825     
   12530.906081291801       -35.482171831912638        1030.4563733069870     
   12407.112071386009       -87.246215129799566        996.54528043876280     
   12295.629690339563       -93.771007776087572        979.80170719479781     
   12192.275881808371       -69.000070917830271        976.47151670489040     
   12092.867589448300       -26.876925702041717        982.80057209881170     
   11993.221756915262        18.654906724296325        995.03473650636681     
   11889.155327865119        53.651905214053386        1009.4198730573327     
   11322.280239355627        298.21266581500822        1216.2544555538323     
   11228.180994107239        133.41679068418125        1169.3319815432196     
   11142.055685378115        28.794086461393817        1138.4200691933893     
   11060.520869843860       -26.933591268044438        1120.6252422990485     
   10980.193104180024       -45.044386918941200        1113.0540246548783     
   10897.688945062202       -36.816444906002289        1112.8129400555770     
   10809.624949165969       -13.527909644023566        1117.0085122958310     
   10712.617673166898        13.543074452290512        1122.7472651703365     
   10603.283673740549        33.118362968180918        1127.1357224737801     
   20864.964434219677       -240.70390902991676       -27.128529749978455     
   20660.022766262846       -309.18898239120699       -60.206707559035358     
   20477.856991785240       -302.70501271962166       -75.384066565706163     
   20312.473562752744       -241.23049346215703       -75.931347592963093     
   20157.878931131308       -144.74391806564108       -65.119291463738278     
   20008.079548886788       -33.223779977319282       -46.218639001051372     
   19857.081867985191        73.351427356281420       -22.500131027760947     
   19698.892340392340        155.00321048793739        2.7654916330376769     
   19527.517418074094        191.75307597035226        26.307488158405501     
   19538.882717312470       -165.67475305815969        126.72109834034603     
   19385.944478751306       -199.97826334516230        126.00457004356002     
   19239.958001933559       -189.95949541880873        131.63147819102255     
   19097.247755568838       -147.87022024701946        141.73128340130989     
   18954.138208366658       -85.962208798038773        154.43344629284178     
   18806.953829036607       -16.487232039910850        167.86742748414343     
   18652.019086288281        48.302939059263736        180.16268759370396     
   18485.658448831200        96.156533531268906        189.44868724000551     
   18304.196385374984        114.82178040814506        193.85488704151362     
   18238.488086907950       -98.314573571567053        282.69472328408381     
   18119.044062889610       -107.60096338524181        302.31549569688622     
   17995.881400713388       -97.096573331826221        320.25359190736691     
   17867.228930406214       -72.705303321487008        335.79146485606321     
   17731.315481995087       -40.331053264269030        348.21156748352291     
   17586.369885506869       -5.8777230706082264        356.79635273020409     
   17430.620970968612        24.750787349616076        360.82827353673110     
   17262.297568407168        45.650578086028872        359.58978284356397     
   17079.628507849557        50.917749228579851        352.36333359125729     
   16957.132945732934       -40.617649752198304        438.36369000271532     
   16856.079122553834       -33.029801348538967        468.29607752224649     
   16745.083681380253       -24.279298482024387        491.56834790697098     
   16623.866158130251       -15.301021425733779        508.36873730008125     
   16492.146088721856       -7.0298504528773265        518.88548184470915     
   16349.643009073174      -0.40066583648967935        523.30681768405429     
   16196.076455102242        3.6516521502180694        521.82098096126151     
   16031.165962727149        4.1922232342067218        514.61620781950342     
   15854.631067865923       0.28616714227064222        501.88073440194705     
   15688.169696514276        5.4217392179607486        591.29934341780279     
   15593.807261620022        22.762503927728176        623.51632364083900     
   15487.021337189677        28.329277107270173        646.66181951343935     
   15368.608509606111        24.777346699608643        661.58264126198287     
   15239.365365252281        14.762000647860077        669.12559911287576     
   15100.088490511018       0.93852689486720919        670.13750329249228     
   14951.574471765322       -14.037786616133417        665.46516402729128     
   14794.619895398044       -27.511651942227218        655.95539154361086     
   14630.021347792113       -36.827781140377738        642.45499606788678     
   14424.950741978862        37.809314157070730        739.07302845091112     
   14328.986083964242        58.803233606390677        767.54624217394348     
   14221.150861397171        60.566101412707212        786.62008005038967     
   14102.905055699141        47.964522314314308        797.55271727048557     
   13975.708648291591        25.865101049421355        801.60232902442124     
   13841.021620596046      -0.86555764359673049        800.02709050246642     
   13700.303954033945       -27.360849026585129        794.08517689480732     
   13555.015630026841       -48.754168361070697        785.03476339172084     
   13406.616629996170       -60.178910908883154        774.13402518339262     
   13160.828484853522        54.550795883060346        879.25609002356566     
   13058.373193462538        74.119668850225025        899.95584124277184     
   12946.928747258289        72.268122410938304        912.52920284145011     
   12828.204867274539        54.695226677806204        918.39850585424335     
   12703.911274545075        27.100051763426563        918.98608131579522     
   12575.757690103699       -4.8183322195045548        915.71426026077404     
   12445.453834984221       -35.360855158292907        910.00537372381314     
   12314.709430220408       -58.828446940358390        903.28175273957243     
   12185.234196846081       -69.522037453015400        896.96572834271831     
   11889.155327865119        53.651905214053386        1009.4198730573327     
   11778.726193990973        67.739090822093658        1020.3151289685803     
   11663.811488028519        63.272288078618658        1025.4752612102318     
   11545.957015197577        45.404181049701492        1026.2395475419580     
   11426.708580717999        19.287453801460288        1023.9472657234305     
   11307.611989809604       -9.9252095999454468        1019.9376935143126     
   11190.213047692241       -37.081125088434874        1015.5501086742867     
   11076.057559585739       -57.027608597895323        1012.1237889630202     
   10966.691330709906       -64.611976062246413        1010.9980121401734     
   10603.283673740549        33.118362968180918        1127.1357224737801     
   10486.802689425593        38.688780684823541        1128.1941134726108     
   10371.255576963378        33.415546392369379        1126.5443284803580     
   10257.610570333538        20.526106689608241        1123.1953828623141     
   10146.835903515650        3.2479081751612284        1119.1562919837513     
   10039.899810489289       -15.191602552388758        1115.4360712099528     
   9937.7705252341166       -31.564978894228261        1113.0437359062091     
   9841.4162817297165       -42.644774251685703        1112.9883014378204     
   9751.8053139557032       -45.203542026119976        1116.2787831700625     
   19527.517418074094        191.75307597035226        26.307488158405501     
   19339.051189583326        170.79354670167140        40.945270920761480     
   19138.218150551751        108.08516917621910        43.324805257376099     
   18931.970363564174        26.801485343103195        35.915179792833776     
   18727.259891205253       -49.883962848736701        21.185483151696303     
   18531.038796059653       -98.797633450250032        1.6048039585232006     
   18350.259140712158       -96.765984512438990       -20.357769162130900     
   18191.872987747363       -20.615474086373069       -42.233147585698241     
   18062.832399750005        152.82743977688733       -61.552242687685585     
   18304.196385374984        114.82178040814506        193.85488704151362     
   18111.592360953051        98.316096182514229        193.21815620129055     
   17917.052462880791        58.145638286900976        189.56405234704519     
   17724.771093290594        8.2917471624587051        184.30506873412972     
   17538.942654314815       -37.264236749550946        178.85369861796661     
   17363.761548085760       -64.540973008012770        174.62243525393643     
   17203.422176735941       -59.557121171515973        173.02377189747511     
   17062.118942397596       -8.3313407990071937        175.47020180392863     
   16944.046247203132        103.11770855093528        183.37421822869871     
   17079.628507849557        50.917749228579851        352.36333359125729     
   16890.977337783879        39.564047903687424        343.13433769633968     
   16707.180439443226        18.843997054192187        336.72796605306098     
   16530.175891971965       -4.7821395051660147        333.68631006851490     
   16361.901774514574       -24.854097959704632        334.55146114977680     
   16204.296166215299       -34.911614494988498        339.86551070388879     
   16059.297146218625       -28.494425296310510        350.17055013794720     
   15928.842793668891       0.85773345094912656        366.00867085901291     
   15814.871187710516        59.605125561464774        387.92196427416263     
   15854.631067865923       0.28616714227064222        501.88073440194705     
   15676.397256064156       -5.7052573384444258        489.41334707421748     
   15506.699051335820       -10.390663192805732        482.79259682625752     
   15345.719547301665       -13.159738351667329        481.87636673762245     
   15193.641837582485       -13.402170745816875        486.52253988795809     
   15050.649015798987       -10.507648306062038        496.58899935682939     
   14916.924175571938       -3.8658589633114389        511.93362822384586     
   14792.650410522077        7.1335093516181587        532.41430956860063     
   14678.010814270123        23.100768707865427        557.88892647066416     
   14630.021347792113       -36.827781140377738        642.45499606788678     
   14467.043251782186       -37.734478747308458        630.77471600329045     
   14313.705269655346       -30.129251125120390        625.73399511737114     
   14168.936846973000       -17.580613069046194        626.69270168309367     
   14031.667429296625       -3.6570793742930618        633.01070397341027     
   13900.826462187702        8.0728351641646441        644.04787026132078     
   13775.343391207638        14.040615750996949        659.16406881974353     
   13654.147661917947        10.677747591272237        677.71916792168963     
   13536.168719880032       -5.5842841104022227        699.07303584004148     
   13406.616629996170       -60.178910908883154        774.13402518339262     
   13262.106460926367       -56.766275526229947        765.93797615188078     
   13126.296065498569       -40.942675413612051        763.52821137719616     
   12997.362578679260       -18.784327349376326        765.95277784651512     
   12873.483135434988        3.6325518882604229        772.25972254701639     
   12752.834870732229        20.231745520881304        781.49709246586076     
   12633.594919537503        24.937036770231316        792.71293459022650     
   12513.940416817326        11.672208858074555        804.95529590732906     
   12392.048497538193       -25.638954993970401        817.27222340429978     
   12185.234196846081       -69.522037453015400        896.96572834271831     
   12060.778019484960       -63.043306878918429        893.62265918831702     
   11942.568409962227       -43.401844729336972        894.15129605649986     
   11828.531530113771       -17.510444884560002        897.47405816952130     
   11716.593541775528        7.7180987751271459        902.51336474961090     
   11604.680606783375        25.370992369348642        908.19163501899106     
   11490.718886973222        28.535442017869627        913.43128819988408     
   11372.634544181003        10.298653840355200        917.15474351455441     
   11248.353740242615       -36.252166043491343        918.28442018521594     
   10966.691330709906       -64.611976062246413        1010.9980121401734     
   10862.249063446337       -56.808232008836512        1012.5482967809381     
   10760.619274143086       -38.077667743229540        1015.5792996060644     
   10659.978488969826       -14.498529366700495        1019.0740055937295     
   10558.503234096241        7.8509370196925374        1022.0153997220750     
   10454.370035691934        22.892485314783698        1023.3864669692106     
   10345.755419926532        24.547869417325728        1022.1701923132401     
   10230.835912969824        6.7388432263483082        1017.3495607323935     
   10107.788040991332       -36.612839359459485        1007.9075572047641     
   9751.8053139557032       -45.203542026119976        1116.2787831700625     
   9665.7107287987837       -38.303710119437255        1121.4344205980588     
   9578.5456291379160       -25.541053126305087        1125.7882724766766     
   9489.2382429407662       -10.488144487743739        1128.5700830607816     
   9396.7167981751245        3.2824423554197892        1129.0095966052934     
   9299.9095228087281        12.198133962427619        1126.3365573650638     
   9197.7446448092851        12.686356892292224        1119.7807095949797     
   9089.1503921445565        1.1745377042484506        1108.5717975499233     
   8973.0549927823467       -25.909897042531611        1091.9395654847979     
   10637.735866526355        3191.3207599579059        336.62365135475812     
   10898.553701698562        2732.2784066409517        679.62836025194838     
   11105.978011973348        2289.9918665547511        934.51187946303094     
   11261.669875718195        1869.9980675909294        1112.0418240635790     
   11367.290371300598        1477.8339376411382        1222.9858091291865     
   11424.500577088047        1119.0364045970259        1278.1114497354351     
   11434.961571448055        799.14239635021249        1288.1863609579073     
   11400.334432748085        523.68884079232930        1263.9781578721795     
   11322.280239355627        298.21266581500822        1216.2544555538323     
   9430.2222092776810        2829.0666627833048        139.64291464049538     
   9570.3005350056046        2413.4147230003500        483.22542983344874     
   9683.4198771893462        2021.7088075052122        752.59755931930295     
   9770.4719445561368        1656.9212787218903        955.72885041081565     
   9832.3484458331477        1322.0244990743677        1100.5888504207394     
   9869.9410897476009        1019.9908309866505        1195.1471066618424     
   9884.1415850266640        753.79263688272022        1247.3731664468692     
   9875.8416403975516        526.40227918656774        1265.2365770885815     
   9845.9329645874732        340.79212032220266        1256.7068858997463     
   8173.8272216021505        2452.1481664806452       -27.435298384073388     
   8228.8900727953205        2087.0463354520630        318.14846544559703     
   8275.6508061474960        1749.7884135051718        600.97036785163277     
   8314.3922564154236        1441.3171831623897        826.57496408568568     
   8345.3972583557843        1162.5754269460913        1000.5068093993802     
   8368.9486467253391        914.50592737871148        1128.3104590443786     
   8385.3292562807728        698.05146698261524        1215.5304682723013     
   8394.8219217788228        514.15482828024324        1267.7113923348031     
   8397.7094779762228        363.75879379397111        1290.3977864835272     
   6875.5339507035978        2062.6601852110794       -165.73242022409042     
   6876.0343848235934        1753.6868649228572        182.81355689066729     
   6880.1778217320461        1473.4827914199163        477.77116211783425     
   6887.7987178849671        1221.4961528891088        722.63303434964701     
   6898.7315297384330        997.17513751731030        920.89181247834426     
   6912.8107137485158        799.96793349137829        1076.0401353961624     
   6929.8707263712549        629.32272899818963        1191.5706419953362     
   6949.7460240627224        484.68771222457895        1270.9759711681047     
   6972.2710632789731        365.51107135747998        1317.7487618067025     
   5542.3254437858313        1662.6976331357494       -276.36988338469337     
   5513.4455408463245        1413.8499323394990        75.636793970928423     
   5494.5079468272370        1192.0440481147075        381.14079917570325     
   5485.0592355537301        995.76855987874353        641.95593046416627     
   5484.6459808510381        823.51204704898862        859.89598607085816     
   5492.8147565443933        673.76308904284451        1036.7747642303289     
   5509.1121364589835        545.01026527767749        1174.4060631771092     
   5533.0846944200293        435.74215517086736        1274.6036811457391     
   5564.2790042527704        344.44733813981816        1339.1814163707722     
   4181.1847480527267        1254.3554244158183       -360.46912037102726     
   4142.8356106194205        1068.0491586287644       -4.9657335113395762     
   4116.1482043173310        904.72429045482545        309.22013608304985     
   4100.5417160106390        762.44477610796162        582.59652169069761     
   4095.4353325635234        639.27457180211093        815.67145659015466     
   4100.2482408401938        533.27763375125608        1008.9529740599854     
   4114.3996277048054        442.51791816933792        1162.9491073787367     
   4137.3086800215715        365.05938127030186        1278.1678898249704     
   4168.3945846546640        298.96597926812456        1355.1173546772382     
   2799.0949107080951        839.72847321242853       -419.15156368822949     
   2765.9166638987426        716.79816471740980       -60.577935753866988     
   2742.6056170865886        610.77562530555656        260.15002989768226     
   2728.6140658446325        519.83517355344952        542.60767729070085     
   2723.3943057458282        442.15112803766226        786.37035044946322     
   2726.3986323631689        375.89780733480592        991.01339339826313     
   2737.0793412696139        319.24953002144105        1156.1121501613657     
   2754.8887280381373        270.38061467414184        1281.2419647630572     
   2779.2790882417303        227.46537986952842        1365.9781812276219     
   1403.0389789557928        420.91169368673781       -453.53864584144310     
   1384.4007704401843        360.61057153220656       -92.783722954379101     
   1371.3872080192764        309.45015953216904        232.07133767740885     
   1363.6441916446504        266.25012419188988        520.04226652563727     
   1360.8176212678859        229.83013201663346        770.14479406201974     
   1362.5533968405600        199.00984951166052        981.39465075827684     
   1368.4974183142490        172.60894318223228        1152.8075670861149     
   1378.2955856405360        149.44707953363053        1283.3992735172540     
   1391.5937987710095        128.34392507110846        1372.1855005234177     
  -3.4621599088922768E-010  -1.0386479726676829E-010  -464.75179933581012     
  -3.5371382425539475E-010  -7.9226738400810299E-011  -103.16700531060391     
  -3.6211569047131481E-010  -5.7271250122340973E-011   223.12491648003419     
  -3.7308038563754499E-010  -4.2369599908976457E-011   512.95315865696534     
  -3.8384013203593277E-010  -2.4758194635382455E-011   765.14691384104901     
  -3.9377058158015912E-010  -1.5218532539028478E-011   978.53537465314844     
  -4.0653443718758351E-010  -4.8251586937161396E-012   1151.9477337141213     
  -4.2410371291976299E-010  -2.5089180504114192E-012   1284.2131836448250     
  -4.3451301183825226E-010   7.6266080883316809E-012   1374.1609170661309     
   11322.280239355627        298.21266581500822        1216.2544555538323     
   11228.180994107239        133.41679068418125        1169.3319815432196     
   11142.055685378115        28.794086461393817        1138.4200691933893     
   11060.520869843860       -26.933591268044438        1120.6252422990485     
   10980.193104180024       -45.044386918941200        1113.0540246548783     
   10897.688945062202       -36.816444906002289        1112.8129400555770     
   10809.624949165969       -13.527909644023566        1117.0085122958310     
   10712.617673166898        13.543074452290512        1122.7472651703365     
   10603.283673740549        33.118362968180918        1127.1357224737801     
   9845.9329645874732        340.79212032220266        1256.7068858997463     
   9804.7341135245078        201.15752085373879        1241.5869240675718     
   9760.4470857476281        104.63865004811987        1233.2292249471607     
   9710.7887539002659        43.625083383494712        1229.9278891030540     
   9653.4759906258514        10.506396337964816        1229.9770170997911     
   9586.2256685678385       -2.3278356102955513        1231.6707095019133     
   9506.7546603696755       -2.4880369831394091        1233.3030668739852     
   9412.7798386748145        2.4153676976075076        1233.1681897805404     
   9302.0180761266674        4.7719539100185102        1229.5601787861149     
   8397.7094779762228        363.75879379397111        1290.3977864835272     
   8392.6627165395366        246.48372298808499        1300.1504812808337     
   8377.2463058855992        158.26289782771119        1309.3828262980596     
   8350.0838958964632        94.508484586399845        1317.4181553002693     
   8309.7991364542322        50.632649537756151        1323.5798020525660     
   8255.0156774409843        22.047558955440309        1327.1911003200371     
   8184.3571687387921        4.1653791129810998        1327.5753838677620     
   8096.4472602297310       -7.6017237160363038        1324.0559864608233     
   7989.9096017958864       -17.841583257940329        1315.9562418643150     
   6972.2710632789731        365.51107135747998        1317.7487618067025     
   6989.1253836847700        268.54297124698155        1346.2732195107694     
   6991.6568129018096        189.42786993309664        1368.7346062159829     
   6979.2022393215721        125.95539538741650        1385.3271453186578     
   6951.0985513355499        75.915175581591029        1396.2450602151093     
   6906.6826373352387        37.096838487216246        1401.6825743016618     
   6845.2913857120902        7.2900120758954472        1401.8339109746037     
   6766.2616848575817       -15.715675680874938        1396.8932936302601     
   6668.9304231632377       -34.130596811288342        1387.0549456649478     
   5564.2790042527704        344.44733813981816        1339.1814163707722     
   5591.2806954926355        266.48283979011899        1381.2057050851229     
   5602.8820739060720        197.89460649723833        1413.1382976708537     
   5598.9397276646996        138.20459883331205        1435.8859635861718     
   5579.3102449401877        86.934777370558550        1450.3554722893141     
   5543.8502139041957        43.607102681123479        1457.4535932385049     
   5492.4162227283641        7.7435353371890869        1458.0870958919695     
   5424.8648595843542       -21.133964089051460        1453.1627497079317     
   5341.0527126438001       -43.503435025475937        1443.5873241446175     
   4168.3945846546640        298.96597926812456        1355.1173546772382     
   4196.2872324956052        239.45090277725717        1406.1985043316761     
   4210.1255560081736        183.42414765304738        1444.4476336325774     
   4210.0923044149613        131.49487797082270        1471.3257145307689     
   4196.3702269385267        84.272257805769186        1488.2937189770687     
   4169.1420728015019        42.365451233303702        1496.8126189223153     
   4128.5905912264461        6.3836223286473341        1498.3433863173191     
   4074.8985314359702       -23.064064832853774        1494.3469931129152     
   4008.2486426526411       -45.368446175939880        1486.2844112599171     
   2779.2790882417303        227.46537986952842        1365.9781812276219     
   2801.3035752261162        186.59473436812891        1422.5021835781774     
   2812.5907263179179        145.77753353348839        1464.5163470710688     
   2813.4559130614380        106.06501584658724        1493.8775025803984     
   2804.2145070009369        68.508419788322840        1512.4424809802704     
   2785.1818796807520        34.158983839788448        1522.0681131448132     
   2756.6734026451377        4.0679464818709903        1524.6112299481106     
   2719.0044474383863       -20.713453804499636        1521.9286622642894     
   2672.4903856048222       -39.133978538201063        1515.8772409674466     
   1391.5937987710095        128.34392507110846        1372.1855005234177     
   1403.4883042166196        107.06190872248965        1431.3673091523915     
   1409.4810519451105        84.715804271508716        1475.1981709562324     
   1409.8264970932530        62.153795507409200        1505.7724321630094     
   1404.7790947978110        40.224066219402062        1525.1844390008077     
   1394.5933001955398        19.774800196650119        1535.5285376977079     
   1379.5235684232050        1.6541812284046387        1538.8990744817854     
   1359.8243546175850       -13.289606896092266        1537.3903955811272     
   1335.7501139154092       -24.208380387729562        1533.0968472238010     
  -4.3451301183825226E-010   7.6266080883316809E-012   1374.1609170661309     
  -4.4965803871342967E-010   1.4053211314722233E-011   1434.0444473820846     
  -4.5828053909535467E-010   2.2038362572326583E-011   1478.3468382579899     
  -4.6890959603451854E-010   3.9630450039762479E-011   1509.2416077065732     
  -4.8461759555094651E-010   3.5619158455393837E-011   1528.9022737405751     
  -4.9586213459818966E-010   2.5062090569851231E-011   1539.5023543727441     
  -5.0964525447480995E-010   1.2991403731829966E-011   1543.2153676158173     
  -5.2060131168694582E-010   9.1422622811406544E-012   1542.2148314825074     
  -5.3454047364608074E-010  -9.9807067316837816E-012   1538.6742639855718     
   10603.283673740549        33.118362968180918        1127.1357224737801     
   10486.802689425593        38.688780684823541        1128.1941134726108     
   10371.255576963378        33.415546392369379        1126.5443284803580     
   10257.610570333538        20.526106689608241        1123.1953828623141     
   10146.835903515650        3.2479081751612284        1119.1562919837513     
   10039.899810489289       -15.191602552388758        1115.4360712099528     
   9937.7705252341166       -31.564978894228261        1113.0437359062091     
   9841.4162817297165       -42.644774251685703        1112.9883014378204     
   9751.8053139557032       -45.203542026119976        1116.2787831700625     
   9302.0180761266674        4.7719539100185102        1229.5601787861149     
   9184.8463139557825        2.0584255264334388        1223.4134790990443     
   9073.3414157900315       -2.5821055897563383        1217.1888122818393     
   8967.7701378688980       -8.2604519735841677        1211.4696934303163     
   8868.3992364318474       -14.087426160117047        1206.8396376402982     
   8775.4954677183923       -19.173840684405604        1203.8821600076385     
   8689.3255879679582       -22.630508081592325        1203.1807756281291     
   8610.1563534200632       -23.568240886695548        1205.3189995976252     
   8538.2545203141763       -21.097851634775907        1210.8803470119542     
   7989.9096017958864       -17.841583257940329        1315.9562418643150     
   7878.0339261039317       -26.182320265047110        1306.0560869896162     
   7774.8482798497462       -29.791008725590473        1297.7297350351505     
   7680.0837839591304       -29.563912220231941        1291.1919341965331     
   7593.4715593579185       -26.397294329524357        1286.6574326694124     
   7514.7427269719419       -21.187418633978723        1284.3409786493980     
   7443.6284077270684       -14.830548714127872        1284.4573203321468     
   7379.8597225491176       -8.2229481505410149        1287.2212059132933     
   7323.1677923639099       -2.2608805238078276        1292.8473835884524     
   6668.9304231632377       -34.130596811288342        1387.0549456649478     
   6567.5229662455604       -45.686224576945278        1376.0852104618066     
   6476.2809728192378       -48.059721912188252        1367.5560922495872     
   6394.5657709228972       -43.379995354849143        1361.3703056929703     
   6321.7386885952219       -33.775951442692985        1357.4305654566595     
   6257.1610538748992       -21.376496713452980        1355.6395862053580     
   6200.1941948005679       -8.3105377049641902        1355.9000826037543     
   6150.1994394108842        3.2930190449942529        1358.1147693165392     
   6106.5381157445372        11.305266998640491        1362.1863610084242     
   5341.0527126438001       -43.503435025475937        1443.5873241446175     
   5254.4708747561990       -56.106055296652130        1433.4641228331363     
   5178.1442983752368       -57.236804046519410        1426.0568794344611     
   5111.2303610789140       -49.704422681759524        1421.0130084516286     
   5052.8864404451770       -36.317652609217475        1417.9799243876421     
   5002.2699140520117       -19.885235235560685        1416.6050417455303     
   4958.5381594774008       -3.2159119675768579        1416.5357750283235     
   4920.8485542993158        10.881575788012697        1417.4195387390384     
   4888.3584760957156        19.598486624412772        1418.9037473806875     
   4008.2486426526411       -45.368446175939880        1486.2844112599171     
   3940.0350920113615       -57.094580311502796        1478.1560974210977     
   3880.9430601945301       -57.170814025470463        1472.6210920990907     
   3830.0918167458831       -48.532915505339815        1469.1282430044971     
   3786.6006312091713       -34.116652938648940        1467.1263978479446     
   3749.5887731281796       -16.857794512718783        1466.0644043400011     
   3718.1755120466705       0.30789158491734270        1465.3911101913166     
   3691.4801175084012        14.444637166820030        1464.5553631124808     
   3668.6218590571216        22.616674045503942        1463.0060108140931     
   2672.4903856048222       -39.133978538201063        1515.8772409674466     
   2625.3730583866213       -48.304567508745322        1510.1244075432173     
   2585.1820619538412       -47.710310746030473        1506.6377257527802     
   2551.1644002425028       -39.861195129991643        1504.7242098836084     
   2522.5670771886153       -27.267207540529171        1503.6908742231415     
   2498.6370967282469       -12.438334857485415        1502.8447330588328     
   2478.6214627973945        2.1154360391528826        1501.4928006781572     
   2461.7671793321119        13.884118269535520        1498.9420913685656     
   2447.3212502684205        20.357724953778529        1494.4996194174867     
   1335.7501139154092       -24.208380387729562        1533.0968472238010     
   1311.6422142574718       -29.388784775822955        1529.3323265169877     
   1291.3661073298886       -28.703853105261601        1527.4957759048482     
   1274.4623738874416       -23.684982860126695        1526.8091096209330     
   1260.4715946848887       -15.863571524524446        1526.4942418988312     
   1248.9343504770336       -6.7710165825038189        1525.7730869720933     
   1239.3912220186196        2.0612844818342637        1523.8675590742739     
   1231.3827900644519        9.1019341844458381        1519.9995724389692     
   1224.4496353692812        12.819535041165750        1513.3910412997127     
  -5.3454047364608074E-010  -9.9807067316837816E-012   1538.6742639855718     
  -5.4969696763916782E-010  -3.9988274183992066E-011   1535.7431276599202     
  -5.6926842452804595E-010  -8.3058023397165212E-011   1534.5842380645827     
  -5.7769203193082499E-010  -1.1841590413022858E-010   1534.3911427485075     
  -5.8576795077942655E-010  -1.5832236924264950E-010   1534.3573892606194     
  -6.1080084493794402E-010  -2.5127792681540114E-010   1533.6765251498307     
  -6.2340796373819424E-010  -3.1447747983092581E-010   1531.5420979651126     
  -6.4231676714734595E-010  -4.1072329600093083E-010   1527.1476552554077     
  -6.6263166397412728E-010  -5.3191167547959352E-010   1519.6867445696016     
   9751.8053139557032       -45.203542026119976        1116.2787831700625     
   9665.7107287987837       -38.303710119437255        1121.4344205980588     
   9578.5456291379160       -25.541053126305087        1125.7882724766766     
   9489.2382429407662       -10.488144487743739        1128.5700830607816     
   9396.7167981751245        3.2824423554197892        1129.0095966052934     
   9299.9095228087281        12.198133962427619        1126.3365573650638     
   9197.7446448092851        12.686356892292224        1119.7807095949797     
   9089.1503921445565        1.1745377042484506        1108.5717975499233     
   8973.0549927823467       -25.909897042531611        1091.9395654847979     
   8538.2545203141763       -21.097851634775907        1210.8803470119542     
   8467.9591072759849       -16.333298552804081        1217.3764834166157     
   8393.3126611846419       -11.376779022781648        1221.6289704863843     
   8314.1372306598932       -6.8214643122769303        1223.1861675110126     
   8230.2548643214559       -3.2605256888568874        1221.5964337802141     
   8141.4876107890723       -1.2871344200539170        1216.4081285837242     
   8047.6575186824557       -1.4944617735222891        1207.1696112112702     
   7948.5866366213259       -4.4756790168048610        1193.4292409525676     
   7844.0970132254279       -10.823957417460861        1174.7353770973709     
   7323.1677923639099       -2.2608805238078276        1292.8473835884524     
   7266.5517200044014       0.52787416671117171        1298.6990416858173     
   7203.5223740297770      -0.67857832432355281        1301.8791979497603     
   7134.5785239551669       -4.2176729463963056        1302.2123447001773     
   7060.2189392957598       -8.4268446489631970        1299.5229742570682     
   6980.9423895666823       -11.643528381535361        1293.6355789403026     
   6897.2476442831048       -12.205159093584825        1284.3746510698240     
   6809.6334729601876       -8.4491717345849793        1271.5646829656143     
   6718.5986451130448        1.2869987459130243        1255.0301669475339     
   6106.5381157445372        11.305266998640491        1362.1863610084242     
   6061.8218470616912        12.379792062400384        1365.9652825824317     
   6009.7269650327844        6.7192081768714615        1367.4055780621272     
   5951.2118603118097       -2.4818491445751079        1366.5653907929750     
   5887.2349235528345       -12.028744388470386        1363.5028641204935     
   5818.7545454098408       -18.726842041480722        1358.2761413901374     
   5746.7291165368697       -19.381506590148547        1350.9433659474000     
   5672.1170275879476       -10.798102521093824        1341.5626811377736     
   5595.8766692170557        10.218005679076896        1330.1922303067445     
   4888.3584760957156        19.598486624412772        1418.9037473806875     
   4854.1027685255203        19.322439157591134        1419.7383932832540     
   4812.4786315532147        10.982239688697064        1419.0747340189318     
   4764.6869772151013       -1.4190716611935841        1417.1620819541124     
   4711.9287175475474       -13.878454770936060        1414.2497494552151     
   4655.4047645868632       -22.392869519419492        1410.5870488885953     
   4596.3160303693803       -22.959275785555292        1406.4232926206648     
   4535.8634269314571       -11.574633448229406        1402.0077930178481     
   4475.2478663093889        15.764097613720878        1397.5898624464653     
   3668.6218590571216        22.616674045503942        1463.0060108140931     
   3643.7277644735432        21.455799475581671        1460.5815609650433     
   3612.3295709505483        12.276175418947105        1457.7532890155492     
   3575.6536121502545      -0.83441925071269907        1454.9191943482851     
   3534.9262217347182       -13.788205659899631        1452.4772763458993     
   3491.3737333660160       -22.497404934891620        1450.8255343910382     
   3446.2224807062694       -22.874238202110746        1450.3619678663499     
   3400.6987974175181       -10.830926587971589        1451.4845761545048     
   3356.0290171619099        17.720308781283620        1454.5913586381275     
   2447.3212502684205        20.357724953778529        1494.4996194174867     
   2431.0301149834331        18.879857039724811        1489.0579728046212     
   2409.8319805843594        10.766674575603929        1484.3078662474279     
   2384.7615026025251      -0.53297066757670564        1480.7535041402164     
   2356.8533365691928       -11.570226918872550        1478.8990908772726     
   2327.1421380156471       -18.896242407360091        1479.2488308528195     
   2296.6625624731751       -19.062165362100131        1482.3069284611577     
   2266.4492654730220       -8.6191440121805272        1488.5775880965080     
   2237.5369025465329        15.881673413395333        1498.5650141532278     
   1224.4496353692812        12.819535041165750        1513.3910412997127     
   1216.3431001327967        11.694595873180049        1505.7308159787199     
   1205.5380578141217        6.6193963664067041        1499.6050889099276     
   1192.6603860571474      -0.31980466614425040        1495.5817874945799     
   1178.3359625058099       -7.0367484114245826        1494.2288391339669     
   1163.1906648040288       -11.445176056337687        1496.1141712292624     
   1147.8503705957073       -11.458828787852951        1501.8057111817507     
   1132.9409575247730       -4.9914477928803080        1511.8713863926366     
   1119.0883032351389        10.043225741605681        1526.8791242631846     
  -6.6263166397412728E-010  -5.3191167547959352E-010   1519.6867445696016     
  -6.7188154299977524E-010  -6.4943313376064388E-010   1511.1632776641370     
  -6.5536701841860680E-010  -7.6577654141106932E-010   1504.5115801984509     
  -6.3711814152012920E-010  -9.3788101224441007E-010   1500.3208205761164     
  -5.9757163632262145E-010  -1.1415637847042258E-009   1499.1801672007066     
  -5.3217891844672600E-010  -1.3661296861671108E-009   1501.6787884757725     
  -4.9011405732935223E-010  -1.6895482157785033E-009   1508.4058528048770     
  -4.2774529247918934E-010  -2.0624365205334219E-009   1519.9505285915764     
  -3.6929705694850957E-010  -2.5121275225504942E-009   1536.9019842394337     
  -3.4621599088922768E-010  -1.0386479726676829E-010  -464.75179933581012     
  -3.5371382425539475E-010  -7.9226738400810299E-011  -103.16700531060391     
  -3.6211569047131481E-010  -5.7271250122340973E-011   223.12491648003419     
  -3.7308038563754499E-010  -4.2369599908976457E-011   512.95315865696534     
  -3.8384013203593277E-010  -2.4758194635382455E-011   765.14691384104901     
  -3.9377058158015912E-010  -1.5218532539028478E-011   978.53537465314844     
  -4.0653443718758351E-010  -4.8251586937161396E-012   1151.9477337141213     
  -4.2410371291976299E-010  -2.5089180504114192E-012   1284.2131836448250     
  -4.3451301183825226E-010   7.6266080883316809E-012   1374.1609170661309     
  -1403.0389789564867       -420.91169368694563       -453.53864584142138     
  -1384.4007704408941       -360.61057153236618       -92.783722954358382     
  -1371.3872080199992       -309.45015953228511        232.07133767742647     
  -1363.6441916453923       -266.25012419196787        520.04226652565524     
  -1360.8176212686494       -229.83013201669149        770.14479406203793     
  -1362.5533968413433       -199.00984951168687        981.39465075829253     
  -1368.4974183150605       -172.60894318224479        1152.8075670861342     
  -1378.2955856413753       -149.44707953361973        1283.3992735172776     
  -1391.5937987718744       -128.34392507109783        1372.1855005234424     
  -2799.0949107087854       -839.72847321263555       -419.15156368818549     
  -2765.9166638994429       -716.79816471756953       -60.577935753826331     
  -2742.6056170873057       -610.77562530567116        260.15002989771835     
  -2728.6140658453719       -519.83517355353615        542.60767729074064     
  -2723.3943057465831       -442.15112803771967        786.37035044950062     
  -2726.3986323639465       -375.89780733483633        991.01339339830099     
  -2737.0793412704143       -319.24953002145048        1156.1121501614073     
  -2754.8887280389672       -270.38061467414695        1281.2419647630988     
  -2779.2790882425766       -227.46537986949090        1365.9781812276676     
  -4181.1847480534134       -1254.3554244160239       -360.46912037096229     
  -4142.8356106201200       -1068.0491586289249       -4.9657335112793879     
  -4116.1482043180358       -904.72429045494096        309.22013608310476     
  -4100.5417160113639       -762.44477610804404        582.59652169075162     
  -4095.4353325642696       -639.27457180216970        815.67145659020935     
  -4100.2482408409523       -533.27763375128609        1008.9529740600428     
  -4114.3996277055985       -442.51791816934531        1162.9491073788035     
  -4137.3086800223818       -365.05938127030345        1278.1678898250375     
  -4168.3945846554961       -298.96597926810182        1355.1173546773089     
  -5542.3254437865062       -1662.6976331359517       -276.36988338460918     
  -5513.4455408470330       -1413.8499323396645        75.636793971008089     
  -5494.5079468279364       -1192.0440481148273        381.14079917577811     
  -5485.0592355544377       -995.76855987882254        641.95593046423562     
  -5484.6459808517702       -823.51204704904569        859.89598607093239     
  -5492.8147565451327       -673.76308904286748        1036.7747642304016     
  -5509.1121364597411       -545.01026527766908        1174.4060631771829     
  -5533.0846944208188       -435.74215517085167        1274.6036811458218     
  -5564.2790042535762       -344.44733813979678        1339.1814163708627     
  -6875.5339507042627       -2062.6601852112794       -165.73242022398938     
  -6876.0343848242655       -1753.6868649230153        182.81355689076196     
  -6880.1778217327155       -1473.4827914200353        477.77116211792480     
  -6887.7987178856647       -1221.4961528892006        722.63303434973909     
  -6898.7315297391451       -997.17513751737101        920.89181247843442     
  -6912.8107137492325       -799.96793349140808        1076.0401353962523     
  -6929.8707263719862       -629.32272899818281        1191.5706419954270     
  -6949.7460240634709       -484.68771222457576        1270.9759711681986     
  -6972.2710632797407       -365.51107135743086        1317.7487618068039     
  -8173.8272216027935       -2452.1481664808380       -27.435298383958038     
  -8228.8900727959608       -2087.0463354522180        318.14846544570969     
  -8275.6508061481654       -1749.7884135052986        600.97036785174487     
  -8314.3922564161003       -1441.3171831624777        826.57496408579289     
  -8345.3972583564646       -1162.5754269461556        1000.5068093994884     
  -8368.9486467260322       -914.50592737872876        1128.3104590444807     
  -8385.3292562814877       -698.05146698261956        1215.5304682724118     
  -8394.8219217795577       -514.15482828022823        1267.7113923349191     
  -8397.7094779769650       -363.75879379393245        1290.3977864836475     
  -9430.2222092782995       -2829.0666627834898        139.64291464062569     
  -9570.3005350062394       -2413.4147230005087        483.22542983357863     
  -9683.4198771899937       -2021.7088075053380        752.59755931942993     
  -9770.4719445567916       -1656.9212787219844        955.72885041094037     
  -9832.3484458338244       -1322.0244990744384        1100.5888504208694     
  -9869.9410897482794       -1019.9908309866869        1195.1471066619677     
  -9884.1415850273497       -753.79263688272158        1247.3731664469942     
  -9875.8416403982501       -526.40227918654682        1265.2365770887102     
  -9845.9329645881717       -340.79212032215810        1256.7068858998755     
  -10637.735866526924       -3191.3207599580765        336.62365135489557     
  -10898.553701699157       -2732.2784066411059        679.62836025209174     
  -11105.978011973957       -2289.9918665548794        934.51187946317384     
  -11261.669875718842       -1869.9980675910365        1112.0418240637271     
  -11367.290371301255       -1477.8339376412259        1222.9858091293377     
  -11424.500577088720       -1119.0364045970709        1278.1114497355823     
  -11434.961571448724       -799.14239635021704        1288.1863609580494     
  -11400.334432748752       -523.68884079231884        1263.9781578723216     
  -11322.280239356305       -298.21266581498276        1216.2544555539769     
  -4.3451301183825226E-010   7.6266080883316809E-012   1374.1609170661309     
  -4.4965803871342967E-010   1.4053211314722233E-011   1434.0444473820846     
  -4.5828053909535467E-010   2.2038362572326583E-011   1478.3468382579899     
  -4.6890959603451854E-010   3.9630450039762479E-011   1509.2416077065732     
  -4.8461759555094651E-010   3.5619158455393837E-011   1528.9022737405751     
  -4.9586213459818966E-010   2.5062090569851231E-011   1539.5023543727441     
  -5.0964525447480995E-010   1.2991403731829966E-011   1543.2153676158173     
  -5.2060131168694582E-010   9.1422622811406544E-012   1542.2148314825074     
  -5.3454047364608074E-010  -9.9807067316837816E-012   1538.6742639855718     
  -1391.5937987718744       -128.34392507109783        1372.1855005234424     
  -1403.4883042175029       -107.06190872243201        1431.3673091524215     
  -1409.4810519460291       -84.715804271469665        1475.1981709562654     
  -1409.8264970941987       -62.153795507367533        1505.7724321630385     
  -1404.7790947987687       -40.224066219314977        1525.1844390008432     
  -1394.5933001965325       -19.774800196618003        1535.5285376977404     
  -1379.5235684242225       -1.6541812283939521        1538.8990744818209     
  -1359.8243546186077        13.289606896150872        1537.3903955811547     
  -1335.7501139164797        24.208380387689090        1533.0968472238269     
  -2779.2790882425766       -227.46537986949090        1365.9781812276676     
  -2801.3035752269993       -186.59473436811027        1422.5021835782318     
  -2812.5907263188169       -145.77753353343439        1464.5163470711238     
  -2813.4559130623611       -106.06501584651869        1493.8775025804530     
  -2804.2145070018973       -68.508419788303740        1512.4424809803327     
  -2785.1818796817179       -34.158983839717052        1522.0681131448662     
  -2756.6734026461236       -4.0679464817889084        1524.6112299481686     
  -2719.0044474394190        20.713453804470078        1521.9286622643474     
  -2672.4903856058718        39.133978538182873        1515.8772409675043     
  -4168.3945846554961       -298.96597926810182        1355.1173546773089     
  -4196.2872324964646       -239.45090277722556        1406.1985043317518     
  -4210.1255560090513       -183.42414765300077        1444.4476336326577     
  -4210.0923044158553       -131.49487797074107        1471.3257145308535     
  -4196.3702269394616       -84.272257805730760        1488.2937189771562     
  -4169.1420728024523       -42.365451233246404        1496.8126189224038     
  -4128.5905912274184       -6.3836223285945835        1498.3433863174118     
  -4074.8985314369775        23.064064832840359        1494.3469931130051     
  -4008.2486426536675        45.368446175916915        1486.2844112599987     
  -5564.2790042535762       -344.44733813979678        1339.1814163708627     
  -5591.2806954934676       -266.48283979008033        1381.2057050852211     
  -5602.8820739069261       -197.89460649720399        1413.1382976709524     
  -5598.9397276655782       -138.20459883326930        1435.8859635862789     
  -5579.3102449410926       -86.934777370501251        1450.3554722894241     
  -5543.8502139051334       -43.607102681125070        1457.4535932386216     
  -5492.4162227293118       -7.7435353371765814        1458.0870958920891     
  -5424.8648595853192        21.133964089064420        1453.1627497080431     
  -5341.0527126448005        43.503435025424778        1443.5873241447221     
  -6972.2710632797407       -365.51107135743086        1317.7487618068039     
  -6989.1253836855631       -268.54297124693085        1346.2732195108792     
  -6991.6568129026218       -189.42786993304344        1368.7346062160982     
  -6979.2022393224033       -125.95539538736284        1385.3271453187797     
  -6951.0985513364285       -75.915175581587846        1396.2450602152503     
  -6906.6826373361091       -37.096838487157584        1401.6825743017880     
  -6845.2913857129843       -7.2900120758376943        1401.8339109747301     
  -6766.2616848585194        15.715675680831282        1396.8932936303945     
  -6668.9304231641900        34.130596811266514        1387.0549456650745     
  -8397.7094779769650       -363.75879379393245        1290.3977864836475     
  -8392.6627165402970       -246.48372298805089        1300.1504812809640     
  -8377.2463058863705       -158.26289782764434        1309.3828262981913     
  -8350.0838958972581       -94.508484586343911        1317.4181553004094     
  -8309.7991364550508       -50.632649537755242        1323.5798020527120     
  -8255.0156774418156       -22.047558955392560        1327.1911003201822     
  -8184.3571687396397       -4.1653791129492674        1327.5753838679095     
  -8096.4472602306087        7.6017237160072000        1324.0559864609775     
  -7989.9096017967813        17.841583257913953        1315.9562418644612     
  -9845.9329645881717       -340.79212032215810        1256.7068858998755     
  -9804.7341135252318       -201.15752085369058        1241.5869240677118     
  -9760.4470857483575       -104.63865004807349        1233.2292249473080     
  -9710.7887539009935       -43.625083383432411        1229.9278891031997     
  -9653.4759906266099       -10.506396337919341        1229.9770170999418     
  -9586.2256685686225        2.3278356103010083        1231.6707095020824     
  -9506.7546603704759        2.4880369831366806        1233.3030668741526     
  -9412.7798386756258       -2.4153676976238785        1233.1681897807098     
  -9302.0180761275042       -4.7719539100662587        1229.5601787862906     
  -11322.280239356305       -298.21266581498276        1216.2544555539769     
  -11228.180994107908       -133.41679068413441        1169.3319815433651     
  -11142.055685378788       -28.794086461356528        1138.4200691935409     
  -11060.520869844540        26.933591268100372        1120.6252422992054     
  -10980.193104180726        45.044386918966666        1113.0540246550406     
  -10897.688945062922        36.816444906012293        1112.8129400557405     
  -10809.624949166697        13.527909644014017        1117.0085122960086     
  -10712.617673167624       -13.543074452292785        1122.7472651705150     
  -10603.283673741307       -33.118362968220481        1127.1357224739641     
  -5.3454047364608074E-010  -9.9807067316837816E-012   1538.6742639855718     
  -5.4969696763916782E-010  -3.9988274183992066E-011   1535.7431276599202     
  -5.6926842452804595E-010  -8.3058023397165212E-011   1534.5842380645827     
  -5.7769203193082499E-010  -1.1841590413022858E-010   1534.3911427485075     
  -5.8576795077942655E-010  -1.5832236924264950E-010   1534.3573892606194     
  -6.1080084493794402E-010  -2.5127792681540114E-010   1533.6765251498307     
  -6.2340796373819424E-010  -3.1447747983092581E-010   1531.5420979651126     
  -6.4231676714734595E-010  -4.1072329600093083E-010   1527.1476552554077     
  -6.6263166397412728E-010  -5.3191167547959352E-010   1519.6867445696016     
  -1335.7501139164797        24.208380387689090        1533.0968472238269     
  -1311.6422142585629        29.388784775755369        1529.3323265170179     
  -1291.3661073310184        28.703853105098460        1527.4957759048734     
  -1274.4623738885916        23.684982859890567        1526.8091096209657     
  -1260.4715946860667        15.863571524216752        1526.4942418988585     
  -1248.9343504782316        6.7710165820207067        1525.7730869721058     
  -1239.3912220198513       -2.0612844824407830        1523.8675590742976     
  -1231.3827900657086       -9.1019341852160665        1519.9995724389821     
  -1224.4496353705886       -12.819535042200755        1513.3910412997182     
  -2672.4903856058718        39.133978538182873        1515.8772409675043     
  -2625.3730583877050        48.304567508662444        1510.1244075432717     
  -2585.1820619549426        47.710310745897118        1506.6377257528334     
  -2551.1644002436210        39.861195129766884        1504.7242098836557     
  -2522.5670771897649        27.267207540208346        1503.6908742231758     
  -2498.6370967294088        12.438334857075802        1502.8447330588544     
  -2478.6214627985960       -2.1154360397529217        1501.4928006781774     
  -2461.7671793333329       -13.884118270316094        1498.9420913685774     
  -2447.3212502696792       -20.357724954789205        1494.4996194174962     
  -4008.2486426536675        45.368446175916915        1486.2844112599987     
  -3940.0350920124320        57.094580311402524        1478.1560974211855     
  -3880.9430601956033        57.170814025339041        1472.6210920991671     
  -3830.0918167469745        48.532915505140863        1469.1282430045617     
  -3786.6006312102945        34.116652938286506        1467.1263978479908     
  -3749.5887731293155        16.857794512271994        1466.0644043400430     
  -3718.1755120478138      -0.30789158548441264        1465.3911101913397     
  -3691.4801175095572       -14.444637167561723        1464.5553631124953     
  -3668.6218590583017       -22.616674046454364        1463.0060108141038     
  -5341.0527126448005        43.503435025424778        1443.5873241447221     
  -5254.4708747572204        56.106055296578234        1433.4641228332384     
  -5178.1442983763018        57.236804046309317        1426.0568794345506     
  -5111.2303610799672        49.704422681568531        1421.0130084517041     
  -5052.8864404462438        36.317652608911203        1417.9799243877169     
  -5002.2699140530985        19.885235235108439        1416.6050417455854     
  -4958.5381594784812        3.2159119670175187        1416.5357750283576     
  -4920.8485543003944       -10.881575788704595        1417.4195387390560     
  -4888.3584760968233       -19.598486625341593        1418.9037473806843     
  -6668.9304231641900        34.130596811266514        1387.0549456650745     
  -6567.5229662465345        45.686224576892982        1376.0852104619285     
  -6476.2809728202255        48.059721912065015        1367.5560922496886     
  -6394.5657709238867        43.379995354689981        1361.3703056930619     
  -6321.7386885962333        33.775951442418318        1357.4305654567434     
  -6257.1610538758878        21.376496713135111        1355.6395862054144     
  -6200.1941948015537        8.3105377045073965        1355.9000826037864     
  -6150.1994394118838       -3.2930190456361288        1358.1147693165428     
  -6106.5381157455276       -11.305266999461310        1362.1863610084001     
  -7989.9096017967813        17.841583257913953        1315.9562418644612     
  -7878.0339261048603        26.182320264944337        1306.0560869897618     
  -7774.8482798506666        29.791008725496340        1297.7297350352808     
  -7680.0837839600517        29.563912220101429        1291.1919341966425     
  -7593.4715593588508        26.397294329265605        1286.6574326695043     
  -7514.7427269728960        21.187418633601737        1284.3409786494797     
  -7443.6284077279979        14.830548713658118        1284.4573203321918     
  -7379.8597225500280        8.2229481499366557        1287.2212059132992     
  -7323.1677923647976        2.2608805230574944        1292.8473835884115     
  -9302.0180761275042       -4.7719539100662587        1229.5601787862906     
  -9184.8463139566484       -2.0584255265107458        1223.4134790992186     
  -9073.3414157909065        2.5821055896267353        1217.1888122819958     
  -8967.7701378697566        8.2604519734372843        1211.4696934304477     
  -8868.3992364327114        14.087426159903316        1206.8396376404157     
  -8775.4954677192200        19.173840684141396        1203.8821600077040     
  -8689.3255879687840        22.630508081210337        1203.1807756281610     
  -8610.1563534208708        23.568240886170770        1205.3189995976140     
  -8538.2545203149712        21.097851634096969        1210.8803470118814     
  -10603.283673741307       -33.118362968220481        1127.1357224739641     
  -10486.802689426360       -38.688780684854919        1128.1941134727929     
  -10371.255576964180       -33.415546392526267        1126.5443284805381     
  -10257.610570334315       -20.526106689752396        1123.1953828624728     
  -10146.835903516396       -3.2479081752926504        1119.1562919838739     
  -10039.899810490064        15.191602552099994        1115.4360712100370     
  -9937.7705252348551        31.564978893896750        1113.0437359062444     
  -9841.4162817304314        42.644774251297804        1112.9883014377949     
  -9751.8053139563781        45.203542025547904        1116.2787831699711     
  -6.6263166397412728E-010  -5.3191167547959352E-010   1519.6867445696016     
  -6.7188154299977524E-010  -6.4943313376064388E-010   1511.1632776641370     
  -6.5536701841860680E-010  -7.6577654141106932E-010   1504.5115801984509     
  -6.3711814152012920E-010  -9.3788101224441007E-010   1500.3208205761164     
  -5.9757163632262145E-010  -1.1415637847042258E-009   1499.1801672007066     
  -5.3217891844672600E-010  -1.3661296861671108E-009   1501.6787884757725     
  -4.9011405732935223E-010  -1.6895482157785033E-009   1508.4058528048770     
  -4.2774529247918934E-010  -2.0624365205334219E-009   1519.9505285915764     
  -3.6929705694850957E-010  -2.5121275225504942E-009   1536.9019842394337     
  -1224.4496353705886       -12.819535042200755        1513.3910412997182     
  -1216.3431001341137       -11.694595874442882        1505.7308159787246     
  -1205.5380578154077       -6.6193963679173180        1499.6050889099199     
  -1192.6603860583982       0.31980466430053411        1495.5817874945699     
  -1178.3359625069893        7.0367484091675010        1494.2288391339266     
  -1163.1906648050890        11.445176053604996        1496.1141712292047     
  -1147.8503705966557        11.458828784505101        1501.8057111816440     
  -1132.9409575256075        4.9914477887895714        1511.8713863924816     
  -1119.0883032358465       -10.043225746582323        1526.8791242629802     
  -2447.3212502696792       -20.357724954789205        1494.4996194174962     
  -2431.0301149846791       -18.879857040921934        1489.0579728046196     
  -2409.8319805856027       -10.766674577090271        1484.3078662474070     
  -2384.7615026037079       0.53297066575476038        1480.7535041401654     
  -2356.8533365702951        11.570226916671800        1478.8990908771800     
  -2327.1421380166476        18.896242404680720        1479.2488308526576     
  -2296.6625624740600        19.062165358824359        1482.3069284609091     
  -2266.4492654738101        8.6191440081962583        1488.5775880962096     
  -2237.5369025471723       -15.881673418206219        1498.5650141528004     
  -3668.6218590583017       -22.616674046454364        1463.0060108141038     
  -3643.7277644747369       -21.455799476779475        1460.5815609650422     
  -3612.3295709517129       -12.276175420393884        1457.7532890155135     
  -3575.6536121513614       0.83441924892508723        1454.9191943482006     
  -3534.9262217357318        13.788205657750723        1452.4772763457470     
  -3491.3737333669551        22.497404932257950        1450.8255343907704     
  -3446.2224807070734        22.874238198970033        1450.3619678659941     
  -3400.6987974182202        10.830926584106919        1451.4845761539950     
  -3356.0290171624715       -17.720308785882025        1454.5913586374832     
  -4888.3584760968233       -19.598486625341593        1418.9037473806843     
  -4854.1027685265990       -19.322439158694124        1419.7383932832283     
  -4812.4786315542578       -10.982239690053348        1419.0747340188414     
  -4764.6869772160953        1.4190716595223876        1417.1620819539585     
  -4711.9287175484560        13.878454768907886        1414.2497494549484     
  -4655.4047645876690        22.392869516960673        1410.5870488882190     
  -4596.3160303700779        22.959275782617397        1406.4232926201380     
  -4535.8634269320119        11.574633444664869        1402.0077930171176     
  -4475.2478663098318       -15.764097617976631        1397.5898624455504     
  -6106.5381157455276       -11.305266999461310        1362.1863610084001     
  -6061.8218470626643       -12.379792063402647        1365.9652825823625     
  -6009.7269650337212       -6.7192081781520301        1367.4055780620031     
  -5951.2118603127019        2.4818491429762162        1366.5653907927567     
  -5887.2349235536276        12.028744386587960        1363.5028641201343     
  -5818.7545454105475        18.726842039157646        1358.2761413896330     
  -5746.7291165374700        19.381506587398690        1350.9433659467279     
  -5672.1170275883978        10.798102517813277        1341.5626811368536     
  -5595.8766692173831       -10.218005682954754        1330.1922303055858     
  -7323.1677923647976        2.2608805230574944        1292.8473835884115     
  -7266.5517200052600      -0.52787416762021167        1298.6990416857104     
  -7203.5223740305873       0.67857832317031352        1301.8791979495500     
  -7134.5785239559209        4.2176729449779486        1302.2123446998667     
  -7060.2189392964419        8.4268446472128744        1299.5229742566075     
  -6980.9423895672808        11.643528379423969        1293.6355789396441     
  -6897.2476442835768        12.205159091112364        1284.3746510689721     
  -6809.6334729605223        8.4491717317250732        1271.5646829644986     
  -6718.5986451132731       -1.2869987492817927        1255.0301669461412     
  -8538.2545203149712        21.097851634096969        1210.8803470118814     
  -8467.9591072767471        16.333298551957341        1217.3764834164731     
  -8393.3126611853695        11.376779021713446        1221.6289704861367     
  -8314.1372306605572        6.8214643109608915        1223.1861675106147     
  -8230.2548643220725        3.2605256872338941        1221.5964337796511     
  -8141.4876107895616        1.2871344182190114        1216.4081285829438     
  -8047.6575186828477        1.4944617713545085        1207.1696112102454     
  -7948.5866366216051        4.4756790143023863        1193.4292409512570     
  -7844.0970132255479        10.823957414648703        1174.7353770957504     
  -9751.8053139563781        45.203542025547904        1116.2787831699711     
  -9665.7107287994768        38.303710118635081        1121.4344205978621     
  -9578.5456291385581        25.541053125348753        1125.7882724763531     
  -9489.2382429413738        10.488144486560486        1128.5700830602982     
  -9396.7167981756684       -3.2824423568526981        1129.0095966046106     
  -9299.9095228091719       -12.198133964040153        1126.3365573641461     
  -9197.7446448096307       -12.686356894163509        1119.7807095938231     
  -9089.1503921447984       -1.1745377062966327        1108.5717975484765     
  -8973.0549927823995        25.909897040385658        1091.9395654830241     
  -10637.735866526924       -3191.3207599580765        336.62365135489557     
  -10898.553701699157       -2732.2784066411059        679.62836025209174     
  -11105.978011973957       -2289.9918665548794        934.51187946317384     
  -11261.669875718842       -1869.9980675910365        1112.0418240637271     
  -11367.290371301255       -1477.8339376412259        1222.9858091293377     
  -11424.500577088720       -1119.0364045970709        1278.1114497355823     
  -11434.961571448724       -799.14239635021704        1288.1863609580494     
  -11400.334432748752       -523.68884079231884        1263.9781578723216     
  -11322.280239356305       -298.21266581498276        1216.2544555539769     
  -11816.199185997069       -3544.8597557991206        570.62597682459420     
  -12216.320397524958       -3008.2956918087866        889.81530542067185     
  -12535.737969746080       -2498.8105464852706        1114.9130601078080     
  -12775.785728293060       -2020.8504052707187        1257.9767610512740     
  -12937.797498798560       -1578.8613536072526        1331.0639284163135     
  -13023.107106895241       -1177.2894769370032        1346.2320823681821     
  -13033.048378215686       -820.58086070209356        1315.5387430721235     
  -12968.955138392557       -513.18159034463997        1251.0414306933835     
  -12832.161213058491       -259.53775130675331        1164.7976653972094     
  -13092.699319745998       -3927.8097959237994        872.75948635781367     
  -13591.464047123269       -3225.6826639351248        1109.6493873713227     
  -13995.408172702857       -2601.4265020130292        1266.7759664198641     
  -14303.184528962447       -2050.5507517497663        1354.0972477103364     
  -14513.445948379662       -1568.5648547375249        1381.5712554496049     
  -14624.845263432222       -1150.9782525685673        1359.1560138445700     
  -14636.035306597742       -793.30038683512930        1296.8095471021206     
  -14545.668910353932       -491.04069912946215        1204.4898794291532     
  -14352.398907178460       -239.70863104376076        1092.1550350325379     
  -14621.137459683223       -4386.3412379049705        1280.1314078232563     
  -15120.061480722534       -3413.2623720886713        1360.8221262707236     
  -15532.925092385995       -2612.2206746006586        1399.1224413540888     
  -15853.346393576219       -1961.9431417829105        1399.5014802738540     
  -16074.943483195770       -1441.1567699773818        1366.4283702305120     
  -16191.334460147251       -1028.5885555260520        1304.3722384245643     
  -16196.137423333186       -702.96549477085046        1217.8022120564842     
  -16082.970471656285       -443.01458405381163        1111.1874183268067     
  -15845.451704019039       -227.46281971684675        988.99698443600516     
  -16555.414797718196       -4966.6244393154593        1829.8489690895899     
  -16898.189528551076       -3599.8578653379118        1665.0250422855049     
  -17196.225200337129       -2545.5740057106427        1520.9743278652220     
  -17435.751437983650       -1757.8716101249706        1393.2876549748214     
  -17602.997866398113       -1190.8494282722022        1277.5558527603653     
  -17684.194110487904       -798.60620984369780        1169.3697503679523     
  -17665.569795160365       -535.24070453074000        1064.3201769436332     
  -17533.354545322956       -354.85166202470191        957.99796163352073     
  -17273.777985883065       -211.53783201687020        845.99393358366331     
  -19049.432525760501       -5714.8297577281510        2559.0193980255331     
  -19021.925020837356       -3814.2921927513898        2043.9496555823366     
  -19033.244968097835       -2415.8674368054694        1641.3534689080111     
  -19059.879778033977       -1441.1801915306851        1334.5539680461800     
  -19078.316861137926       -811.85515856737311        1106.8742830404940     
  -19065.043627901734       -449.51703955578523        941.63754393454417     
  -18996.547488817523       -275.79053613627639        822.16688077199387     
  -18849.315854377375       -212.30034994913512        731.78542359646110     
  -18599.836135073365       -180.67118263468274        653.81630245157851     
  -22257.091835719606       -6677.1275507158816        3504.7499224997687     
  -21587.344787809721       -4085.3884033976083        2519.2874863278644     
  -21091.920867209767       -2237.4819093476281        1769.2817074371960     
  -20735.211529576460       -1014.7129207548642        1222.3986157209231     
  -20481.608230566420       -298.38628980820977        846.30424107218425     
  -20295.502425836388        30.193131303394694        608.66461338415957     
  -20141.285571042969        89.720490391057865        477.14576254998013     
  -19983.349121842875       -1.1090647341452495        419.41371846280867     
  -19786.084533892776       -123.60038626113601        403.13451101580097     
  -26332.293919504958       -7899.6881758514874        4704.1477703809805     
  -24690.525659696516       -4441.9695463450680        3112.7300546887332     
  -23420.189369214582       -2024.7983647995916        1913.7808864075093     
  -22471.226808460306       -481.31383255223864        1055.9197942319850     
  -21793.579737834858        355.34484905985846        487.76630685680368     
  -21337.189917739383        652.03847869958918        157.93995297659282     
  -21051.999108574997        575.62785502978386        15.060261286010956     
  -20887.949070742870        292.97377671328195        7.7467604797258955     
  -20794.981564644128       -29.062957587037090        84.618979252365605     
  -31428.939969026185       -9428.6819907078552        6194.3201695378830     
  -28427.544466726133       -4912.8586706622918        3845.9688808315968     
  -26065.986945653847       -1792.1977446238707        2083.8728487737117     
  -24277.405730534811        156.17303832235666        834.21569981237712     
  -22994.939146094432        1155.1259290915195        23.181060395626524     
  -22151.725517058305        1427.5331785984763       -423.04744302833694     
  -21680.903168151905        1196.2670377583627       -578.28618401146241     
  -21515.610424100731        684.19975748612160       -516.35153610561804     
  -21588.985609630268        114.20358869671054       -311.05987286265713     
  -11322.280239356305       -298.21266581498276        1216.2544555539769     
  -11228.180994107908       -133.41679068413441        1169.3319815433651     
  -11142.055685378788       -28.794086461356528        1138.4200691935409     
  -11060.520869844540        26.933591268100372        1120.6252422992054     
  -10980.193104180726        45.044386918966666        1113.0540246550406     
  -10897.688945062922        36.816444906012293        1112.8129400557405     
  -10809.624949166697        13.527909644014017        1117.0085122960086     
  -10712.617673167624       -13.543074452292785        1122.7472651705150     
  -10603.283673741307       -33.118362968220481        1127.1357224739641     
  -12832.161213058491       -259.53775130675331        1164.7976653972094     
  -12671.194776401673       -75.464643264571805        1085.2891226698359     
  -12530.906081292424        35.482171831950836        1030.4563733071404     
  -12407.112071386638        87.246215129835946        996.54528043892151     
  -12295.629690340196        93.771007776143051        979.80170719495470     
  -12192.275881809024        69.000070917792982        976.47151670506935     
  -12092.867589448961        26.876925702011704        982.80057209899462     
  -11993.221756915909       -18.654906724289958        995.03473650655292     
  -11889.155327865796       -53.651905214132057        1009.4198730575338     
  -14352.398907178460       -239.70863104376076        1092.1550350325379     
  -14124.141793519049       -54.156663879954976        989.11967612870603     
  -13926.920361012832        57.075070428662912        915.52470095887077     
  -13756.546884921619        107.94565434273591        867.56748776713869     
  -13608.833640507233        112.41417032287154        841.44541479762756     
  -13479.592903031484        84.439700829705544        833.35586029442868     
  -13364.636947756166        37.981328323911839        839.49620250165367     
  -13259.778049943101       -13.001864733905677        856.06381966339268     
  -13160.828484854086       -54.550795883095816        879.25609002375688     
  -15845.451704019039       -227.46281971684675        988.99698443600516     
  -15563.125837426318       -62.323990120164126        876.20986517169649     
  -15317.527223943420        39.755999507809065        792.79964327958521     
  -15105.258415063712        90.101977522537709        735.72738789733819     
  -14922.921962280514        100.03877227960947        701.95416816257841     
  -14767.120417087148        80.891212134598391        688.44105321293819     
  -14634.456330976931        43.984125443143057        692.14911218605289     
  -14521.532255443213       0.64234056071745727        710.03941421955960     
  -14424.950741979323       -37.809314157094377        739.07302845110030     
  -17273.777985883065       -211.53783201687020        845.99393358366331     
  -16964.250700089797       -92.797759575079908        741.94591305055098     
  -16690.155369487675       -12.703650751762325        661.45579140020448     
  -16449.679766427169        34.785253284908322        603.06050444300820     
  -16241.011663258727        55.709711366725060        565.29698798936943     
  -16062.338832332780        56.110482325554585        546.70217784965416     
  -15911.849045999823        42.028324993152637        545.81300983425501     
  -15787.730076610293        19.503998201356808        561.16641975357879     
  -15688.169696514638       -5.4217392180216848        591.29934341798730     
  -18599.836135073365       -180.67118263468274        653.81630245157851     
  -18303.620173475778       -138.40910983463073        581.71404301699408     
  -18032.233497049012       -96.532490170998244        520.66773645156070     
  -17786.244043626204       -56.934449754382513        471.60236101762013     
  -17566.219751040546       -21.508114695372569        435.44289497753272     
  -17372.728557125225        7.8533888953988935        413.11431659365195     
  -17206.338399713452        29.256934907306459        405.54160412835881     
  -17067.617216638369        40.809397229775641        413.64973584397035     
  -16957.132945733163        40.617649752171928        438.36369000286396     
  -19786.084533892776       -123.60038626113601        403.13451101580097     
  -19557.338049550581       -191.98917848867222        390.90047832277008     
  -19331.190306030829       -207.95912857092935        369.61006956454366     
  -19111.384351275014       -183.98706297955414        343.38848123464038     
  -18901.663233224648       -132.54980818626791        316.36090982662262     
  -18705.769999821267       -66.124190662843830        292.65255183402189     
  -18527.447699006367        2.8129631191059161        276.38860375039457     
  -18370.439378721461        61.784826687785426        271.69426206927244     
  -18238.488086908081        98.314573571500659        282.69472328422472     
  -20794.981564644128       -29.062957587037090        84.618979252365605     
  -20701.508120280490       -246.36910312710643        164.89144221959481     
  -20574.454495836602       -343.21217577259449        207.45738187001888     
  -20421.533793987874       -345.30251777495687        220.45438870757505     
  -20250.459117409748       -278.35047138563550        212.02005323618718     
  -20068.943568777693       -168.06637885615146        190.29196595982108     
  -19884.700250767190       -40.160582438090387        163.40771738245542     
  -19705.442266053637        79.656575617140334        139.50489800801995     
  -19538.882717312481        165.67475305807966        126.72109834043894     
  -21588.985609630268        114.20358869671054       -311.05987286265713     
  -21712.234177631810       -294.38002133982172       -100.92684204079515     
  -21749.454765869727       -498.52024159702341        33.384264498866429     
  -21713.125476378977       -539.81074552480641        104.83560704986144     
  -21615.724411194518       -459.84520657302710        126.38934590576626     
  -21469.729672351365       -300.21729819169559        111.00764136015115     
  -21287.619361884495       -102.52069383082653        71.652653706617798     
  -21081.871581828895        91.650933059710951        21.286543238697632     
  -20864.964434219568        240.70390902990130       -27.128529749979982     
  -10603.283673741307       -33.118362968220481        1127.1357224739641     
  -10486.802689426360       -38.688780684854919        1128.1941134727929     
  -10371.255576964180       -33.415546392526267        1126.5443284805381     
  -10257.610570334315       -20.526106689752396        1123.1953828624728     
  -10146.835903516396       -3.2479081752926504        1119.1562919838739     
  -10039.899810490064        15.191602552099994        1115.4360712100370     
  -9937.7705252348551        31.564978893896750        1113.0437359062444     
  -9841.4162817304314        42.644774251297804        1112.9883014377949     
  -9751.8053139563781        45.203542025547904        1116.2787831699711     
  -11889.155327865796       -53.651905214132057        1009.4198730575338     
  -11778.726193991650       -67.739090822153230        1020.3151289687794     
  -11663.811488029207       -63.272288078716429        1025.4752612104292     
  -11545.957015198270       -45.404181049816543        1026.2395475421351     
  -11426.708580718660       -19.287453801576248        1023.9472657235594     
  -11307.611989810281        9.9252095997117067        1019.9376935144059     
  -11190.213047692894        37.081125088152476        1015.5501086743348     
  -11076.057559586345        57.027608597588824        1012.1237889629690     
  -10966.691330710524        64.611976061742553        1010.9980121400480     
  -13160.828484854086       -54.550795883095816        879.25609002375688     
  -13058.373193463127       -74.119668850298694        899.95584124298500     
  -12946.928747258871       -72.268122411001968        912.52920284165884     
  -12828.204867275121       -54.695226677910796        918.39850585443025     
  -12703.911274545642       -27.100051763546617        918.98608131595279     
  -12575.757690104261        4.8183322193153799        915.71426026086658     
  -12445.453834984773        35.360855158046434        910.00537372384781     
  -12314.709430220948        58.828446940075082        903.28175273952456     
  -12185.234196846619        69.522037452620225        896.96572834255562     
  -14424.950741979323       -37.809314157094377        739.07302845110030     
  -14328.986083964723       -58.803233606437971        767.54624217414107     
  -14221.150861397633       -60.566101412753596        786.62008005059522     
  -14102.905055699610       -47.964522314389797        797.55271727067770     
  -13975.708648292037       -25.865101049471377        801.60232902456153     
  -13841.021620596479       0.86555764349486708        800.02709050255794     
  -13700.303954034407        27.360849026376854        794.08517689485734     
  -13555.015630027285        48.754168360841504        785.03476339166048     
  -13406.616629996632        60.178910908556645        774.13402518322971     
  -15688.169696514638       -5.4217392180216848        591.29934341798730     
  -15593.807261620372       -22.762503927749094        623.51632364103739     
  -15487.021337190014       -28.329277107289272        646.66181951363330     
  -15368.608509606453       -24.777346699665941        661.58264126217534     
  -15239.365365252605       -14.762000647913737        669.12559911301980     
  -15100.088490511360      -0.93852689498635300        670.13750329261154     
  -14951.574471765667        14.037786615999721        665.46516402734073     
  -14794.619895398397        27.511651942020762        655.95539154357107     
  -14630.021347792464        36.827781140099432        642.45499606773660     
  -16957.132945733163        40.617649752171928        438.36369000286396     
  -16856.079122554060        33.029801348508045        468.29607752242038     
  -16745.083681380453        24.279298481988917        491.56834790714544     
  -16623.866158130426        15.301021425720137        508.36873730023336     
  -16492.146088722031        7.0298504528382182        518.88548184485501     
  -16349.643009073359       0.40066583642601472        523.30681768414865     
  -16196.076455102429       -3.6516521503235708        521.82098096128971     
  -16031.165962727355       -4.1922232343658834        514.61620781946590     
  -15854.631067866148      -0.28616714250438235        501.88073440181103     
  -18238.488086908081        98.314573571500659        282.69472328422472     
  -18119.044062889690        107.60096338524363        302.31549569701866     
  -17995.881400713424        97.096573331870786        320.25359190750515     
  -17867.228930406272        72.705303321389692        335.79146485621601     
  -17731.315481995094        40.331053264267211        348.21156748363575     
  -17586.369885506909        5.8777230704636168        356.79635273032454     
  -17430.620970968623       -24.750787349757957        360.82827353677953     
  -17262.297568407179       -45.650578086150745        359.58978284353987     
  -17079.628507849571       -50.917749228684443        352.36333359115565     
  -19538.882717312481        165.67475305807966        126.72109834043894     
  -19385.944478751244        199.97826334521051        126.00457004361556     
  -19239.958001933446        189.95949541880691        131.63147819111362     
  -19097.247755568656        147.87022024708222        141.73128340135173     
  -18954.138208366476        85.962208798034226        154.43344629290192     
  -18806.953829036418        16.487232039861738        167.86742748422219     
  -18652.019086288063       -48.302939059284654        180.16268759375836     
  -18485.658448830971       -96.156533531330751        189.44868724000710     
  -18304.196385374704       -114.82178040815597        193.85488704148517     
  -20864.964434219568        240.70390902990130       -27.128529749979982     
  -20660.022766262649        309.18898239122336       -60.206707559026725     
  -20477.856991784975        302.70501271960620       -75.384066565658671     
  -20312.473562752391        241.23049346219068       -75.931347592933207     
  -20157.878931130912        144.74391806564108       -65.119291463707881     
  -20008.079548886402        33.223779977054619       -46.218639000979948     
  -19857.081867984703       -73.351427356375098       -22.500131027724461     
  -19698.892340391787       -155.00321048788828        2.7654916330678327     
  -19527.517418073578       -191.75307597057508        26.307488158497883     
  -9751.8053139563781        45.203542025547904        1116.2787831699711     
  -9665.7107287994768        38.303710118635081        1121.4344205978621     
  -9578.5456291385581        25.541053125348753        1125.7882724763531     
  -9489.2382429413738        10.488144486560486        1128.5700830602982     
  -9396.7167981756684       -3.2824423568526981        1129.0095966046106     
  -9299.9095228091719       -12.198133964040153        1126.3365573641461     
  -9197.7446448096307       -12.686356894163509        1119.7807095938231     
  -9089.1503921447984       -1.1745377062966327        1108.5717975484765     
  -8973.0549927823995        25.909897040385658        1091.9395654830241     
  -10966.691330710524        64.611976061742553        1010.9980121400480     
  -10862.249063446945        56.808232008131199        1012.5482967806836     
  -10760.619274143693        38.077667742378708        1015.5792996056845     
  -10659.978488970384        14.498529365669128        1019.0740055931747     
  -10558.503234096726       -7.8509370208776090        1022.0153997213106     
  -10454.370035692365       -22.892485316159764        1023.3864669681991     
  -10345.755419926905       -24.547869418873233        1022.1701923119999     
  -10230.835912970057       -6.7388432279230983        1017.3495607308614     
  -10107.788040991394        36.612839357899247        1007.9075572028588     
  -12185.234196846619        69.522037452620225        896.96572834255562     
  -12060.778019485519        63.043306878349085        893.62265918804042     
  -11942.568409962785        43.401844728604374        894.15129605609013     
  -11828.531530114305        17.510444883699165        897.47405816891694     
  -11716.593541776036       -7.7180987761607867        902.51336474880713     
  -11604.680606783835       -25.370992370472777        908.19163501795788     
  -11490.718886973638       -28.535442019089260        913.43128819860056     
  -11372.634544181285       -10.298653841544819        917.15474351297757     
  -11248.353740242777        36.252166042356293        918.28442018330850     
  -13406.616629996632        60.178910908556645        774.13402518322971     
  -13262.106460926838        56.766275525760648        765.93797615158030     
  -13126.296065499067        40.942675413006327        763.52821137676278     
  -12997.362578679775        18.784327348613260        765.95277784590962     
  -12873.483135435508       -3.6325518891235333        772.25972254621536     
  -12752.834870732735       -20.231745521836274        781.49709246486805     
  -12633.594919537973       -24.937036771234489        792.71293458898549     
  -12513.940416817753       -11.672208858994964        804.95529590578087     
  -12392.048497538559        25.638954993169136        817.27222340246487     
  -14630.021347792464        36.827781140099432        642.45499606773660     
  -14467.043251782596        37.734478746894638        630.77471600301908     
  -14313.705269655769        30.129251124638358        625.73399511695220     
  -14168.936846973471        17.580613068455023        626.69270168253024     
  -14031.667429297144        3.6570793736136693        633.01070397266687     
  -13900.826462188261       -8.0728351648531316        644.04787026038343     
  -13775.343391208240       -14.040615751782752        659.16406881859427     
  -13654.147661918571       -10.677747591933439        677.71916792026286     
  -13536.168719880694        5.5842841098065037        699.07303583837916     
  -15854.631067866148      -0.28616714250438235        501.88073440181103     
  -15676.397256064396        5.7052573381952243        489.41334707397220     
  -15506.699051336109        10.390663192496504        482.79259682588673     
  -15345.719547302051        13.159738351275337        481.87636673713183     
  -15193.641837582965        13.402170745386684        486.52253988732286     
  -15050.649015799580        10.507648305580915        496.58899935601920     
  -14916.924175572665        3.8658589627666515        511.93362822282967     
  -14792.650410522927       -7.1335093521493036        532.41430956732427     
  -14678.010814271160       -23.100768708404757        557.88892646913200     
  -17079.628507849571       -50.917749228684443        352.36333359115565     
  -16890.977337783937       -39.564047903812934        343.13433769616825     
  -16707.180439443349       -18.843997054318606        336.72796605280223     
  -16530.175891972231        4.7821395049704734        333.68631006814917     
  -16361.901774514925        24.854097959571845        334.55146114928425     
  -16204.296166215874        34.911614494769310        339.86551070323503     
  -16059.297146219453        28.494425296018562        350.17055013709682     
  -15928.842793670052      -0.85773345145207713        366.00867085794386     
  -15814.871187711991       -59.605125562056855        387.92196427279754     
  -18304.196385374704       -114.82178040815597        193.85488704148517     
  -18111.592360952796       -98.316096182445108        193.21815620120120     
  -17917.052462880645       -58.145638286810026        189.56405234689916     
  -17724.771093290597       -8.2917471623841266        184.30506873393304     
  -17538.942654315040        37.264236749635529        178.85369861767410     
  -17363.761548086328        64.540973008035508        174.62243525349405     
  -17203.422176736854        59.557121171447761        173.02377189684626     
  -17062.118942399047        8.3313407985724552        175.47020180305515     
  -16944.046247205184       -103.11770855171562        183.37421822750144     
  -19527.517418073578       -191.75307597057508        26.307488158497883     
  -19339.051189582722       -170.79354670153953        40.945270920814011     
  -19138.218150551256       -108.08516917595352        43.324805257400534     
  -18931.970363563854       -26.801485342675733        35.915179792814605     
  -18727.259891205253        49.883962849078671        21.185483151603759     
  -18531.038796060089        98.797633450549256        1.6048039582647384     
  -18350.259140713169        96.765984512429895       -20.357769162575270     
  -18191.872987749131        20.615474085955611       -42.233147586411441     
  -18062.832399752690       -152.82743977804876       -61.552242688760664     
 </DataArray>
 <DataArray  type="Float64" Name="VM" NumberOfComponents="1" format="ascii">
   29924.131373754564     
   27147.290588630181     
   25474.689857601184     
   24398.689365206428     
   23593.753511784445     
   22910.609440061573     
   22325.590956414508     
   21884.022788113121     
   21653.017260394448     
   24782.350254901674     
   23425.325033374018     
   22719.409966224728     
   22309.569355343181     
   21989.642379170848     
   21672.294103377466     
   21345.650878347060     
   21035.970416876840     
   20780.982180279443     
   20692.958809093689     
   20335.967979282588     
   20299.599332753227     
   20357.335964249050     
   20386.823479995026     
   20337.957934528669     
   20203.205796986247     
   19995.994702174441     
   19736.929924604530     
   17502.046614200885     
   17786.524869001420     
   18171.437928307674     
   18526.478326691591     
   18783.715423933652     
   18914.754450546061     
   18913.849001129762     
   18786.872889947128     
   18544.770670151662     
   15052.230115746293     
   15684.184093648008     
   16289.749323147740     
   16800.877352665313     
   17181.896960781218     
   17416.890159333991     
   17501.481054285035     
   17437.774559737420     
   17231.401969109789     
   13183.344080683255     
   13936.046529190326     
   14607.965687693060     
   15164.110976742682     
   15585.750115688112     
   15864.023622700737     
   15996.025407838404     
   15982.409801901773     
   15825.933559197143     
   11734.818276825625     
   12449.302748628959     
   13078.417644587482     
   13599.896261939890     
   14002.194298249518     
   14280.052040581706     
   14431.813036954811     
   14457.782582253612     
   14359.207101576440     
   10548.870410938083     
   11131.636754582849     
   11653.044226354130     
   12092.729309923674     
   12440.563185272618     
   12692.217486908112     
   12846.437618096594     
   12903.373112763784     
   12863.574611303036     
   9472.9864191330598     
   9891.9977386578648     
   10284.655968594188     
   10628.862183338930     
   10912.717301890119     
   11130.486534488587     
   11279.941685107795     
   11360.658854462408     
   11372.965222018232     
   21653.017260394448     
   21567.259522319069     
   21504.606602464253     
   21449.084051688376     
   21390.629606860486     
   21322.073221995910     
   21236.907246360144     
   21127.878308958178     
   20986.404303394622     
   20780.982180279443     
   20581.411316116806     
   20408.176910294183     
   20254.690066855423     
   20116.080784253500     
   19988.158011641102     
   19866.666606098279     
   19746.869447394693     
   19623.472176050029     
   19736.929924604530     
   19473.827146078431     
   19238.708453724550     
   19029.355284201338     
   18843.706728605965     
   18679.674417428087     
   18535.037500908598     
   18407.425894497042     
   18294.397272122202     
   18544.770670151662     
   18262.624522370996     
   18006.758500248452     
   17776.622149719988     
   17571.669078833183     
   17391.382472492460     
   17235.304865138722     
   17103.071663979968     
   16994.447757831447     
   17231.401969109789     
   16966.779894708990     
   16723.097590682446     
   16500.194745063556     
   16298.374997035313     
   16118.306131347506     
   15960.926988456373     
   15827.363914715363     
   15718.859545067588     
   15825.933559197143     
   15606.025925706894     
   15398.791453346485     
   15204.007635300752     
   15022.473078784047     
   14855.664654348544     
   14705.445986099883     
   14573.835978796804     
   14462.846289116143     
   14359.207101576440     
   14200.861634037101     
   14045.348151622929     
   13892.343717091171     
   13742.885683206634     
   13598.831334207236     
   13462.422947319012     
   13335.967041486976     
   13221.638413761915     
   12863.574611303036     
   12772.713189439977     
   12674.975778175147     
   12570.036710797664     
   12458.904856664947     
   12343.342738383924     
   12225.419375315672     
   12107.198935486866     
   11990.571401842370     
   11372.965222018232     
   11344.330410041483     
   11301.035768572114     
   11242.826587648840     
   11170.404354986711     
   11085.001212325622     
   10988.063078868490     
   10881.036867501607     
   10765.261859566934     
   20986.404303394622     
   20816.600694818459     
   20631.288266474738     
   20434.579983893156     
   20230.953653911409     
   20024.872123801739     
   19820.546264250715     
   19621.850494325055     
   19432.403877959889     
   19623.472176050029     
   19487.925328372457     
   19336.981713239158     
   19173.182180885531     
   18999.148227682799     
   18817.449274216437     
   18630.528108723323     
   18440.687892391470     
   18250.145426527739     
   18294.397272122202     
   18180.625574876638     
   18053.149327487954     
   17913.136680525440     
   17761.758128975689     
   17600.162471450665     
   17429.467277314343     
   17250.764675462975     
   17065.143600293330     
   16994.447757831447     
   16892.103212660455     
   16778.852588528240     
   16654.814277443660     
   16520.126990462253     
   16374.948167990175     
   16219.452976138942     
   16053.833903366147     
   15878.300983425715     
   15718.859545067588     
   15619.817757023840     
   15513.362332322791     
   15398.929276763736     
   15276.017096517127     
   15144.165684609043     
   15002.939542296670     
   14851.915418577004     
   14690.674505022227     
   14462.846289116143     
   14361.340153353080     
   14256.219479967207     
   14146.591939817205     
   14031.654107433360     
   13910.643065281693     
   13782.802429171450     
   13647.363406627972     
   13503.541647272172     
   13221.638413761915     
   13114.437976398009     
   13007.331204926808     
   12899.401441856458     
   12789.817265470894     
   12677.771755885393     
   12562.443344344192     
   12442.979472044763     
   12318.504398154420     
   11990.571401842370     
   11877.214657537250     
   11767.128124746587     
   11659.607756719528     
   11554.005923904600     
   11449.682813811878     
   11345.977913871166     
   11242.202986037442     
   11137.657922108870     
   10765.261859566934     
   10648.345962278896     
   10536.830834821698     
   10430.395521214748     
   10328.739798647230     
   10231.565571500121     
   10138.568141069496     
   10049.438136539242     
   9963.8748159595652     
   19432.403877959889     
   19254.353163688396     
   19084.552652646129     
   18918.686131459875     
   18752.287536544845     
   18580.634820642055     
   18398.866769319080     
   18202.336465479661     
   17987.221579020319     
   18250.145426527739     
   18065.735042205757     
   17891.063551701642     
   17723.501765093886     
   17560.337106747673     
   17398.750923156902     
   17235.883488169722     
   17068.992117831327     
   16895.709028576326     
   17065.143600293330     
   16881.695081478098     
   16707.949019634976     
   16542.666869526543     
   16384.592816271990     
   16232.457512658459     
   16085.002189872856     
   15941.024365493486     
   15799.446396095229     
   15878.300983425715     
   15702.148822160161     
   15534.420310919431     
   15374.974528618615     
   15223.687865774598     
   15080.454072637420     
   14945.184396613395     
   14817.807818160425     
   14698.271392897512     
   14690.674505022227     
   14527.088521207223     
   14369.723610315879     
   14219.226781889374     
   14076.261108554028     
   13941.492581478318     
   13815.583961239337     
   13699.196204783346     
   13592.997974600807     
   13503.541647272172     
   13356.628074867402     
   13213.162996409774     
   13074.248909196842     
   12940.980367634258     
   12814.421858613599     
   12695.608666610589     
   12585.572484204244     
   12485.393231953405     
   12318.504398154420     
   12191.077745415256     
   12064.148252871848     
   11938.926529603104     
   11816.589401625846     
   11698.259252869204     
   11585.016712251170     
   11477.949214994826     
   11378.237653597536     
   11137.657922108870     
   11031.070175483464     
   10922.285488790232     
   10812.281955741557     
   10701.995349911482     
   10592.309001292731     
   10484.073028166165     
   10378.155196228099     
   10275.525647530108     
   9963.8748159595652     
   9877.7785522851937     
   9787.5447667429071     
   9693.6210072074937     
   9596.4285641062688     
   9496.3638570809781     
   9393.8122259466090     
   9289.1751502323605     
   9182.9120763129540     
   9472.9864191330598     
   9891.9977386578648     
   10284.655968594188     
   10628.862183338930     
   10912.717301890119     
   11130.486534488587     
   11279.941685107795     
   11360.658854462408     
   11372.965222018232     
   8385.2538575017243     
   8661.3301050656137     
   8943.0465181997824     
   9206.4575261971622     
   9437.0602764110008     
   9626.7335486212796     
   9771.4729960578443     
   9869.8101656192266     
   9921.7465918090966     
   7265.2119536314758     
   7429.6685459988112     
   7625.6812162338783     
   7827.6762773543351     
   8018.6111558927087     
   8187.8826857341528     
   8329.4762234014834     
   8440.5230042310232     
   8520.2396450040105     
   6117.8464936682976     
   6196.5407840024200     
   6328.8996376216382     
   6487.4494141264640     
   6652.1978776414089     
   6809.5859548423687     
   6951.0827939912997     
   7071.8862571645213     
   7169.8748423328589     
   4949.3296802644400     
   4961.7568997259568     
   5049.4253159590226     
   5181.8821442130129     
   5334.8950231895788     
   5490.7941636154501     
   5637.5986783455237     
   5767.8195918301244     
   5877.3688255967181     
   3768.3996097983945     
   3725.4714854810741     
   3784.7158540323121     
   3909.9340035390628     
   4069.2892067389853     
   4238.3733086053071     
   4400.0866725155247     
   4543.2771853059130     
   4661.2997153158003     
   2591.6521047696410     
   2488.4733615274399     
   2534.3342101559933     
   2679.6274061656823     
   2874.6055876267528     
   3081.5619471250557     
   3275.5912749829308     
   3441.2776682254271     
   3569.5422886662086     
   1473.8457949276199     
   1254.2736472452586     
   1309.0674553152699     
   1542.2957082151324     
   1836.0987462148935     
   2124.7121015795155     
   2377.6585117020986     
   2580.1922383347896     
   2724.5333540226311     
   804.97372935867872     
   178.69049486269415     
   386.46369177798152     
   888.46093269680330     
   1325.2733300272230     
   1694.8729859026996     
   1995.2320024566820     
   2224.3224818226181     
   2380.1165261339811     
   11372.965222018232     
   11344.330410041483     
   11301.035768572114     
   11242.826587648840     
   11170.404354986711     
   11085.001212325622     
   10988.063078868490     
   10881.036867501607     
   10765.261859566934     
   9921.7465918090966     
   9941.1062587745873     
   9940.7504504255539     
   9920.4765630915226     
   9880.6283316871268     
   9821.8675085210743     
   9745.0065615296298     
   9650.8966502526073     
   9540.3683869320048     
   8520.2396450040105     
   8573.2176438638980     
   8603.5426247290525     
   8611.0656097106876     
   8595.9390809389770     
   8558.5089609774896     
   8499.2351341176745     
   8418.6362164478232     
   8317.2560917559858     
   7169.8748423328589     
   7244.3400806447662     
   7294.8637078901020     
   7321.4379994715646     
   7324.2297289051821     
   7303.5311497464636     
   7259.7231341553525     
   7193.2477481324531     
   7104.5884278364210     
   5877.3688255967181     
   5963.7773400062260     
   6026.0724531941087     
   6064.5472104253840     
   6079.6231263775326     
   6071.8150875512374     
   6041.7066417149063     
   5989.9332400067578     
   5917.1719473954699     
   4661.2997153158003     
   4753.2663724082040     
   4821.3950079403912     
   4866.5142161027461     
   4889.5850420254019     
   4891.6517576363776     
   4873.8120980887361     
   4837.2029649352953     
   4782.9998477421932     
   3569.5422886662086     
   3664.6893737148821     
   3735.8171176659644     
   3784.6247759152975     
   3812.9577594113916     
   3822.7398524378723     
   3815.9361897994859     
   3794.5401255539764     
   3760.5814630013642     
   2724.5333540226311     
   2824.4324486139685     
   2898.7992709296932     
   2950.5761523450406     
   2982.7971892607829     
   2998.5408755023391     
   3000.9060489262720     
   2993.0048622510567     
   2977.9705485899822     
   2380.1165261339811     
   2483.8378431778042     
   2560.5718350716479     
   2614.0831454447207     
   2648.1364179262555     
   2666.4962961454994     
   2672.9274237316781     
   2671.1944443139769     
   2665.0620015216573     
   10765.261859566934     
   10648.345962278896     
   10536.830834821698     
   10430.395521214748     
   10328.739798647230     
   10231.565571500121     
   10138.568141069496     
   10049.438136539242     
   9963.8748159595652     
   9540.3683869320048     
   9425.1112114668140     
   9316.3085637273543     
   9214.0123599631879     
   9118.2795594707331     
   9029.1718921333741     
   8946.7573513019870     
   8871.1135605233321     
   8802.3330909729830     
   8317.2560917559858     
   8209.0021786535690     
   8107.5940480152185     
   8013.3104338452604     
   7926.4378058993861     
   7847.2683404916997     
   7776.0985548327353     
   7713.2286783223562     
   7658.9628218111693     
   7104.5884278364210     
   7008.2324441890669     
   6918.5549238765561     
   6835.9152118617121     
   6760.6875997094285     
   6693.2468693830033     
   6633.9580318181243     
   6583.1708503218297     
   6541.2196546683099     
   5917.1719473954699     
   5837.1121173834890     
   5763.1371254908727     
   5695.5272801125420     
   5634.5798888863792     
   5580.5806653483251     
   5533.7851466331203     
   5494.4114118760635     
   5462.6451281662594     
   4782.9998477421932     
   4723.0209942792353     
   4668.2655082023339     
   4618.7506616282599     
   4574.5025989303494     
   4535.5203078442628     
   4501.7549639793324     
   4473.1062193358848     
   4449.4365482551384     
   3760.5814630013642     
   3723.3267001234617     
   3690.3460700447604     
   3661.1891534497618     
   3635.3996004865057     
   3612.4849914241931     
   3591.9030272551518     
   3573.0649486310913     
   3555.3566886335348     
   2977.9705485899822     
   2962.4970319681552     
   2950.4656503024758     
   2940.8228630799399     
   2932.5057351788346     
   2924.4298508341149     
   2915.4857442653720     
   2904.5437776707263     
   2890.4673855081924     
   2665.0620015216573     
   2659.9851244817182     
   2657.9778688222309     
   2657.6434179240850     
   2657.5849551681299     
   2656.4056639351938     
   2652.7087276062057     
   2645.0973295620461     
   2632.1746531834965     
   9963.8748159595652     
   9877.7785522851937     
   9787.5447667429071     
   9693.6210072074937     
   9596.4285641062688     
   9496.3638570809781     
   9393.8122259466090     
   9289.1751502323605     
   9182.9120763129540     
   8802.3330909729830     
   8734.4676100206252     
   8661.4345086431058     
   8583.1341719792235     
   8499.4608217933037     
   8410.3060329654436     
   8315.5634865381326     
   8215.1351135256700     
   8108.9388270974232     
   7658.9628218111693     
   7606.4969569337882     
   7548.5290981701110     
   7484.6236240802646     
   7414.3467502239337     
   7337.2647527771260     
   7252.9449722313384     
   7160.9598110952811     
   7060.8940469529161     
   6541.2196546683099     
   6501.4134409712387     
   6456.4600812041526     
   6405.7943830484674     
   6348.8515466371064     
   6285.0588128035533     
   6213.8390214010342     
   6134.6269289266029     
   6046.8996613014551     
   5462.6451281662594     
   5432.8505643667522     
   5398.9386639513823     
   5360.4151459058585     
   5316.7815642406149     
   5267.5241149589019     
   5212.1258331693998     
   5150.1038350212066     
   5081.0742956888171     
   4449.4365482551384     
   4427.0677394141594     
   4402.2566936821850     
   4374.7745805693457     
   4344.3877028143415     
   4310.8499999012565     
   4273.9269816784663     
   4233.4530543273549     
   4189.4251353601157     
   3555.3566886335348     
   3537.8308759813658     
   3520.0809287037273     
   3502.3208785537381     
   3484.7651873777331     
   3467.6293272493499     
   3451.1596810424180     
   3435.6936886998187     
   3421.7508811138591     
   2890.4673855081924     
   2875.2527767794504     
   2862.1376904441017     
   2851.8616667640181     
   2845.1671798286152     
   2842.8030668245447     
   2845.5414214730722     
   2854.2074925289680     
   2869.7212095774994     
   2632.1746531834965     
   2617.4115754465997     
   2605.8904974794546     
   2598.6318888912629     
   2596.6562192912284     
   2600.9839582885152     
   2612.6355754923084     
   2632.6315405117816     
   2661.9923229561209     
   804.97372935867872     
   178.69049486269415     
   386.46369177798152     
   888.46093269680330     
   1325.2733300272230     
   1694.8729859026996     
   1995.2320024566820     
   2224.3224818226181     
   2380.1165261339811     
   1473.8457949281217     
   1254.2736472458932     
   1309.0674553159176     
   1542.2957082157216     
   1836.0987462154201     
   2124.7121015799971     
   2377.6585117025616     
   2580.1922383352512     
   2724.5333540230922     
   2591.6521047702090     
   2488.4733615280716     
   2534.3342101566600     
   2679.6274061663603     
   2874.6055876274222     
   3081.5619471257237     
   3275.5912749836016     
   3441.2776682261037     
   3569.5422886669053     
   3768.3996097989780     
   3725.4714854817075     
   3784.7158540329729     
   3909.9340035397495     
   4069.2892067396906     
   4238.3733086060238     
   4400.0866725162759     
   4543.2771853066743     
   4661.2997153165879     
   4949.3296802650220     
   4961.7568997266026     
   5049.4253159596810     
   5181.8821442136932     
   5334.8950231902900     
   5490.7941636161768     
   5637.5986783462768     
   5767.8195918309129     
   5877.3688255975285     
   6117.8464936688797     
   6196.5407840030357     
   6328.8996376222713     
   6487.4494141271380     
   6652.1978776421101     
   6809.5859548430844     
   6951.0827939920464     
   7071.8862571652826     
   7169.8748423336638     
   7265.2119536320470     
   7429.6685459994032     
   7625.6812162345141     
   7827.6762773549945     
   8018.6111558933835     
   8187.8826857348586     
   8329.4762234022201     
   8440.5230042317908     
   8520.2396450047981     
   8385.2538575022809     
   8661.3301050662067     
   8943.0465182004027     
   9206.4575261978043     
   9437.0602764116775     
   9626.7335486219727     
   9771.4729960585610     
   9869.8101656199669     
   9921.7465918098496     
   9472.9864191335801     
   9891.9977386584251     
   10284.655968594780     
   10628.862183339568     
   10912.717301890774     
   11130.486534489275     
   11279.941685108497     
   11360.658854463114     
   11372.965222018956     
   2380.1165261339811     
   2483.8378431778042     
   2560.5718350716479     
   2614.0831454447207     
   2648.1364179262555     
   2666.4962961454994     
   2672.9274237316781     
   2671.1944443139769     
   2665.0620015216573     
   2724.5333540230922     
   2824.4324486144483     
   2898.7992709301852     
   2950.5761523455358     
   2982.7971892613014     
   2998.5408755028548     
   3000.9060489267968     
   2993.0048622515801     
   2977.9705485904969     
   3569.5422886669053     
   3664.6893737156042     
   3735.8171176667065     
   3784.6247759160588     
   3812.9577594121702     
   3822.7398524386599     
   3815.9361898002962     
   3794.5401255547786     
   3760.5814630021787     
   4661.2997153165879     
   4753.2663724090207     
   4821.3950079412316     
   4866.5142161036174     
   4889.5850420262914     
   4891.6517576372880     
   4873.8120980896674     
   4837.2029649362239     
   4782.9998477431245     
   5877.3688255975285     
   5963.7773400070728     
   6026.0724531949727     
   6064.5472104262799     
   6079.6231263784621     
   6071.8150875521733     
   6041.7066417158603     
   5989.9332400077210     
   5917.1719473964295     
   7169.8748423336638     
   7244.3400806455993     
   7294.8637078909596     
   7321.4379994724432     
   7324.2297289060925     
   7303.5311497473849     
   7259.7231341562956     
   7193.2477481333945     
   7104.5884278373806     
   8520.2396450047981     
   8573.2176438647075     
   8603.5426247298874     
   8611.0656097115443     
   8595.9390809398337     
   8558.5089609783809     
   8499.2351341185749     
   8418.6362164487273     
   8317.2560917569026     
   9921.7465918098496     
   9941.1062587753713     
   9940.7504504263434     
   9920.4765630923175     
   9880.6283316879453     
   9821.8675085219074     
   9745.0065615304738     
   9650.8966502534549     
   9540.3683869328652     
   11372.965222018956     
   11344.330410042208     
   11301.035768572841     
   11242.826587649583     
   11170.404354987464     
   11085.001212326384     
   10988.063078869254     
   10881.036867502375     
   10765.261859567718     
   2665.0620015216573     
   2659.9851244817182     
   2657.9778688222309     
   2657.6434179240850     
   2657.5849551681299     
   2656.4056639351938     
   2652.7087276062057     
   2645.0973295620461     
   2632.1746531834965     
   2977.9705485904969     
   2962.4970319686745     
   2950.4656503029778     
   2940.8228630804415     
   2932.5057351793189     
   2924.4298508345428     
   2915.4857442658040     
   2904.5437776711165     
   2890.4673855085371     
   3760.5814630021787     
   3723.3267001242684     
   3690.3460700455557     
   3661.1891534505244     
   3635.3996004872365     
   3612.4849914248830     
   3591.9030272557989     
   3573.0649486316793     
   3555.3566886340677     
   4782.9998477431245     
   4723.0209942801739     
   4668.2655082032488     
   4618.7506616291475     
   4574.5025989311744     
   4535.5203078450586     
   4501.7549639800654     
   4473.1062193365478     
   4449.4365482557323     
   5917.1719473964295     
   5837.1121173844558     
   5763.1371254918049     
   5695.5272801134606     
   5634.5798888872559     
   5580.5806653491381     
   5533.7851466338643     
   5494.4114118767338     
   5462.6451281668342     
   7104.5884278373806     
   7008.2324441900291     
   6918.5549238774856     
   6835.9152118626207     
   6760.6875997102970     
   6693.2468693838146     
   6633.9580318188519     
   6583.1708503224663     
   6541.2196546688374     
   8317.2560917569026     
   8209.0021786544803     
   8107.5940480161198     
   8013.3104338461344     
   7926.4378059002001     
   7847.2683404924728     
   7776.0985548334229     
   7713.2286783229401     
   7658.9628218116377     
   9540.3683869328652     
   9425.1112114676889     
   9316.3085637282056     
   9214.0123599640046     
   9118.2795594715153     
   9029.1718921340762     
   8946.7573513026164     
   8871.1135605238560     
   8802.3330909733941     
   10765.261859567718     
   10648.345962279693     
   10536.830834822467     
   10430.395521215492     
   10328.739798647935     
   10231.565571500767     
   10138.568141070071     
   10049.438136539744     
   9963.8748159599127     
   2632.1746531834965     
   2617.4115754465997     
   2605.8904974794546     
   2598.6318888912629     
   2596.6562192912284     
   2600.9839582885152     
   2612.6355754923084     
   2632.6315405117816     
   2661.9923229561209     
   2890.4673855085371     
   2875.2527767797505     
   2862.1376904443150     
   2851.8616667641400     
   2845.1671798285684     
   2842.8030668243196     
   2845.5414214725993     
   2854.2074925282345     
   2869.7212095764949     
   3555.3566886340677     
   3537.8308759818115     
   3520.0809287040456     
   3502.3208785538582     
   3484.7651873776113     
   3467.6293272489033     
   3451.1596810415813     
   3435.6936886986277     
   3421.7508811121634     
   4449.4365482557323     
   4427.0677394146505     
   4402.2566936825142     
   4374.7745805694358     
   4344.3877028141333     
   4310.8499999006690     
   4273.9269816774704     
   4233.4530543258334     
   4189.4251353580703     
   5462.6451281668342     
   5432.8505643672052     
   5398.9386639516379     
   5360.4151459058767     
   5316.7815642403048     
   5267.5241149582171     
   5212.1258331682820     
   5150.1038350195213     
   5081.0742956865897     
   6541.2196546688374     
   6501.4134409716371     
   6456.4600812043509     
   6405.7943830484137     
   6348.8515466367344     
   6285.0588128027994     
   6213.8390213998719     
   6134.6269289248930     
   6046.8996612992050     
   7658.9628218116377     
   7606.4969569341192     
   7548.5290981702256     
   7484.6236240801445     
   7414.3467502235062     
   7337.2647527763393     
   7252.9449722301561     
   7160.9598110936431     
   7060.8940469507879     
   8802.3330909733941     
   8734.4676100208926     
   8661.4345086431877     
   8583.1341719790580     
   8499.4608217928726     
   8410.3060329646905     
   8315.5634865370175     
   8215.1351135241566     
   8108.9388270954714     
   9963.8748159599127     
   9877.7785522854101     
   9787.5447667429544     
   9693.6210072073391     
   9596.4285641058596     
   9496.3638570802977     
   9393.8122259456195     
   9289.1751502310781     
   9182.9120763113206     
   9472.9864191335801     
   9891.9977386584251     
   10284.655968594780     
   10628.862183339568     
   10912.717301890774     
   11130.486534489275     
   11279.941685108497     
   11360.658854463114     
   11372.965222018956     
   10548.870410938593     
   11131.636754583405     
   11653.044226354721     
   12092.729309924278     
   12440.563185273262     
   12692.217486908770     
   12846.437618097252     
   12903.373112764461     
   12863.574611303715     
   11734.818276826096     
   12449.302748629483     
   13078.417644588033     
   13599.896261940483     
   14002.194298250131     
   14280.052040582357     
   14431.813036955455     
   14457.782582254251     
   14359.207101577071     
   13183.344080683728     
   13936.046529190839     
   14607.965687693595     
   15164.110976743263     
   15585.750115688716     
   15864.023622701370     
   15996.025407839006     
   15982.409801902377     
   15825.933559197721     
   15052.230115746801     
   15684.184093648502     
   16289.749323148289     
   16800.877352665866     
   17181.896960781793     
   17416.890159334584     
   17501.481054285610     
   17437.774559737965     
   17231.401969110331     
   17502.046614201423     
   17786.524869001973     
   18171.437928308220     
   18526.478326692137     
   18783.715423934202     
   18914.754450546603     
   18913.849001130297     
   18786.872889947637     
   18544.770670152135     
   20692.958809094336     
   20335.967979283210     
   20299.599332753805     
   20357.335964249603     
   20386.823479995550     
   20337.957934529182     
   20203.205796986731     
   19995.994702174889     
   19736.929924604941     
   24782.350254902529     
   23425.325033374742     
   22719.409966225365     
   22309.569355343760     
   21989.642379171350     
   21672.294103377932     
   21345.650878347482     
   21035.970416877222     
   20780.982180279774     
   29924.131373755637     
   27147.290588631033     
   25474.689857601883     
   24398.689365207014     
   23593.753511784937     
   22910.609440061980     
   22325.590956414864     
   21884.022788113423     
   21653.017260394714     
   11372.965222018956     
   11344.330410042208     
   11301.035768572841     
   11242.826587649583     
   11170.404354987464     
   11085.001212326384     
   10988.063078869254     
   10881.036867502375     
   10765.261859567718     
   12863.574611303715     
   12772.713189440659     
   12674.975778175820     
   12570.036710798342     
   12458.904856665638     
   12343.342738384594     
   12225.419375316354     
   12107.198935487557     
   11990.571401843054     
   14359.207101577071     
   14200.861634037723     
   14045.348151623542     
   13892.343717091775     
   13742.885683207227     
   13598.831334207816     
   13462.422947319594     
   13335.967041487560     
   13221.638413762497     
   15825.933559197721     
   15606.025925707450     
   15398.791453347023     
   15204.007635301276     
   15022.473078784556     
   14855.664654349035     
   14705.445986100371     
   14573.835978797286     
   14462.846289116620     
   17231.401969110331     
   16966.779894709493     
   16723.097590682915     
   16500.194745063993     
   16298.374997035744     
   16118.306131347914     
   15960.926988456762     
   15827.363914715739     
   15718.859545067939     
   18544.770670152135     
   18262.624522371429     
   18006.758500248867     
   17776.622149720362     
   17571.669078833529     
   17391.382472492769     
   17235.304865139005     
   17103.071663980234     
   16994.447757831673     
   19736.929924604941     
   19473.827146078813     
   19238.708453724899     
   19029.355284201636     
   18843.706728606245     
   18679.674417428305     
   18535.037500908802     
   18407.425894497192     
   18294.397272122304     
   20780.982180279774     
   20581.411316117137     
   20408.176910294471     
   20254.690066855659     
   20116.080784253689     
   19988.158011641266     
   19866.666606098399     
   19746.869447394743     
   19623.472176050000     
   21653.017260394714     
   21567.259522319320     
   21504.606602464479     
   21449.084051688562     
   21390.629606860639     
   21322.073221996019     
   21236.907246360188     
   21127.878308958148     
   20986.404303394505     
   10765.261859567718     
   10648.345962279693     
   10536.830834822467     
   10430.395521215492     
   10328.739798647935     
   10231.565571500767     
   10138.568141070071     
   10049.438136539744     
   9963.8748159599127     
   11990.571401843054     
   11877.214657537939     
   11767.128124747269     
   11659.607756720205     
   11554.005923905232     
   11449.682813812457     
   11345.977913871682     
   11242.202986037875     
   11137.657922109196     
   13221.638413762497     
   13114.437976398602     
   13007.331204927399     
   12899.401441857026     
   12789.817265471431     
   12677.771755885879     
   12562.443344344627     
   12442.979472045146     
   12318.504398154722     
   14462.846289116620     
   14361.340153353565     
   14256.219479967680     
   14146.591939817667     
   14031.654107433804     
   13910.643065282087     
   13782.802429171814     
   13647.363406628290     
   13503.541647272441     
   15718.859545067939     
   15619.817757024202     
   15513.362332323140     
   15398.929276764073     
   15276.017096517442     
   15144.165684609343     
   15002.939542296954     
   14851.915418577248     
   14690.674505022416     
   16994.447757831673     
   16892.103212660681     
   16778.852588528436     
   16654.814277443842     
   16520.126990462421     
   16374.948167990338     
   16219.452976139079     
   16053.833903366269     
   15878.300983425812     
   18294.397272122304     
   18180.625574876729     
   18053.149327488019     
   17913.136680525458     
   17761.758128975704     
   17600.162471450643     
   17429.467277314285     
   17250.764675462924     
   17065.143600293290     
   19623.472176050000     
   19487.925328372421     
   19336.981713239045     
   19173.182180885382     
   18999.148227682617     
   18817.449274216226     
   18630.528108723098     
   18440.687892391212     
   18250.145426527451     
   20986.404303394505     
   20816.600694818273     
   20631.288266474461     
   20434.579983892821     
   20230.953653911012     
   20024.872123801222     
   19820.546264250184     
   19621.850494324528     
   19432.403877959263     
   9963.8748159599127     
   9877.7785522854101     
   9787.5447667429544     
   9693.6210072073391     
   9596.4285641058596     
   9496.3638570802977     
   9393.8122259456195     
   9289.1751502310781     
   9182.9120763113206     
   11137.657922109196     
   11031.070175483643     
   10922.285488790305     
   10812.281955741442     
   10701.995349911158     
   10592.309001292189     
   10484.073028165411     
   10378.155196227102     
   10275.525647528837     
   12318.504398154722     
   12191.077745415463     
   12064.148252871944     
   11938.926529603070     
   11816.589401625653     
   11698.259252868862     
   11585.016712250677     
   11477.949214994138     
   11378.237653596672     
   13503.541647272441     
   13356.628074867584     
   13213.162996409892     
   13074.248909196865     
   12940.980367634204     
   12814.421858613448     
   12695.608666610329     
   12585.572484203914     
   12485.393231953009     
   14690.674505022416     
   14527.088521207390     
   14369.723610316007     
   14219.226781889472     
   14076.261108554105     
   13941.492581478404     
   13815.583961239381     
   13699.196204783426     
   13592.997974600912     
   15878.300983425812     
   15702.148822160254     
   15534.420310919531     
   15374.974528618759     
   15223.687865774800     
   15080.454072637693     
   14945.184396613746     
   14817.807818160869     
   14698.271392898103     
   17065.143600293290     
   16881.695081478087     
   16707.949019635020     
   16542.666869526693     
   16384.592816272245     
   16232.457512658884     
   16085.002189873479     
   15941.024365494321     
   15799.446396096309     
   18250.145426527451     
   18065.735042205535     
   17891.063551701536     
   17723.501765093923     
   17560.337106747935     
   17398.750923157466     
   17235.883488170584     
   17068.992117832535     
   16895.709028577956     
   19432.403877959263     
   19254.353163687858     
   19084.552652645765     
   18918.686131459774     
   18752.287536545013     
   18580.634820642641     
   18398.866769320088     
   18202.336465481221     
   17987.221579022440     
 </DataArray>
 </PointData>
 </Piece>
 <Piece  NumberOfPoints="          5184 "  NumberOfCells="         4096 ">
 <Points>
 <DataArray  type="Float64" NumberOfComponents="3"  format="ascii" >
  -5.0000000000000000        0.0000000000000000        0.0000000000000000     
  -4.9218750000000000        0.0000000000000000        0.0000000000000000     
  -4.8437500000000000        0.0000000000000000        0.0000000000000000     
  -4.7656250000000000        0.0000000000000000        0.0000000000000000     
  -4.6875000000000000        0.0000000000000000        0.0000000000000000     
  -4.6093750000000000        0.0000000000000000        0.0000000000000000     
  -4.5312500000000000        0.0000000000000000        0.0000000000000000     
  -4.4531250000000000        0.0000000000000000        0.0000000000000000     
  -4.3750000000000000        0.0000000000000000        0.0000000000000000     
  -5.0000000000000000        7.8124999999999986E-002   0.0000000000000000     
  -4.9218750000000009        7.8125000000000014E-002   0.0000000000000000     
  -4.8437500000000000        7.8125000000000000E-002   0.0000000000000000     
  -4.7656250000000009        7.8125000000000000E-002   0.0000000000000000     
  -4.6875000000000000        7.8124999999999986E-002   0.0000000000000000     
  -4.6093750000000000        7.8125000000000000E-002   0.0000000000000000     
  -4.5312500000000000        7.8125000000000000E-002   0.0000000000000000     
  -4.4531250000000000        7.8124999999999986E-002   0.0000000000000000     
  -4.3750000000000000        7.8125000000000000E-002   0.0000000000000000     
  -5.0000000000000000       0.15625000000000000        0.0000000000000000     
  -4.9218750000000000       0.15625000000000000        0.0000000000000000     
  -4.8437500000000000       0.15625000000000000        0.0000000000000000     
  -4.7656250000000000       0.15625000000000003        0.0000000000000000     
  -4.6875000000000000       0.15625000000000000        0.0000000000000000     
  -4.6093750000000000       0.15624999999999997        0.0000000000000000     
  -4.5312500000000009       0.15625000000000003        0.0000000000000000     
  -4.4531250000000000       0.15624999999999997        0.0000000000000000     
  -4.3750000000000000       0.15625000000000000        0.0000000000000000     
  -5.0000000000000000       0.23437500000000000        0.0000000000000000     
  -4.9218750000000000       0.23437500000000000        0.0000000000000000     
  -4.8437500000000000       0.23437500000000000        0.0000000000000000     
  -4.7656250000000000       0.23437500000000000        0.0000000000000000     
  -4.6875000000000000       0.23437500000000000        0.0000000000000000     
  -4.6093750000000000       0.23437500000000000        0.0000000000000000     
  -4.5312500000000000       0.23437500000000000        0.0000000000000000     
  -4.4531250000000000       0.23437500000000000        0.0000000000000000     
  -4.3750000000000000       0.23437500000000000        0.0000000000000000     
  -5.0000000000000000       0.31250000000000006        0.0000000000000000     
  -4.9218750000000000       0.31250000000000000        0.0000000000000000     
  -4.8437500000000000       0.31250000000000000        0.0000000000000000     
  -4.7656250000000000       0.31250000000000000        0.0000000000000000     
  -4.6875000000000000       0.31250000000000000        0.0000000000000000     
  -4.6093750000000000       0.31250000000000006        0.0000000000000000     
  -4.5312500000000000       0.31250000000000006        0.0000000000000000     
  -4.4531250000000000       0.31249999999999994        0.0000000000000000     
  -4.3750000000000000       0.31250000000000000        0.0000000000000000     
  -5.0000000000000000       0.39062500000000006        0.0000000000000000     
  -4.9218750000000000       0.39062500000000000        0.0000000000000000     
  -4.8437500000000000       0.39062499999999994        0.0000000000000000     
  -4.7656250000000000       0.39062500000000000        0.0000000000000000     
  -4.6875000000000000       0.39062499999999994        0.0000000000000000     
  -4.6093750000000000       0.39062500000000000        0.0000000000000000     
  -4.5312500000000000       0.39062500000000000        0.0000000000000000     
  -4.4531250000000000       0.39062499999999994        0.0000000000000000     
  -4.3750000000000009       0.39062500000000006        0.0000000000000000     
  -5.0000000000000000       0.46875000000000000        0.0000000000000000     
  -4.9218750000000000       0.46875000000000000        0.0000000000000000     
  -4.8437500000000000       0.46875000000000000        0.0000000000000000     
  -4.7656250000000000       0.46875000000000000        0.0000000000000000     
  -4.6875000000000000       0.46875000000000000        0.0000000000000000     
  -4.6093750000000000       0.46875000000000000        0.0000000000000000     
  -4.5312500000000000       0.46875000000000000        0.0000000000000000     
  -4.4531249999999991       0.46875000000000000        0.0000000000000000     
  -4.3750000000000000       0.46875000000000000        0.0000000000000000     
  -4.9999999999999991       0.54687499999999989        0.0000000000000000     
  -4.9218749999999991       0.54687499999999989        0.0000000000000000     
  -4.8437500000000000       0.54687500000000000        0.0000000000000000     
  -4.7656250000000009       0.54687500000000000        0.0000000000000000     
  -4.6875000000000000       0.54687500000000011        0.0000000000000000     
  -4.6093750000000000       0.54687499999999989        0.0000000000000000     
  -4.5312500000000000       0.54687500000000011        0.0000000000000000     
  -4.4531250000000009       0.54687500000000011        0.0000000000000000     
  -4.3750000000000000       0.54687500000000000        0.0000000000000000     
  -5.0000000000000000       0.62500000000000011        0.0000000000000000     
  -4.9218750000000000       0.62500000000000000        0.0000000000000000     
  -4.8437500000000000       0.62500000000000000        0.0000000000000000     
  -4.7656250000000000       0.62500000000000011        0.0000000000000000     
  -4.6875000000000000       0.62499999999999989        0.0000000000000000     
  -4.6093750000000009       0.62500000000000011        0.0000000000000000     
  -4.5312500000000000       0.62500000000000011        0.0000000000000000     
  -4.4531250000000000       0.62499999999999989        0.0000000000000000     
  -4.3750000000000009       0.62500000000000022        0.0000000000000000     
  -4.3750000000000000        0.0000000000000000        0.0000000000000000     
  -4.2968750000000000        0.0000000000000000        0.0000000000000000     
  -4.2187500000000000        0.0000000000000000        0.0000000000000000     
  -4.1406250000000009        0.0000000000000000        0.0000000000000000     
  -4.0625000000000000        0.0000000000000000        0.0000000000000000     
  -3.9843750000000009        0.0000000000000000        0.0000000000000000     
  -3.9062499999999996        0.0000000000000000        0.0000000000000000     
  -3.8281250000000000        0.0000000000000000        0.0000000000000000     
  -3.7500000000000009        0.0000000000000000        0.0000000000000000     
  -4.3750000000000000        7.8125000000000000E-002   0.0000000000000000     
  -4.2968750000000000        7.8124999999999986E-002   0.0000000000000000     
  -4.2187500000000009        7.8125000000000000E-002   0.0000000000000000     
  -4.1406250000000000        7.8125000000000000E-002   0.0000000000000000     
  -4.0625000000000009        7.8124999999999986E-002   0.0000000000000000     
  -3.9843750000000004        7.8125000000000000E-002   0.0000000000000000     
  -3.9062500000000009        7.8125000000000014E-002   0.0000000000000000     
  -3.8281249999999996        7.8124999999999986E-002   0.0000000000000000     
  -3.7500000000000009        7.8125000000000000E-002   0.0000000000000000     
  -4.3750000000000000       0.15625000000000000        0.0000000000000000     
  -4.2968750000000009       0.15625000000000003        0.0000000000000000     
  -4.2187500000000000       0.15625000000000000        0.0000000000000000     
  -4.1406250000000000       0.15625000000000000        0.0000000000000000     
  -4.0625000000000009       0.15625000000000000        0.0000000000000000     
  -3.9843750000000000       0.15625000000000000        0.0000000000000000     
  -3.9062500000000000       0.15625000000000003        0.0000000000000000     
  -3.8281250000000000       0.15624999999999997        0.0000000000000000     
  -3.7500000000000000       0.15625000000000000        0.0000000000000000     
  -4.3750000000000000       0.23437500000000000        0.0000000000000000     
  -4.2968749999999991       0.23437500000000000        0.0000000000000000     
  -4.2187500000000000       0.23437500000000003        0.0000000000000000     
  -4.1406250000000000       0.23437500000000000        0.0000000000000000     
  -4.0625000000000000       0.23437500000000000        0.0000000000000000     
  -3.9843750000000000       0.23437500000000003        0.0000000000000000     
  -3.9062500000000000       0.23437500000000000        0.0000000000000000     
  -3.8281250000000000       0.23437500000000000        0.0000000000000000     
  -3.7500000000000004       0.23437500000000006        0.0000000000000000     
  -4.3750000000000000       0.31250000000000000        0.0000000000000000     
  -4.2968750000000000       0.31249999999999994        0.0000000000000000     
  -4.2187500000000000       0.31250000000000000        0.0000000000000000     
  -4.1406250000000000       0.31250000000000000        0.0000000000000000     
  -4.0625000000000009       0.31250000000000000        0.0000000000000000     
  -3.9843750000000004       0.31250000000000000        0.0000000000000000     
  -3.9062500000000004       0.31250000000000006        0.0000000000000000     
  -3.8281250000000000       0.31250000000000000        0.0000000000000000     
  -3.7500000000000004       0.31250000000000000        0.0000000000000000     
  -4.3750000000000009       0.39062500000000006        0.0000000000000000     
  -4.2968750000000000       0.39062500000000000        0.0000000000000000     
  -4.2187500000000009       0.39062500000000011        0.0000000000000000     
  -4.1406250000000000       0.39062500000000000        0.0000000000000000     
  -4.0625000000000000       0.39062500000000000        0.0000000000000000     
  -3.9843750000000004       0.39062500000000011        0.0000000000000000     
  -3.9062500000000004       0.39062500000000006        0.0000000000000000     
  -3.8281249999999996       0.39062500000000000        0.0000000000000000     
  -3.7500000000000004       0.39062500000000011        0.0000000000000000     
  -4.3750000000000000       0.46875000000000000        0.0000000000000000     
  -4.2968750000000000       0.46875000000000000        0.0000000000000000     
  -4.2187500000000009       0.46875000000000000        0.0000000000000000     
  -4.1406250000000000       0.46875000000000000        0.0000000000000000     
  -4.0625000000000000       0.46875000000000000        0.0000000000000000     
  -3.9843750000000000       0.46875000000000006        0.0000000000000000     
  -3.9062500000000000       0.46875000000000000        0.0000000000000000     
  -3.8281250000000000       0.46875000000000000        0.0000000000000000     
  -3.7500000000000004       0.46875000000000006        0.0000000000000000     
  -4.3750000000000000       0.54687500000000000        0.0000000000000000     
  -4.2968750000000009       0.54687500000000000        0.0000000000000000     
  -4.2187500000000000       0.54687500000000000        0.0000000000000000     
  -4.1406250000000000       0.54687500000000000        0.0000000000000000     
  -4.0625000000000009       0.54687500000000011        0.0000000000000000     
  -3.9843750000000000       0.54687499999999989        0.0000000000000000     
  -3.9062500000000004       0.54687500000000000        0.0000000000000000     
  -3.8281250000000004       0.54687500000000000        0.0000000000000000     
  -3.7499999999999996       0.54687499999999989        0.0000000000000000     
  -4.3750000000000009       0.62500000000000022        0.0000000000000000     
  -4.2968750000000000       0.62499999999999989        0.0000000000000000     
  -4.2187500000000009       0.62500000000000011        0.0000000000000000     
  -4.1406250000000000       0.62500000000000000        0.0000000000000000     
  -4.0625000000000000       0.62499999999999989        0.0000000000000000     
  -3.9843750000000004       0.62500000000000011        0.0000000000000000     
  -3.9062500000000000       0.62500000000000011        0.0000000000000000     
  -3.8281250000000000       0.62499999999999989        0.0000000000000000     
  -3.7500000000000004       0.62500000000000011        0.0000000000000000     
  -3.7500000000000009        0.0000000000000000        0.0000000000000000     
  -3.6718750000000000        0.0000000000000000        0.0000000000000000     
  -3.5937500000000000        0.0000000000000000        0.0000000000000000     
  -3.5156250000000004        0.0000000000000000        0.0000000000000000     
  -3.4375000000000004        0.0000000000000000        0.0000000000000000     
  -3.3593750000000004        0.0000000000000000        0.0000000000000000     
  -3.2812500000000000        0.0000000000000000        0.0000000000000000     
  -3.2031250000000000        0.0000000000000000        0.0000000000000000     
  -3.1250000000000000        0.0000000000000000        0.0000000000000000     
  -3.7500000000000009        7.8125000000000000E-002   0.0000000000000000     
  -3.6718750000000004        7.8125000000000000E-002   0.0000000000000000     
  -3.5937500000000004        7.8125000000000000E-002   0.0000000000000000     
  -3.5156250000000004        7.8125000000000000E-002   0.0000000000000000     
  -3.4375000000000004        7.8125000000000000E-002   0.0000000000000000     
  -3.3593750000000000        7.8125000000000000E-002   0.0000000000000000     
  -3.2812500000000004        7.8125000000000014E-002   0.0000000000000000     
  -3.2031250000000004        7.8125000000000000E-002   0.0000000000000000     
  -3.1250000000000004        7.8125000000000000E-002   0.0000000000000000     
  -3.7500000000000000       0.15625000000000000        0.0000000000000000     
  -3.6718750000000000       0.15625000000000003        0.0000000000000000     
  -3.5937500000000000       0.15625000000000000        0.0000000000000000     
  -3.5156250000000000       0.15625000000000000        0.0000000000000000     
  -3.4375000000000004       0.15625000000000003        0.0000000000000000     
  -3.3593750000000000       0.15625000000000000        0.0000000000000000     
  -3.2812500000000004       0.15625000000000003        0.0000000000000000     
  -3.2031250000000000       0.15625000000000003        0.0000000000000000     
  -3.1250000000000000       0.15625000000000000        0.0000000000000000     
  -3.7500000000000004       0.23437500000000006        0.0000000000000000     
  -3.6718750000000004       0.23437500000000000        0.0000000000000000     
  -3.5937500000000000       0.23437500000000003        0.0000000000000000     
  -3.5156250000000000       0.23437500000000000        0.0000000000000000     
  -3.4375000000000004       0.23437500000000000        0.0000000000000000     
  -3.3593750000000004       0.23437500000000003        0.0000000000000000     
  -3.2812500000000004       0.23437500000000003        0.0000000000000000     
  -3.2031250000000004       0.23437500000000000        0.0000000000000000     
  -3.1250000000000004       0.23437500000000006        0.0000000000000000     
  -3.7500000000000004       0.31250000000000000        0.0000000000000000     
  -3.6718750000000000       0.31250000000000006        0.0000000000000000     
  -3.5937500000000000       0.31250000000000000        0.0000000000000000     
  -3.5156249999999996       0.31249999999999989        0.0000000000000000     
  -3.4375000000000004       0.31250000000000011        0.0000000000000000     
  -3.3593750000000000       0.31250000000000000        0.0000000000000000     
  -3.2812499999999996       0.31249999999999989        0.0000000000000000     
  -3.2031250000000004       0.31250000000000011        0.0000000000000000     
  -3.1250000000000004       0.31250000000000000        0.0000000000000000     
  -3.7500000000000004       0.39062500000000011        0.0000000000000000     
  -3.6718750000000004       0.39062499999999994        0.0000000000000000     
  -3.5937500000000000       0.39062500000000011        0.0000000000000000     
  -3.5156250000000004       0.39062500000000006        0.0000000000000000     
  -3.4375000000000004       0.39062499999999994        0.0000000000000000     
  -3.3593750000000004       0.39062500000000011        0.0000000000000000     
  -3.2812500000000004       0.39062500000000011        0.0000000000000000     
  -3.2031250000000000       0.39062499999999994        0.0000000000000000     
  -3.1250000000000004       0.39062500000000011        0.0000000000000000     
  -3.7500000000000004       0.46875000000000006        0.0000000000000000     
  -3.6718750000000004       0.46875000000000000        0.0000000000000000     
  -3.5937500000000000       0.46875000000000000        0.0000000000000000     
  -3.5156250000000000       0.46875000000000000        0.0000000000000000     
  -3.4374999999999996       0.46874999999999994        0.0000000000000000     
  -3.3593750000000004       0.46875000000000006        0.0000000000000000     
  -3.2812500000000004       0.46875000000000000        0.0000000000000000     
  -3.2031250000000004       0.46875000000000000        0.0000000000000000     
  -3.1250000000000004       0.46875000000000006        0.0000000000000000     
  -3.7499999999999996       0.54687499999999989        0.0000000000000000     
  -3.6718750000000013       0.54687500000000022        0.0000000000000000     
  -3.5937500000000000       0.54687500000000000        0.0000000000000000     
  -3.5156250000000000       0.54687500000000000        0.0000000000000000     
  -3.4375000000000000       0.54687500000000011        0.0000000000000000     
  -3.3593750000000000       0.54687499999999989        0.0000000000000000     
  -3.2812500000000004       0.54687500000000000        0.0000000000000000     
  -3.2031250000000004       0.54687500000000022        0.0000000000000000     
  -3.1249999999999996       0.54687499999999989        0.0000000000000000     
  -3.7500000000000004       0.62500000000000011        0.0000000000000000     
  -3.6718750000000004       0.62500000000000000        0.0000000000000000     
  -3.5937500000000009       0.62500000000000022        0.0000000000000000     
  -3.5156250000000000       0.62500000000000000        0.0000000000000000     
  -3.4375000000000004       0.62500000000000000        0.0000000000000000     
  -3.3593750000000004       0.62500000000000011        0.0000000000000000     
  -3.2812500000000000       0.62500000000000000        0.0000000000000000     
  -3.2031250000000004       0.62500000000000011        0.0000000000000000     
  -3.1250000000000004       0.62500000000000011        0.0000000000000000     
  -3.1250000000000000        0.0000000000000000        0.0000000000000000     
  -3.0468749999999996        0.0000000000000000        0.0000000000000000     
  -2.9687500000000000        0.0000000000000000        0.0000000000000000     
  -2.8906250000000004        0.0000000000000000        0.0000000000000000     
  -2.8125000000000004        0.0000000000000000        0.0000000000000000     
  -2.7343750000000004        0.0000000000000000        0.0000000000000000     
  -2.6562500000000004        0.0000000000000000        0.0000000000000000     
  -2.5781250000000000        0.0000000000000000        0.0000000000000000     
  -2.5000000000000004        0.0000000000000000        0.0000000000000000     
  -3.1250000000000004        7.8125000000000000E-002   0.0000000000000000     
  -3.0468750000000004        7.8125000000000000E-002   0.0000000000000000     
  -2.9687500000000004        7.8125000000000000E-002   0.0000000000000000     
  -2.8906250000000000        7.8125000000000000E-002   0.0000000000000000     
  -2.8125000000000000        7.8125000000000000E-002   0.0000000000000000     
  -2.7343750000000000        7.8125000000000000E-002   0.0000000000000000     
  -2.6562500000000000        7.8125000000000014E-002   0.0000000000000000     
  -2.5781250000000000        7.8125000000000000E-002   0.0000000000000000     
  -2.5000000000000000        7.8125000000000000E-002   0.0000000000000000     
  -3.1250000000000000       0.15625000000000000        0.0000000000000000     
  -3.0468750000000000       0.15625000000000003        0.0000000000000000     
  -2.9687500000000000       0.15625000000000000        0.0000000000000000     
  -2.8906250000000000       0.15625000000000000        0.0000000000000000     
  -2.8125000000000004       0.15625000000000003        0.0000000000000000     
  -2.7343750000000000       0.15625000000000000        0.0000000000000000     
  -2.6562500000000000       0.15625000000000003        0.0000000000000000     
  -2.5781250000000000       0.15625000000000003        0.0000000000000000     
  -2.5000000000000000       0.15625000000000000        0.0000000000000000     
  -3.1250000000000004       0.23437500000000006        0.0000000000000000     
  -3.0468750000000000       0.23437500000000000        0.0000000000000000     
  -2.9687500000000000       0.23437500000000003        0.0000000000000000     
  -2.8906250000000000       0.23437500000000000        0.0000000000000000     
  -2.8125000000000004       0.23437500000000000        0.0000000000000000     
  -2.7343750000000004       0.23437500000000003        0.0000000000000000     
  -2.6562500000000004       0.23437500000000003        0.0000000000000000     
  -2.5781250000000000       0.23437500000000000        0.0000000000000000     
  -2.5000000000000004       0.23437500000000006        0.0000000000000000     
  -3.1250000000000004       0.31250000000000000        0.0000000000000000     
  -3.0468750000000004       0.31250000000000006        0.0000000000000000     
  -2.9687500000000000       0.31250000000000000        0.0000000000000000     
  -2.8906249999999996       0.31249999999999989        0.0000000000000000     
  -2.8125000000000009       0.31250000000000011        0.0000000000000000     
  -2.7343750000000000       0.31250000000000000        0.0000000000000000     
  -2.6562499999999996       0.31249999999999989        0.0000000000000000     
  -2.5781250000000009       0.31250000000000011        0.0000000000000000     
  -2.5000000000000000       0.31250000000000000        0.0000000000000000     
  -3.1250000000000004       0.39062500000000011        0.0000000000000000     
  -3.0468750000000004       0.39062499999999994        0.0000000000000000     
  -2.9687500000000000       0.39062500000000011        0.0000000000000000     
  -2.8906250000000004       0.39062500000000006        0.0000000000000000     
  -2.8125000000000000       0.39062499999999994        0.0000000000000000     
  -2.7343750000000000       0.39062500000000011        0.0000000000000000     
  -2.6562500000000000       0.39062500000000011        0.0000000000000000     
  -2.5781250000000000       0.39062499999999994        0.0000000000000000     
  -2.5000000000000004       0.39062500000000011        0.0000000000000000     
  -3.1250000000000004       0.46875000000000006        0.0000000000000000     
  -3.0468750000000000       0.46875000000000000        0.0000000000000000     
  -2.9687500000000004       0.46875000000000000        0.0000000000000000     
  -2.8906250000000004       0.46875000000000000        0.0000000000000000     
  -2.8124999999999996       0.46874999999999994        0.0000000000000000     
  -2.7343750000000000       0.46875000000000006        0.0000000000000000     
  -2.6562500000000000       0.46875000000000000        0.0000000000000000     
  -2.5781250000000000       0.46875000000000000        0.0000000000000000     
  -2.5000000000000000       0.46875000000000006        0.0000000000000000     
  -3.1249999999999996       0.54687499999999989        0.0000000000000000     
  -3.0468750000000009       0.54687500000000022        0.0000000000000000     
  -2.9687500000000000       0.54687500000000000        0.0000000000000000     
  -2.8906250000000000       0.54687500000000000        0.0000000000000000     
  -2.8125000000000004       0.54687500000000011        0.0000000000000000     
  -2.7343750000000000       0.54687499999999989        0.0000000000000000     
  -2.6562500000000000       0.54687500000000000        0.0000000000000000     
  -2.5781250000000009       0.54687500000000022        0.0000000000000000     
  -2.4999999999999996       0.54687499999999989        0.0000000000000000     
  -3.1250000000000004       0.62500000000000011        0.0000000000000000     
  -3.0468750000000000       0.62500000000000000        0.0000000000000000     
  -2.9687500000000004       0.62500000000000022        0.0000000000000000     
  -2.8906250000000004       0.62500000000000000        0.0000000000000000     
  -2.8125000000000000       0.62500000000000000        0.0000000000000000     
  -2.7343750000000000       0.62500000000000011        0.0000000000000000     
  -2.6562500000000000       0.62500000000000000        0.0000000000000000     
  -2.5781250000000004       0.62500000000000011        0.0000000000000000     
  -2.5000000000000004       0.62500000000000011        0.0000000000000000     
  -2.5000000000000004        0.0000000000000000        0.0000000000000000     
  -2.4218749999999996        0.0000000000000000        0.0000000000000000     
  -2.3437500000000000        0.0000000000000000        0.0000000000000000     
  -2.2656250000000004        0.0000000000000000        0.0000000000000000     
  -2.1875000000000004        0.0000000000000000        0.0000000000000000     
  -2.1093750000000004        0.0000000000000000        0.0000000000000000     
  -2.0312500000000004        0.0000000000000000        0.0000000000000000     
  -1.9531250000000002        0.0000000000000000        0.0000000000000000     
  -1.8750000000000002        0.0000000000000000        0.0000000000000000     
  -2.5000000000000000        7.8125000000000000E-002   0.0000000000000000     
  -2.4218750000000004        7.8125000000000000E-002   0.0000000000000000     
  -2.3437500000000000        7.8125000000000000E-002   0.0000000000000000     
  -2.2656250000000000        7.8125000000000000E-002   0.0000000000000000     
  -2.1875000000000004        7.8125000000000000E-002   0.0000000000000000     
  -2.1093750000000000        7.8125000000000000E-002   0.0000000000000000     
  -2.0312500000000004        7.8125000000000014E-002   0.0000000000000000     
  -1.9531250000000002        7.8125000000000000E-002   0.0000000000000000     
  -1.8750000000000004        7.8125000000000000E-002   0.0000000000000000     
  -2.5000000000000000       0.15625000000000000        0.0000000000000000     
  -2.4218750000000000       0.15625000000000003        0.0000000000000000     
  -2.3437500000000000       0.15625000000000000        0.0000000000000000     
  -2.2656250000000000       0.15625000000000000        0.0000000000000000     
  -2.1875000000000004       0.15625000000000003        0.0000000000000000     
  -2.1093750000000000       0.15625000000000000        0.0000000000000000     
  -2.0312500000000000       0.15625000000000003        0.0000000000000000     
  -1.9531250000000000       0.15625000000000003        0.0000000000000000     
  -1.8750000000000000       0.15625000000000000        0.0000000000000000     
  -2.5000000000000004       0.23437500000000006        0.0000000000000000     
  -2.4218750000000000       0.23437500000000000        0.0000000000000000     
  -2.3437500000000000       0.23437500000000003        0.0000000000000000     
  -2.2656250000000004       0.23437500000000000        0.0000000000000000     
  -2.1875000000000000       0.23437500000000000        0.0000000000000000     
  -2.1093750000000000       0.23437500000000003        0.0000000000000000     
  -2.0312500000000000       0.23437500000000003        0.0000000000000000     
  -1.9531250000000002       0.23437500000000000        0.0000000000000000     
  -1.8750000000000002       0.23437500000000006        0.0000000000000000     
  -2.5000000000000000       0.31250000000000000        0.0000000000000000     
  -2.4218750000000004       0.31250000000000006        0.0000000000000000     
  -2.3437500000000000       0.31250000000000000        0.0000000000000000     
  -2.2656249999999996       0.31249999999999989        0.0000000000000000     
  -2.1875000000000004       0.31250000000000011        0.0000000000000000     
  -2.1093750000000000       0.31250000000000000        0.0000000000000000     
  -2.0312499999999996       0.31249999999999989        0.0000000000000000     
  -1.9531250000000002       0.31250000000000011        0.0000000000000000     
  -1.8750000000000004       0.31250000000000000        0.0000000000000000     
  -2.5000000000000004       0.39062500000000011        0.0000000000000000     
  -2.4218749999999996       0.39062499999999994        0.0000000000000000     
  -2.3437500000000000       0.39062500000000011        0.0000000000000000     
  -2.2656250000000004       0.39062500000000006        0.0000000000000000     
  -2.1874999999999996       0.39062499999999994        0.0000000000000000     
  -2.1093750000000004       0.39062500000000011        0.0000000000000000     
  -2.0312500000000000       0.39062500000000011        0.0000000000000000     
  -1.9531249999999998       0.39062499999999994        0.0000000000000000     
  -1.8750000000000000       0.39062500000000011        0.0000000000000000     
  -2.5000000000000000       0.46875000000000006        0.0000000000000000     
  -2.4218749999999996       0.46875000000000000        0.0000000000000000     
  -2.3437500000000000       0.46875000000000000        0.0000000000000000     
  -2.2656250000000000       0.46875000000000000        0.0000000000000000     
  -2.1874999999999996       0.46874999999999994        0.0000000000000000     
  -2.1093750000000000       0.46875000000000006        0.0000000000000000     
  -2.0312500000000000       0.46875000000000000        0.0000000000000000     
  -1.9531250000000002       0.46875000000000000        0.0000000000000000     
  -1.8750000000000002       0.46875000000000006        0.0000000000000000     
  -2.4999999999999996       0.54687499999999989        0.0000000000000000     
  -2.4218750000000009       0.54687500000000022        0.0000000000000000     
  -2.3437500000000000       0.54687500000000000        0.0000000000000000     
  -2.2656250000000000       0.54687500000000000        0.0000000000000000     
  -2.1875000000000009       0.54687500000000011        0.0000000000000000     
  -2.1093750000000000       0.54687499999999989        0.0000000000000000     
  -2.0312500000000000       0.54687500000000000        0.0000000000000000     
  -1.9531250000000004       0.54687500000000022        0.0000000000000000     
  -1.8749999999999998       0.54687499999999989        0.0000000000000000     
  -2.5000000000000004       0.62500000000000011        0.0000000000000000     
  -2.4218750000000000       0.62500000000000000        0.0000000000000000     
  -2.3437500000000004       0.62500000000000022        0.0000000000000000     
  -2.2656250000000004       0.62500000000000000        0.0000000000000000     
  -2.1875000000000000       0.62500000000000000        0.0000000000000000     
  -2.1093750000000000       0.62500000000000011        0.0000000000000000     
  -2.0312500000000000       0.62500000000000000        0.0000000000000000     
  -1.9531250000000004       0.62500000000000011        0.0000000000000000     
  -1.8750000000000002       0.62500000000000011        0.0000000000000000     
  -1.8750000000000002        0.0000000000000000        0.0000000000000000     
  -1.7968749999999998        0.0000000000000000        0.0000000000000000     
  -1.7187500000000000        0.0000000000000000        0.0000000000000000     
  -1.6406250000000004        0.0000000000000000        0.0000000000000000     
  -1.5625000000000002        0.0000000000000000        0.0000000000000000     
  -1.4843750000000002        0.0000000000000000        0.0000000000000000     
  -1.4062500000000002        0.0000000000000000        0.0000000000000000     
  -1.3281249999999998        0.0000000000000000        0.0000000000000000     
  -1.2500000000000002        0.0000000000000000        0.0000000000000000     
  -1.8750000000000004        7.8125000000000000E-002   0.0000000000000000     
  -1.7968750000000002        7.8125000000000000E-002   0.0000000000000000     
  -1.7187500000000004        7.8125000000000000E-002   0.0000000000000000     
  -1.6406250000000002        7.8125000000000000E-002   0.0000000000000000     
  -1.5625000000000002        7.8125000000000000E-002   0.0000000000000000     
  -1.4843750000000002        7.8125000000000000E-002   0.0000000000000000     
  -1.4062500000000000        7.8125000000000014E-002   0.0000000000000000     
  -1.3281250000000002        7.8125000000000000E-002   0.0000000000000000     
  -1.2500000000000000        7.8125000000000000E-002   0.0000000000000000     
  -1.8750000000000000       0.15625000000000000        0.0000000000000000     
  -1.7968750000000000       0.15625000000000003        0.0000000000000000     
  -1.7187500000000000       0.15625000000000000        0.0000000000000000     
  -1.6406250000000000       0.15625000000000000        0.0000000000000000     
  -1.5625000000000002       0.15625000000000003        0.0000000000000000     
  -1.4843750000000000       0.15625000000000000        0.0000000000000000     
  -1.4062500000000000       0.15625000000000003        0.0000000000000000     
  -1.3281250000000000       0.15625000000000003        0.0000000000000000     
  -1.2500000000000000       0.15625000000000000        0.0000000000000000     
  -1.8750000000000002       0.23437500000000006        0.0000000000000000     
  -1.7968749999999998       0.23437500000000000        0.0000000000000000     
  -1.7187500000000000       0.23437500000000003        0.0000000000000000     
  -1.6406250000000000       0.23437500000000000        0.0000000000000000     
  -1.5624999999999998       0.23437500000000000        0.0000000000000000     
  -1.4843750000000000       0.23437500000000003        0.0000000000000000     
  -1.4062500000000002       0.23437500000000003        0.0000000000000000     
  -1.3281249999999998       0.23437500000000000        0.0000000000000000     
  -1.2500000000000000       0.23437500000000006        0.0000000000000000     
  -1.8750000000000004       0.31250000000000000        0.0000000000000000     
  -1.7968750000000002       0.31250000000000006        0.0000000000000000     
  -1.7187500000000000       0.31250000000000000        0.0000000000000000     
  -1.6406249999999998       0.31249999999999989        0.0000000000000000     
  -1.5625000000000004       0.31250000000000011        0.0000000000000000     
  -1.4843750000000000       0.31250000000000000        0.0000000000000000     
  -1.4062499999999998       0.31249999999999989        0.0000000000000000     
  -1.3281250000000004       0.31250000000000011        0.0000000000000000     
  -1.2500000000000002       0.31250000000000000        0.0000000000000000     
  -1.8750000000000000       0.39062500000000011        0.0000000000000000     
  -1.7968750000000002       0.39062499999999994        0.0000000000000000     
  -1.7187500000000000       0.39062500000000011        0.0000000000000000     
  -1.6406250000000002       0.39062500000000006        0.0000000000000000     
  -1.5625000000000000       0.39062499999999994        0.0000000000000000     
  -1.4843750000000000       0.39062500000000011        0.0000000000000000     
  -1.4062500000000002       0.39062500000000011        0.0000000000000000     
  -1.3281249999999998       0.39062499999999994        0.0000000000000000     
  -1.2500000000000000       0.39062500000000011        0.0000000000000000     
  -1.8750000000000002       0.46875000000000006        0.0000000000000000     
  -1.7968749999999998       0.46875000000000000        0.0000000000000000     
  -1.7187500000000000       0.46875000000000000        0.0000000000000000     
  -1.6406250000000000       0.46875000000000000        0.0000000000000000     
  -1.5624999999999993       0.46874999999999994        0.0000000000000000     
  -1.4843750000000000       0.46875000000000006        0.0000000000000000     
  -1.4062500000000000       0.46875000000000000        0.0000000000000000     
  -1.3281249999999998       0.46875000000000000        0.0000000000000000     
  -1.2500000000000000       0.46875000000000006        0.0000000000000000     
  -1.8749999999999998       0.54687499999999989        0.0000000000000000     
  -1.7968750000000009       0.54687500000000022        0.0000000000000000     
  -1.7187500000000000       0.54687500000000000        0.0000000000000000     
  -1.6406249999999998       0.54687500000000000        0.0000000000000000     
  -1.5625000000000007       0.54687500000000011        0.0000000000000000     
  -1.4843750000000002       0.54687499999999989        0.0000000000000000     
  -1.4062500000000000       0.54687500000000000        0.0000000000000000     
  -1.3281250000000004       0.54687500000000022        0.0000000000000000     
  -1.2500000000000000       0.54687499999999989        0.0000000000000000     
  -1.8750000000000002       0.62500000000000011        0.0000000000000000     
  -1.7968750000000000       0.62500000000000000        0.0000000000000000     
  -1.7187500000000004       0.62500000000000022        0.0000000000000000     
  -1.6406250000000000       0.62500000000000000        0.0000000000000000     
  -1.5624999999999998       0.62500000000000000        0.0000000000000000     
  -1.4843750000000000       0.62500000000000011        0.0000000000000000     
  -1.4062500000000000       0.62500000000000000        0.0000000000000000     
  -1.3281250000000000       0.62500000000000011        0.0000000000000000     
  -1.2500000000000002       0.62500000000000011        0.0000000000000000     
  -1.2500000000000002        0.0000000000000000        0.0000000000000000     
  -1.1718750000000000        0.0000000000000000        0.0000000000000000     
  -1.0937500000000000        0.0000000000000000        0.0000000000000000     
  -1.0156250000000002        0.0000000000000000        0.0000000000000000     
 -0.93750000000000000        0.0000000000000000        0.0000000000000000     
 -0.85937500000000011        0.0000000000000000        0.0000000000000000     
 -0.78125000000000011        0.0000000000000000        0.0000000000000000     
 -0.70312500000000000        0.0000000000000000        0.0000000000000000     
 -0.62500000000000000        0.0000000000000000        0.0000000000000000     
  -1.2500000000000000        7.8125000000000000E-002   0.0000000000000000     
  -1.1718750000000000        7.8125000000000000E-002   0.0000000000000000     
  -1.0937500000000000        7.8124999999999986E-002   0.0000000000000000     
  -1.0156250000000002        7.8125000000000000E-002   0.0000000000000000     
 -0.93750000000000000        7.8125000000000000E-002   0.0000000000000000     
 -0.85937500000000011        7.8125000000000000E-002   0.0000000000000000     
 -0.78125000000000011        7.8125000000000000E-002   0.0000000000000000     
 -0.70312500000000000        7.8125000000000000E-002   0.0000000000000000     
 -0.62500000000000000        7.8125000000000000E-002   0.0000000000000000     
  -1.2500000000000000       0.15625000000000000        0.0000000000000000     
  -1.1718750000000000       0.15625000000000003        0.0000000000000000     
  -1.0937500000000000       0.15625000000000000        0.0000000000000000     
  -1.0156250000000000       0.15625000000000000        0.0000000000000000     
 -0.93750000000000000       0.15625000000000003        0.0000000000000000     
 -0.85937500000000000       0.15625000000000000        0.0000000000000000     
 -0.78125000000000000       0.15624999999999997        0.0000000000000000     
 -0.70312500000000000       0.15625000000000003        0.0000000000000000     
 -0.62500000000000000       0.15625000000000000        0.0000000000000000     
  -1.2500000000000000       0.23437500000000006        0.0000000000000000     
  -1.1718750000000000       0.23437500000000000        0.0000000000000000     
  -1.0937500000000000       0.23437500000000000        0.0000000000000000     
  -1.0156250000000000       0.23437500000000000        0.0000000000000000     
 -0.93750000000000000       0.23437500000000000        0.0000000000000000     
 -0.85937500000000022       0.23437500000000006        0.0000000000000000     
 -0.78125000000000011       0.23437500000000003        0.0000000000000000     
 -0.70312500000000000       0.23437500000000000        0.0000000000000000     
 -0.62500000000000011       0.23437500000000006        0.0000000000000000     
  -1.2500000000000002       0.31250000000000000        0.0000000000000000     
  -1.1718750000000000       0.31250000000000011        0.0000000000000000     
  -1.0937500000000000       0.31250000000000000        0.0000000000000000     
  -1.0156249999999998       0.31249999999999989        0.0000000000000000     
 -0.93750000000000022       0.31250000000000011        0.0000000000000000     
 -0.85937499999999989       0.31250000000000000        0.0000000000000000     
 -0.78124999999999989       0.31249999999999989        0.0000000000000000     
 -0.70312500000000022       0.31250000000000011        0.0000000000000000     
 -0.62499999999999989       0.31250000000000000        0.0000000000000000     
  -1.2500000000000000       0.39062500000000011        0.0000000000000000     
  -1.1718750000000000       0.39062500000000000        0.0000000000000000     
  -1.0937500000000000       0.39062500000000000        0.0000000000000000     
  -1.0156250000000000       0.39062500000000006        0.0000000000000000     
 -0.93750000000000000       0.39062500000000006        0.0000000000000000     
 -0.85937500000000011       0.39062500000000006        0.0000000000000000     
 -0.78125000000000000       0.39062500000000011        0.0000000000000000     
 -0.70312499999999989       0.39062500000000000        0.0000000000000000     
 -0.62500000000000000       0.39062500000000011        0.0000000000000000     
  -1.2500000000000000       0.46875000000000006        0.0000000000000000     
  -1.1718750000000000       0.46875000000000000        0.0000000000000000     
  -1.0937499999999998       0.46875000000000000        0.0000000000000000     
  -1.0156250000000000       0.46875000000000000        0.0000000000000000     
 -0.93749999999999978       0.46875000000000000        0.0000000000000000     
 -0.85937500000000011       0.46875000000000000        0.0000000000000000     
 -0.78125000000000000       0.46875000000000000        0.0000000000000000     
 -0.70312500000000000       0.46875000000000000        0.0000000000000000     
 -0.62500000000000011       0.46875000000000000        0.0000000000000000     
  -1.2500000000000000       0.54687499999999989        0.0000000000000000     
  -1.1718750000000000       0.54687500000000011        0.0000000000000000     
  -1.0937500000000002       0.54687500000000011        0.0000000000000000     
  -1.0156250000000002       0.54687500000000000        0.0000000000000000     
 -0.93750000000000000       0.54687500000000011        0.0000000000000000     
 -0.85937500000000011       0.54687500000000011        0.0000000000000000     
 -0.78125000000000011       0.54687500000000000        0.0000000000000000     
 -0.70312500000000000       0.54687500000000011        0.0000000000000000     
 -0.62499999999999989       0.54687500000000000        0.0000000000000000     
  -1.2500000000000002       0.62500000000000011        0.0000000000000000     
  -1.1718750000000000       0.62500000000000000        0.0000000000000000     
  -1.0937500000000004       0.62500000000000011        0.0000000000000000     
  -1.0156249999999998       0.62500000000000000        0.0000000000000000     
 -0.93750000000000011       0.62500000000000000        0.0000000000000000     
 -0.85937500000000011       0.62499999999999989        0.0000000000000000     
 -0.78124999999999978       0.62500000000000000        0.0000000000000000     
 -0.70312500000000011       0.62500000000000000        0.0000000000000000     
 -0.62500000000000011       0.62500000000000022        0.0000000000000000     
 -0.62500000000000000        0.0000000000000000        0.0000000000000000     
 -0.54687500000000011        0.0000000000000000        0.0000000000000000     
 -0.46875000000000000        0.0000000000000000        0.0000000000000000     
 -0.39062500000000011        0.0000000000000000        0.0000000000000000     
 -0.31250000000000006        0.0000000000000000        0.0000000000000000     
 -0.23437500000000000        0.0000000000000000        0.0000000000000000     
 -0.15625000000000000        0.0000000000000000        0.0000000000000000     
  -7.8124999999999986E-002   0.0000000000000000        0.0000000000000000     
   0.0000000000000000        0.0000000000000000        0.0000000000000000     
 -0.62500000000000000        7.8125000000000000E-002   0.0000000000000000     
 -0.54687500000000011        7.8125000000000000E-002   0.0000000000000000     
 -0.46875000000000000        7.8125000000000000E-002   0.0000000000000000     
 -0.39062500000000006        7.8125000000000014E-002   0.0000000000000000     
 -0.31249999999999994        7.8125000000000000E-002   0.0000000000000000     
 -0.23437500000000000        7.8125000000000000E-002   0.0000000000000000     
 -0.15624999999999997        7.8125000000000000E-002   0.0000000000000000     
  -7.8124999999999972E-002   7.8124999999999986E-002   0.0000000000000000     
   0.0000000000000000        7.8124999999999986E-002   0.0000000000000000     
 -0.62500000000000000       0.15625000000000000        0.0000000000000000     
 -0.54687500000000000       0.15625000000000000        0.0000000000000000     
 -0.46875000000000000       0.15625000000000000        0.0000000000000000     
 -0.39062500000000011       0.15625000000000000        0.0000000000000000     
 -0.31250000000000000       0.15625000000000000        0.0000000000000000     
 -0.23437500000000000       0.15625000000000000        0.0000000000000000     
 -0.15625000000000000       0.15625000000000000        0.0000000000000000     
  -7.8125000000000000E-002  0.15625000000000000        0.0000000000000000     
   0.0000000000000000       0.15625000000000000        0.0000000000000000     
 -0.62500000000000011       0.23437500000000006        0.0000000000000000     
 -0.54687500000000000       0.23437500000000000        0.0000000000000000     
 -0.46875000000000000       0.23437500000000000        0.0000000000000000     
 -0.39062499999999994       0.23437500000000000        0.0000000000000000     
 -0.31249999999999994       0.23437500000000000        0.0000000000000000     
 -0.23437499999999997       0.23437500000000000        0.0000000000000000     
 -0.15625000000000000       0.23437500000000000        0.0000000000000000     
  -7.8125000000000000E-002  0.23437500000000000        0.0000000000000000     
   0.0000000000000000       0.23437500000000000        0.0000000000000000     
 -0.62499999999999989       0.31250000000000000        0.0000000000000000     
 -0.54687500000000011       0.31250000000000011        0.0000000000000000     
 -0.46875000000000000       0.31250000000000000        0.0000000000000000     
 -0.39062500000000011       0.31250000000000000        0.0000000000000000     
 -0.31250000000000000       0.31250000000000011        0.0000000000000000     
 -0.23437500000000000       0.31250000000000000        0.0000000000000000     
 -0.15624999999999997       0.31250000000000000        0.0000000000000000     
  -7.8124999999999972E-002  0.31249999999999994        0.0000000000000000     
   0.0000000000000000       0.31250000000000006        0.0000000000000000     
 -0.62500000000000000       0.39062500000000011        0.0000000000000000     
 -0.54687500000000000       0.39062500000000011        0.0000000000000000     
 -0.46875000000000000       0.39062500000000000        0.0000000000000000     
 -0.39062500000000011       0.39062500000000011        0.0000000000000000     
 -0.31250000000000000       0.39062499999999994        0.0000000000000000     
 -0.23437500000000000       0.39062500000000000        0.0000000000000000     
 -0.15624999999999997       0.39062499999999994        0.0000000000000000     
  -7.8125000000000000E-002  0.39062500000000006        0.0000000000000000     
   0.0000000000000000       0.39062500000000006        0.0000000000000000     
 -0.62500000000000011       0.46875000000000000        0.0000000000000000     
 -0.54687499999999989       0.46875000000000000        0.0000000000000000     
 -0.46875000000000000       0.46875000000000000        0.0000000000000000     
 -0.39062499999999994       0.46875000000000000        0.0000000000000000     
 -0.31250000000000006       0.46875000000000000        0.0000000000000000     
 -0.23437500000000000       0.46875000000000000        0.0000000000000000     
 -0.15625000000000003       0.46875000000000000        0.0000000000000000     
  -7.8125000000000000E-002  0.46875000000000000        0.0000000000000000     
   0.0000000000000000       0.46875000000000000        0.0000000000000000     
 -0.62499999999999989       0.54687500000000000        0.0000000000000000     
 -0.54687500000000011       0.54687500000000000        0.0000000000000000     
 -0.46875000000000000       0.54687500000000000        0.0000000000000000     
 -0.39062500000000017       0.54687500000000000        0.0000000000000000     
 -0.31250000000000000       0.54687500000000011        0.0000000000000000     
 -0.23437500000000000       0.54687500000000000        0.0000000000000000     
 -0.15624999999999994       0.54687500000000000        0.0000000000000000     
  -7.8124999999999972E-002  0.54687500000000011        0.0000000000000000     
   0.0000000000000000       0.54687499999999989        0.0000000000000000     
 -0.62500000000000011       0.62500000000000022        0.0000000000000000     
 -0.54687500000000000       0.62500000000000000        0.0000000000000000     
 -0.46875000000000000       0.62500000000000000        0.0000000000000000     
 -0.39062499999999994       0.62500000000000000        0.0000000000000000     
 -0.31250000000000006       0.62500000000000000        0.0000000000000000     
 -0.23437500000000000       0.62500000000000011        0.0000000000000000     
 -0.15625000000000000       0.62500000000000011        0.0000000000000000     
  -7.8125000000000014E-002  0.62500000000000000        0.0000000000000000     
   0.0000000000000000       0.62500000000000011        0.0000000000000000     
  -5.0000000000000000       0.62500000000000011        0.0000000000000000     
  -4.9218750000000000       0.62500000000000000        0.0000000000000000     
  -4.8437500000000000       0.62500000000000000        0.0000000000000000     
  -4.7656250000000000       0.62500000000000011        0.0000000000000000     
  -4.6875000000000000       0.62499999999999989        0.0000000000000000     
  -4.6093750000000009       0.62500000000000011        0.0000000000000000     
  -4.5312500000000000       0.62500000000000011        0.0000000000000000     
  -4.4531250000000000       0.62499999999999989        0.0000000000000000     
  -4.3750000000000009       0.62500000000000022        0.0000000000000000     
  -5.0000000000000000       0.70312499999999989        0.0000000000000000     
  -4.9218750000000000       0.70312500000000022        0.0000000000000000     
  -4.8437500000000000       0.70312499999999989        0.0000000000000000     
  -4.7656250000000000       0.70312499999999989        0.0000000000000000     
  -4.6875000000000000       0.70312500000000000        0.0000000000000000     
  -4.6093750000000000       0.70312500000000000        0.0000000000000000     
  -4.5312500000000000       0.70312499999999989        0.0000000000000000     
  -4.4531250000000000       0.70312500000000000        0.0000000000000000     
  -4.3750000000000000       0.70312499999999989        0.0000000000000000     
  -4.9999999999999991       0.78124999999999989        0.0000000000000000     
  -4.9218750000000009       0.78125000000000011        0.0000000000000000     
  -4.8437500000000000       0.78125000000000000        0.0000000000000000     
  -4.7656250000000000       0.78125000000000000        0.0000000000000000     
  -4.6875000000000000       0.78124999999999989        0.0000000000000000     
  -4.6093750000000009       0.78125000000000000        0.0000000000000000     
  -4.5312500000000000       0.78125000000000000        0.0000000000000000     
  -4.4531250000000009       0.78125000000000000        0.0000000000000000     
  -4.3750000000000000       0.78124999999999989        0.0000000000000000     
  -5.0000000000000009       0.85937500000000022        0.0000000000000000     
  -4.9218750000000000       0.85937500000000000        0.0000000000000000     
  -4.8437500000000000       0.85937500000000011        0.0000000000000000     
  -4.7656250000000000       0.85937500000000011        0.0000000000000000     
  -4.6875000000000009       0.85937500000000011        0.0000000000000000     
  -4.6093750000000000       0.85937500000000011        0.0000000000000000     
  -4.5312500000000009       0.85937500000000011        0.0000000000000000     
  -4.4531250000000000       0.85937499999999978        0.0000000000000000     
  -4.3750000000000000       0.85937499999999989        0.0000000000000000     
  -5.0000000000000000       0.93749999999999989        0.0000000000000000     
  -4.9218750000000000       0.93750000000000000        0.0000000000000000     
  -4.8437500000000000       0.93750000000000011        0.0000000000000000     
  -4.7656250000000000       0.93750000000000000        0.0000000000000000     
  -4.6875000000000000       0.93750000000000000        0.0000000000000000     
  -4.6093750000000000       0.93749999999999989        0.0000000000000000     
  -4.5312500000000000       0.93749999999999989        0.0000000000000000     
  -4.4531250000000000       0.93750000000000000        0.0000000000000000     
  -4.3750000000000000       0.93750000000000000        0.0000000000000000     
  -5.0000000000000009        1.0156250000000002        0.0000000000000000     
  -4.9218750000000009        1.0156250000000000        0.0000000000000000     
  -4.8437500000000000        1.0156250000000000        0.0000000000000000     
  -4.7656250000000000        1.0156250000000000        0.0000000000000000     
  -4.6875000000000009        1.0156250000000000        0.0000000000000000     
  -4.6093750000000000        1.0156250000000000        0.0000000000000000     
  -4.5312500000000009        1.0156250000000004        0.0000000000000000     
  -4.4531250000000000        1.0156249999999998        0.0000000000000000     
  -4.3750000000000000        1.0156250000000000        0.0000000000000000     
  -5.0000000000000000        1.0937499999999998        0.0000000000000000     
  -4.9218750000000000        1.0937500000000002        0.0000000000000000     
  -4.8437500000000000        1.0937499999999998        0.0000000000000000     
  -4.7656250000000000        1.0937499999999998        0.0000000000000000     
  -4.6875000000000000        1.0937500000000002        0.0000000000000000     
  -4.6093750000000009        1.0937500000000000        0.0000000000000000     
  -4.5312500000000000        1.0937500000000000        0.0000000000000000     
  -4.4531250000000000        1.0937500000000004        0.0000000000000000     
  -4.3750000000000000        1.0937499999999998        0.0000000000000000     
  -5.0000000000000000        1.1718750000000000        0.0000000000000000     
  -4.9218749999999991        1.1718749999999998        0.0000000000000000     
  -4.8437500000000000        1.1718750000000000        0.0000000000000000     
  -4.7656250000000009        1.1718750000000002        0.0000000000000000     
  -4.6875000000000009        1.1718750000000000        0.0000000000000000     
  -4.6093750000000000        1.1718750000000000        0.0000000000000000     
  -4.5312500000000009        1.1718750000000000        0.0000000000000000     
  -4.4531250000000009        1.1718750000000000        0.0000000000000000     
  -4.3750000000000000        1.1718750000000002        0.0000000000000000     
  -5.0000000000000018        1.2500000000000002        0.0000000000000000     
  -4.9218750000000000        1.2499999999999998        0.0000000000000000     
  -4.8437500000000000        1.2500000000000000        0.0000000000000000     
  -4.7656250000000009        1.2500000000000002        0.0000000000000000     
  -4.6875000000000018        1.2500000000000000        0.0000000000000000     
  -4.6093750000000000        1.2500000000000000        0.0000000000000000     
  -4.5312500000000009        1.2500000000000000        0.0000000000000000     
  -4.4531250000000009        1.2500000000000000        0.0000000000000000     
  -4.3750000000000000        1.2500000000000002        0.0000000000000000     
  -4.3750000000000009       0.62500000000000022        0.0000000000000000     
  -4.2968750000000000       0.62499999999999989        0.0000000000000000     
  -4.2187500000000009       0.62500000000000011        0.0000000000000000     
  -4.1406250000000000       0.62500000000000000        0.0000000000000000     
  -4.0625000000000000       0.62499999999999989        0.0000000000000000     
  -3.9843750000000004       0.62500000000000011        0.0000000000000000     
  -3.9062500000000000       0.62500000000000011        0.0000000000000000     
  -3.8281250000000000       0.62499999999999989        0.0000000000000000     
  -3.7500000000000004       0.62500000000000011        0.0000000000000000     
  -4.3750000000000000       0.70312499999999989        0.0000000000000000     
  -4.2968750000000009       0.70312500000000000        0.0000000000000000     
  -4.2187500000000000       0.70312499999999989        0.0000000000000000     
  -4.1406250000000000       0.70312500000000000        0.0000000000000000     
  -4.0625000000000009       0.70312500000000000        0.0000000000000000     
  -3.9843750000000000       0.70312499999999989        0.0000000000000000     
  -3.9062500000000004       0.70312500000000000        0.0000000000000000     
  -3.8281250000000000       0.70312500000000000        0.0000000000000000     
  -3.7500000000000000       0.70312499999999989        0.0000000000000000     
  -4.3750000000000000       0.78124999999999989        0.0000000000000000     
  -4.2968750000000009       0.78125000000000011        0.0000000000000000     
  -4.2187500000000000       0.78125000000000000        0.0000000000000000     
  -4.1406250000000009       0.78125000000000022        0.0000000000000000     
  -4.0625000000000000       0.78125000000000000        0.0000000000000000     
  -3.9843750000000000       0.78125000000000000        0.0000000000000000     
  -3.9062500000000000       0.78124999999999989        0.0000000000000000     
  -3.8281250000000004       0.78125000000000011        0.0000000000000000     
  -3.7500000000000000       0.78125000000000011        0.0000000000000000     
  -4.3750000000000000       0.85937499999999989        0.0000000000000000     
  -4.2968750000000000       0.85937500000000000        0.0000000000000000     
  -4.2187500000000009       0.85937500000000022        0.0000000000000000     
  -4.1406250000000000       0.85937500000000011        0.0000000000000000     
  -4.0625000000000000       0.85937500000000000        0.0000000000000000     
  -3.9843750000000000       0.85937500000000011        0.0000000000000000     
  -3.9062500000000000       0.85937500000000022        0.0000000000000000     
  -3.8281250000000000       0.85937500000000000        0.0000000000000000     
  -3.7500000000000000       0.85937500000000000        0.0000000000000000     
  -4.3750000000000000       0.93750000000000000        0.0000000000000000     
  -4.2968750000000000       0.93750000000000000        0.0000000000000000     
  -4.2187499999999991       0.93749999999999989        0.0000000000000000     
  -4.1406249999999991       0.93749999999999989        0.0000000000000000     
  -4.0625000000000000       0.93749999999999989        0.0000000000000000     
  -3.9843750000000000       0.93749999999999989        0.0000000000000000     
  -3.9062500000000000       0.93749999999999989        0.0000000000000000     
  -3.8281250000000000       0.93750000000000000        0.0000000000000000     
  -3.7500000000000000       0.93749999999999989        0.0000000000000000     
  -4.3750000000000000        1.0156250000000000        0.0000000000000000     
  -4.2968750000000009        1.0156250000000000        0.0000000000000000     
  -4.2187499999999991        1.0156250000000000        0.0000000000000000     
  -4.1406250000000000        1.0156250000000000        0.0000000000000000     
  -4.0625000000000000        1.0156249999999998        0.0000000000000000     
  -3.9843750000000000        1.0156250000000002        0.0000000000000000     
  -3.9062500000000000        1.0156250000000000        0.0000000000000000     
  -3.8281249999999996        1.0156249999999998        0.0000000000000000     
  -3.7499999999999996        1.0156250000000002        0.0000000000000000     
  -4.3750000000000000        1.0937499999999998        0.0000000000000000     
  -4.2968750000000009        1.0937500000000004        0.0000000000000000     
  -4.2187500000000018        1.0937500000000004        0.0000000000000000     
  -4.1406250000000000        1.0937500000000000        0.0000000000000000     
  -4.0625000000000009        1.0937500000000004        0.0000000000000000     
  -3.9843750000000013        1.0937500000000004        0.0000000000000000     
  -3.9062500000000000        1.0937499999999998        0.0000000000000000     
  -3.8281250000000004        1.0937500000000002        0.0000000000000000     
  -3.7500000000000004        1.0937500000000002        0.0000000000000000     
  -4.3750000000000000        1.1718750000000002        0.0000000000000000     
  -4.2968750000000000        1.1718749999999998        0.0000000000000000     
  -4.2187500000000000        1.1718749999999998        0.0000000000000000     
  -4.1406250000000000        1.1718750000000000        0.0000000000000000     
  -4.0625000000000000        1.1718749999999998        0.0000000000000000     
  -3.9843750000000000        1.1718749999999998        0.0000000000000000     
  -3.9062500000000004        1.1718750000000000        0.0000000000000000     
  -3.8281249999999996        1.1718750000000000        0.0000000000000000     
  -3.7499999999999996        1.1718749999999998        0.0000000000000000     
  -4.3750000000000000        1.2500000000000002        0.0000000000000000     
  -4.2968750000000009        1.2500000000000002        0.0000000000000000     
  -4.2187500000000000        1.2500000000000002        0.0000000000000000     
  -4.1406250000000000        1.2500000000000000        0.0000000000000000     
  -4.0625000000000000        1.2499999999999998        0.0000000000000000     
  -3.9843749999999996        1.2500000000000000        0.0000000000000000     
  -3.9062500000000009        1.2500000000000002        0.0000000000000000     
  -3.8281250000000000        1.2500000000000000        0.0000000000000000     
  -3.7500000000000000        1.2500000000000002        0.0000000000000000     
  -3.7500000000000004       0.62500000000000011        0.0000000000000000     
  -3.6718750000000004       0.62500000000000000        0.0000000000000000     
  -3.5937500000000009       0.62500000000000022        0.0000000000000000     
  -3.5156250000000000       0.62500000000000000        0.0000000000000000     
  -3.4375000000000004       0.62500000000000000        0.0000000000000000     
  -3.3593750000000004       0.62500000000000011        0.0000000000000000     
  -3.2812500000000000       0.62500000000000000        0.0000000000000000     
  -3.2031250000000004       0.62500000000000011        0.0000000000000000     
  -3.1250000000000004       0.62500000000000011        0.0000000000000000     
  -3.7500000000000000       0.70312499999999989        0.0000000000000000     
  -3.6718750000000004       0.70312500000000011        0.0000000000000000     
  -3.5937500000000000       0.70312499999999989        0.0000000000000000     
  -3.5156250000000004       0.70312500000000000        0.0000000000000000     
  -3.4375000000000004       0.70312500000000011        0.0000000000000000     
  -3.3593750000000000       0.70312499999999989        0.0000000000000000     
  -3.2812500000000000       0.70312499999999989        0.0000000000000000     
  -3.2031249999999996       0.70312500000000000        0.0000000000000000     
  -3.1250000000000000       0.70312499999999989        0.0000000000000000     
  -3.7500000000000000       0.78125000000000011        0.0000000000000000     
  -3.6718750000000009       0.78125000000000000        0.0000000000000000     
  -3.5937500000000000       0.78125000000000000        0.0000000000000000     
  -3.5156250000000000       0.78125000000000000        0.0000000000000000     
  -3.4375000000000000       0.78124999999999989        0.0000000000000000     
  -3.3593750000000000       0.78125000000000000        0.0000000000000000     
  -3.2812500000000000       0.78125000000000011        0.0000000000000000     
  -3.2031250000000009       0.78125000000000000        0.0000000000000000     
  -3.1250000000000000       0.78125000000000011        0.0000000000000000     
  -3.7500000000000000       0.85937500000000000        0.0000000000000000     
  -3.6718750000000004       0.85937500000000011        0.0000000000000000     
  -3.5937500000000009       0.85937500000000022        0.0000000000000000     
  -3.5156250000000000       0.85937500000000011        0.0000000000000000     
  -3.4375000000000009       0.85937500000000011        0.0000000000000000     
  -3.3593750000000004       0.85937500000000011        0.0000000000000000     
  -3.2812500000000000       0.85937500000000011        0.0000000000000000     
  -3.2031250000000009       0.85937500000000011        0.0000000000000000     
  -3.1250000000000004       0.85937500000000000        0.0000000000000000     
  -3.7500000000000000       0.93749999999999989        0.0000000000000000     
  -3.6718749999999996       0.93750000000000000        0.0000000000000000     
  -3.5937499999999996       0.93749999999999989        0.0000000000000000     
  -3.5156249999999996       0.93749999999999989        0.0000000000000000     
  -3.4374999999999991       0.93750000000000000        0.0000000000000000     
  -3.3593750000000000       0.93749999999999989        0.0000000000000000     
  -3.2812499999999996       0.93749999999999989        0.0000000000000000     
  -3.2031249999999996       0.93750000000000011        0.0000000000000000     
  -3.1250000000000000       0.93749999999999989        0.0000000000000000     
  -3.7499999999999996        1.0156250000000002        0.0000000000000000     
  -3.6718750000000000        1.0156250000000000        0.0000000000000000     
  -3.5937500000000009        1.0156250000000000        0.0000000000000000     
  -3.5156250000000000        1.0156250000000000        0.0000000000000000     
  -3.4375000000000000        1.0156250000000000        0.0000000000000000     
  -3.3593750000000000        1.0156250000000002        0.0000000000000000     
  -3.2812499999999996        1.0156250000000000        0.0000000000000000     
  -3.2031250000000004        1.0156250000000000        0.0000000000000000     
  -3.1250000000000004        1.0156250000000002        0.0000000000000000     
  -3.7500000000000004        1.0937500000000002        0.0000000000000000     
  -3.6718750000000009        1.0937500000000004        0.0000000000000000     
  -3.5937500000000004        1.0937500000000004        0.0000000000000000     
  -3.5156250000000004        1.0937500000000002        0.0000000000000000     
  -3.4375000000000009        1.0937500000000002        0.0000000000000000     
  -3.3593750000000009        1.0937500000000004        0.0000000000000000     
  -3.2812500000000004        1.0937500000000002        0.0000000000000000     
  -3.2031250000000009        1.0937500000000004        0.0000000000000000     
  -3.1250000000000004        1.0937500000000002        0.0000000000000000     
  -3.7499999999999996        1.1718749999999998        0.0000000000000000     
  -3.6718750000000000        1.1718750000000000        0.0000000000000000     
  -3.5937500000000000        1.1718749999999998        0.0000000000000000     
  -3.5156249999999996        1.1718749999999998        0.0000000000000000     
  -3.4375000000000000        1.1718750000000000        0.0000000000000000     
  -3.3593749999999996        1.1718749999999998        0.0000000000000000     
  -3.2812499999999996        1.1718749999999998        0.0000000000000000     
  -3.2031249999999996        1.1718750000000000        0.0000000000000000     
  -3.1250000000000000        1.1718749999999998        0.0000000000000000     
  -3.7500000000000000        1.2500000000000002        0.0000000000000000     
  -3.6718750000000000        1.2500000000000000        0.0000000000000000     
  -3.5937500000000009        1.2500000000000002        0.0000000000000000     
  -3.5156250000000000        1.2500000000000000        0.0000000000000000     
  -3.4375000000000000        1.2500000000000000        0.0000000000000000     
  -3.3593750000000004        1.2500000000000000        0.0000000000000000     
  -3.2812500000000004        1.2500000000000002        0.0000000000000000     
  -3.2031250000000000        1.2500000000000000        0.0000000000000000     
  -3.1250000000000004        1.2500000000000002        0.0000000000000000     
  -3.1250000000000004       0.62500000000000011        0.0000000000000000     
  -3.0468750000000000       0.62500000000000000        0.0000000000000000     
  -2.9687500000000004       0.62500000000000022        0.0000000000000000     
  -2.8906250000000004       0.62500000000000000        0.0000000000000000     
  -2.8125000000000000       0.62500000000000000        0.0000000000000000     
  -2.7343750000000000       0.62500000000000011        0.0000000000000000     
  -2.6562500000000000       0.62500000000000000        0.0000000000000000     
  -2.5781250000000004       0.62500000000000011        0.0000000000000000     
  -2.5000000000000004       0.62500000000000011        0.0000000000000000     
  -3.1250000000000000       0.70312499999999989        0.0000000000000000     
  -3.0468750000000009       0.70312500000000011        0.0000000000000000     
  -2.9687500000000000       0.70312499999999989        0.0000000000000000     
  -2.8906250000000000       0.70312500000000000        0.0000000000000000     
  -2.8125000000000004       0.70312500000000011        0.0000000000000000     
  -2.7343750000000000       0.70312499999999989        0.0000000000000000     
  -2.6562499999999996       0.70312499999999989        0.0000000000000000     
  -2.5781249999999996       0.70312500000000000        0.0000000000000000     
  -2.4999999999999996       0.70312499999999989        0.0000000000000000     
  -3.1250000000000000       0.78125000000000011        0.0000000000000000     
  -3.0468750000000004       0.78125000000000000        0.0000000000000000     
  -2.9687500000000000       0.78125000000000000        0.0000000000000000     
  -2.8906250000000000       0.78125000000000000        0.0000000000000000     
  -2.8125000000000004       0.78124999999999989        0.0000000000000000     
  -2.7343750000000000       0.78125000000000000        0.0000000000000000     
  -2.6562500000000000       0.78125000000000011        0.0000000000000000     
  -2.5781250000000004       0.78125000000000000        0.0000000000000000     
  -2.5000000000000000       0.78125000000000011        0.0000000000000000     
  -3.1250000000000004       0.85937500000000000        0.0000000000000000     
  -3.0468749999999996       0.85937500000000011        0.0000000000000000     
  -2.9687500000000009       0.85937500000000022        0.0000000000000000     
  -2.8906250000000004       0.85937500000000011        0.0000000000000000     
  -2.8125000000000000       0.85937500000000011        0.0000000000000000     
  -2.7343750000000004       0.85937500000000011        0.0000000000000000     
  -2.6562500000000000       0.85937500000000011        0.0000000000000000     
  -2.5781249999999996       0.85937500000000011        0.0000000000000000     
  -2.5000000000000004       0.85937500000000000        0.0000000000000000     
  -3.1250000000000000       0.93749999999999989        0.0000000000000000     
  -3.0468750000000000       0.93750000000000000        0.0000000000000000     
  -2.9687499999999996       0.93749999999999989        0.0000000000000000     
  -2.8906250000000000       0.93749999999999989        0.0000000000000000     
  -2.8124999999999996       0.93750000000000000        0.0000000000000000     
  -2.7343750000000000       0.93749999999999989        0.0000000000000000     
  -2.6562500000000000       0.93749999999999989        0.0000000000000000     
  -2.5781250000000000       0.93750000000000011        0.0000000000000000     
  -2.5000000000000000       0.93749999999999989        0.0000000000000000     
  -3.1250000000000004        1.0156250000000002        0.0000000000000000     
  -3.0468750000000009        1.0156250000000000        0.0000000000000000     
  -2.9687500000000000        1.0156250000000000        0.0000000000000000     
  -2.8906250000000000        1.0156250000000000        0.0000000000000000     
  -2.8125000000000004        1.0156250000000000        0.0000000000000000     
  -2.7343750000000000        1.0156250000000002        0.0000000000000000     
  -2.6562500000000000        1.0156250000000000        0.0000000000000000     
  -2.5781250000000004        1.0156250000000000        0.0000000000000000     
  -2.5000000000000000        1.0156250000000002        0.0000000000000000     
  -3.1250000000000004        1.0937500000000002        0.0000000000000000     
  -3.0468750000000004        1.0937500000000004        0.0000000000000000     
  -2.9687500000000009        1.0937500000000004        0.0000000000000000     
  -2.8906250000000000        1.0937500000000002        0.0000000000000000     
  -2.8124999999999996        1.0937500000000002        0.0000000000000000     
  -2.7343750000000009        1.0937500000000004        0.0000000000000000     
  -2.6562500000000004        1.0937500000000002        0.0000000000000000     
  -2.5781250000000000        1.0937500000000004        0.0000000000000000     
  -2.5000000000000009        1.0937500000000002        0.0000000000000000     
  -3.1250000000000000        1.1718749999999998        0.0000000000000000     
  -3.0468750000000004        1.1718750000000000        0.0000000000000000     
  -2.9687500000000000        1.1718749999999998        0.0000000000000000     
  -2.8906249999999996        1.1718749999999998        0.0000000000000000     
  -2.8125000000000004        1.1718750000000000        0.0000000000000000     
  -2.7343749999999996        1.1718749999999998        0.0000000000000000     
  -2.6562499999999996        1.1718749999999998        0.0000000000000000     
  -2.5781250000000004        1.1718750000000000        0.0000000000000000     
  -2.5000000000000000        1.1718749999999998        0.0000000000000000     
  -3.1250000000000004        1.2500000000000002        0.0000000000000000     
  -3.0468750000000004        1.2500000000000000        0.0000000000000000     
  -2.9687500000000000        1.2500000000000002        0.0000000000000000     
  -2.8906250000000000        1.2500000000000000        0.0000000000000000     
  -2.8125000000000004        1.2500000000000000        0.0000000000000000     
  -2.7343750000000000        1.2500000000000000        0.0000000000000000     
  -2.6562500000000004        1.2500000000000002        0.0000000000000000     
  -2.5781250000000004        1.2500000000000000        0.0000000000000000     
  -2.5000000000000004        1.2500000000000002        0.0000000000000000     
  -2.5000000000000004       0.62500000000000011        0.0000000000000000     
  -2.4218750000000000       0.62500000000000000        0.0000000000000000     
  -2.3437500000000004       0.62500000000000022        0.0000000000000000     
  -2.2656250000000004       0.62500000000000000        0.0000000000000000     
  -2.1875000000000000       0.62500000000000000        0.0000000000000000     
  -2.1093750000000000       0.62500000000000011        0.0000000000000000     
  -2.0312500000000000       0.62500000000000000        0.0000000000000000     
  -1.9531250000000004       0.62500000000000011        0.0000000000000000     
  -1.8750000000000002       0.62500000000000011        0.0000000000000000     
  -2.4999999999999996       0.70312499999999989        0.0000000000000000     
  -2.4218750000000009       0.70312500000000011        0.0000000000000000     
  -2.3437500000000000       0.70312499999999989        0.0000000000000000     
  -2.2656250000000000       0.70312500000000000        0.0000000000000000     
  -2.1875000000000004       0.70312500000000011        0.0000000000000000     
  -2.1093750000000000       0.70312499999999989        0.0000000000000000     
  -2.0312500000000000       0.70312499999999989        0.0000000000000000     
  -1.9531249999999998       0.70312500000000000        0.0000000000000000     
  -1.8750000000000000       0.70312499999999989        0.0000000000000000     
  -2.5000000000000000       0.78125000000000011        0.0000000000000000     
  -2.4218750000000004       0.78125000000000000        0.0000000000000000     
  -2.3437500000000000       0.78125000000000000        0.0000000000000000     
  -2.2656250000000000       0.78125000000000000        0.0000000000000000     
  -2.1875000000000000       0.78124999999999989        0.0000000000000000     
  -2.1093750000000000       0.78125000000000000        0.0000000000000000     
  -2.0312500000000000       0.78125000000000011        0.0000000000000000     
  -1.9531250000000002       0.78125000000000000        0.0000000000000000     
  -1.8750000000000002       0.78125000000000011        0.0000000000000000     
  -2.5000000000000004       0.85937500000000000        0.0000000000000000     
  -2.4218749999999996       0.85937500000000011        0.0000000000000000     
  -2.3437500000000004       0.85937500000000022        0.0000000000000000     
  -2.2656250000000004       0.85937500000000011        0.0000000000000000     
  -2.1874999999999996       0.85937500000000011        0.0000000000000000     
  -2.1093749999999996       0.85937500000000011        0.0000000000000000     
  -2.0312500000000000       0.85937500000000011        0.0000000000000000     
  -1.9531250000000000       0.85937500000000011        0.0000000000000000     
  -1.8750000000000000       0.85937500000000000        0.0000000000000000     
  -2.5000000000000000       0.93749999999999989        0.0000000000000000     
  -2.4218750000000004       0.93750000000000000        0.0000000000000000     
  -2.3437500000000000       0.93749999999999989        0.0000000000000000     
  -2.2656250000000000       0.93749999999999989        0.0000000000000000     
  -2.1875000000000000       0.93750000000000000        0.0000000000000000     
  -2.1093749999999996       0.93749999999999989        0.0000000000000000     
  -2.0312500000000000       0.93749999999999989        0.0000000000000000     
  -1.9531249999999998       0.93750000000000011        0.0000000000000000     
  -1.8750000000000000       0.93749999999999989        0.0000000000000000     
  -2.5000000000000000        1.0156250000000002        0.0000000000000000     
  -2.4218750000000000        1.0156250000000000        0.0000000000000000     
  -2.3437500000000000        1.0156250000000000        0.0000000000000000     
  -2.2656250000000000        1.0156250000000000        0.0000000000000000     
  -2.1875000000000000        1.0156250000000000        0.0000000000000000     
  -2.1093750000000000        1.0156250000000002        0.0000000000000000     
  -2.0312500000000000        1.0156250000000000        0.0000000000000000     
  -1.9531249999999998        1.0156250000000000        0.0000000000000000     
  -1.8750000000000000        1.0156250000000002        0.0000000000000000     
  -2.5000000000000009        1.0937500000000002        0.0000000000000000     
  -2.4218749999999996        1.0937500000000004        0.0000000000000000     
  -2.3437500000000004        1.0937500000000004        0.0000000000000000     
  -2.2656250000000004        1.0937500000000002        0.0000000000000000     
  -2.1874999999999996        1.0937500000000002        0.0000000000000000     
  -2.1093750000000004        1.0937500000000004        0.0000000000000000     
  -2.0312500000000004        1.0937500000000002        0.0000000000000000     
  -1.9531250000000007        1.0937500000000004        0.0000000000000000     
  -1.8750000000000004        1.0937500000000002        0.0000000000000000     
  -2.5000000000000000        1.1718749999999998        0.0000000000000000     
  -2.4218750000000009        1.1718750000000000        0.0000000000000000     
  -2.3437500000000000        1.1718749999999998        0.0000000000000000     
  -2.2656250000000000        1.1718749999999998        0.0000000000000000     
  -2.1875000000000004        1.1718750000000000        0.0000000000000000     
  -2.1093749999999996        1.1718749999999998        0.0000000000000000     
  -2.0312500000000000        1.1718749999999998        0.0000000000000000     
  -1.9531249999999998        1.1718750000000000        0.0000000000000000     
  -1.8750000000000000        1.1718749999999998        0.0000000000000000     
  -2.5000000000000004        1.2500000000000002        0.0000000000000000     
  -2.4218750000000004        1.2500000000000000        0.0000000000000000     
  -2.3437500000000004        1.2500000000000002        0.0000000000000000     
  -2.2656250000000000        1.2500000000000000        0.0000000000000000     
  -2.1875000000000000        1.2500000000000000        0.0000000000000000     
  -2.1093750000000000        1.2500000000000000        0.0000000000000000     
  -2.0312500000000000        1.2500000000000002        0.0000000000000000     
  -1.9531249999999998        1.2500000000000000        0.0000000000000000     
  -1.8750000000000002        1.2500000000000002        0.0000000000000000     
  -1.8750000000000002       0.62500000000000011        0.0000000000000000     
  -1.7968750000000000       0.62500000000000000        0.0000000000000000     
  -1.7187500000000004       0.62500000000000022        0.0000000000000000     
  -1.6406250000000000       0.62500000000000000        0.0000000000000000     
  -1.5624999999999998       0.62500000000000000        0.0000000000000000     
  -1.4843750000000000       0.62500000000000011        0.0000000000000000     
  -1.4062500000000000       0.62500000000000000        0.0000000000000000     
  -1.3281250000000000       0.62500000000000011        0.0000000000000000     
  -1.2500000000000002       0.62500000000000011        0.0000000000000000     
  -1.8750000000000000       0.70312499999999989        0.0000000000000000     
  -1.7968750000000004       0.70312500000000011        0.0000000000000000     
  -1.7187500000000000       0.70312499999999989        0.0000000000000000     
  -1.6406250000000002       0.70312500000000000        0.0000000000000000     
  -1.5625000000000004       0.70312500000000011        0.0000000000000000     
  -1.4843750000000000       0.70312499999999989        0.0000000000000000     
  -1.4062499999999998       0.70312499999999989        0.0000000000000000     
  -1.3281250000000002       0.70312500000000000        0.0000000000000000     
  -1.2500000000000000       0.70312499999999989        0.0000000000000000     
  -1.8750000000000002       0.78125000000000011        0.0000000000000000     
  -1.7968750000000002       0.78125000000000000        0.0000000000000000     
  -1.7187500000000000       0.78125000000000000        0.0000000000000000     
  -1.6406250000000000       0.78125000000000000        0.0000000000000000     
  -1.5625000000000002       0.78124999999999989        0.0000000000000000     
  -1.4843750000000000       0.78125000000000000        0.0000000000000000     
  -1.4062500000000000       0.78125000000000011        0.0000000000000000     
  -1.3281250000000002       0.78125000000000000        0.0000000000000000     
  -1.2500000000000000       0.78125000000000011        0.0000000000000000     
  -1.8750000000000000       0.85937500000000000        0.0000000000000000     
  -1.7968750000000000       0.85937500000000011        0.0000000000000000     
  -1.7187500000000004       0.85937500000000022        0.0000000000000000     
  -1.6406250000000000       0.85937500000000011        0.0000000000000000     
  -1.5625000000000000       0.85937500000000011        0.0000000000000000     
  -1.4843750000000000       0.85937500000000011        0.0000000000000000     
  -1.4062499999999998       0.85937500000000011        0.0000000000000000     
  -1.3281250000000000       0.85937500000000011        0.0000000000000000     
  -1.2500000000000000       0.85937500000000000        0.0000000000000000     
  -1.8750000000000000       0.93749999999999989        0.0000000000000000     
  -1.7968750000000002       0.93750000000000000        0.0000000000000000     
  -1.7187499999999998       0.93749999999999989        0.0000000000000000     
  -1.6406249999999998       0.93749999999999989        0.0000000000000000     
  -1.5625000000000000       0.93750000000000000        0.0000000000000000     
  -1.4843750000000000       0.93749999999999989        0.0000000000000000     
  -1.4062500000000000       0.93749999999999989        0.0000000000000000     
  -1.3281250000000002       0.93750000000000011        0.0000000000000000     
  -1.2500000000000000       0.93749999999999989        0.0000000000000000     
  -1.8750000000000000        1.0156250000000002        0.0000000000000000     
  -1.7968750000000000        1.0156250000000000        0.0000000000000000     
  -1.7187500000000000        1.0156250000000000        0.0000000000000000     
  -1.6406250000000002        1.0156250000000000        0.0000000000000000     
  -1.5625000000000002        1.0156250000000000        0.0000000000000000     
  -1.4843750000000000        1.0156250000000002        0.0000000000000000     
  -1.4062500000000000        1.0156250000000000        0.0000000000000000     
  -1.3281250000000000        1.0156250000000000        0.0000000000000000     
  -1.2500000000000000        1.0156250000000002        0.0000000000000000     
  -1.8750000000000004        1.0937500000000002        0.0000000000000000     
  -1.7968750000000002        1.0937500000000004        0.0000000000000000     
  -1.7187500000000004        1.0937500000000004        0.0000000000000000     
  -1.6406250000000000        1.0937500000000002        0.0000000000000000     
  -1.5625000000000000        1.0937500000000002        0.0000000000000000     
  -1.4843750000000004        1.0937500000000004        0.0000000000000000     
  -1.4062500000000002        1.0937500000000002        0.0000000000000000     
  -1.3281250000000002        1.0937500000000004        0.0000000000000000     
  -1.2500000000000002        1.0937500000000002        0.0000000000000000     
  -1.8750000000000000        1.1718749999999998        0.0000000000000000     
  -1.7968750000000004        1.1718750000000000        0.0000000000000000     
  -1.7187500000000000        1.1718749999999998        0.0000000000000000     
  -1.6406249999999998        1.1718749999999998        0.0000000000000000     
  -1.5625000000000002        1.1718750000000000        0.0000000000000000     
  -1.4843749999999998        1.1718749999999998        0.0000000000000000     
  -1.4062499999999998        1.1718749999999998        0.0000000000000000     
  -1.3281250000000004        1.1718750000000000        0.0000000000000000     
  -1.2500000000000000        1.1718749999999998        0.0000000000000000     
  -1.8750000000000002        1.2500000000000002        0.0000000000000000     
  -1.7968750000000002        1.2500000000000000        0.0000000000000000     
  -1.7187500000000004        1.2500000000000002        0.0000000000000000     
  -1.6406250000000000        1.2500000000000000        0.0000000000000000     
  -1.5625000000000000        1.2500000000000000        0.0000000000000000     
  -1.4843750000000000        1.2500000000000000        0.0000000000000000     
  -1.4062500000000000        1.2500000000000002        0.0000000000000000     
  -1.3281250000000000        1.2500000000000000        0.0000000000000000     
  -1.2500000000000002        1.2500000000000002        0.0000000000000000     
  -1.2500000000000002       0.62500000000000011        0.0000000000000000     
  -1.1718750000000000       0.62500000000000000        0.0000000000000000     
  -1.0937500000000004       0.62500000000000011        0.0000000000000000     
  -1.0156249999999998       0.62500000000000000        0.0000000000000000     
 -0.93750000000000011       0.62500000000000000        0.0000000000000000     
 -0.85937500000000011       0.62499999999999989        0.0000000000000000     
 -0.78124999999999978       0.62500000000000000        0.0000000000000000     
 -0.70312500000000011       0.62500000000000000        0.0000000000000000     
 -0.62500000000000011       0.62500000000000022        0.0000000000000000     
  -1.2500000000000000       0.70312499999999989        0.0000000000000000     
  -1.1718750000000002       0.70312500000000011        0.0000000000000000     
  -1.0937500000000000       0.70312499999999989        0.0000000000000000     
  -1.0156250000000000       0.70312500000000000        0.0000000000000000     
 -0.93750000000000011       0.70312500000000011        0.0000000000000000     
 -0.85937499999999989       0.70312500000000000        0.0000000000000000     
 -0.78125000000000000       0.70312499999999989        0.0000000000000000     
 -0.70312500000000000       0.70312500000000000        0.0000000000000000     
 -0.62499999999999989       0.70312499999999989        0.0000000000000000     
  -1.2500000000000000       0.78125000000000011        0.0000000000000000     
  -1.1718750000000002       0.78125000000000000        0.0000000000000000     
  -1.0937500000000000       0.78125000000000000        0.0000000000000000     
  -1.0156250000000000       0.78125000000000000        0.0000000000000000     
 -0.93749999999999989       0.78124999999999989        0.0000000000000000     
 -0.85937500000000000       0.78125000000000000        0.0000000000000000     
 -0.78125000000000000       0.78125000000000000        0.0000000000000000     
 -0.70312500000000000       0.78124999999999989        0.0000000000000000     
 -0.62500000000000000       0.78125000000000000        0.0000000000000000     
  -1.2500000000000000       0.85937500000000000        0.0000000000000000     
  -1.1718750000000000       0.85937500000000000        0.0000000000000000     
  -1.0937499999999998       0.85937500000000011        0.0000000000000000     
  -1.0156250000000000       0.85937500000000011        0.0000000000000000     
 -0.93750000000000011       0.85937500000000000        0.0000000000000000     
 -0.85937500000000000       0.85937499999999989        0.0000000000000000     
 -0.78124999999999989       0.85937500000000011        0.0000000000000000     
 -0.70312500000000011       0.85937500000000011        0.0000000000000000     
 -0.62500000000000011       0.85937500000000000        0.0000000000000000     
  -1.2500000000000000       0.93749999999999989        0.0000000000000000     
  -1.1718750000000000       0.93750000000000022        0.0000000000000000     
  -1.0937500000000002       0.93750000000000000        0.0000000000000000     
  -1.0156250000000000       0.93749999999999989        0.0000000000000000     
 -0.93750000000000022       0.93750000000000022        0.0000000000000000     
 -0.85937499999999989       0.93750000000000000        0.0000000000000000     
 -0.78125000000000000       0.93749999999999989        0.0000000000000000     
 -0.70312500000000011       0.93750000000000022        0.0000000000000000     
 -0.62499999999999989       0.93749999999999989        0.0000000000000000     
  -1.2500000000000000        1.0156250000000002        0.0000000000000000     
  -1.1718750000000000        1.0156250000000002        0.0000000000000000     
  -1.0937500000000000        1.0156250000000000        0.0000000000000000     
  -1.0156250000000000        1.0156250000000000        0.0000000000000000     
 -0.93750000000000000        1.0156250000000002        0.0000000000000000     
 -0.85937500000000011        1.0156250000000000        0.0000000000000000     
 -0.78125000000000011        1.0156250000000000        0.0000000000000000     
 -0.70312500000000011        1.0156250000000002        0.0000000000000000     
 -0.62500000000000000        1.0156250000000000        0.0000000000000000     
  -1.2500000000000002        1.0937500000000002        0.0000000000000000     
  -1.1718750000000002        1.0937500000000004        0.0000000000000000     
  -1.0937499999999996        1.0937499999999998        0.0000000000000000     
  -1.0156250000000002        1.0937500000000002        0.0000000000000000     
 -0.93750000000000011        1.0937500000000002        0.0000000000000000     
 -0.85937500000000022        1.0937500000000000        0.0000000000000000     
 -0.78125000000000011        1.0937500000000002        0.0000000000000000     
 -0.70312500000000022        1.0937500000000004        0.0000000000000000     
 -0.62500000000000000        1.0937500000000000        0.0000000000000000     
  -1.2500000000000000        1.1718749999999998        0.0000000000000000     
  -1.1718750000000002        1.1718750000000000        0.0000000000000000     
  -1.0937500000000004        1.1718750000000002        0.0000000000000000     
  -1.0156250000000000        1.1718749999999998        0.0000000000000000     
 -0.93750000000000000        1.1718750000000000        0.0000000000000000     
 -0.85937499999999989        1.1718750000000000        0.0000000000000000     
 -0.78124999999999989        1.1718749999999998        0.0000000000000000     
 -0.70312500000000000        1.1718750000000000        0.0000000000000000     
 -0.62499999999999978        1.1718750000000000        0.0000000000000000     
  -1.2500000000000002        1.2500000000000002        0.0000000000000000     
  -1.1718750000000002        1.2500000000000000        0.0000000000000000     
  -1.0937500000000002        1.2500000000000002        0.0000000000000000     
  -1.0156250000000000        1.2500000000000000        0.0000000000000000     
 -0.93749999999999989        1.2500000000000000        0.0000000000000000     
 -0.85937499999999989        1.2500000000000000        0.0000000000000000     
 -0.78125000000000011        1.2500000000000002        0.0000000000000000     
 -0.70312499999999989        1.2500000000000000        0.0000000000000000     
 -0.62500000000000011        1.2500000000000000        0.0000000000000000     
 -0.62500000000000011       0.62500000000000022        0.0000000000000000     
 -0.54687500000000000       0.62500000000000000        0.0000000000000000     
 -0.46875000000000000       0.62500000000000000        0.0000000000000000     
 -0.39062499999999994       0.62500000000000000        0.0000000000000000     
 -0.31250000000000006       0.62500000000000000        0.0000000000000000     
 -0.23437500000000000       0.62500000000000011        0.0000000000000000     
 -0.15625000000000000       0.62500000000000011        0.0000000000000000     
  -7.8125000000000014E-002  0.62500000000000000        0.0000000000000000     
   0.0000000000000000       0.62500000000000011        0.0000000000000000     
 -0.62499999999999989       0.70312499999999989        0.0000000000000000     
 -0.54687500000000011       0.70312500000000011        0.0000000000000000     
 -0.46875000000000000       0.70312499999999989        0.0000000000000000     
 -0.39062500000000006       0.70312499999999989        0.0000000000000000     
 -0.31249999999999994       0.70312500000000000        0.0000000000000000     
 -0.23437500000000000       0.70312499999999989        0.0000000000000000     
 -0.15624999999999997       0.70312499999999989        0.0000000000000000     
  -7.8124999999999972E-002  0.70312500000000000        0.0000000000000000     
   0.0000000000000000       0.70312499999999989        0.0000000000000000     
 -0.62500000000000000       0.78125000000000000        0.0000000000000000     
 -0.54687500000000000       0.78125000000000000        0.0000000000000000     
 -0.46875000000000000       0.78125000000000000        0.0000000000000000     
 -0.39062500000000000       0.78125000000000011        0.0000000000000000     
 -0.31250000000000006       0.78125000000000022        0.0000000000000000     
 -0.23437500000000000       0.78125000000000000        0.0000000000000000     
 -0.15625000000000000       0.78125000000000000        0.0000000000000000     
  -7.8124999999999986E-002  0.78125000000000022        0.0000000000000000     
   0.0000000000000000       0.78124999999999989        0.0000000000000000     
 -0.62500000000000011       0.85937500000000000        0.0000000000000000     
 -0.54687499999999989       0.85937499999999978        0.0000000000000000     
 -0.46875000000000000       0.85937500000000011        0.0000000000000000     
 -0.39062500000000000       0.85937500000000011        0.0000000000000000     
 -0.31250000000000006       0.85937499999999989        0.0000000000000000     
 -0.23437500000000000       0.85937500000000011        0.0000000000000000     
 -0.15625000000000003       0.85937500000000011        0.0000000000000000     
  -7.8125000000000028E-002  0.85937500000000011        0.0000000000000000     
   0.0000000000000000       0.85937500000000022        0.0000000000000000     
 -0.62499999999999989       0.93749999999999989        0.0000000000000000     
 -0.54687500000000011       0.93750000000000011        0.0000000000000000     
 -0.46875000000000011       0.93750000000000000        0.0000000000000000     
 -0.39062500000000011       0.93749999999999989        0.0000000000000000     
 -0.31249999999999994       0.93750000000000011        0.0000000000000000     
 -0.23437500000000000       0.93749999999999989        0.0000000000000000     
 -0.15624999999999997       0.93749999999999989        0.0000000000000000     
  -7.8124999999999986E-002  0.93750000000000011        0.0000000000000000     
   0.0000000000000000       0.93749999999999989        0.0000000000000000     
 -0.62500000000000000        1.0156250000000000        0.0000000000000000     
 -0.54687500000000011        1.0156250000000002        0.0000000000000000     
 -0.46875000000000006        1.0156250000000002        0.0000000000000000     
 -0.39062500000000006        1.0156250000000000        0.0000000000000000     
 -0.31250000000000000        1.0156250000000000        0.0000000000000000     
 -0.23437500000000000        1.0156250000000000        0.0000000000000000     
 -0.15625000000000000        1.0156250000000000        0.0000000000000000     
  -7.8125000000000000E-002   1.0156250000000000        0.0000000000000000     
   0.0000000000000000        1.0156250000000002        0.0000000000000000     
 -0.62500000000000000        1.0937500000000000        0.0000000000000000     
 -0.54687500000000000        1.0937500000000002        0.0000000000000000     
 -0.46875000000000000        1.0937499999999998        0.0000000000000000     
 -0.39062499999999994        1.0937500000000000        0.0000000000000000     
 -0.31250000000000011        1.0937500000000004        0.0000000000000000     
 -0.23437500000000000        1.0937499999999998        0.0000000000000000     
 -0.15625000000000003        1.0937500000000000        0.0000000000000000     
  -7.8125000000000028E-002   1.0937500000000004        0.0000000000000000     
   0.0000000000000000        1.0937499999999998        0.0000000000000000     
 -0.62499999999999978        1.1718750000000000        0.0000000000000000     
 -0.54687500000000011        1.1718750000000000        0.0000000000000000     
 -0.46875000000000000        1.1718750000000000        0.0000000000000000     
 -0.39062500000000006        1.1718750000000000        0.0000000000000000     
 -0.31249999999999994        1.1718750000000000        0.0000000000000000     
 -0.23437500000000000        1.1718750000000000        0.0000000000000000     
 -0.15624999999999997        1.1718750000000000        0.0000000000000000     
  -7.8124999999999986E-002   1.1718750000000000        0.0000000000000000     
   0.0000000000000000        1.1718750000000000        0.0000000000000000     
 -0.62500000000000011        1.2500000000000000        0.0000000000000000     
 -0.54687500000000000        1.2500000000000000        0.0000000000000000     
 -0.46875000000000000        1.2500000000000000        0.0000000000000000     
 -0.39062500000000006        1.2500000000000000        0.0000000000000000     
 -0.31250000000000006        1.2500000000000000        0.0000000000000000     
 -0.23437500000000006        1.2500000000000002        0.0000000000000000     
 -0.15625000000000000        1.2500000000000000        0.0000000000000000     
  -7.8124999999999972E-002   1.2499999999999998        0.0000000000000000     
   0.0000000000000000        1.2500000000000002        0.0000000000000000     
  -5.0000000000000018        1.2500000000000002        0.0000000000000000     
  -4.9218750000000000        1.2499999999999998        0.0000000000000000     
  -4.8437500000000000        1.2500000000000000        0.0000000000000000     
  -4.7656250000000009        1.2500000000000002        0.0000000000000000     
  -4.6875000000000018        1.2500000000000000        0.0000000000000000     
  -4.6093750000000000        1.2500000000000000        0.0000000000000000     
  -4.5312500000000009        1.2500000000000000        0.0000000000000000     
  -4.4531250000000009        1.2500000000000000        0.0000000000000000     
  -4.3750000000000000        1.2500000000000002        0.0000000000000000     
  -5.0000000000000000        1.3281249999999998        0.0000000000000000     
  -4.9218750000000000        1.3281250000000002        0.0000000000000000     
  -4.8437500000000000        1.3281250000000000        0.0000000000000000     
  -4.7656250000000000        1.3281249999999998        0.0000000000000000     
  -4.6875000000000000        1.3281250000000002        0.0000000000000000     
  -4.6093750000000000        1.3281250000000000        0.0000000000000000     
  -4.5312500000000000        1.3281249999999998        0.0000000000000000     
  -4.4531250000000000        1.3281250000000004        0.0000000000000000     
  -4.3750000000000009        1.3281250000000000        0.0000000000000000     
  -4.9999999999999991        1.4062499999999998        0.0000000000000000     
  -4.9218750000000009        1.4062500000000002        0.0000000000000000     
  -4.8437500000000000        1.4062500000000000        0.0000000000000000     
  -4.7656250000000000        1.4062500000000000        0.0000000000000000     
  -4.6875000000000000        1.4062500000000000        0.0000000000000000     
  -4.6093750000000000        1.4062500000000000        0.0000000000000000     
  -4.5312500000000000        1.4062500000000000        0.0000000000000000     
  -4.4531250000000009        1.4062500000000000        0.0000000000000000     
  -4.3750000000000000        1.4062499999999998        0.0000000000000000     
  -5.0000000000000009        1.4843750000000002        0.0000000000000000     
  -4.9218750000000000        1.4843749999999998        0.0000000000000000     
  -4.8437500000000000        1.4843750000000000        0.0000000000000000     
  -4.7656250000000000        1.4843750000000002        0.0000000000000000     
  -4.6875000000000000        1.4843749999999998        0.0000000000000000     
  -4.6093750000000009        1.4843750000000000        0.0000000000000000     
  -4.5312500000000000        1.4843750000000000        0.0000000000000000     
  -4.4531250000000009        1.4843750000000000        0.0000000000000000     
  -4.3750000000000000        1.4843750000000000        0.0000000000000000     
  -5.0000000000000009        1.5625000000000002        0.0000000000000000     
  -4.9218750000000000        1.5625000000000002        0.0000000000000000     
  -4.8437500000000000        1.5625000000000002        0.0000000000000000     
  -4.7656250000000009        1.5625000000000002        0.0000000000000000     
  -4.6875000000000009        1.5625000000000004        0.0000000000000000     
  -4.6093749999999991        1.5625000000000000        0.0000000000000000     
  -4.5312499999999991        1.5624999999999996        0.0000000000000000     
  -4.4531250000000018        1.5625000000000004        0.0000000000000000     
  -4.3749999999999991        1.5624999999999998        0.0000000000000000     
  -5.0000000000000009        1.6406250000000004        0.0000000000000000     
  -4.9218750000000009        1.6406250000000002        0.0000000000000000     
  -4.8437500000000000        1.6406250000000000        0.0000000000000000     
  -4.7656250000000000        1.6406250000000000        0.0000000000000000     
  -4.6875000000000009        1.6406250000000000        0.0000000000000000     
  -4.6093750000000000        1.6406250000000004        0.0000000000000000     
  -4.5312500000000009        1.6406250000000002        0.0000000000000000     
  -4.4531250000000000        1.6406249999999998        0.0000000000000000     
  -4.3750000000000000        1.6406249999999998        0.0000000000000000     
  -5.0000000000000009        1.7187500000000002        0.0000000000000000     
  -4.9218750000000009        1.7187500000000002        0.0000000000000000     
  -4.8437500000000009        1.7187500000000000        0.0000000000000000     
  -4.7656249999999991        1.7187500000000000        0.0000000000000000     
  -4.6875000000000009        1.7187499999999998        0.0000000000000000     
  -4.6093750000000009        1.7187500000000000        0.0000000000000000     
  -4.5312499999999991        1.7187500000000000        0.0000000000000000     
  -4.4531250000000000        1.7187500000000000        0.0000000000000000     
  -4.3750000000000000        1.7187500000000000        0.0000000000000000     
  -5.0000000000000000        1.7968749999999998        0.0000000000000000     
  -4.9218750000000009        1.7968750000000004        0.0000000000000000     
  -4.8437499999999991        1.7968750000000000        0.0000000000000000     
  -4.7656250000000000        1.7968750000000000        0.0000000000000000     
  -4.6875000000000018        1.7968750000000004        0.0000000000000000     
  -4.6093749999999991        1.7968749999999996        0.0000000000000000     
  -4.5312500000000009        1.7968750000000000        0.0000000000000000     
  -4.4531250000000018        1.7968750000000004        0.0000000000000000     
  -4.3750000000000009        1.7968750000000000        0.0000000000000000     
  -5.0000000000000018        1.8750000000000004        0.0000000000000000     
  -4.9218750000000000        1.8750000000000000        0.0000000000000000     
  -4.8437500000000000        1.8749999999999998        0.0000000000000000     
  -4.7656250000000009        1.8750000000000000        0.0000000000000000     
  -4.6875000000000009        1.8750000000000002        0.0000000000000000     
  -4.6093750000000000        1.8749999999999998        0.0000000000000000     
  -4.5312500000000009        1.8750000000000002        0.0000000000000000     
  -4.4531250000000009        1.8750000000000002        0.0000000000000000     
  -4.3750000000000000        1.8750000000000002        0.0000000000000000     
  -4.3750000000000000        1.2500000000000002        0.0000000000000000     
  -4.2968750000000009        1.2500000000000002        0.0000000000000000     
  -4.2187500000000000        1.2500000000000002        0.0000000000000000     
  -4.1406250000000000        1.2500000000000000        0.0000000000000000     
  -4.0625000000000000        1.2499999999999998        0.0000000000000000     
  -3.9843749999999996        1.2500000000000000        0.0000000000000000     
  -3.9062500000000009        1.2500000000000002        0.0000000000000000     
  -3.8281250000000000        1.2500000000000000        0.0000000000000000     
  -3.7500000000000000        1.2500000000000002        0.0000000000000000     
  -4.3750000000000009        1.3281250000000000        0.0000000000000000     
  -4.2968750000000009        1.3281250000000004        0.0000000000000000     
  -4.2187500000000009        1.3281250000000002        0.0000000000000000     
  -4.1406250000000009        1.3281250000000000        0.0000000000000000     
  -4.0625000000000000        1.3281250000000004        0.0000000000000000     
  -3.9843750000000009        1.3281250000000000        0.0000000000000000     
  -3.9062500000000009        1.3281250000000000        0.0000000000000000     
  -3.8281250000000000        1.3281250000000004        0.0000000000000000     
  -3.7500000000000009        1.3281250000000000        0.0000000000000000     
  -4.3750000000000000        1.4062499999999998        0.0000000000000000     
  -4.2968750000000009        1.4062500000000002        0.0000000000000000     
  -4.2187500000000000        1.4062500000000000        0.0000000000000000     
  -4.1406250000000018        1.4062500000000002        0.0000000000000000     
  -4.0625000000000000        1.4062500000000000        0.0000000000000000     
  -3.9843750000000000        1.4062500000000000        0.0000000000000000     
  -3.9062500000000000        1.4062500000000000        0.0000000000000000     
  -3.8281250000000004        1.4062500000000002        0.0000000000000000     
  -3.7500000000000000        1.4062500000000002        0.0000000000000000     
  -4.3750000000000000        1.4843750000000000        0.0000000000000000     
  -4.2968750000000000        1.4843749999999998        0.0000000000000000     
  -4.2187500000000000        1.4843750000000000        0.0000000000000000     
  -4.1406250000000009        1.4843750000000004        0.0000000000000000     
  -4.0624999999999991        1.4843749999999998        0.0000000000000000     
  -3.9843750000000000        1.4843750000000000        0.0000000000000000     
  -3.9062500000000000        1.4843750000000000        0.0000000000000000     
  -3.8281249999999996        1.4843749999999998        0.0000000000000000     
  -3.7499999999999991        1.4843749999999998        0.0000000000000000     
  -4.3749999999999991        1.5624999999999998        0.0000000000000000     
  -4.2968750000000000        1.5625000000000004        0.0000000000000000     
  -4.2187500000000000        1.5624999999999998        0.0000000000000000     
  -4.1406250000000000        1.5625000000000000        0.0000000000000000     
  -4.0625000000000000        1.5625000000000004        0.0000000000000000     
  -3.9843750000000009        1.5625000000000000        0.0000000000000000     
  -3.9062500000000004        1.5625000000000000        0.0000000000000000     
  -3.8281250000000000        1.5625000000000002        0.0000000000000000     
  -3.7500000000000009        1.5625000000000000        0.0000000000000000     
  -4.3750000000000000        1.6406249999999998        0.0000000000000000     
  -4.2968750000000009        1.6406250000000002        0.0000000000000000     
  -4.2187500000000000        1.6406250000000000        0.0000000000000000     
  -4.1406250000000000        1.6406249999999998        0.0000000000000000     
  -4.0625000000000000        1.6406249999999998        0.0000000000000000     
  -3.9843750000000000        1.6406250000000004        0.0000000000000000     
  -3.9062500000000000        1.6406249999999998        0.0000000000000000     
  -3.8281249999999996        1.6406249999999998        0.0000000000000000     
  -3.7499999999999996        1.6406250000000002        0.0000000000000000     
  -4.3750000000000000        1.7187500000000000        0.0000000000000000     
  -4.2968750000000018        1.7187500000000002        0.0000000000000000     
  -4.2187500000000000        1.7187500000000000        0.0000000000000000     
  -4.1406250000000009        1.7187500000000004        0.0000000000000000     
  -4.0625000000000000        1.7187500000000000        0.0000000000000000     
  -3.9843749999999996        1.7187500000000000        0.0000000000000000     
  -3.9062500000000004        1.7187500000000002        0.0000000000000000     
  -3.8281249999999996        1.7187500000000000        0.0000000000000000     
  -3.7499999999999996        1.7187499999999998        0.0000000000000000     
  -4.3750000000000009        1.7968750000000000        0.0000000000000000     
  -4.2968750000000000        1.7968750000000004        0.0000000000000000     
  -4.2187500000000000        1.7968750000000000        0.0000000000000000     
  -4.1406250000000000        1.7968749999999998        0.0000000000000000     
  -4.0625000000000000        1.7968750000000004        0.0000000000000000     
  -3.9843750000000004        1.7968749999999998        0.0000000000000000     
  -3.9062500000000004        1.7968750000000000        0.0000000000000000     
  -3.8281250000000000        1.7968750000000004        0.0000000000000000     
  -3.7500000000000000        1.7968749999999998        0.0000000000000000     
  -4.3750000000000000        1.8750000000000002        0.0000000000000000     
  -4.2968750000000009        1.8750000000000002        0.0000000000000000     
  -4.2187500000000000        1.8750000000000004        0.0000000000000000     
  -4.1406250000000000        1.8749999999999998        0.0000000000000000     
  -4.0625000000000000        1.8749999999999998        0.0000000000000000     
  -3.9843749999999996        1.8750000000000002        0.0000000000000000     
  -3.9062500000000009        1.8750000000000002        0.0000000000000000     
  -3.8281250000000000        1.8749999999999998        0.0000000000000000     
  -3.7500000000000000        1.8750000000000004        0.0000000000000000     
  -3.7500000000000000        1.2500000000000002        0.0000000000000000     
  -3.6718750000000000        1.2500000000000000        0.0000000000000000     
  -3.5937500000000009        1.2500000000000002        0.0000000000000000     
  -3.5156250000000000        1.2500000000000000        0.0000000000000000     
  -3.4375000000000000        1.2500000000000000        0.0000000000000000     
  -3.3593750000000004        1.2500000000000000        0.0000000000000000     
  -3.2812500000000004        1.2500000000000002        0.0000000000000000     
  -3.2031250000000000        1.2500000000000000        0.0000000000000000     
  -3.1250000000000004        1.2500000000000002        0.0000000000000000     
  -3.7500000000000009        1.3281250000000000        0.0000000000000000     
  -3.6718750000000004        1.3281250000000004        0.0000000000000000     
  -3.5937500000000004        1.3281250000000002        0.0000000000000000     
  -3.5156250000000009        1.3281250000000000        0.0000000000000000     
  -3.4375000000000000        1.3281250000000004        0.0000000000000000     
  -3.3593750000000000        1.3281250000000000        0.0000000000000000     
  -3.2812500000000009        1.3281250000000002        0.0000000000000000     
  -3.2031250000000000        1.3281250000000004        0.0000000000000000     
  -3.1250000000000004        1.3281250000000000        0.0000000000000000     
  -3.7500000000000000        1.4062500000000002        0.0000000000000000     
  -3.6718750000000009        1.4062500000000000        0.0000000000000000     
  -3.5937500000000000        1.4062500000000000        0.0000000000000000     
  -3.5156250000000000        1.4062500000000000        0.0000000000000000     
  -3.4375000000000000        1.4062499999999998        0.0000000000000000     
  -3.3593750000000000        1.4062500000000000        0.0000000000000000     
  -3.2812500000000000        1.4062500000000000        0.0000000000000000     
  -3.2031250000000009        1.4062500000000000        0.0000000000000000     
  -3.1250000000000000        1.4062500000000002        0.0000000000000000     
  -3.7499999999999991        1.4843749999999998        0.0000000000000000     
  -3.6718750000000000        1.4843750000000000        0.0000000000000000     
  -3.5937500000000004        1.4843750000000000        0.0000000000000000     
  -3.5156249999999987        1.4843750000000000        0.0000000000000000     
  -3.4375000000000000        1.4843750000000002        0.0000000000000000     
  -3.3593750000000004        1.4843750000000000        0.0000000000000000     
  -3.2812499999999987        1.4843750000000000        0.0000000000000000     
  -3.2031250000000004        1.4843750000000000        0.0000000000000000     
  -3.1249999999999996        1.4843749999999998        0.0000000000000000     
  -3.7500000000000009        1.5625000000000000        0.0000000000000000     
  -3.6718750000000000        1.5625000000000004        0.0000000000000000     
  -3.5937499999999996        1.5624999999999998        0.0000000000000000     
  -3.5156250000000009        1.5625000000000000        0.0000000000000000     
  -3.4375000000000000        1.5625000000000002        0.0000000000000000     
  -3.3593749999999996        1.5625000000000000        0.0000000000000000     
  -3.2812500000000004        1.5625000000000000        0.0000000000000000     
  -3.2031250000000009        1.5625000000000002        0.0000000000000000     
  -3.1250000000000000        1.5625000000000000        0.0000000000000000     
  -3.7499999999999996        1.6406250000000002        0.0000000000000000     
  -3.6718750000000000        1.6406249999999998        0.0000000000000000     
  -3.5937500000000009        1.6406250000000000        0.0000000000000000     
  -3.5156250000000000        1.6406250000000000        0.0000000000000000     
  -3.4375000000000000        1.6406249999999998        0.0000000000000000     
  -3.3593750000000000        1.6406250000000004        0.0000000000000000     
  -3.2812499999999996        1.6406250000000000        0.0000000000000000     
  -3.2031250000000009        1.6406249999999998        0.0000000000000000     
  -3.1250000000000004        1.6406250000000002        0.0000000000000000     
  -3.7499999999999996        1.7187499999999998        0.0000000000000000     
  -3.6718750000000000        1.7187500000000002        0.0000000000000000     
  -3.5937500000000004        1.7187500000000000        0.0000000000000000     
  -3.5156249999999987        1.7187499999999998        0.0000000000000000     
  -3.4375000000000000        1.7187500000000002        0.0000000000000000     
  -3.3593749999999996        1.7187500000000000        0.0000000000000000     
  -3.2812499999999987        1.7187499999999998        0.0000000000000000     
  -3.2031250000000000        1.7187500000000002        0.0000000000000000     
  -3.1249999999999996        1.7187499999999998        0.0000000000000000     
  -3.7500000000000000        1.7968749999999998        0.0000000000000000     
  -3.6718750000000009        1.7968750000000007        0.0000000000000000     
  -3.5937500000000004        1.7968750000000000        0.0000000000000000     
  -3.5156250000000000        1.7968749999999996        0.0000000000000000     
  -3.4375000000000009        1.7968750000000007        0.0000000000000000     
  -3.3593749999999996        1.7968749999999998        0.0000000000000000     
  -3.2812500000000000        1.7968749999999996        0.0000000000000000     
  -3.2031250000000009        1.7968750000000007        0.0000000000000000     
  -3.1249999999999996        1.7968749999999998        0.0000000000000000     
  -3.7500000000000000        1.8750000000000004        0.0000000000000000     
  -3.6718750000000000        1.8750000000000000        0.0000000000000000     
  -3.5937500000000009        1.8750000000000004        0.0000000000000000     
  -3.5156250000000000        1.8750000000000002        0.0000000000000000     
  -3.4375000000000000        1.8749999999999998        0.0000000000000000     
  -3.3593750000000004        1.8750000000000002        0.0000000000000000     
  -3.2812500000000004        1.8750000000000002        0.0000000000000000     
  -3.2031250000000000        1.8750000000000000        0.0000000000000000     
  -3.1250000000000004        1.8750000000000004        0.0000000000000000     
  -3.1250000000000004        1.2500000000000002        0.0000000000000000     
  -3.0468750000000004        1.2500000000000000        0.0000000000000000     
  -2.9687500000000000        1.2500000000000002        0.0000000000000000     
  -2.8906250000000000        1.2500000000000000        0.0000000000000000     
  -2.8125000000000004        1.2500000000000000        0.0000000000000000     
  -2.7343750000000000        1.2500000000000000        0.0000000000000000     
  -2.6562500000000004        1.2500000000000002        0.0000000000000000     
  -2.5781250000000004        1.2500000000000000        0.0000000000000000     
  -2.5000000000000004        1.2500000000000002        0.0000000000000000     
  -3.1250000000000004        1.3281250000000000        0.0000000000000000     
  -3.0468750000000004        1.3281250000000004        0.0000000000000000     
  -2.9687500000000004        1.3281250000000002        0.0000000000000000     
  -2.8906250000000000        1.3281250000000000        0.0000000000000000     
  -2.8125000000000004        1.3281250000000004        0.0000000000000000     
  -2.7343750000000004        1.3281250000000000        0.0000000000000000     
  -2.6562500000000000        1.3281250000000002        0.0000000000000000     
  -2.5781250000000004        1.3281250000000004        0.0000000000000000     
  -2.5000000000000004        1.3281250000000000        0.0000000000000000     
  -3.1250000000000000        1.4062500000000002        0.0000000000000000     
  -3.0468750000000004        1.4062500000000000        0.0000000000000000     
  -2.9687500000000000        1.4062500000000000        0.0000000000000000     
  -2.8906249999999996        1.4062500000000000        0.0000000000000000     
  -2.8125000000000004        1.4062499999999998        0.0000000000000000     
  -2.7343750000000000        1.4062500000000000        0.0000000000000000     
  -2.6562500000000000        1.4062500000000000        0.0000000000000000     
  -2.5781250000000004        1.4062500000000000        0.0000000000000000     
  -2.5000000000000000        1.4062500000000002        0.0000000000000000     
  -3.1249999999999996        1.4843749999999998        0.0000000000000000     
  -3.0468750000000004        1.4843750000000000        0.0000000000000000     
  -2.9687500000000000        1.4843750000000000        0.0000000000000000     
  -2.8906250000000000        1.4843750000000000        0.0000000000000000     
  -2.8125000000000004        1.4843750000000002        0.0000000000000000     
  -2.7343750000000000        1.4843750000000000        0.0000000000000000     
  -2.6562500000000000        1.4843750000000000        0.0000000000000000     
  -2.5781250000000000        1.4843750000000000        0.0000000000000000     
  -2.4999999999999996        1.4843749999999998        0.0000000000000000     
  -3.1250000000000000        1.5625000000000000        0.0000000000000000     
  -3.0468750000000004        1.5625000000000004        0.0000000000000000     
  -2.9687500000000000        1.5624999999999998        0.0000000000000000     
  -2.8906250000000000        1.5625000000000000        0.0000000000000000     
  -2.8125000000000004        1.5625000000000002        0.0000000000000000     
  -2.7343750000000004        1.5625000000000000        0.0000000000000000     
  -2.6562499999999996        1.5625000000000000        0.0000000000000000     
  -2.5781250000000004        1.5625000000000002        0.0000000000000000     
  -2.5000000000000004        1.5625000000000000        0.0000000000000000     
  -3.1250000000000004        1.6406250000000002        0.0000000000000000     
  -3.0468750000000009        1.6406249999999998        0.0000000000000000     
  -2.9687500000000000        1.6406250000000000        0.0000000000000000     
  -2.8906250000000000        1.6406250000000000        0.0000000000000000     
  -2.8125000000000004        1.6406249999999998        0.0000000000000000     
  -2.7343750000000000        1.6406250000000004        0.0000000000000000     
  -2.6562500000000000        1.6406250000000000        0.0000000000000000     
  -2.5781250000000004        1.6406249999999998        0.0000000000000000     
  -2.5000000000000000        1.6406250000000002        0.0000000000000000     
  -3.1249999999999996        1.7187499999999998        0.0000000000000000     
  -3.0468750000000004        1.7187500000000002        0.0000000000000000     
  -2.9687500000000004        1.7187500000000000        0.0000000000000000     
  -2.8906249999999996        1.7187499999999998        0.0000000000000000     
  -2.8125000000000000        1.7187500000000002        0.0000000000000000     
  -2.7343750000000000        1.7187500000000000        0.0000000000000000     
  -2.6562499999999996        1.7187499999999998        0.0000000000000000     
  -2.5781250000000004        1.7187500000000002        0.0000000000000000     
  -2.4999999999999996        1.7187499999999998        0.0000000000000000     
  -3.1249999999999996        1.7968749999999998        0.0000000000000000     
  -3.0468750000000004        1.7968750000000007        0.0000000000000000     
  -2.9687500000000004        1.7968750000000000        0.0000000000000000     
  -2.8906249999999991        1.7968749999999996        0.0000000000000000     
  -2.8125000000000009        1.7968750000000007        0.0000000000000000     
  -2.7343750000000004        1.7968749999999998        0.0000000000000000     
  -2.6562499999999991        1.7968749999999996        0.0000000000000000     
  -2.5781250000000004        1.7968750000000007        0.0000000000000000     
  -2.5000000000000000        1.7968749999999998        0.0000000000000000     
  -3.1250000000000004        1.8750000000000004        0.0000000000000000     
  -3.0468750000000004        1.8750000000000000        0.0000000000000000     
  -2.9687500000000000        1.8750000000000004        0.0000000000000000     
  -2.8906250000000000        1.8750000000000002        0.0000000000000000     
  -2.8125000000000004        1.8749999999999998        0.0000000000000000     
  -2.7343750000000000        1.8750000000000002        0.0000000000000000     
  -2.6562500000000004        1.8750000000000002        0.0000000000000000     
  -2.5781250000000004        1.8750000000000000        0.0000000000000000     
  -2.5000000000000004        1.8750000000000004        0.0000000000000000     
  -2.5000000000000004        1.2500000000000002        0.0000000000000000     
  -2.4218750000000004        1.2500000000000000        0.0000000000000000     
  -2.3437500000000004        1.2500000000000002        0.0000000000000000     
  -2.2656250000000000        1.2500000000000000        0.0000000000000000     
  -2.1875000000000000        1.2500000000000000        0.0000000000000000     
  -2.1093750000000000        1.2500000000000000        0.0000000000000000     
  -2.0312500000000000        1.2500000000000002        0.0000000000000000     
  -1.9531249999999998        1.2500000000000000        0.0000000000000000     
  -1.8750000000000002        1.2500000000000002        0.0000000000000000     
  -2.5000000000000004        1.3281250000000000        0.0000000000000000     
  -2.4218750000000000        1.3281250000000004        0.0000000000000000     
  -2.3437500000000000        1.3281250000000002        0.0000000000000000     
  -2.2656250000000000        1.3281250000000000        0.0000000000000000     
  -2.1875000000000000        1.3281250000000004        0.0000000000000000     
  -2.1093750000000000        1.3281250000000000        0.0000000000000000     
  -2.0312500000000004        1.3281250000000002        0.0000000000000000     
  -1.9531250000000004        1.3281250000000004        0.0000000000000000     
  -1.8750000000000002        1.3281250000000000        0.0000000000000000     
  -2.5000000000000000        1.4062500000000002        0.0000000000000000     
  -2.4218750000000004        1.4062500000000000        0.0000000000000000     
  -2.3437500000000000        1.4062500000000000        0.0000000000000000     
  -2.2656250000000000        1.4062500000000000        0.0000000000000000     
  -2.1875000000000000        1.4062499999999998        0.0000000000000000     
  -2.1093750000000000        1.4062500000000000        0.0000000000000000     
  -2.0312500000000000        1.4062500000000000        0.0000000000000000     
  -1.9531250000000002        1.4062500000000000        0.0000000000000000     
  -1.8750000000000002        1.4062500000000002        0.0000000000000000     
  -2.4999999999999996        1.4843749999999998        0.0000000000000000     
  -2.4218750000000004        1.4843750000000000        0.0000000000000000     
  -2.3437500000000004        1.4843750000000000        0.0000000000000000     
  -2.2656249999999996        1.4843750000000000        0.0000000000000000     
  -2.1875000000000004        1.4843750000000002        0.0000000000000000     
  -2.1093750000000004        1.4843750000000000        0.0000000000000000     
  -2.0312499999999996        1.4843750000000000        0.0000000000000000     
  -1.9531249999999996        1.4843750000000000        0.0000000000000000     
  -1.8749999999999996        1.4843749999999998        0.0000000000000000     
  -2.5000000000000004        1.5625000000000000        0.0000000000000000     
  -2.4218750000000000        1.5625000000000004        0.0000000000000000     
  -2.3437499999999996        1.5624999999999998        0.0000000000000000     
  -2.2656250000000004        1.5625000000000000        0.0000000000000000     
  -2.1875000000000000        1.5625000000000002        0.0000000000000000     
  -2.1093749999999996        1.5625000000000000        0.0000000000000000     
  -2.0312500000000004        1.5625000000000000        0.0000000000000000     
  -1.9531250000000004        1.5625000000000002        0.0000000000000000     
  -1.8750000000000000        1.5625000000000000        0.0000000000000000     
  -2.5000000000000000        1.6406250000000002        0.0000000000000000     
  -2.4218750000000000        1.6406249999999998        0.0000000000000000     
  -2.3437500000000000        1.6406250000000000        0.0000000000000000     
  -2.2656250000000000        1.6406250000000000        0.0000000000000000     
  -2.1875000000000000        1.6406249999999998        0.0000000000000000     
  -2.1093750000000000        1.6406250000000004        0.0000000000000000     
  -2.0312500000000000        1.6406250000000000        0.0000000000000000     
  -1.9531250000000000        1.6406249999999998        0.0000000000000000     
  -1.8750000000000000        1.6406250000000002        0.0000000000000000     
  -2.4999999999999996        1.7187499999999998        0.0000000000000000     
  -2.4218750000000004        1.7187500000000002        0.0000000000000000     
  -2.3437500000000004        1.7187500000000000        0.0000000000000000     
  -2.2656249999999996        1.7187499999999998        0.0000000000000000     
  -2.1875000000000000        1.7187500000000002        0.0000000000000000     
  -2.1093750000000004        1.7187500000000000        0.0000000000000000     
  -2.0312499999999996        1.7187499999999998        0.0000000000000000     
  -1.9531250000000000        1.7187500000000002        0.0000000000000000     
  -1.8749999999999996        1.7187499999999998        0.0000000000000000     
  -2.5000000000000000        1.7968749999999998        0.0000000000000000     
  -2.4218750000000004        1.7968750000000007        0.0000000000000000     
  -2.3437499999999996        1.7968750000000000        0.0000000000000000     
  -2.2656250000000000        1.7968749999999996        0.0000000000000000     
  -2.1875000000000004        1.7968750000000007        0.0000000000000000     
  -2.1093749999999996        1.7968749999999998        0.0000000000000000     
  -2.0312500000000000        1.7968749999999996        0.0000000000000000     
  -1.9531250000000009        1.7968750000000007        0.0000000000000000     
  -1.8749999999999998        1.7968749999999998        0.0000000000000000     
  -2.5000000000000004        1.8750000000000004        0.0000000000000000     
  -2.4218750000000004        1.8750000000000000        0.0000000000000000     
  -2.3437500000000004        1.8750000000000004        0.0000000000000000     
  -2.2656250000000000        1.8750000000000002        0.0000000000000000     
  -2.1875000000000000        1.8749999999999998        0.0000000000000000     
  -2.1093750000000000        1.8750000000000002        0.0000000000000000     
  -2.0312500000000000        1.8750000000000002        0.0000000000000000     
  -1.9531249999999998        1.8750000000000000        0.0000000000000000     
  -1.8750000000000002        1.8750000000000004        0.0000000000000000     
  -1.8750000000000002        1.2500000000000002        0.0000000000000000     
  -1.7968750000000002        1.2500000000000000        0.0000000000000000     
  -1.7187500000000004        1.2500000000000002        0.0000000000000000     
  -1.6406250000000000        1.2500000000000000        0.0000000000000000     
  -1.5625000000000000        1.2500000000000000        0.0000000000000000     
  -1.4843750000000000        1.2500000000000000        0.0000000000000000     
  -1.4062500000000000        1.2500000000000002        0.0000000000000000     
  -1.3281250000000000        1.2500000000000000        0.0000000000000000     
  -1.2500000000000002        1.2500000000000002        0.0000000000000000     
  -1.8750000000000002        1.3281250000000000        0.0000000000000000     
  -1.7968750000000004        1.3281250000000004        0.0000000000000000     
  -1.7187500000000002        1.3281250000000002        0.0000000000000000     
  -1.6406250000000000        1.3281250000000000        0.0000000000000000     
  -1.5625000000000004        1.3281250000000004        0.0000000000000000     
  -1.4843750000000000        1.3281250000000000        0.0000000000000000     
  -1.4062500000000000        1.3281250000000002        0.0000000000000000     
  -1.3281250000000004        1.3281250000000004        0.0000000000000000     
  -1.2500000000000002        1.3281250000000000        0.0000000000000000     
  -1.8750000000000002        1.4062500000000002        0.0000000000000000     
  -1.7968750000000002        1.4062500000000000        0.0000000000000000     
  -1.7187500000000002        1.4062500000000000        0.0000000000000000     
  -1.6406250000000000        1.4062500000000000        0.0000000000000000     
  -1.5625000000000002        1.4062499999999998        0.0000000000000000     
  -1.4843750000000000        1.4062500000000000        0.0000000000000000     
  -1.4062500000000002        1.4062500000000000        0.0000000000000000     
  -1.3281250000000002        1.4062500000000000        0.0000000000000000     
  -1.2500000000000000        1.4062500000000002        0.0000000000000000     
  -1.8749999999999996        1.4843749999999998        0.0000000000000000     
  -1.7968750000000000        1.4843750000000000        0.0000000000000000     
  -1.7187500000000000        1.4843750000000000        0.0000000000000000     
  -1.6406249999999996        1.4843750000000000        0.0000000000000000     
  -1.5625000000000000        1.4843750000000002        0.0000000000000000     
  -1.4843749999999998        1.4843750000000000        0.0000000000000000     
  -1.4062499999999996        1.4843750000000000        0.0000000000000000     
  -1.3281250000000000        1.4843750000000000        0.0000000000000000     
  -1.2499999999999998        1.4843749999999998        0.0000000000000000     
  -1.8750000000000000        1.5625000000000000        0.0000000000000000     
  -1.7968750000000004        1.5625000000000004        0.0000000000000000     
  -1.7187500000000002        1.5624999999999998        0.0000000000000000     
  -1.6406250000000000        1.5625000000000000        0.0000000000000000     
  -1.5625000000000004        1.5625000000000002        0.0000000000000000     
  -1.4843750000000002        1.5625000000000000        0.0000000000000000     
  -1.4062499999999998        1.5625000000000000        0.0000000000000000     
  -1.3281250000000004        1.5625000000000002        0.0000000000000000     
  -1.2500000000000000        1.5625000000000000        0.0000000000000000     
  -1.8750000000000000        1.6406250000000002        0.0000000000000000     
  -1.7968750000000000        1.6406249999999998        0.0000000000000000     
  -1.7187500000000000        1.6406250000000000        0.0000000000000000     
  -1.6406250000000002        1.6406250000000000        0.0000000000000000     
  -1.5625000000000002        1.6406249999999998        0.0000000000000000     
  -1.4843750000000000        1.6406250000000004        0.0000000000000000     
  -1.4062500000000000        1.6406250000000000        0.0000000000000000     
  -1.3281250000000002        1.6406249999999998        0.0000000000000000     
  -1.2500000000000000        1.6406250000000002        0.0000000000000000     
  -1.8749999999999996        1.7187499999999998        0.0000000000000000     
  -1.7968750000000004        1.7187500000000002        0.0000000000000000     
  -1.7187500000000002        1.7187500000000000        0.0000000000000000     
  -1.6406249999999996        1.7187499999999998        0.0000000000000000     
  -1.5625000000000000        1.7187500000000002        0.0000000000000000     
  -1.4843750000000000        1.7187500000000000        0.0000000000000000     
  -1.4062499999999996        1.7187499999999998        0.0000000000000000     
  -1.3281250000000002        1.7187500000000002        0.0000000000000000     
  -1.2499999999999998        1.7187499999999998        0.0000000000000000     
  -1.8749999999999998        1.7968749999999998        0.0000000000000000     
  -1.7968750000000009        1.7968750000000007        0.0000000000000000     
  -1.7187500000000002        1.7968750000000000        0.0000000000000000     
  -1.6406249999999996        1.7968749999999996        0.0000000000000000     
  -1.5625000000000009        1.7968750000000007        0.0000000000000000     
  -1.4843750000000002        1.7968749999999998        0.0000000000000000     
  -1.4062499999999996        1.7968749999999996        0.0000000000000000     
  -1.3281250000000009        1.7968750000000007        0.0000000000000000     
  -1.2500000000000000        1.7968749999999998        0.0000000000000000     
  -1.8750000000000002        1.8750000000000004        0.0000000000000000     
  -1.7968750000000002        1.8750000000000000        0.0000000000000000     
  -1.7187500000000004        1.8750000000000004        0.0000000000000000     
  -1.6406250000000000        1.8750000000000002        0.0000000000000000     
  -1.5625000000000000        1.8749999999999998        0.0000000000000000     
  -1.4843750000000000        1.8750000000000002        0.0000000000000000     
  -1.4062500000000000        1.8750000000000002        0.0000000000000000     
  -1.3281250000000000        1.8750000000000000        0.0000000000000000     
  -1.2500000000000002        1.8750000000000004        0.0000000000000000     
  -1.2500000000000002        1.2500000000000002        0.0000000000000000     
  -1.1718750000000002        1.2500000000000000        0.0000000000000000     
  -1.0937500000000002        1.2500000000000002        0.0000000000000000     
  -1.0156250000000000        1.2500000000000000        0.0000000000000000     
 -0.93749999999999989        1.2500000000000000        0.0000000000000000     
 -0.85937499999999989        1.2500000000000000        0.0000000000000000     
 -0.78125000000000011        1.2500000000000002        0.0000000000000000     
 -0.70312499999999989        1.2500000000000000        0.0000000000000000     
 -0.62500000000000011        1.2500000000000000        0.0000000000000000     
  -1.2500000000000002        1.3281250000000000        0.0000000000000000     
  -1.1718750000000002        1.3281250000000004        0.0000000000000000     
  -1.0937500000000000        1.3281250000000002        0.0000000000000000     
  -1.0156250000000000        1.3281249999999998        0.0000000000000000     
 -0.93750000000000022        1.3281250000000004        0.0000000000000000     
 -0.85937500000000011        1.3281250000000000        0.0000000000000000     
 -0.78125000000000011        1.3281249999999998        0.0000000000000000     
 -0.70312500000000022        1.3281250000000004        0.0000000000000000     
 -0.62500000000000011        1.3281249999999998        0.0000000000000000     
  -1.2500000000000000        1.4062500000000002        0.0000000000000000     
  -1.1718750000000002        1.4062500000000000        0.0000000000000000     
  -1.0937500000000002        1.4062500000000000        0.0000000000000000     
  -1.0156250000000000        1.4062500000000000        0.0000000000000000     
 -0.93749999999999989        1.4062499999999998        0.0000000000000000     
 -0.85937500000000000        1.4062500000000000        0.0000000000000000     
 -0.78125000000000000        1.4062500000000000        0.0000000000000000     
 -0.70312500000000000        1.4062500000000000        0.0000000000000000     
 -0.62500000000000000        1.4062500000000000        0.0000000000000000     
  -1.2499999999999998        1.4843749999999998        0.0000000000000000     
  -1.1718750000000002        1.4843750000000000        0.0000000000000000     
  -1.0937500000000000        1.4843750000000000        0.0000000000000000     
  -1.0156250000000000        1.4843750000000000        0.0000000000000000     
 -0.93749999999999978        1.4843749999999998        0.0000000000000000     
 -0.85937499999999989        1.4843750000000000        0.0000000000000000     
 -0.78125000000000000        1.4843750000000000        0.0000000000000000     
 -0.70312500000000000        1.4843750000000000        0.0000000000000000     
 -0.62499999999999989        1.4843750000000000        0.0000000000000000     
  -1.2500000000000000        1.5625000000000000        0.0000000000000000     
  -1.1718750000000002        1.5625000000000004        0.0000000000000000     
  -1.0937500000000000        1.5625000000000000        0.0000000000000000     
  -1.0156250000000002        1.5625000000000000        0.0000000000000000     
 -0.93750000000000022        1.5625000000000002        0.0000000000000000     
 -0.85937500000000011        1.5625000000000000        0.0000000000000000     
 -0.78125000000000000        1.5625000000000000        0.0000000000000000     
 -0.70312500000000022        1.5625000000000004        0.0000000000000000     
 -0.62500000000000011        1.5625000000000000        0.0000000000000000     
  -1.2500000000000000        1.6406250000000002        0.0000000000000000     
  -1.1718750000000000        1.6406250000000000        0.0000000000000000     
  -1.0937500000000000        1.6406250000000000        0.0000000000000000     
  -1.0156250000000000        1.6406250000000000        0.0000000000000000     
 -0.93750000000000000        1.6406250000000000        0.0000000000000000     
 -0.85937500000000011        1.6406250000000000        0.0000000000000000     
 -0.78125000000000011        1.6406250000000000        0.0000000000000000     
 -0.70312500000000011        1.6406250000000002        0.0000000000000000     
 -0.62500000000000000        1.6406250000000000        0.0000000000000000     
  -1.2499999999999998        1.7187499999999998        0.0000000000000000     
  -1.1718750000000000        1.7187500000000000        0.0000000000000000     
  -1.0937500000000002        1.7187500000000000        0.0000000000000000     
  -1.0156249999999998        1.7187499999999998        0.0000000000000000     
 -0.93749999999999978        1.7187500000000000        0.0000000000000000     
 -0.85937500000000022        1.7187500000000004        0.0000000000000000     
 -0.78125000000000000        1.7187499999999998        0.0000000000000000     
 -0.70312499999999989        1.7187500000000000        0.0000000000000000     
 -0.62499999999999989        1.7187500000000000        0.0000000000000000     
  -1.2500000000000000        1.7968749999999998        0.0000000000000000     
  -1.1718750000000002        1.7968750000000007        0.0000000000000000     
  -1.0937500000000000        1.7968750000000000        0.0000000000000000     
  -1.0156249999999998        1.7968749999999996        0.0000000000000000     
 -0.93750000000000011        1.7968750000000007        0.0000000000000000     
 -0.85937500000000011        1.7968749999999998        0.0000000000000000     
 -0.78124999999999989        1.7968749999999996        0.0000000000000000     
 -0.70312500000000011        1.7968750000000004        0.0000000000000000     
 -0.62500000000000011        1.7968750000000000        0.0000000000000000     
  -1.2500000000000002        1.8750000000000004        0.0000000000000000     
  -1.1718750000000002        1.8750000000000002        0.0000000000000000     
  -1.0937500000000002        1.8750000000000004        0.0000000000000000     
  -1.0156250000000000        1.8750000000000002        0.0000000000000000     
 -0.93749999999999989        1.8750000000000004        0.0000000000000000     
 -0.85937499999999989        1.8749999999999998        0.0000000000000000     
 -0.78125000000000011        1.8750000000000002        0.0000000000000000     
 -0.70312499999999989        1.8750000000000002        0.0000000000000000     
 -0.62500000000000011        1.8750000000000004        0.0000000000000000     
 -0.62500000000000011        1.2500000000000000        0.0000000000000000     
 -0.54687500000000000        1.2500000000000000        0.0000000000000000     
 -0.46875000000000000        1.2500000000000000        0.0000000000000000     
 -0.39062500000000006        1.2500000000000000        0.0000000000000000     
 -0.31250000000000006        1.2500000000000000        0.0000000000000000     
 -0.23437500000000006        1.2500000000000002        0.0000000000000000     
 -0.15625000000000000        1.2500000000000000        0.0000000000000000     
  -7.8124999999999972E-002   1.2499999999999998        0.0000000000000000     
   0.0000000000000000        1.2500000000000002        0.0000000000000000     
 -0.62500000000000011        1.3281249999999998        0.0000000000000000     
 -0.54687500000000011        1.3281250000000002        0.0000000000000000     
 -0.46875000000000000        1.3281250000000000        0.0000000000000000     
 -0.39062500000000000        1.3281249999999998        0.0000000000000000     
 -0.31250000000000011        1.3281250000000004        0.0000000000000000     
 -0.23437500000000006        1.3281250000000000        0.0000000000000000     
 -0.15625000000000003        1.3281250000000000        0.0000000000000000     
  -7.8125000000000014E-002   1.3281250000000002        0.0000000000000000     
   0.0000000000000000        1.3281249999999998        0.0000000000000000     
 -0.62500000000000000        1.4062500000000000        0.0000000000000000     
 -0.54687500000000000        1.4062500000000000        0.0000000000000000     
 -0.46875000000000000        1.4062500000000000        0.0000000000000000     
 -0.39062500000000000        1.4062500000000002        0.0000000000000000     
 -0.31250000000000011        1.4062500000000002        0.0000000000000000     
 -0.23437500000000000        1.4062500000000000        0.0000000000000000     
 -0.15625000000000000        1.4062500000000000        0.0000000000000000     
  -7.8125000000000014E-002   1.4062500000000002        0.0000000000000000     
   0.0000000000000000        1.4062499999999998        0.0000000000000000     
 -0.62499999999999989        1.4843750000000000        0.0000000000000000     
 -0.54687500000000011        1.4843749999999998        0.0000000000000000     
 -0.46875000000000000        1.4843750000000002        0.0000000000000000     
 -0.39062500000000006        1.4843750000000002        0.0000000000000000     
 -0.31250000000000006        1.4843750000000002        0.0000000000000000     
 -0.23437500000000000        1.4843750000000002        0.0000000000000000     
 -0.15625000000000003        1.4843750000000007        0.0000000000000000     
  -7.8124999999999986E-002   1.4843749999999996        0.0000000000000000     
   0.0000000000000000        1.4843750000000002        0.0000000000000000     
 -0.62500000000000011        1.5625000000000000        0.0000000000000000     
 -0.54687500000000011        1.5625000000000004        0.0000000000000000     
 -0.46875000000000000        1.5624999999999998        0.0000000000000000     
 -0.39062500000000000        1.5624999999999998        0.0000000000000000     
 -0.31250000000000006        1.5625000000000004        0.0000000000000000     
 -0.23437500000000003        1.5625000000000000        0.0000000000000000     
 -0.15625000000000003        1.5625000000000002        0.0000000000000000     
  -7.8125000000000014E-002   1.5625000000000004        0.0000000000000000     
   0.0000000000000000        1.5625000000000002        0.0000000000000000     
 -0.62500000000000000        1.6406250000000000        0.0000000000000000     
 -0.54687500000000011        1.6406250000000007        0.0000000000000000     
 -0.46875000000000006        1.6406250000000002        0.0000000000000000     
 -0.39062500000000006        1.6406250000000000        0.0000000000000000     
 -0.31250000000000000        1.6406250000000000        0.0000000000000000     
 -0.23437500000000003        1.6406250000000000        0.0000000000000000     
 -0.15625000000000000        1.6406250000000000        0.0000000000000000     
  -7.8125000000000014E-002   1.6406250000000002        0.0000000000000000     
   0.0000000000000000        1.6406250000000004        0.0000000000000000     
 -0.62499999999999989        1.7187500000000000        0.0000000000000000     
 -0.54687500000000011        1.7187500000000002        0.0000000000000000     
 -0.46875000000000006        1.7187500000000000        0.0000000000000000     
 -0.39062500000000011        1.7187500000000000        0.0000000000000000     
 -0.31250000000000006        1.7187500000000007        0.0000000000000000     
 -0.23437500000000003        1.7187500000000000        0.0000000000000000     
 -0.15625000000000000        1.7187500000000000        0.0000000000000000     
  -7.8125000000000000E-002   1.7187500000000002        0.0000000000000000     
   0.0000000000000000        1.7187500000000002        0.0000000000000000     
 -0.62500000000000011        1.7968750000000000        0.0000000000000000     
 -0.54687500000000000        1.7968750000000002        0.0000000000000000     
 -0.46875000000000000        1.7968749999999998        0.0000000000000000     
 -0.39062499999999989        1.7968749999999993        0.0000000000000000     
 -0.31250000000000017        1.7968750000000011        0.0000000000000000     
 -0.23437500000000003        1.7968750000000000        0.0000000000000000     
 -0.15625000000000000        1.7968750000000000        0.0000000000000000     
  -7.8125000000000014E-002   1.7968750000000004        0.0000000000000000     
   0.0000000000000000        1.7968749999999998        0.0000000000000000     
 -0.62500000000000011        1.8750000000000004        0.0000000000000000     
 -0.54687500000000000        1.8750000000000002        0.0000000000000000     
 -0.46875000000000000        1.8750000000000002        0.0000000000000000     
 -0.39062500000000006        1.8750000000000000        0.0000000000000000     
 -0.31250000000000006        1.8750000000000002        0.0000000000000000     
 -0.23437500000000006        1.8750000000000000        0.0000000000000000     
 -0.15625000000000000        1.8749999999999998        0.0000000000000000     
  -7.8124999999999972E-002   1.8750000000000000        0.0000000000000000     
   0.0000000000000000        1.8750000000000004        0.0000000000000000     
  -5.0000000000000018        1.8750000000000004        0.0000000000000000     
  -4.9218750000000000        1.8750000000000000        0.0000000000000000     
  -4.8437500000000000        1.8749999999999998        0.0000000000000000     
  -4.7656250000000009        1.8750000000000000        0.0000000000000000     
  -4.6875000000000009        1.8750000000000002        0.0000000000000000     
  -4.6093750000000000        1.8749999999999998        0.0000000000000000     
  -4.5312500000000009        1.8750000000000002        0.0000000000000000     
  -4.4531250000000009        1.8750000000000002        0.0000000000000000     
  -4.3750000000000000        1.8750000000000002        0.0000000000000000     
  -5.0000000000000000        1.9531250000000000        0.0000000000000000     
  -4.9218750000000000        1.9531250000000000        0.0000000000000000     
  -4.8437500000000000        1.9531250000000002        0.0000000000000000     
  -4.7656250000000009        1.9531250000000002        0.0000000000000000     
  -4.6875000000000009        1.9531250000000000        0.0000000000000000     
  -4.6093750000000000        1.9531250000000002        0.0000000000000000     
  -4.5312500000000000        1.9531249999999998        0.0000000000000000     
  -4.4531250000000000        1.9531250000000000        0.0000000000000000     
  -4.3750000000000009        1.9531250000000002        0.0000000000000000     
  -4.9999999999999991        2.0312500000000000        0.0000000000000000     
  -4.9218750000000000        2.0312500000000004        0.0000000000000000     
  -4.8437500000000000        2.0312500000000000        0.0000000000000000     
  -4.7656250000000000        2.0312500000000000        0.0000000000000000     
  -4.6875000000000000        2.0312500000000000        0.0000000000000000     
  -4.6093750000000000        2.0312500000000000        0.0000000000000000     
  -4.5312500000000000        2.0312500000000000        0.0000000000000000     
  -4.4531250000000009        2.0312500000000000        0.0000000000000000     
  -4.3750000000000000        2.0312500000000000        0.0000000000000000     
  -5.0000000000000009        2.1093750000000004        0.0000000000000000     
  -4.9218750000000000        2.1093749999999996        0.0000000000000000     
  -4.8437500000000000        2.1093750000000000        0.0000000000000000     
  -4.7656250000000000        2.1093750000000004        0.0000000000000000     
  -4.6875000000000009        2.1093750000000000        0.0000000000000000     
  -4.6093750000000009        2.1093750000000000        0.0000000000000000     
  -4.5312500000000000        2.1093750000000004        0.0000000000000000     
  -4.4531250000000009        2.1093749999999996        0.0000000000000000     
  -4.3750000000000009        2.1093750000000000        0.0000000000000000     
  -5.0000000000000009        2.1875000000000004        0.0000000000000000     
  -4.9218750000000000        2.1875000000000004        0.0000000000000000     
  -4.8437500000000000        2.1875000000000000        0.0000000000000000     
  -4.7656250000000009        2.1875000000000000        0.0000000000000000     
  -4.6875000000000009        2.1875000000000009        0.0000000000000000     
  -4.6093749999999991        2.1874999999999996        0.0000000000000000     
  -4.5312500000000000        2.1875000000000000        0.0000000000000000     
  -4.4531250000000018        2.1875000000000009        0.0000000000000000     
  -4.3749999999999991        2.1875000000000000        0.0000000000000000     
  -5.0000000000000009        2.2656250000000004        0.0000000000000000     
  -4.9218750000000009        2.2656250000000000        0.0000000000000000     
  -4.8437500000000000        2.2656250000000000        0.0000000000000000     
  -4.7656250000000000        2.2656250000000000        0.0000000000000000     
  -4.6875000000000000        2.2656250000000000        0.0000000000000000     
  -4.6093750000000000        2.2656250000000000        0.0000000000000000     
  -4.5312500000000009        2.2656250000000009        0.0000000000000000     
  -4.4531250000000000        2.2656250000000004        0.0000000000000000     
  -4.3750000000000000        2.2656250000000000        0.0000000000000000     
  -5.0000000000000009        2.3437500000000004        0.0000000000000000     
  -4.9218750000000009        2.3437500000000000        0.0000000000000000     
  -4.8437500000000009        2.3437500000000000        0.0000000000000000     
  -4.7656249999999991        2.3437500000000000        0.0000000000000000     
  -4.6875000000000009        2.3437499999999996        0.0000000000000000     
  -4.6093750000000009        2.3437500000000004        0.0000000000000000     
  -4.5312499999999991        2.3437500000000004        0.0000000000000000     
  -4.4531250000000009        2.3437500000000000        0.0000000000000000     
  -4.3750000000000000        2.3437500000000000        0.0000000000000000     
  -5.0000000000000000        2.4218749999999996        0.0000000000000000     
  -4.9218750000000009        2.4218750000000004        0.0000000000000000     
  -4.8437499999999991        2.4218750000000000        0.0000000000000000     
  -4.7656250000000009        2.4218750000000004        0.0000000000000000     
  -4.6875000000000018        2.4218750000000009        0.0000000000000000     
  -4.6093749999999991        2.4218749999999996        0.0000000000000000     
  -4.5312500000000000        2.4218750000000004        0.0000000000000000     
  -4.4531250000000018        2.4218750000000009        0.0000000000000000     
  -4.3750000000000000        2.4218750000000000        0.0000000000000000     
  -5.0000000000000018        2.5000000000000004        0.0000000000000000     
  -4.9218750000000000        2.5000000000000004        0.0000000000000000     
  -4.8437500000000000        2.5000000000000000        0.0000000000000000     
  -4.7656250000000009        2.5000000000000000        0.0000000000000000     
  -4.6875000000000018        2.5000000000000004        0.0000000000000000     
  -4.6093750000000000        2.5000000000000000        0.0000000000000000     
  -4.5312500000000009        2.5000000000000000        0.0000000000000000     
  -4.4531250000000009        2.5000000000000004        0.0000000000000000     
  -4.3750000000000000        2.5000000000000000        0.0000000000000000     
  -4.3750000000000000        1.8750000000000002        0.0000000000000000     
  -4.2968750000000009        1.8750000000000002        0.0000000000000000     
  -4.2187500000000000        1.8750000000000004        0.0000000000000000     
  -4.1406250000000000        1.8749999999999998        0.0000000000000000     
  -4.0625000000000000        1.8749999999999998        0.0000000000000000     
  -3.9843749999999996        1.8750000000000002        0.0000000000000000     
  -3.9062500000000009        1.8750000000000002        0.0000000000000000     
  -3.8281250000000000        1.8749999999999998        0.0000000000000000     
  -3.7500000000000000        1.8750000000000004        0.0000000000000000     
  -4.3750000000000009        1.9531250000000002        0.0000000000000000     
  -4.2968750000000009        1.9531250000000004        0.0000000000000000     
  -4.2187500000000009        1.9531250000000000        0.0000000000000000     
  -4.1406250000000009        1.9531250000000002        0.0000000000000000     
  -4.0625000000000000        1.9531250000000002        0.0000000000000000     
  -3.9843750000000009        1.9531249999999998        0.0000000000000000     
  -3.9062500000000009        1.9531250000000004        0.0000000000000000     
  -3.8281250000000000        1.9531250000000002        0.0000000000000000     
  -3.7500000000000009        1.9531250000000000        0.0000000000000000     
  -4.3750000000000000        2.0312500000000000        0.0000000000000000     
  -4.2968750000000009        2.0312500000000000        0.0000000000000000     
  -4.2187500000000000        2.0312500000000000        0.0000000000000000     
  -4.1406250000000018        2.0312500000000004        0.0000000000000000     
  -4.0625000000000000        2.0312500000000000        0.0000000000000000     
  -3.9843750000000000        2.0312500000000000        0.0000000000000000     
  -3.9062500000000000        2.0312500000000004        0.0000000000000000     
  -3.8281250000000004        2.0312500000000004        0.0000000000000000     
  -3.7500000000000000        2.0312500000000004        0.0000000000000000     
  -4.3750000000000009        2.1093750000000000        0.0000000000000000     
  -4.2968750000000000        2.1093749999999996        0.0000000000000000     
  -4.2187500000000000        2.1093750000000000        0.0000000000000000     
  -4.1406250000000000        2.1093750000000000        0.0000000000000000     
  -4.0625000000000000        2.1093749999999996        0.0000000000000000     
  -3.9843750000000000        2.1093750000000004        0.0000000000000000     
  -3.9062500000000000        2.1093750000000000        0.0000000000000000     
  -3.8281249999999996        2.1093749999999996        0.0000000000000000     
  -3.7499999999999991        2.1093750000000000        0.0000000000000000     
  -4.3749999999999991        2.1875000000000000        0.0000000000000000     
  -4.2968750000000000        2.1875000000000004        0.0000000000000000     
  -4.2187500000000000        2.1875000000000000        0.0000000000000000     
  -4.1406250000000000        2.1875000000000000        0.0000000000000000     
  -4.0625000000000000        2.1875000000000004        0.0000000000000000     
  -3.9843750000000009        2.1875000000000000        0.0000000000000000     
  -3.9062500000000004        2.1874999999999996        0.0000000000000000     
  -3.8281250000000000        2.1875000000000004        0.0000000000000000     
  -3.7500000000000009        2.1875000000000000        0.0000000000000000     
  -4.3750000000000000        2.2656250000000000        0.0000000000000000     
  -4.2968750000000009        2.2656250000000000        0.0000000000000000     
  -4.2187500000000000        2.2656250000000000        0.0000000000000000     
  -4.1406250000000000        2.2656250000000000        0.0000000000000000     
  -4.0625000000000000        2.2656249999999996        0.0000000000000000     
  -3.9843750000000000        2.2656250000000000        0.0000000000000000     
  -3.9062500000000000        2.2656250000000000        0.0000000000000000     
  -3.8281249999999996        2.2656249999999996        0.0000000000000000     
  -3.7499999999999996        2.2656250000000000        0.0000000000000000     
  -4.3750000000000000        2.3437500000000000        0.0000000000000000     
  -4.2968750000000018        2.3437500000000000        0.0000000000000000     
  -4.2187500000000000        2.3437500000000000        0.0000000000000000     
  -4.1406250000000009        2.3437500000000004        0.0000000000000000     
  -4.0625000000000000        2.3437499999999996        0.0000000000000000     
  -3.9843749999999996        2.3437500000000004        0.0000000000000000     
  -3.9062500000000004        2.3437500000000000        0.0000000000000000     
  -3.8281249999999996        2.3437499999999996        0.0000000000000000     
  -3.7499999999999996        2.3437500000000000        0.0000000000000000     
  -4.3750000000000000        2.4218750000000000        0.0000000000000000     
  -4.2968750000000000        2.4218750000000004        0.0000000000000000     
  -4.2187500000000000        2.4218750000000000        0.0000000000000000     
  -4.1406250000000000        2.4218749999999996        0.0000000000000000     
  -4.0625000000000000        2.4218750000000004        0.0000000000000000     
  -3.9843750000000004        2.4218750000000000        0.0000000000000000     
  -3.9062500000000004        2.4218750000000004        0.0000000000000000     
  -3.8281250000000000        2.4218750000000009        0.0000000000000000     
  -3.7500000000000000        2.4218750000000000        0.0000000000000000     
  -4.3750000000000000        2.5000000000000000        0.0000000000000000     
  -4.2968750000000009        2.5000000000000004        0.0000000000000000     
  -4.2187500000000000        2.5000000000000004        0.0000000000000000     
  -4.1406250000000000        2.5000000000000000        0.0000000000000000     
  -4.0625000000000000        2.5000000000000000        0.0000000000000000     
  -3.9843749999999996        2.5000000000000004        0.0000000000000000     
  -3.9062500000000009        2.5000000000000000        0.0000000000000000     
  -3.8281250000000000        2.5000000000000000        0.0000000000000000     
  -3.7500000000000000        2.5000000000000009        0.0000000000000000     
  -3.7500000000000000        1.8750000000000004        0.0000000000000000     
  -3.6718750000000000        1.8750000000000000        0.0000000000000000     
  -3.5937500000000009        1.8750000000000004        0.0000000000000000     
  -3.5156250000000000        1.8750000000000002        0.0000000000000000     
  -3.4375000000000000        1.8749999999999998        0.0000000000000000     
  -3.3593750000000004        1.8750000000000002        0.0000000000000000     
  -3.2812500000000004        1.8750000000000002        0.0000000000000000     
  -3.2031250000000000        1.8750000000000000        0.0000000000000000     
  -3.1250000000000004        1.8750000000000004        0.0000000000000000     
  -3.7500000000000009        1.9531250000000000        0.0000000000000000     
  -3.6718750000000004        1.9531250000000004        0.0000000000000000     
  -3.5937500000000004        1.9531250000000000        0.0000000000000000     
  -3.5156250000000009        1.9531249999999998        0.0000000000000000     
  -3.4375000000000000        1.9531250000000007        0.0000000000000000     
  -3.3593750000000000        1.9531250000000000        0.0000000000000000     
  -3.2812500000000009        1.9531250000000002        0.0000000000000000     
  -3.2031250000000000        1.9531250000000004        0.0000000000000000     
  -3.1250000000000004        1.9531250000000000        0.0000000000000000     
  -3.7500000000000000        2.0312500000000004        0.0000000000000000     
  -3.6718750000000009        2.0312500000000004        0.0000000000000000     
  -3.5937500000000000        2.0312500000000000        0.0000000000000000     
  -3.5156250000000000        2.0312500000000004        0.0000000000000000     
  -3.4375000000000000        2.0312500000000004        0.0000000000000000     
  -3.3593750000000000        2.0312500000000000        0.0000000000000000     
  -3.2812500000000000        2.0312500000000004        0.0000000000000000     
  -3.2031250000000009        2.0312500000000004        0.0000000000000000     
  -3.1250000000000000        2.0312500000000004        0.0000000000000000     
  -3.7499999999999991        2.1093750000000000        0.0000000000000000     
  -3.6718750000000000        2.1093749999999996        0.0000000000000000     
  -3.5937500000000004        2.1093750000000000        0.0000000000000000     
  -3.5156249999999987        2.1093750000000000        0.0000000000000000     
  -3.4375000000000000        2.1093750000000000        0.0000000000000000     
  -3.3593750000000004        2.1093750000000004        0.0000000000000000     
  -3.2812499999999987        2.1093750000000000        0.0000000000000000     
  -3.2031250000000004        2.1093750000000000        0.0000000000000000     
  -3.1249999999999996        2.1093750000000000        0.0000000000000000     
  -3.7500000000000009        2.1875000000000000        0.0000000000000000     
  -3.6718750000000000        2.1875000000000004        0.0000000000000000     
  -3.5937499999999996        2.1875000000000000        0.0000000000000000     
  -3.5156250000000009        2.1875000000000004        0.0000000000000000     
  -3.4375000000000000        2.1875000000000004        0.0000000000000000     
  -3.3593749999999996        2.1875000000000000        0.0000000000000000     
  -3.2812500000000004        2.1875000000000000        0.0000000000000000     
  -3.2031250000000009        2.1875000000000004        0.0000000000000000     
  -3.1250000000000000        2.1875000000000000        0.0000000000000000     
  -3.7499999999999996        2.2656250000000000        0.0000000000000000     
  -3.6718750000000000        2.2656250000000004        0.0000000000000000     
  -3.5937500000000009        2.2656250000000000        0.0000000000000000     
  -3.5156250000000000        2.2656250000000000        0.0000000000000000     
  -3.4375000000000000        2.2656250000000004        0.0000000000000000     
  -3.3593750000000000        2.2656250000000000        0.0000000000000000     
  -3.2812499999999996        2.2656250000000004        0.0000000000000000     
  -3.2031250000000009        2.2656250000000004        0.0000000000000000     
  -3.1250000000000004        2.2656250000000000        0.0000000000000000     
  -3.7499999999999996        2.3437500000000000        0.0000000000000000     
  -3.6718750000000000        2.3437500000000000        0.0000000000000000     
  -3.5937500000000004        2.3437500000000000        0.0000000000000000     
  -3.5156249999999987        2.3437500000000000        0.0000000000000000     
  -3.4375000000000000        2.3437500000000000        0.0000000000000000     
  -3.3593749999999996        2.3437500000000004        0.0000000000000000     
  -3.2812499999999987        2.3437500000000000        0.0000000000000000     
  -3.2031250000000000        2.3437500000000000        0.0000000000000000     
  -3.1249999999999996        2.3437500000000000        0.0000000000000000     
  -3.7500000000000000        2.4218750000000000        0.0000000000000000     
  -3.6718750000000009        2.4218750000000009        0.0000000000000000     
  -3.5937500000000004        2.4218750000000000        0.0000000000000000     
  -3.5156250000000000        2.4218750000000000        0.0000000000000000     
  -3.4375000000000009        2.4218750000000013        0.0000000000000000     
  -3.3593749999999996        2.4218750000000000        0.0000000000000000     
  -3.2812500000000000        2.4218750000000000        0.0000000000000000     
  -3.2031250000000009        2.4218750000000009        0.0000000000000000     
  -3.1249999999999996        2.4218750000000000        0.0000000000000000     
  -3.7500000000000000        2.5000000000000009        0.0000000000000000     
  -3.6718750000000000        2.5000000000000004        0.0000000000000000     
  -3.5937500000000009        2.5000000000000004        0.0000000000000000     
  -3.5156250000000000        2.5000000000000004        0.0000000000000000     
  -3.4375000000000000        2.5000000000000000        0.0000000000000000     
  -3.3593750000000004        2.5000000000000004        0.0000000000000000     
  -3.2812500000000004        2.5000000000000004        0.0000000000000000     
  -3.2031250000000000        2.5000000000000004        0.0000000000000000     
  -3.1250000000000004        2.5000000000000009        0.0000000000000000     
  -3.1250000000000004        1.8750000000000004        0.0000000000000000     
  -3.0468750000000004        1.8750000000000000        0.0000000000000000     
  -2.9687500000000000        1.8750000000000004        0.0000000000000000     
  -2.8906250000000000        1.8750000000000002        0.0000000000000000     
  -2.8125000000000004        1.8749999999999998        0.0000000000000000     
  -2.7343750000000000        1.8750000000000002        0.0000000000000000     
  -2.6562500000000004        1.8750000000000002        0.0000000000000000     
  -2.5781250000000004        1.8750000000000000        0.0000000000000000     
  -2.5000000000000004        1.8750000000000004        0.0000000000000000     
  -3.1250000000000004        1.9531250000000000        0.0000000000000000     
  -3.0468750000000004        1.9531250000000004        0.0000000000000000     
  -2.9687500000000004        1.9531250000000000        0.0000000000000000     
  -2.8906250000000000        1.9531249999999998        0.0000000000000000     
  -2.8125000000000004        1.9531250000000007        0.0000000000000000     
  -2.7343750000000004        1.9531250000000000        0.0000000000000000     
  -2.6562500000000000        1.9531250000000002        0.0000000000000000     
  -2.5781250000000004        1.9531250000000004        0.0000000000000000     
  -2.5000000000000004        1.9531250000000000        0.0000000000000000     
  -3.1250000000000000        2.0312500000000004        0.0000000000000000     
  -3.0468750000000004        2.0312500000000004        0.0000000000000000     
  -2.9687500000000000        2.0312500000000000        0.0000000000000000     
  -2.8906249999999996        2.0312500000000004        0.0000000000000000     
  -2.8125000000000004        2.0312500000000004        0.0000000000000000     
  -2.7343750000000000        2.0312500000000000        0.0000000000000000     
  -2.6562500000000000        2.0312500000000004        0.0000000000000000     
  -2.5781250000000004        2.0312500000000004        0.0000000000000000     
  -2.5000000000000000        2.0312500000000004        0.0000000000000000     
  -3.1249999999999996        2.1093750000000000        0.0000000000000000     
  -3.0468750000000004        2.1093749999999996        0.0000000000000000     
  -2.9687500000000000        2.1093750000000000        0.0000000000000000     
  -2.8906250000000000        2.1093750000000000        0.0000000000000000     
  -2.8125000000000004        2.1093750000000000        0.0000000000000000     
  -2.7343750000000000        2.1093750000000004        0.0000000000000000     
  -2.6562500000000000        2.1093750000000000        0.0000000000000000     
  -2.5781250000000000        2.1093750000000000        0.0000000000000000     
  -2.4999999999999996        2.1093750000000000        0.0000000000000000     
  -3.1250000000000000        2.1875000000000000        0.0000000000000000     
  -3.0468750000000004        2.1875000000000004        0.0000000000000000     
  -2.9687500000000000        2.1875000000000000        0.0000000000000000     
  -2.8906250000000000        2.1875000000000004        0.0000000000000000     
  -2.8125000000000004        2.1875000000000004        0.0000000000000000     
  -2.7343750000000004        2.1875000000000000        0.0000000000000000     
  -2.6562499999999996        2.1875000000000000        0.0000000000000000     
  -2.5781250000000004        2.1875000000000004        0.0000000000000000     
  -2.5000000000000004        2.1875000000000000        0.0000000000000000     
  -3.1250000000000004        2.2656250000000000        0.0000000000000000     
  -3.0468750000000009        2.2656250000000004        0.0000000000000000     
  -2.9687500000000000        2.2656250000000000        0.0000000000000000     
  -2.8906250000000000        2.2656250000000000        0.0000000000000000     
  -2.8125000000000004        2.2656250000000004        0.0000000000000000     
  -2.7343750000000000        2.2656250000000000        0.0000000000000000     
  -2.6562500000000000        2.2656250000000004        0.0000000000000000     
  -2.5781250000000004        2.2656250000000004        0.0000000000000000     
  -2.5000000000000000        2.2656250000000000        0.0000000000000000     
  -3.1249999999999996        2.3437500000000000        0.0000000000000000     
  -3.0468750000000004        2.3437500000000000        0.0000000000000000     
  -2.9687500000000004        2.3437500000000000        0.0000000000000000     
  -2.8906249999999996        2.3437500000000000        0.0000000000000000     
  -2.8125000000000000        2.3437500000000000        0.0000000000000000     
  -2.7343750000000000        2.3437500000000004        0.0000000000000000     
  -2.6562499999999996        2.3437500000000000        0.0000000000000000     
  -2.5781250000000004        2.3437500000000000        0.0000000000000000     
  -2.4999999999999996        2.3437500000000000        0.0000000000000000     
  -3.1249999999999996        2.4218750000000000        0.0000000000000000     
  -3.0468750000000004        2.4218750000000009        0.0000000000000000     
  -2.9687500000000004        2.4218750000000000        0.0000000000000000     
  -2.8906249999999991        2.4218750000000000        0.0000000000000000     
  -2.8125000000000009        2.4218750000000013        0.0000000000000000     
  -2.7343750000000004        2.4218750000000000        0.0000000000000000     
  -2.6562499999999991        2.4218750000000000        0.0000000000000000     
  -2.5781250000000004        2.4218750000000009        0.0000000000000000     
  -2.5000000000000000        2.4218750000000000        0.0000000000000000     
  -3.1250000000000004        2.5000000000000009        0.0000000000000000     
  -3.0468750000000004        2.5000000000000004        0.0000000000000000     
  -2.9687500000000000        2.5000000000000004        0.0000000000000000     
  -2.8906250000000000        2.5000000000000004        0.0000000000000000     
  -2.8125000000000004        2.5000000000000000        0.0000000000000000     
  -2.7343750000000000        2.5000000000000004        0.0000000000000000     
  -2.6562500000000004        2.5000000000000004        0.0000000000000000     
  -2.5781250000000004        2.5000000000000004        0.0000000000000000     
  -2.5000000000000004        2.5000000000000009        0.0000000000000000     
  -2.5000000000000004        1.8750000000000004        0.0000000000000000     
  -2.4218750000000004        1.8750000000000000        0.0000000000000000     
  -2.3437500000000004        1.8750000000000004        0.0000000000000000     
  -2.2656250000000000        1.8750000000000002        0.0000000000000000     
  -2.1875000000000000        1.8749999999999998        0.0000000000000000     
  -2.1093750000000000        1.8750000000000002        0.0000000000000000     
  -2.0312500000000000        1.8750000000000002        0.0000000000000000     
  -1.9531249999999998        1.8750000000000000        0.0000000000000000     
  -1.8750000000000002        1.8750000000000004        0.0000000000000000     
  -2.5000000000000004        1.9531250000000000        0.0000000000000000     
  -2.4218750000000000        1.9531250000000004        0.0000000000000000     
  -2.3437500000000000        1.9531250000000000        0.0000000000000000     
  -2.2656250000000000        1.9531249999999998        0.0000000000000000     
  -2.1875000000000000        1.9531250000000007        0.0000000000000000     
  -2.1093750000000000        1.9531250000000000        0.0000000000000000     
  -2.0312500000000004        1.9531250000000002        0.0000000000000000     
  -1.9531250000000004        1.9531250000000004        0.0000000000000000     
  -1.8750000000000002        1.9531250000000000        0.0000000000000000     
  -2.5000000000000000        2.0312500000000004        0.0000000000000000     
  -2.4218750000000004        2.0312500000000004        0.0000000000000000     
  -2.3437500000000000        2.0312500000000000        0.0000000000000000     
  -2.2656250000000000        2.0312500000000004        0.0000000000000000     
  -2.1875000000000000        2.0312500000000004        0.0000000000000000     
  -2.1093750000000000        2.0312500000000000        0.0000000000000000     
  -2.0312500000000000        2.0312500000000004        0.0000000000000000     
  -1.9531250000000002        2.0312500000000004        0.0000000000000000     
  -1.8750000000000002        2.0312500000000004        0.0000000000000000     
  -2.4999999999999996        2.1093750000000000        0.0000000000000000     
  -2.4218750000000004        2.1093749999999996        0.0000000000000000     
  -2.3437500000000004        2.1093750000000000        0.0000000000000000     
  -2.2656249999999996        2.1093750000000000        0.0000000000000000     
  -2.1875000000000004        2.1093750000000000        0.0000000000000000     
  -2.1093750000000004        2.1093750000000004        0.0000000000000000     
  -2.0312499999999996        2.1093750000000000        0.0000000000000000     
  -1.9531249999999996        2.1093750000000000        0.0000000000000000     
  -1.8749999999999996        2.1093750000000000        0.0000000000000000     
  -2.5000000000000004        2.1875000000000000        0.0000000000000000     
  -2.4218750000000000        2.1875000000000004        0.0000000000000000     
  -2.3437499999999996        2.1875000000000000        0.0000000000000000     
  -2.2656250000000004        2.1875000000000004        0.0000000000000000     
  -2.1875000000000000        2.1875000000000004        0.0000000000000000     
  -2.1093749999999996        2.1875000000000000        0.0000000000000000     
  -2.0312500000000004        2.1875000000000000        0.0000000000000000     
  -1.9531250000000004        2.1875000000000004        0.0000000000000000     
  -1.8750000000000000        2.1875000000000000        0.0000000000000000     
  -2.5000000000000000        2.2656250000000000        0.0000000000000000     
  -2.4218750000000000        2.2656250000000004        0.0000000000000000     
  -2.3437500000000000        2.2656250000000000        0.0000000000000000     
  -2.2656250000000000        2.2656250000000000        0.0000000000000000     
  -2.1875000000000000        2.2656250000000004        0.0000000000000000     
  -2.1093750000000000        2.2656250000000000        0.0000000000000000     
  -2.0312500000000000        2.2656250000000004        0.0000000000000000     
  -1.9531250000000000        2.2656250000000004        0.0000000000000000     
  -1.8750000000000000        2.2656250000000000        0.0000000000000000     
  -2.4999999999999996        2.3437500000000000        0.0000000000000000     
  -2.4218750000000004        2.3437500000000000        0.0000000000000000     
  -2.3437500000000004        2.3437500000000000        0.0000000000000000     
  -2.2656249999999996        2.3437500000000000        0.0000000000000000     
  -2.1875000000000000        2.3437500000000000        0.0000000000000000     
  -2.1093750000000004        2.3437500000000004        0.0000000000000000     
  -2.0312499999999996        2.3437500000000000        0.0000000000000000     
  -1.9531250000000000        2.3437500000000000        0.0000000000000000     
  -1.8749999999999996        2.3437500000000000        0.0000000000000000     
  -2.5000000000000000        2.4218750000000000        0.0000000000000000     
  -2.4218750000000004        2.4218750000000009        0.0000000000000000     
  -2.3437499999999996        2.4218750000000000        0.0000000000000000     
  -2.2656250000000000        2.4218750000000000        0.0000000000000000     
  -2.1875000000000004        2.4218750000000013        0.0000000000000000     
  -2.1093749999999996        2.4218750000000000        0.0000000000000000     
  -2.0312500000000000        2.4218750000000000        0.0000000000000000     
  -1.9531250000000009        2.4218750000000009        0.0000000000000000     
  -1.8749999999999998        2.4218750000000000        0.0000000000000000     
  -2.5000000000000004        2.5000000000000009        0.0000000000000000     
  -2.4218750000000004        2.5000000000000004        0.0000000000000000     
  -2.3437500000000004        2.5000000000000004        0.0000000000000000     
  -2.2656250000000000        2.5000000000000004        0.0000000000000000     
  -2.1875000000000000        2.5000000000000000        0.0000000000000000     
  -2.1093750000000000        2.5000000000000004        0.0000000000000000     
  -2.0312500000000000        2.5000000000000004        0.0000000000000000     
  -1.9531249999999998        2.5000000000000004        0.0000000000000000     
  -1.8750000000000002        2.5000000000000009        0.0000000000000000     
  -1.8750000000000002        1.8750000000000004        0.0000000000000000     
  -1.7968750000000002        1.8750000000000000        0.0000000000000000     
  -1.7187500000000004        1.8750000000000004        0.0000000000000000     
  -1.6406250000000000        1.8750000000000002        0.0000000000000000     
  -1.5625000000000000        1.8749999999999998        0.0000000000000000     
  -1.4843750000000000        1.8750000000000002        0.0000000000000000     
  -1.4062500000000000        1.8750000000000002        0.0000000000000000     
  -1.3281250000000000        1.8750000000000000        0.0000000000000000     
  -1.2500000000000002        1.8750000000000004        0.0000000000000000     
  -1.8750000000000002        1.9531250000000000        0.0000000000000000     
  -1.7968750000000004        1.9531250000000004        0.0000000000000000     
  -1.7187500000000002        1.9531250000000000        0.0000000000000000     
  -1.6406250000000000        1.9531249999999998        0.0000000000000000     
  -1.5625000000000004        1.9531250000000007        0.0000000000000000     
  -1.4843750000000000        1.9531250000000000        0.0000000000000000     
  -1.4062500000000000        1.9531250000000002        0.0000000000000000     
  -1.3281250000000004        1.9531250000000004        0.0000000000000000     
  -1.2500000000000002        1.9531250000000000        0.0000000000000000     
  -1.8750000000000002        2.0312500000000004        0.0000000000000000     
  -1.7968750000000002        2.0312500000000004        0.0000000000000000     
  -1.7187500000000002        2.0312500000000000        0.0000000000000000     
  -1.6406250000000000        2.0312500000000004        0.0000000000000000     
  -1.5625000000000002        2.0312500000000004        0.0000000000000000     
  -1.4843750000000000        2.0312500000000000        0.0000000000000000     
  -1.4062500000000002        2.0312500000000004        0.0000000000000000     
  -1.3281250000000002        2.0312500000000004        0.0000000000000000     
  -1.2500000000000000        2.0312500000000004        0.0000000000000000     
  -1.8749999999999996        2.1093750000000000        0.0000000000000000     
  -1.7968750000000000        2.1093749999999996        0.0000000000000000     
  -1.7187500000000000        2.1093750000000000        0.0000000000000000     
  -1.6406249999999996        2.1093750000000000        0.0000000000000000     
  -1.5625000000000000        2.1093750000000000        0.0000000000000000     
  -1.4843749999999998        2.1093750000000004        0.0000000000000000     
  -1.4062499999999996        2.1093750000000000        0.0000000000000000     
  -1.3281250000000000        2.1093750000000000        0.0000000000000000     
  -1.2499999999999998        2.1093750000000000        0.0000000000000000     
  -1.8750000000000000        2.1875000000000000        0.0000000000000000     
  -1.7968750000000004        2.1875000000000004        0.0000000000000000     
  -1.7187500000000002        2.1875000000000000        0.0000000000000000     
  -1.6406250000000000        2.1875000000000004        0.0000000000000000     
  -1.5625000000000004        2.1875000000000004        0.0000000000000000     
  -1.4843750000000002        2.1875000000000000        0.0000000000000000     
  -1.4062499999999998        2.1875000000000000        0.0000000000000000     
  -1.3281250000000004        2.1875000000000004        0.0000000000000000     
  -1.2500000000000000        2.1875000000000000        0.0000000000000000     
  -1.8750000000000000        2.2656250000000000        0.0000000000000000     
  -1.7968750000000000        2.2656250000000004        0.0000000000000000     
  -1.7187500000000000        2.2656250000000000        0.0000000000000000     
  -1.6406250000000002        2.2656250000000000        0.0000000000000000     
  -1.5625000000000002        2.2656250000000004        0.0000000000000000     
  -1.4843750000000000        2.2656250000000000        0.0000000000000000     
  -1.4062500000000000        2.2656250000000004        0.0000000000000000     
  -1.3281250000000002        2.2656250000000004        0.0000000000000000     
  -1.2500000000000000        2.2656250000000000        0.0000000000000000     
  -1.8749999999999996        2.3437500000000000        0.0000000000000000     
  -1.7968750000000004        2.3437500000000000        0.0000000000000000     
  -1.7187500000000002        2.3437500000000000        0.0000000000000000     
  -1.6406249999999996        2.3437500000000000        0.0000000000000000     
  -1.5625000000000000        2.3437500000000000        0.0000000000000000     
  -1.4843750000000000        2.3437500000000004        0.0000000000000000     
  -1.4062499999999996        2.3437500000000000        0.0000000000000000     
  -1.3281250000000002        2.3437500000000000        0.0000000000000000     
  -1.2499999999999998        2.3437500000000000        0.0000000000000000     
  -1.8749999999999998        2.4218750000000000        0.0000000000000000     
  -1.7968750000000009        2.4218750000000009        0.0000000000000000     
  -1.7187500000000002        2.4218750000000000        0.0000000000000000     
  -1.6406249999999996        2.4218750000000000        0.0000000000000000     
  -1.5625000000000009        2.4218750000000013        0.0000000000000000     
  -1.4843750000000002        2.4218750000000000        0.0000000000000000     
  -1.4062499999999996        2.4218750000000000        0.0000000000000000     
  -1.3281250000000009        2.4218750000000009        0.0000000000000000     
  -1.2500000000000000        2.4218750000000000        0.0000000000000000     
  -1.8750000000000002        2.5000000000000009        0.0000000000000000     
  -1.7968750000000002        2.5000000000000004        0.0000000000000000     
  -1.7187500000000004        2.5000000000000004        0.0000000000000000     
  -1.6406250000000000        2.5000000000000004        0.0000000000000000     
  -1.5625000000000000        2.5000000000000000        0.0000000000000000     
  -1.4843750000000000        2.5000000000000004        0.0000000000000000     
  -1.4062500000000000        2.5000000000000004        0.0000000000000000     
  -1.3281250000000000        2.5000000000000004        0.0000000000000000     
  -1.2500000000000002        2.5000000000000009        0.0000000000000000     
  -1.2500000000000002        1.8750000000000004        0.0000000000000000     
  -1.1718750000000002        1.8750000000000002        0.0000000000000000     
  -1.0937500000000002        1.8750000000000004        0.0000000000000000     
  -1.0156250000000000        1.8750000000000002        0.0000000000000000     
 -0.93749999999999989        1.8750000000000004        0.0000000000000000     
 -0.85937499999999989        1.8749999999999998        0.0000000000000000     
 -0.78125000000000011        1.8750000000000002        0.0000000000000000     
 -0.70312499999999989        1.8750000000000002        0.0000000000000000     
 -0.62500000000000011        1.8750000000000004        0.0000000000000000     
  -1.2500000000000002        1.9531250000000000        0.0000000000000000     
  -1.1718750000000002        1.9531250000000004        0.0000000000000000     
  -1.0937500000000000        1.9531250000000004        0.0000000000000000     
  -1.0156250000000000        1.9531249999999998        0.0000000000000000     
 -0.93750000000000022        1.9531250000000004        0.0000000000000000     
 -0.85937500000000011        1.9531250000000000        0.0000000000000000     
 -0.78125000000000011        1.9531250000000002        0.0000000000000000     
 -0.70312500000000022        1.9531250000000002        0.0000000000000000     
 -0.62500000000000011        1.9531250000000002        0.0000000000000000     
  -1.2500000000000000        2.0312500000000004        0.0000000000000000     
  -1.1718750000000002        2.0312500000000004        0.0000000000000000     
  -1.0937500000000002        2.0312500000000000        0.0000000000000000     
  -1.0156250000000000        2.0312500000000004        0.0000000000000000     
 -0.93749999999999989        2.0312500000000004        0.0000000000000000     
 -0.85937500000000000        2.0312500000000000        0.0000000000000000     
 -0.78125000000000011        2.0312500000000004        0.0000000000000000     
 -0.70312500000000000        2.0312500000000004        0.0000000000000000     
 -0.62500000000000000        2.0312500000000000        0.0000000000000000     
  -1.2499999999999998        2.1093750000000000        0.0000000000000000     
  -1.1718750000000002        2.1093749999999996        0.0000000000000000     
  -1.0937500000000000        2.1093750000000004        0.0000000000000000     
  -1.0156250000000000        2.1093750000000000        0.0000000000000000     
 -0.93749999999999978        2.1093749999999996        0.0000000000000000     
 -0.85937499999999989        2.1093750000000000        0.0000000000000000     
 -0.78125000000000000        2.1093750000000000        0.0000000000000000     
 -0.70312500000000000        2.1093750000000000        0.0000000000000000     
 -0.62499999999999989        2.1093750000000004        0.0000000000000000     
  -1.2500000000000000        2.1875000000000000        0.0000000000000000     
  -1.1718750000000002        2.1875000000000004        0.0000000000000000     
  -1.0937500000000000        2.1875000000000000        0.0000000000000000     
  -1.0156250000000002        2.1875000000000004        0.0000000000000000     
 -0.93750000000000022        2.1875000000000004        0.0000000000000000     
 -0.85937500000000011        2.1875000000000000        0.0000000000000000     
 -0.78125000000000000        2.1875000000000000        0.0000000000000000     
 -0.70312500000000022        2.1875000000000004        0.0000000000000000     
 -0.62500000000000011        2.1875000000000000        0.0000000000000000     
  -1.2500000000000000        2.2656250000000000        0.0000000000000000     
  -1.1718750000000000        2.2656250000000000        0.0000000000000000     
  -1.0937500000000000        2.2656250000000000        0.0000000000000000     
  -1.0156250000000000        2.2656250000000000        0.0000000000000000     
 -0.93750000000000000        2.2656250000000000        0.0000000000000000     
 -0.85937500000000011        2.2656250000000000        0.0000000000000000     
 -0.78125000000000011        2.2656250000000004        0.0000000000000000     
 -0.70312500000000011        2.2656250000000004        0.0000000000000000     
 -0.62500000000000000        2.2656250000000000        0.0000000000000000     
  -1.2499999999999998        2.3437500000000000        0.0000000000000000     
  -1.1718750000000000        2.3437499999999996        0.0000000000000000     
  -1.0937500000000002        2.3437500000000004        0.0000000000000000     
  -1.0156249999999998        2.3437500000000000        0.0000000000000000     
 -0.93749999999999978        2.3437499999999996        0.0000000000000000     
 -0.85937500000000022        2.3437500000000009        0.0000000000000000     
 -0.78125000000000000        2.3437500000000000        0.0000000000000000     
 -0.70312499999999989        2.3437499999999996        0.0000000000000000     
 -0.62499999999999989        2.3437500000000004        0.0000000000000000     
  -1.2500000000000000        2.4218750000000000        0.0000000000000000     
  -1.1718750000000002        2.4218750000000009        0.0000000000000000     
  -1.0937500000000000        2.4218750000000000        0.0000000000000000     
  -1.0156249999999998        2.4218750000000000        0.0000000000000000     
 -0.93750000000000011        2.4218750000000009        0.0000000000000000     
 -0.85937500000000011        2.4218750000000000        0.0000000000000000     
 -0.78124999999999989        2.4218750000000000        0.0000000000000000     
 -0.70312500000000011        2.4218750000000009        0.0000000000000000     
 -0.62500000000000011        2.4218750000000000        0.0000000000000000     
  -1.2500000000000002        2.5000000000000009        0.0000000000000000     
  -1.1718750000000002        2.5000000000000004        0.0000000000000000     
  -1.0937500000000002        2.5000000000000000        0.0000000000000000     
  -1.0156250000000000        2.5000000000000004        0.0000000000000000     
 -0.93749999999999989        2.5000000000000004        0.0000000000000000     
 -0.85937499999999989        2.5000000000000000        0.0000000000000000     
 -0.78125000000000011        2.5000000000000004        0.0000000000000000     
 -0.70312499999999989        2.5000000000000004        0.0000000000000000     
 -0.62500000000000011        2.5000000000000000        0.0000000000000000     
 -0.62500000000000011        1.8750000000000004        0.0000000000000000     
 -0.54687500000000000        1.8750000000000002        0.0000000000000000     
 -0.46875000000000000        1.8750000000000002        0.0000000000000000     
 -0.39062500000000006        1.8750000000000000        0.0000000000000000     
 -0.31250000000000006        1.8750000000000002        0.0000000000000000     
 -0.23437500000000006        1.8750000000000000        0.0000000000000000     
 -0.15625000000000000        1.8749999999999998        0.0000000000000000     
  -7.8124999999999972E-002   1.8750000000000000        0.0000000000000000     
   0.0000000000000000        1.8750000000000004        0.0000000000000000     
 -0.62500000000000011        1.9531250000000002        0.0000000000000000     
 -0.54687500000000011        1.9531250000000000        0.0000000000000000     
 -0.46875000000000000        1.9531249999999998        0.0000000000000000     
 -0.39062500000000000        1.9531250000000000        0.0000000000000000     
 -0.31250000000000011        1.9531250000000004        0.0000000000000000     
 -0.23437500000000000        1.9531250000000002        0.0000000000000000     
 -0.15625000000000003        1.9531250000000002        0.0000000000000000     
  -7.8125000000000000E-002   1.9531250000000000        0.0000000000000000     
   0.0000000000000000        1.9531250000000000        0.0000000000000000     
 -0.62500000000000000        2.0312500000000000        0.0000000000000000     
 -0.54687500000000011        2.0312500000000004        0.0000000000000000     
 -0.46875000000000000        2.0312500000000000        0.0000000000000000     
 -0.39062500000000000        2.0312500000000000        0.0000000000000000     
 -0.31250000000000011        2.0312500000000009        0.0000000000000000     
 -0.23437500000000000        2.0312500000000000        0.0000000000000000     
 -0.15625000000000000        2.0312500000000000        0.0000000000000000     
  -7.8125000000000014E-002   2.0312500000000004        0.0000000000000000     
   0.0000000000000000        2.0312500000000000        0.0000000000000000     
 -0.62499999999999989        2.1093750000000004        0.0000000000000000     
 -0.54687500000000011        2.1093749999999996        0.0000000000000000     
 -0.46875000000000000        2.1093750000000004        0.0000000000000000     
 -0.39062500000000006        2.1093750000000004        0.0000000000000000     
 -0.31250000000000000        2.1093749999999996        0.0000000000000000     
 -0.23437500000000000        2.1093750000000004        0.0000000000000000     
 -0.15625000000000000        2.1093750000000000        0.0000000000000000     
  -7.8124999999999986E-002   2.1093749999999996        0.0000000000000000     
   0.0000000000000000        2.1093750000000004        0.0000000000000000     
 -0.62500000000000011        2.1875000000000000        0.0000000000000000     
 -0.54687500000000011        2.1875000000000004        0.0000000000000000     
 -0.46875000000000000        2.1875000000000000        0.0000000000000000     
 -0.39062500000000006        2.1875000000000000        0.0000000000000000     
 -0.31250000000000006        2.1875000000000009        0.0000000000000000     
 -0.23437500000000000        2.1875000000000000        0.0000000000000000     
 -0.15625000000000003        2.1875000000000000        0.0000000000000000     
  -7.8125000000000000E-002   2.1875000000000004        0.0000000000000000     
   0.0000000000000000        2.1875000000000004        0.0000000000000000     
 -0.62500000000000000        2.2656250000000000        0.0000000000000000     
 -0.54687500000000011        2.2656250000000004        0.0000000000000000     
 -0.46875000000000006        2.2656250000000000        0.0000000000000000     
 -0.39062500000000006        2.2656250000000000        0.0000000000000000     
 -0.31250000000000000        2.2656250000000000        0.0000000000000000     
 -0.23437500000000000        2.2656250000000000        0.0000000000000000     
 -0.15625000000000000        2.2656250000000000        0.0000000000000000     
  -7.8125000000000000E-002   2.2656250000000004        0.0000000000000000     
   0.0000000000000000        2.2656250000000004        0.0000000000000000     
 -0.62499999999999989        2.3437500000000004        0.0000000000000000     
 -0.54687500000000011        2.3437499999999996        0.0000000000000000     
 -0.46875000000000000        2.3437500000000004        0.0000000000000000     
 -0.39062500000000006        2.3437500000000004        0.0000000000000000     
 -0.31250000000000006        2.3437500000000004        0.0000000000000000     
 -0.23437500000000000        2.3437500000000000        0.0000000000000000     
 -0.15625000000000000        2.3437500000000004        0.0000000000000000     
  -7.8124999999999986E-002   2.3437499999999996        0.0000000000000000     
   0.0000000000000000        2.3437500000000004        0.0000000000000000     
 -0.62500000000000011        2.4218750000000000        0.0000000000000000     
 -0.54687500000000000        2.4218750000000004        0.0000000000000000     
 -0.46875000000000000        2.4218749999999996        0.0000000000000000     
 -0.39062499999999989        2.4218749999999991        0.0000000000000000     
 -0.31250000000000011        2.4218750000000013        0.0000000000000000     
 -0.23437500000000000        2.4218749999999996        0.0000000000000000     
 -0.15625000000000000        2.4218750000000000        0.0000000000000000     
  -7.8125000000000014E-002   2.4218750000000004        0.0000000000000000     
   0.0000000000000000        2.4218749999999996        0.0000000000000000     
 -0.62500000000000011        2.5000000000000000        0.0000000000000000     
 -0.54687500000000000        2.5000000000000000        0.0000000000000000     
 -0.46875000000000000        2.5000000000000000        0.0000000000000000     
 -0.39062500000000006        2.5000000000000000        0.0000000000000000     
 -0.31250000000000006        2.5000000000000004        0.0000000000000000     
 -0.23437500000000006        2.5000000000000004        0.0000000000000000     
 -0.15625000000000000        2.5000000000000000        0.0000000000000000     
  -7.8124999999999972E-002   2.5000000000000000        0.0000000000000000     
   0.0000000000000000        2.5000000000000004        0.0000000000000000     
  -5.0000000000000018        2.5000000000000004        0.0000000000000000     
  -4.9218750000000000        2.5000000000000004        0.0000000000000000     
  -4.8437500000000000        2.5000000000000000        0.0000000000000000     
  -4.7656250000000009        2.5000000000000000        0.0000000000000000     
  -4.6875000000000018        2.5000000000000004        0.0000000000000000     
  -4.6093750000000000        2.5000000000000000        0.0000000000000000     
  -4.5312500000000009        2.5000000000000000        0.0000000000000000     
  -4.4531250000000009        2.5000000000000004        0.0000000000000000     
  -4.3750000000000000        2.5000000000000000        0.0000000000000000     
  -5.0000000000000000        2.5781250000000000        0.0000000000000000     
  -4.9218750000000000        2.5781250000000000        0.0000000000000000     
  -4.8437500000000000        2.5781250000000000        0.0000000000000000     
  -4.7656250000000000        2.5781249999999996        0.0000000000000000     
  -4.6875000000000000        2.5781250000000004        0.0000000000000000     
  -4.6093750000000000        2.5781250000000000        0.0000000000000000     
  -4.5312500000000000        2.5781250000000000        0.0000000000000000     
  -4.4531250000000000        2.5781250000000004        0.0000000000000000     
  -4.3750000000000009        2.5781250000000000        0.0000000000000000     
  -4.9999999999999991        2.6562500000000000        0.0000000000000000     
  -4.9218750000000009        2.6562500000000004        0.0000000000000000     
  -4.8437500000000000        2.6562500000000000        0.0000000000000000     
  -4.7656250000000000        2.6562500000000000        0.0000000000000000     
  -4.6875000000000000        2.6562500000000000        0.0000000000000000     
  -4.6093750000000000        2.6562500000000000        0.0000000000000000     
  -4.5312500000000000        2.6562500000000000        0.0000000000000000     
  -4.4531250000000009        2.6562500000000000        0.0000000000000000     
  -4.3750000000000000        2.6562499999999996        0.0000000000000000     
  -5.0000000000000009        2.7343750000000004        0.0000000000000000     
  -4.9218750000000000        2.7343750000000000        0.0000000000000000     
  -4.8437500000000000        2.7343750000000000        0.0000000000000000     
  -4.7656250000000000        2.7343750000000000        0.0000000000000000     
  -4.6875000000000000        2.7343750000000004        0.0000000000000000     
  -4.6093750000000009        2.7343750000000000        0.0000000000000000     
  -4.5312500000000000        2.7343750000000000        0.0000000000000000     
  -4.4531250000000009        2.7343750000000004        0.0000000000000000     
  -4.3750000000000000        2.7343750000000000        0.0000000000000000     
  -5.0000000000000009        2.8125000000000004        0.0000000000000000     
  -4.9218750000000000        2.8125000000000000        0.0000000000000000     
  -4.8437500000000000        2.8125000000000000        0.0000000000000000     
  -4.7656250000000009        2.8125000000000000        0.0000000000000000     
  -4.6875000000000009        2.8125000000000009        0.0000000000000000     
  -4.6093749999999991        2.8125000000000000        0.0000000000000000     
  -4.5312499999999991        2.8124999999999996        0.0000000000000000     
  -4.4531250000000018        2.8125000000000009        0.0000000000000000     
  -4.3749999999999991        2.8125000000000000        0.0000000000000000     
  -5.0000000000000009        2.8906250000000004        0.0000000000000000     
  -4.9218750000000009        2.8906250000000004        0.0000000000000000     
  -4.8437500000000000        2.8906250000000000        0.0000000000000000     
  -4.7656250000000000        2.8906250000000004        0.0000000000000000     
  -4.6875000000000009        2.8906250000000004        0.0000000000000000     
  -4.6093750000000000        2.8906250000000000        0.0000000000000000     
  -4.5312500000000009        2.8906250000000009        0.0000000000000000     
  -4.4531250000000000        2.8906250000000004        0.0000000000000000     
  -4.3750000000000000        2.8906250000000004        0.0000000000000000     
  -5.0000000000000009        2.9687500000000000        0.0000000000000000     
  -4.9218750000000009        2.9687500000000009        0.0000000000000000     
  -4.8437500000000009        2.9687500000000004        0.0000000000000000     
  -4.7656249999999991        2.9687500000000004        0.0000000000000000     
  -4.6875000000000009        2.9687500000000004        0.0000000000000000     
  -4.6093750000000009        2.9687500000000000        0.0000000000000000     
  -4.5312499999999991        2.9687500000000004        0.0000000000000000     
  -4.4531250000000000        2.9687500000000004        0.0000000000000000     
  -4.3750000000000000        2.9687500000000000        0.0000000000000000     
  -5.0000000000000000        3.0468749999999996        0.0000000000000000     
  -4.9218750000000009        3.0468750000000009        0.0000000000000000     
  -4.8437499999999991        3.0468750000000000        0.0000000000000000     
  -4.7656250000000000        3.0468750000000004        0.0000000000000000     
  -4.6875000000000018        3.0468750000000009        0.0000000000000000     
  -4.6093749999999991        3.0468749999999996        0.0000000000000000     
  -4.5312500000000009        3.0468750000000004        0.0000000000000000     
  -4.4531250000000018        3.0468750000000009        0.0000000000000000     
  -4.3750000000000009        3.0468750000000000        0.0000000000000000     
  -5.0000000000000018        3.1250000000000000        0.0000000000000000     
  -4.9218750000000000        3.1250000000000000        0.0000000000000000     
  -4.8437500000000000        3.1250000000000000        0.0000000000000000     
  -4.7656250000000009        3.1250000000000004        0.0000000000000000     
  -4.6875000000000009        3.1250000000000004        0.0000000000000000     
  -4.6093750000000000        3.1250000000000004        0.0000000000000000     
  -4.5312500000000009        3.1250000000000004        0.0000000000000000     
  -4.4531250000000009        3.1250000000000004        0.0000000000000000     
  -4.3750000000000000        3.1250000000000004        0.0000000000000000     
  -4.3750000000000000        2.5000000000000000        0.0000000000000000     
  -4.2968750000000009        2.5000000000000004        0.0000000000000000     
  -4.2187500000000000        2.5000000000000004        0.0000000000000000     
  -4.1406250000000000        2.5000000000000000        0.0000000000000000     
  -4.0625000000000000        2.5000000000000000        0.0000000000000000     
  -3.9843749999999996        2.5000000000000004        0.0000000000000000     
  -3.9062500000000009        2.5000000000000000        0.0000000000000000     
  -3.8281250000000000        2.5000000000000000        0.0000000000000000     
  -3.7500000000000000        2.5000000000000009        0.0000000000000000     
  -4.3750000000000009        2.5781250000000000        0.0000000000000000     
  -4.2968750000000009        2.5781250000000004        0.0000000000000000     
  -4.2187500000000009        2.5781249999999996        0.0000000000000000     
  -4.1406250000000009        2.5781250000000000        0.0000000000000000     
  -4.0625000000000000        2.5781250000000004        0.0000000000000000     
  -3.9843750000000009        2.5781249999999996        0.0000000000000000     
  -3.9062500000000009        2.5781250000000004        0.0000000000000000     
  -3.8281250000000000        2.5781250000000004        0.0000000000000000     
  -3.7500000000000009        2.5781249999999996        0.0000000000000000     
  -4.3750000000000000        2.6562499999999996        0.0000000000000000     
  -4.2968750000000009        2.6562500000000004        0.0000000000000000     
  -4.2187500000000000        2.6562500000000000        0.0000000000000000     
  -4.1406250000000018        2.6562500000000004        0.0000000000000000     
  -4.0625000000000000        2.6562500000000000        0.0000000000000000     
  -3.9843750000000000        2.6562500000000000        0.0000000000000000     
  -3.9062500000000000        2.6562500000000000        0.0000000000000000     
  -3.8281250000000004        2.6562500000000004        0.0000000000000000     
  -3.7500000000000000        2.6562500000000004        0.0000000000000000     
  -4.3750000000000000        2.7343750000000000        0.0000000000000000     
  -4.2968750000000000        2.7343750000000000        0.0000000000000000     
  -4.2187500000000000        2.7343750000000004        0.0000000000000000     
  -4.1406250000000009        2.7343750000000004        0.0000000000000000     
  -4.0624999999999991        2.7343750000000000        0.0000000000000000     
  -3.9843750000000000        2.7343750000000004        0.0000000000000000     
  -3.9062500000000000        2.7343750000000000        0.0000000000000000     
  -3.8281249999999996        2.7343750000000000        0.0000000000000000     
  -3.7499999999999991        2.7343750000000000        0.0000000000000000     
  -4.3749999999999991        2.8125000000000000        0.0000000000000000     
  -4.2968750000000000        2.8125000000000009        0.0000000000000000     
  -4.2187500000000000        2.8124999999999996        0.0000000000000000     
  -4.1406250000000000        2.8125000000000000        0.0000000000000000     
  -4.0625000000000000        2.8125000000000004        0.0000000000000000     
  -3.9843750000000009        2.8124999999999996        0.0000000000000000     
  -3.9062500000000004        2.8125000000000000        0.0000000000000000     
  -3.8281250000000000        2.8125000000000004        0.0000000000000000     
  -3.7500000000000009        2.8124999999999996        0.0000000000000000     
  -4.3750000000000000        2.8906250000000004        0.0000000000000000     
  -4.2968750000000009        2.8906250000000004        0.0000000000000000     
  -4.2187500000000000        2.8906250000000000        0.0000000000000000     
  -4.1406250000000000        2.8906249999999996        0.0000000000000000     
  -4.0625000000000000        2.8906250000000000        0.0000000000000000     
  -3.9843750000000000        2.8906250000000000        0.0000000000000000     
  -3.9062500000000000        2.8906249999999996        0.0000000000000000     
  -3.8281249999999996        2.8906250000000000        0.0000000000000000     
  -3.7499999999999996        2.8906250000000004        0.0000000000000000     
  -4.3750000000000000        2.9687500000000000        0.0000000000000000     
  -4.2968750000000018        2.9687500000000004        0.0000000000000000     
  -4.2187500000000000        2.9687500000000004        0.0000000000000000     
  -4.1406250000000009        2.9687500000000004        0.0000000000000000     
  -4.0625000000000000        2.9687500000000000        0.0000000000000000     
  -3.9843749999999996        2.9687500000000000        0.0000000000000000     
  -3.9062500000000004        2.9687500000000004        0.0000000000000000     
  -3.8281249999999996        2.9687500000000000        0.0000000000000000     
  -3.7499999999999996        2.9687500000000000        0.0000000000000000     
  -4.3750000000000009        3.0468750000000000        0.0000000000000000     
  -4.2968750000000000        3.0468750000000004        0.0000000000000000     
  -4.2187500000000000        3.0468749999999996        0.0000000000000000     
  -4.1406250000000000        3.0468750000000000        0.0000000000000000     
  -4.0625000000000000        3.0468750000000004        0.0000000000000000     
  -3.9843750000000004        3.0468749999999996        0.0000000000000000     
  -3.9062500000000004        3.0468750000000000        0.0000000000000000     
  -3.8281250000000000        3.0468750000000004        0.0000000000000000     
  -3.7500000000000000        3.0468749999999991        0.0000000000000000     
  -4.3750000000000000        3.1250000000000004        0.0000000000000000     
  -4.2968750000000009        3.1250000000000000        0.0000000000000000     
  -4.2187500000000000        3.1250000000000004        0.0000000000000000     
  -4.1406250000000000        3.1250000000000000        0.0000000000000000     
  -4.0625000000000000        3.1249999999999996        0.0000000000000000     
  -3.9843749999999996        3.1250000000000004        0.0000000000000000     
  -3.9062500000000009        3.1250000000000004        0.0000000000000000     
  -3.8281250000000000        3.1249999999999996        0.0000000000000000     
  -3.7500000000000000        3.1250000000000009        0.0000000000000000     
  -3.7500000000000000        2.5000000000000009        0.0000000000000000     
  -3.6718750000000000        2.5000000000000004        0.0000000000000000     
  -3.5937500000000009        2.5000000000000004        0.0000000000000000     
  -3.5156250000000000        2.5000000000000004        0.0000000000000000     
  -3.4375000000000000        2.5000000000000000        0.0000000000000000     
  -3.3593750000000004        2.5000000000000004        0.0000000000000000     
  -3.2812500000000004        2.5000000000000004        0.0000000000000000     
  -3.2031250000000000        2.5000000000000004        0.0000000000000000     
  -3.1250000000000004        2.5000000000000009        0.0000000000000000     
  -3.7500000000000009        2.5781249999999996        0.0000000000000000     
  -3.6718750000000004        2.5781250000000004        0.0000000000000000     
  -3.5937500000000004        2.5781249999999996        0.0000000000000000     
  -3.5156250000000009        2.5781249999999996        0.0000000000000000     
  -3.4375000000000000        2.5781250000000004        0.0000000000000000     
  -3.3593750000000000        2.5781249999999996        0.0000000000000000     
  -3.2812500000000009        2.5781249999999996        0.0000000000000000     
  -3.2031250000000000        2.5781250000000004        0.0000000000000000     
  -3.1250000000000004        2.5781249999999996        0.0000000000000000     
  -3.7500000000000000        2.6562500000000004        0.0000000000000000     
  -3.6718750000000009        2.6562500000000000        0.0000000000000000     
  -3.5937500000000000        2.6562500000000000        0.0000000000000000     
  -3.5156250000000000        2.6562500000000004        0.0000000000000000     
  -3.4375000000000000        2.6562499999999996        0.0000000000000000     
  -3.3593750000000000        2.6562500000000000        0.0000000000000000     
  -3.2812500000000000        2.6562500000000000        0.0000000000000000     
  -3.2031250000000009        2.6562500000000000        0.0000000000000000     
  -3.1250000000000000        2.6562500000000004        0.0000000000000000     
  -3.7499999999999991        2.7343750000000000        0.0000000000000000     
  -3.6718750000000000        2.7343750000000000        0.0000000000000000     
  -3.5937500000000004        2.7343750000000004        0.0000000000000000     
  -3.5156249999999987        2.7343750000000000        0.0000000000000000     
  -3.4375000000000000        2.7343750000000004        0.0000000000000000     
  -3.3593750000000004        2.7343750000000004        0.0000000000000000     
  -3.2812499999999987        2.7343750000000000        0.0000000000000000     
  -3.2031250000000004        2.7343750000000004        0.0000000000000000     
  -3.1249999999999996        2.7343750000000000        0.0000000000000000     
  -3.7500000000000009        2.8124999999999996        0.0000000000000000     
  -3.6718750000000000        2.8125000000000004        0.0000000000000000     
  -3.5937499999999996        2.8124999999999996        0.0000000000000000     
  -3.5156250000000009        2.8124999999999996        0.0000000000000000     
  -3.4375000000000000        2.8125000000000004        0.0000000000000000     
  -3.3593749999999996        2.8124999999999996        0.0000000000000000     
  -3.2812500000000004        2.8124999999999996        0.0000000000000000     
  -3.2031250000000009        2.8125000000000004        0.0000000000000000     
  -3.1250000000000000        2.8124999999999996        0.0000000000000000     
  -3.7499999999999996        2.8906250000000004        0.0000000000000000     
  -3.6718750000000000        2.8906250000000000        0.0000000000000000     
  -3.5937500000000009        2.8906250000000000        0.0000000000000000     
  -3.5156250000000000        2.8906250000000000        0.0000000000000000     
  -3.4375000000000000        2.8906250000000000        0.0000000000000000     
  -3.3593750000000000        2.8906250000000000        0.0000000000000000     
  -3.2812499999999996        2.8906250000000000        0.0000000000000000     
  -3.2031250000000009        2.8906250000000000        0.0000000000000000     
  -3.1250000000000004        2.8906250000000004        0.0000000000000000     
  -3.7499999999999996        2.9687500000000000        0.0000000000000000     
  -3.6718750000000000        2.9687500000000004        0.0000000000000000     
  -3.5937500000000004        2.9687500000000004        0.0000000000000000     
  -3.5156249999999987        2.9687500000000000        0.0000000000000000     
  -3.4375000000000000        2.9687500000000004        0.0000000000000000     
  -3.3593749999999996        2.9687500000000000        0.0000000000000000     
  -3.2812499999999987        2.9687500000000000        0.0000000000000000     
  -3.2031250000000000        2.9687500000000009        0.0000000000000000     
  -3.1249999999999996        2.9687500000000000        0.0000000000000000     
  -3.7500000000000000        3.0468749999999991        0.0000000000000000     
  -3.6718750000000009        3.0468750000000009        0.0000000000000000     
  -3.5937500000000004        3.0468749999999996        0.0000000000000000     
  -3.5156250000000000        3.0468749999999991        0.0000000000000000     
  -3.4375000000000009        3.0468750000000009        0.0000000000000000     
  -3.3593749999999996        3.0468749999999996        0.0000000000000000     
  -3.2812500000000000        3.0468749999999991        0.0000000000000000     
  -3.2031250000000009        3.0468750000000009        0.0000000000000000     
  -3.1249999999999996        3.0468749999999991        0.0000000000000000     
  -3.7500000000000000        3.1250000000000009        0.0000000000000000     
  -3.6718750000000000        3.1249999999999996        0.0000000000000000     
  -3.5937500000000009        3.1250000000000004        0.0000000000000000     
  -3.5156250000000000        3.1250000000000009        0.0000000000000000     
  -3.4375000000000000        3.1249999999999996        0.0000000000000000     
  -3.3593750000000004        3.1250000000000004        0.0000000000000000     
  -3.2812500000000004        3.1250000000000004        0.0000000000000000     
  -3.2031250000000000        3.1249999999999996        0.0000000000000000     
  -3.1250000000000004        3.1250000000000009        0.0000000000000000     
  -3.1250000000000004        2.5000000000000009        0.0000000000000000     
  -3.0468750000000004        2.5000000000000004        0.0000000000000000     
  -2.9687500000000000        2.5000000000000004        0.0000000000000000     
  -2.8906250000000000        2.5000000000000004        0.0000000000000000     
  -2.8125000000000004        2.5000000000000000        0.0000000000000000     
  -2.7343750000000000        2.5000000000000004        0.0000000000000000     
  -2.6562500000000004        2.5000000000000004        0.0000000000000000     
  -2.5781250000000004        2.5000000000000004        0.0000000000000000     
  -2.5000000000000004        2.5000000000000009        0.0000000000000000     
  -3.1250000000000004        2.5781249999999996        0.0000000000000000     
  -3.0468750000000004        2.5781250000000004        0.0000000000000000     
  -2.9687500000000004        2.5781249999999996        0.0000000000000000     
  -2.8906250000000000        2.5781249999999996        0.0000000000000000     
  -2.8125000000000004        2.5781250000000004        0.0000000000000000     
  -2.7343750000000004        2.5781249999999996        0.0000000000000000     
  -2.6562500000000000        2.5781249999999996        0.0000000000000000     
  -2.5781250000000004        2.5781250000000004        0.0000000000000000     
  -2.5000000000000004        2.5781249999999996        0.0000000000000000     
  -3.1250000000000000        2.6562500000000004        0.0000000000000000     
  -3.0468750000000004        2.6562500000000000        0.0000000000000000     
  -2.9687500000000000        2.6562500000000000        0.0000000000000000     
  -2.8906249999999996        2.6562500000000004        0.0000000000000000     
  -2.8125000000000004        2.6562499999999996        0.0000000000000000     
  -2.7343750000000000        2.6562500000000000        0.0000000000000000     
  -2.6562500000000000        2.6562500000000000        0.0000000000000000     
  -2.5781250000000004        2.6562500000000000        0.0000000000000000     
  -2.5000000000000000        2.6562500000000004        0.0000000000000000     
  -3.1249999999999996        2.7343750000000000        0.0000000000000000     
  -3.0468750000000004        2.7343750000000000        0.0000000000000000     
  -2.9687500000000000        2.7343750000000004        0.0000000000000000     
  -2.8906250000000000        2.7343750000000000        0.0000000000000000     
  -2.8125000000000004        2.7343750000000004        0.0000000000000000     
  -2.7343750000000000        2.7343750000000004        0.0000000000000000     
  -2.6562500000000000        2.7343750000000000        0.0000000000000000     
  -2.5781250000000000        2.7343750000000004        0.0000000000000000     
  -2.4999999999999996        2.7343750000000000        0.0000000000000000     
  -3.1250000000000000        2.8124999999999996        0.0000000000000000     
  -3.0468750000000004        2.8125000000000004        0.0000000000000000     
  -2.9687500000000000        2.8124999999999996        0.0000000000000000     
  -2.8906250000000000        2.8124999999999996        0.0000000000000000     
  -2.8125000000000004        2.8125000000000004        0.0000000000000000     
  -2.7343750000000004        2.8124999999999996        0.0000000000000000     
  -2.6562499999999996        2.8124999999999996        0.0000000000000000     
  -2.5781250000000004        2.8125000000000004        0.0000000000000000     
  -2.5000000000000004        2.8124999999999996        0.0000000000000000     
  -3.1250000000000004        2.8906250000000004        0.0000000000000000     
  -3.0468750000000009        2.8906250000000000        0.0000000000000000     
  -2.9687500000000000        2.8906250000000000        0.0000000000000000     
  -2.8906250000000000        2.8906250000000000        0.0000000000000000     
  -2.8125000000000004        2.8906250000000000        0.0000000000000000     
  -2.7343750000000000        2.8906250000000000        0.0000000000000000     
  -2.6562500000000000        2.8906250000000000        0.0000000000000000     
  -2.5781250000000004        2.8906250000000000        0.0000000000000000     
  -2.5000000000000000        2.8906250000000004        0.0000000000000000     
  -3.1249999999999996        2.9687500000000000        0.0000000000000000     
  -3.0468750000000004        2.9687500000000004        0.0000000000000000     
  -2.9687500000000004        2.9687500000000004        0.0000000000000000     
  -2.8906249999999996        2.9687500000000000        0.0000000000000000     
  -2.8125000000000000        2.9687500000000004        0.0000000000000000     
  -2.7343750000000000        2.9687500000000000        0.0000000000000000     
  -2.6562499999999996        2.9687500000000000        0.0000000000000000     
  -2.5781250000000004        2.9687500000000009        0.0000000000000000     
  -2.4999999999999996        2.9687500000000000        0.0000000000000000     
  -3.1249999999999996        3.0468749999999991        0.0000000000000000     
  -3.0468750000000004        3.0468750000000009        0.0000000000000000     
  -2.9687500000000004        3.0468749999999996        0.0000000000000000     
  -2.8906249999999991        3.0468749999999991        0.0000000000000000     
  -2.8125000000000009        3.0468750000000009        0.0000000000000000     
  -2.7343750000000004        3.0468749999999996        0.0000000000000000     
  -2.6562499999999991        3.0468749999999991        0.0000000000000000     
  -2.5781250000000004        3.0468750000000009        0.0000000000000000     
  -2.5000000000000000        3.0468749999999991        0.0000000000000000     
  -3.1250000000000004        3.1250000000000009        0.0000000000000000     
  -3.0468750000000004        3.1249999999999996        0.0000000000000000     
  -2.9687500000000000        3.1250000000000004        0.0000000000000000     
  -2.8906250000000000        3.1250000000000009        0.0000000000000000     
  -2.8125000000000004        3.1249999999999996        0.0000000000000000     
  -2.7343750000000000        3.1250000000000004        0.0000000000000000     
  -2.6562500000000004        3.1250000000000004        0.0000000000000000     
  -2.5781250000000004        3.1249999999999996        0.0000000000000000     
  -2.5000000000000004        3.1250000000000009        0.0000000000000000     
  -2.5000000000000004        2.5000000000000009        0.0000000000000000     
  -2.4218750000000004        2.5000000000000004        0.0000000000000000     
  -2.3437500000000004        2.5000000000000004        0.0000000000000000     
  -2.2656250000000000        2.5000000000000004        0.0000000000000000     
  -2.1875000000000000        2.5000000000000000        0.0000000000000000     
  -2.1093750000000000        2.5000000000000004        0.0000000000000000     
  -2.0312500000000000        2.5000000000000004        0.0000000000000000     
  -1.9531249999999998        2.5000000000000004        0.0000000000000000     
  -1.8750000000000002        2.5000000000000009        0.0000000000000000     
  -2.5000000000000004        2.5781249999999996        0.0000000000000000     
  -2.4218750000000000        2.5781250000000004        0.0000000000000000     
  -2.3437500000000000        2.5781249999999996        0.0000000000000000     
  -2.2656250000000000        2.5781249999999996        0.0000000000000000     
  -2.1875000000000000        2.5781250000000004        0.0000000000000000     
  -2.1093750000000000        2.5781249999999996        0.0000000000000000     
  -2.0312500000000004        2.5781249999999996        0.0000000000000000     
  -1.9531250000000004        2.5781250000000004        0.0000000000000000     
  -1.8750000000000002        2.5781249999999996        0.0000000000000000     
  -2.5000000000000000        2.6562500000000004        0.0000000000000000     
  -2.4218750000000004        2.6562500000000000        0.0000000000000000     
  -2.3437500000000000        2.6562500000000000        0.0000000000000000     
  -2.2656250000000000        2.6562500000000004        0.0000000000000000     
  -2.1875000000000000        2.6562499999999996        0.0000000000000000     
  -2.1093750000000000        2.6562500000000000        0.0000000000000000     
  -2.0312500000000000        2.6562500000000000        0.0000000000000000     
  -1.9531250000000002        2.6562500000000000        0.0000000000000000     
  -1.8750000000000002        2.6562500000000004        0.0000000000000000     
  -2.4999999999999996        2.7343750000000000        0.0000000000000000     
  -2.4218750000000004        2.7343750000000000        0.0000000000000000     
  -2.3437500000000004        2.7343750000000004        0.0000000000000000     
  -2.2656249999999996        2.7343750000000000        0.0000000000000000     
  -2.1875000000000004        2.7343750000000004        0.0000000000000000     
  -2.1093750000000004        2.7343750000000004        0.0000000000000000     
  -2.0312499999999996        2.7343750000000000        0.0000000000000000     
  -1.9531249999999996        2.7343750000000004        0.0000000000000000     
  -1.8749999999999996        2.7343750000000000        0.0000000000000000     
  -2.5000000000000004        2.8124999999999996        0.0000000000000000     
  -2.4218750000000000        2.8125000000000004        0.0000000000000000     
  -2.3437499999999996        2.8124999999999996        0.0000000000000000     
  -2.2656250000000004        2.8124999999999996        0.0000000000000000     
  -2.1875000000000000        2.8125000000000004        0.0000000000000000     
  -2.1093749999999996        2.8124999999999996        0.0000000000000000     
  -2.0312500000000004        2.8124999999999996        0.0000000000000000     
  -1.9531250000000004        2.8125000000000004        0.0000000000000000     
  -1.8750000000000000        2.8124999999999996        0.0000000000000000     
  -2.5000000000000000        2.8906250000000004        0.0000000000000000     
  -2.4218750000000000        2.8906250000000000        0.0000000000000000     
  -2.3437500000000000        2.8906250000000000        0.0000000000000000     
  -2.2656250000000000        2.8906250000000000        0.0000000000000000     
  -2.1875000000000000        2.8906250000000000        0.0000000000000000     
  -2.1093750000000000        2.8906250000000000        0.0000000000000000     
  -2.0312500000000000        2.8906250000000000        0.0000000000000000     
  -1.9531250000000000        2.8906250000000000        0.0000000000000000     
  -1.8750000000000000        2.8906250000000004        0.0000000000000000     
  -2.4999999999999996        2.9687500000000000        0.0000000000000000     
  -2.4218750000000004        2.9687500000000004        0.0000000000000000     
  -2.3437500000000004        2.9687500000000004        0.0000000000000000     
  -2.2656249999999996        2.9687500000000000        0.0000000000000000     
  -2.1875000000000000        2.9687500000000004        0.0000000000000000     
  -2.1093750000000004        2.9687500000000000        0.0000000000000000     
  -2.0312499999999996        2.9687500000000000        0.0000000000000000     
  -1.9531250000000000        2.9687500000000009        0.0000000000000000     
  -1.8749999999999996        2.9687500000000000        0.0000000000000000     
  -2.5000000000000000        3.0468749999999991        0.0000000000000000     
  -2.4218750000000004        3.0468750000000009        0.0000000000000000     
  -2.3437499999999996        3.0468749999999996        0.0000000000000000     
  -2.2656250000000000        3.0468749999999991        0.0000000000000000     
  -2.1875000000000004        3.0468750000000009        0.0000000000000000     
  -2.1093749999999996        3.0468749999999996        0.0000000000000000     
  -2.0312500000000000        3.0468749999999991        0.0000000000000000     
  -1.9531250000000009        3.0468750000000009        0.0000000000000000     
  -1.8749999999999998        3.0468749999999991        0.0000000000000000     
  -2.5000000000000004        3.1250000000000009        0.0000000000000000     
  -2.4218750000000004        3.1249999999999996        0.0000000000000000     
  -2.3437500000000004        3.1250000000000004        0.0000000000000000     
  -2.2656250000000000        3.1250000000000009        0.0000000000000000     
  -2.1875000000000000        3.1249999999999996        0.0000000000000000     
  -2.1093750000000000        3.1250000000000004        0.0000000000000000     
  -2.0312500000000000        3.1250000000000004        0.0000000000000000     
  -1.9531249999999998        3.1249999999999996        0.0000000000000000     
  -1.8750000000000002        3.1250000000000009        0.0000000000000000     
  -1.8750000000000002        2.5000000000000009        0.0000000000000000     
  -1.7968750000000002        2.5000000000000004        0.0000000000000000     
  -1.7187500000000004        2.5000000000000004        0.0000000000000000     
  -1.6406250000000000        2.5000000000000004        0.0000000000000000     
  -1.5625000000000000        2.5000000000000000        0.0000000000000000     
  -1.4843750000000000        2.5000000000000004        0.0000000000000000     
  -1.4062500000000000        2.5000000000000004        0.0000000000000000     
  -1.3281250000000000        2.5000000000000004        0.0000000000000000     
  -1.2500000000000002        2.5000000000000009        0.0000000000000000     
  -1.8750000000000002        2.5781249999999996        0.0000000000000000     
  -1.7968750000000004        2.5781250000000004        0.0000000000000000     
  -1.7187500000000002        2.5781249999999996        0.0000000000000000     
  -1.6406250000000000        2.5781249999999996        0.0000000000000000     
  -1.5625000000000004        2.5781250000000004        0.0000000000000000     
  -1.4843750000000000        2.5781249999999996        0.0000000000000000     
  -1.4062500000000000        2.5781249999999996        0.0000000000000000     
  -1.3281250000000004        2.5781250000000004        0.0000000000000000     
  -1.2500000000000002        2.5781249999999996        0.0000000000000000     
  -1.8750000000000002        2.6562500000000004        0.0000000000000000     
  -1.7968750000000002        2.6562500000000000        0.0000000000000000     
  -1.7187500000000002        2.6562500000000000        0.0000000000000000     
  -1.6406250000000000        2.6562500000000004        0.0000000000000000     
  -1.5625000000000002        2.6562499999999996        0.0000000000000000     
  -1.4843750000000000        2.6562500000000000        0.0000000000000000     
  -1.4062500000000002        2.6562500000000000        0.0000000000000000     
  -1.3281250000000002        2.6562500000000000        0.0000000000000000     
  -1.2500000000000000        2.6562500000000004        0.0000000000000000     
  -1.8749999999999996        2.7343750000000000        0.0000000000000000     
  -1.7968750000000000        2.7343750000000000        0.0000000000000000     
  -1.7187500000000000        2.7343750000000004        0.0000000000000000     
  -1.6406249999999996        2.7343750000000000        0.0000000000000000     
  -1.5625000000000000        2.7343750000000004        0.0000000000000000     
  -1.4843749999999998        2.7343750000000004        0.0000000000000000     
  -1.4062499999999996        2.7343750000000000        0.0000000000000000     
  -1.3281250000000000        2.7343750000000004        0.0000000000000000     
  -1.2499999999999998        2.7343750000000000        0.0000000000000000     
  -1.8750000000000000        2.8124999999999996        0.0000000000000000     
  -1.7968750000000004        2.8125000000000004        0.0000000000000000     
  -1.7187500000000002        2.8124999999999996        0.0000000000000000     
  -1.6406250000000000        2.8124999999999996        0.0000000000000000     
  -1.5625000000000004        2.8125000000000004        0.0000000000000000     
  -1.4843750000000002        2.8124999999999996        0.0000000000000000     
  -1.4062499999999998        2.8124999999999996        0.0000000000000000     
  -1.3281250000000004        2.8125000000000004        0.0000000000000000     
  -1.2500000000000000        2.8124999999999996        0.0000000000000000     
  -1.8750000000000000        2.8906250000000004        0.0000000000000000     
  -1.7968750000000000        2.8906250000000000        0.0000000000000000     
  -1.7187500000000000        2.8906250000000000        0.0000000000000000     
  -1.6406250000000002        2.8906250000000000        0.0000000000000000     
  -1.5625000000000002        2.8906250000000000        0.0000000000000000     
  -1.4843750000000000        2.8906250000000000        0.0000000000000000     
  -1.4062500000000000        2.8906250000000000        0.0000000000000000     
  -1.3281250000000002        2.8906250000000000        0.0000000000000000     
  -1.2500000000000000        2.8906250000000004        0.0000000000000000     
  -1.8749999999999996        2.9687500000000000        0.0000000000000000     
  -1.7968750000000004        2.9687500000000004        0.0000000000000000     
  -1.7187500000000002        2.9687500000000004        0.0000000000000000     
  -1.6406249999999996        2.9687500000000000        0.0000000000000000     
  -1.5625000000000000        2.9687500000000004        0.0000000000000000     
  -1.4843750000000000        2.9687500000000000        0.0000000000000000     
  -1.4062499999999996        2.9687500000000000        0.0000000000000000     
  -1.3281250000000002        2.9687500000000009        0.0000000000000000     
  -1.2499999999999998        2.9687500000000000        0.0000000000000000     
  -1.8749999999999998        3.0468749999999991        0.0000000000000000     
  -1.7968750000000009        3.0468750000000009        0.0000000000000000     
  -1.7187500000000002        3.0468749999999996        0.0000000000000000     
  -1.6406249999999996        3.0468749999999991        0.0000000000000000     
  -1.5625000000000009        3.0468750000000009        0.0000000000000000     
  -1.4843750000000002        3.0468749999999996        0.0000000000000000     
  -1.4062499999999996        3.0468749999999991        0.0000000000000000     
  -1.3281250000000009        3.0468750000000009        0.0000000000000000     
  -1.2500000000000000        3.0468749999999991        0.0000000000000000     
  -1.8750000000000002        3.1250000000000009        0.0000000000000000     
  -1.7968750000000002        3.1249999999999996        0.0000000000000000     
  -1.7187500000000004        3.1250000000000004        0.0000000000000000     
  -1.6406250000000000        3.1250000000000009        0.0000000000000000     
  -1.5625000000000000        3.1249999999999996        0.0000000000000000     
  -1.4843750000000000        3.1250000000000004        0.0000000000000000     
  -1.4062500000000000        3.1250000000000004        0.0000000000000000     
  -1.3281250000000000        3.1249999999999996        0.0000000000000000     
  -1.2500000000000002        3.1250000000000009        0.0000000000000000     
  -1.2500000000000002        2.5000000000000009        0.0000000000000000     
  -1.1718750000000002        2.5000000000000004        0.0000000000000000     
  -1.0937500000000002        2.5000000000000000        0.0000000000000000     
  -1.0156250000000000        2.5000000000000004        0.0000000000000000     
 -0.93749999999999989        2.5000000000000004        0.0000000000000000     
 -0.85937499999999989        2.5000000000000000        0.0000000000000000     
 -0.78125000000000011        2.5000000000000004        0.0000000000000000     
 -0.70312499999999989        2.5000000000000004        0.0000000000000000     
 -0.62500000000000011        2.5000000000000000        0.0000000000000000     
  -1.2500000000000002        2.5781249999999996        0.0000000000000000     
  -1.1718750000000002        2.5781250000000004        0.0000000000000000     
  -1.0937500000000000        2.5781250000000000        0.0000000000000000     
  -1.0156250000000000        2.5781249999999996        0.0000000000000000     
 -0.93750000000000022        2.5781250000000004        0.0000000000000000     
 -0.85937500000000011        2.5781250000000000        0.0000000000000000     
 -0.78125000000000011        2.5781249999999996        0.0000000000000000     
 -0.70312500000000022        2.5781250000000004        0.0000000000000000     
 -0.62500000000000011        2.5781250000000000        0.0000000000000000     
  -1.2500000000000000        2.6562500000000004        0.0000000000000000     
  -1.1718750000000002        2.6562500000000000        0.0000000000000000     
  -1.0937500000000002        2.6562500000000000        0.0000000000000000     
  -1.0156250000000000        2.6562500000000004        0.0000000000000000     
 -0.93749999999999989        2.6562500000000000        0.0000000000000000     
 -0.85937500000000000        2.6562500000000000        0.0000000000000000     
 -0.78125000000000000        2.6562500000000000        0.0000000000000000     
 -0.70312500000000000        2.6562500000000000        0.0000000000000000     
 -0.62500000000000000        2.6562500000000000        0.0000000000000000     
  -1.2499999999999998        2.7343750000000000        0.0000000000000000     
  -1.1718750000000002        2.7343750000000000        0.0000000000000000     
  -1.0937500000000000        2.7343750000000000        0.0000000000000000     
  -1.0156250000000000        2.7343750000000000        0.0000000000000000     
 -0.93749999999999978        2.7343749999999996        0.0000000000000000     
 -0.85937499999999989        2.7343750000000000        0.0000000000000000     
 -0.78125000000000000        2.7343750000000000        0.0000000000000000     
 -0.70312500000000000        2.7343750000000004        0.0000000000000000     
 -0.62499999999999989        2.7343750000000000        0.0000000000000000     
  -1.2500000000000000        2.8124999999999996        0.0000000000000000     
  -1.1718750000000002        2.8125000000000000        0.0000000000000000     
  -1.0937500000000000        2.8125000000000000        0.0000000000000000     
  -1.0156250000000002        2.8124999999999996        0.0000000000000000     
 -0.93750000000000022        2.8125000000000004        0.0000000000000000     
 -0.85937500000000011        2.8125000000000000        0.0000000000000000     
 -0.78125000000000000        2.8124999999999996        0.0000000000000000     
 -0.70312500000000022        2.8125000000000004        0.0000000000000000     
 -0.62500000000000011        2.8125000000000000        0.0000000000000000     
  -1.2500000000000000        2.8906250000000004        0.0000000000000000     
  -1.1718750000000000        2.8906250000000000        0.0000000000000000     
  -1.0937500000000000        2.8906250000000000        0.0000000000000000     
  -1.0156250000000000        2.8906250000000000        0.0000000000000000     
 -0.93750000000000000        2.8906250000000000        0.0000000000000000     
 -0.85937500000000011        2.8906250000000000        0.0000000000000000     
 -0.78125000000000011        2.8906250000000000        0.0000000000000000     
 -0.70312500000000011        2.8906250000000000        0.0000000000000000     
 -0.62500000000000000        2.8906250000000009        0.0000000000000000     
  -1.2499999999999998        2.9687500000000000        0.0000000000000000     
  -1.1718750000000000        2.9687500000000000        0.0000000000000000     
  -1.0937500000000002        2.9687500000000000        0.0000000000000000     
  -1.0156249999999998        2.9687500000000000        0.0000000000000000     
 -0.93749999999999978        2.9687500000000000        0.0000000000000000     
 -0.85937500000000022        2.9687500000000004        0.0000000000000000     
 -0.78125000000000000        2.9687500000000000        0.0000000000000000     
 -0.70312499999999989        2.9687500000000004        0.0000000000000000     
 -0.62499999999999989        2.9687499999999996        0.0000000000000000     
  -1.2500000000000000        3.0468749999999991        0.0000000000000000     
  -1.1718750000000002        3.0468750000000004        0.0000000000000000     
  -1.0937500000000000        3.0468750000000000        0.0000000000000000     
  -1.0156249999999998        3.0468749999999991        0.0000000000000000     
 -0.93750000000000011        3.0468750000000004        0.0000000000000000     
 -0.85937500000000011        3.0468750000000000        0.0000000000000000     
 -0.78124999999999989        3.0468749999999991        0.0000000000000000     
 -0.70312500000000011        3.0468750000000009        0.0000000000000000     
 -0.62500000000000011        3.0468750000000000        0.0000000000000000     
  -1.2500000000000002        3.1250000000000009        0.0000000000000000     
  -1.1718750000000002        3.1250000000000004        0.0000000000000000     
  -1.0937500000000002        3.1250000000000009        0.0000000000000000     
  -1.0156250000000000        3.1250000000000004        0.0000000000000000     
 -0.93749999999999989        3.1250000000000000        0.0000000000000000     
 -0.85937499999999989        3.1250000000000000        0.0000000000000000     
 -0.78125000000000011        3.1250000000000004        0.0000000000000000     
 -0.70312499999999989        3.1250000000000000        0.0000000000000000     
 -0.62500000000000011        3.1250000000000009        0.0000000000000000     
 -0.62500000000000011        2.5000000000000000        0.0000000000000000     
 -0.54687500000000000        2.5000000000000000        0.0000000000000000     
 -0.46875000000000000        2.5000000000000000        0.0000000000000000     
 -0.39062500000000006        2.5000000000000000        0.0000000000000000     
 -0.31250000000000006        2.5000000000000004        0.0000000000000000     
 -0.23437500000000006        2.5000000000000004        0.0000000000000000     
 -0.15625000000000000        2.5000000000000000        0.0000000000000000     
  -7.8124999999999972E-002   2.5000000000000000        0.0000000000000000     
   0.0000000000000000        2.5000000000000004        0.0000000000000000     
 -0.62500000000000011        2.5781250000000000        0.0000000000000000     
 -0.54687500000000011        2.5781250000000000        0.0000000000000000     
 -0.46875000000000000        2.5781250000000000        0.0000000000000000     
 -0.39062500000000000        2.5781250000000000        0.0000000000000000     
 -0.31250000000000011        2.5781250000000009        0.0000000000000000     
 -0.23437500000000006        2.5781250000000004        0.0000000000000000     
 -0.15625000000000003        2.5781250000000000        0.0000000000000000     
  -7.8125000000000014E-002   2.5781250000000004        0.0000000000000000     
   0.0000000000000000        2.5781250000000000        0.0000000000000000     
 -0.62500000000000000        2.6562500000000000        0.0000000000000000     
 -0.54687500000000000        2.6562500000000000        0.0000000000000000     
 -0.46875000000000000        2.6562500000000000        0.0000000000000000     
 -0.39062500000000000        2.6562500000000004        0.0000000000000000     
 -0.31250000000000011        2.6562500000000004        0.0000000000000000     
 -0.23437500000000000        2.6562500000000000        0.0000000000000000     
 -0.15625000000000000        2.6562500000000000        0.0000000000000000     
  -7.8125000000000014E-002   2.6562500000000004        0.0000000000000000     
   0.0000000000000000        2.6562500000000000        0.0000000000000000     
 -0.62499999999999989        2.7343750000000000        0.0000000000000000     
 -0.54687500000000011        2.7343750000000000        0.0000000000000000     
 -0.46875000000000000        2.7343750000000004        0.0000000000000000     
 -0.39062500000000006        2.7343750000000000        0.0000000000000000     
 -0.31250000000000006        2.7343750000000009        0.0000000000000000     
 -0.23437500000000000        2.7343750000000000        0.0000000000000000     
 -0.15625000000000003        2.7343750000000009        0.0000000000000000     
  -7.8124999999999986E-002   2.7343749999999996        0.0000000000000000     
   0.0000000000000000        2.7343750000000004        0.0000000000000000     
 -0.62500000000000011        2.8125000000000000        0.0000000000000000     
 -0.54687500000000011        2.8125000000000009        0.0000000000000000     
 -0.46875000000000000        2.8125000000000000        0.0000000000000000     
 -0.39062500000000000        2.8125000000000000        0.0000000000000000     
 -0.31250000000000006        2.8125000000000009        0.0000000000000000     
 -0.23437500000000003        2.8125000000000000        0.0000000000000000     
 -0.15625000000000003        2.8125000000000000        0.0000000000000000     
  -7.8125000000000014E-002   2.8125000000000000        0.0000000000000000     
   0.0000000000000000        2.8125000000000004        0.0000000000000000     
 -0.62500000000000000        2.8906250000000009        0.0000000000000000     
 -0.54687500000000011        2.8906250000000009        0.0000000000000000     
 -0.46875000000000006        2.8906250000000004        0.0000000000000000     
 -0.39062500000000006        2.8906250000000009        0.0000000000000000     
 -0.31250000000000000        2.8906250000000000        0.0000000000000000     
 -0.23437500000000003        2.8906250000000000        0.0000000000000000     
 -0.15625000000000000        2.8906250000000000        0.0000000000000000     
  -7.8125000000000014E-002   2.8906250000000004        0.0000000000000000     
   0.0000000000000000        2.8906250000000004        0.0000000000000000     
 -0.62499999999999989        2.9687499999999996        0.0000000000000000     
 -0.54687500000000011        2.9687500000000004        0.0000000000000000     
 -0.46875000000000006        2.9687500000000004        0.0000000000000000     
 -0.39062500000000011        2.9687499999999996        0.0000000000000000     
 -0.31250000000000006        2.9687500000000013        0.0000000000000000     
 -0.23437500000000003        2.9687500000000000        0.0000000000000000     
 -0.15625000000000000        2.9687500000000000        0.0000000000000000     
  -7.8125000000000000E-002   2.9687500000000009        0.0000000000000000     
   0.0000000000000000        2.9687500000000000        0.0000000000000000     
 -0.62500000000000011        3.0468750000000000        0.0000000000000000     
 -0.54687500000000000        3.0468750000000000        0.0000000000000000     
 -0.46875000000000000        3.0468749999999996        0.0000000000000000     
 -0.39062499999999989        3.0468749999999996        0.0000000000000000     
 -0.31250000000000017        3.0468750000000013        0.0000000000000000     
 -0.23437500000000003        3.0468750000000000        0.0000000000000000     
 -0.15625000000000000        3.0468750000000000        0.0000000000000000     
  -7.8125000000000014E-002   3.0468750000000009        0.0000000000000000     
   0.0000000000000000        3.0468749999999996        0.0000000000000000     
 -0.62500000000000011        3.1250000000000009        0.0000000000000000     
 -0.54687500000000000        3.1250000000000000        0.0000000000000000     
 -0.46875000000000000        3.1250000000000004        0.0000000000000000     
 -0.39062500000000006        3.1250000000000009        0.0000000000000000     
 -0.31250000000000006        3.1250000000000004        0.0000000000000000     
 -0.23437500000000006        3.1250000000000004        0.0000000000000000     
 -0.15625000000000000        3.1250000000000000        0.0000000000000000     
  -7.8124999999999972E-002   3.1250000000000000        0.0000000000000000     
   0.0000000000000000        3.1250000000000000        0.0000000000000000     
  -5.0000000000000018        3.1250000000000000        0.0000000000000000     
  -4.9218750000000000        3.1250000000000000        0.0000000000000000     
  -4.8437500000000000        3.1250000000000000        0.0000000000000000     
  -4.7656250000000009        3.1250000000000004        0.0000000000000000     
  -4.6875000000000009        3.1250000000000004        0.0000000000000000     
  -4.6093750000000000        3.1250000000000004        0.0000000000000000     
  -4.5312500000000009        3.1250000000000004        0.0000000000000000     
  -4.4531250000000009        3.1250000000000004        0.0000000000000000     
  -4.3750000000000000        3.1250000000000004        0.0000000000000000     
  -5.0000000000000000        3.2031250000000000        0.0000000000000000     
  -4.9218750000000000        3.2031250000000000        0.0000000000000000     
  -4.8437500000000000        3.2031250000000004        0.0000000000000000     
  -4.7656250000000009        3.2031250000000009        0.0000000000000000     
  -4.6875000000000009        3.2031250000000009        0.0000000000000000     
  -4.6093750000000000        3.2031250000000004        0.0000000000000000     
  -4.5312500000000000        3.2031250000000000        0.0000000000000000     
  -4.4531250000000000        3.2031250000000000        0.0000000000000000     
  -4.3750000000000009        3.2031250000000004        0.0000000000000000     
  -4.9999999999999991        3.2812500000000000        0.0000000000000000     
  -4.9218750000000000        3.2812500000000004        0.0000000000000000     
  -4.8437500000000000        3.2812500000000000        0.0000000000000000     
  -4.7656250000000000        3.2812500000000004        0.0000000000000000     
  -4.6875000000000000        3.2812499999999996        0.0000000000000000     
  -4.6093750000000000        3.2812500000000000        0.0000000000000000     
  -4.5312500000000000        3.2812500000000004        0.0000000000000000     
  -4.4531250000000009        3.2812499999999996        0.0000000000000000     
  -4.3750000000000000        3.2812500000000000        0.0000000000000000     
  -5.0000000000000009        3.3593750000000004        0.0000000000000000     
  -4.9218750000000000        3.3593750000000000        0.0000000000000000     
  -4.8437500000000000        3.3593750000000000        0.0000000000000000     
  -4.7656250000000000        3.3593750000000000        0.0000000000000000     
  -4.6875000000000009        3.3593750000000004        0.0000000000000000     
  -4.6093750000000009        3.3593750000000004        0.0000000000000000     
  -4.5312500000000000        3.3593750000000000        0.0000000000000000     
  -4.4531250000000009        3.3593750000000004        0.0000000000000000     
  -4.3750000000000009        3.3593750000000000        0.0000000000000000     
  -5.0000000000000009        3.4375000000000004        0.0000000000000000     
  -4.9218750000000000        3.4375000000000000        0.0000000000000000     
  -4.8437500000000000        3.4375000000000004        0.0000000000000000     
  -4.7656250000000009        3.4375000000000000        0.0000000000000000     
  -4.6875000000000009        3.4375000000000000        0.0000000000000000     
  -4.6093749999999991        3.4375000000000004        0.0000000000000000     
  -4.5312500000000000        3.4375000000000004        0.0000000000000000     
  -4.4531250000000018        3.4375000000000000        0.0000000000000000     
  -4.3749999999999991        3.4375000000000000        0.0000000000000000     
  -5.0000000000000009        3.5156250000000004        0.0000000000000000     
  -4.9218750000000009        3.5156250000000000        0.0000000000000000     
  -4.8437500000000000        3.5156250000000000        0.0000000000000000     
  -4.7656250000000000        3.5156250000000000        0.0000000000000000     
  -4.6875000000000000        3.5156249999999996        0.0000000000000000     
  -4.6093750000000000        3.5156250000000004        0.0000000000000000     
  -4.5312500000000009        3.5156250000000013        0.0000000000000000     
  -4.4531250000000000        3.5156250000000000        0.0000000000000000     
  -4.3750000000000000        3.5156250000000000        0.0000000000000000     
  -5.0000000000000009        3.5937500000000004        0.0000000000000000     
  -4.9218750000000009        3.5937500000000009        0.0000000000000000     
  -4.8437500000000009        3.5937500000000000        0.0000000000000000     
  -4.7656249999999991        3.5937500000000000        0.0000000000000000     
  -4.6875000000000009        3.5937500000000004        0.0000000000000000     
  -4.6093750000000009        3.5937500000000000        0.0000000000000000     
  -4.5312499999999991        3.5937500000000000        0.0000000000000000     
  -4.4531250000000009        3.5937500000000000        0.0000000000000000     
  -4.3750000000000000        3.5937500000000000        0.0000000000000000     
  -5.0000000000000000        3.6718750000000004        0.0000000000000000     
  -4.9218750000000009        3.6718750000000000        0.0000000000000000     
  -4.8437499999999991        3.6718750000000004        0.0000000000000000     
  -4.7656250000000009        3.6718750000000004        0.0000000000000000     
  -4.6875000000000018        3.6718750000000004        0.0000000000000000     
  -4.6093749999999991        3.6718749999999996        0.0000000000000000     
  -4.5312500000000000        3.6718750000000004        0.0000000000000000     
  -4.4531250000000018        3.6718750000000004        0.0000000000000000     
  -4.3750000000000000        3.6718750000000004        0.0000000000000000     
  -5.0000000000000018        3.7500000000000004        0.0000000000000000     
  -4.9218750000000000        3.7500000000000000        0.0000000000000000     
  -4.8437500000000000        3.7500000000000004        0.0000000000000000     
  -4.7656250000000009        3.7500000000000004        0.0000000000000000     
  -4.6875000000000018        3.7500000000000000        0.0000000000000000     
  -4.6093750000000000        3.7500000000000004        0.0000000000000000     
  -4.5312500000000009        3.7500000000000004        0.0000000000000000     
  -4.4531250000000009        3.7500000000000000        0.0000000000000000     
  -4.3750000000000000        3.7500000000000004        0.0000000000000000     
  -4.3750000000000000        3.1250000000000004        0.0000000000000000     
  -4.2968750000000009        3.1250000000000000        0.0000000000000000     
  -4.2187500000000000        3.1250000000000004        0.0000000000000000     
  -4.1406250000000000        3.1250000000000000        0.0000000000000000     
  -4.0625000000000000        3.1249999999999996        0.0000000000000000     
  -3.9843749999999996        3.1250000000000004        0.0000000000000000     
  -3.9062500000000009        3.1250000000000004        0.0000000000000000     
  -3.8281250000000000        3.1249999999999996        0.0000000000000000     
  -3.7500000000000000        3.1250000000000009        0.0000000000000000     
  -4.3750000000000009        3.2031250000000004        0.0000000000000000     
  -4.2968750000000009        3.2031250000000009        0.0000000000000000     
  -4.2187500000000009        3.2031250000000000        0.0000000000000000     
  -4.1406250000000009        3.2031250000000009        0.0000000000000000     
  -4.0625000000000000        3.2031250000000004        0.0000000000000000     
  -3.9843750000000009        3.2031250000000000        0.0000000000000000     
  -3.9062500000000009        3.2031250000000009        0.0000000000000000     
  -3.8281250000000000        3.2031250000000000        0.0000000000000000     
  -3.7500000000000009        3.2031250000000000        0.0000000000000000     
  -4.3750000000000000        3.2812500000000000        0.0000000000000000     
  -4.2968750000000009        3.2812500000000004        0.0000000000000000     
  -4.2187500000000000        3.2812500000000000        0.0000000000000000     
  -4.1406250000000018        3.2812500000000009        0.0000000000000000     
  -4.0625000000000000        3.2812499999999996        0.0000000000000000     
  -3.9843750000000000        3.2812500000000000        0.0000000000000000     
  -3.9062500000000000        3.2812500000000004        0.0000000000000000     
  -3.8281250000000004        3.2812500000000000        0.0000000000000000     
  -3.7500000000000000        3.2812500000000000        0.0000000000000000     
  -4.3750000000000009        3.3593750000000000        0.0000000000000000     
  -4.2968750000000000        3.3593749999999991        0.0000000000000000     
  -4.2187500000000000        3.3593750000000004        0.0000000000000000     
  -4.1406250000000000        3.3593750000000000        0.0000000000000000     
  -4.0625000000000000        3.3593749999999991        0.0000000000000000     
  -3.9843750000000000        3.3593750000000004        0.0000000000000000     
  -3.9062500000000000        3.3593750000000000        0.0000000000000000     
  -3.8281249999999996        3.3593749999999991        0.0000000000000000     
  -3.7499999999999991        3.3593750000000000        0.0000000000000000     
  -4.3749999999999991        3.4375000000000000        0.0000000000000000     
  -4.2968750000000000        3.4375000000000009        0.0000000000000000     
  -4.2187500000000000        3.4375000000000000        0.0000000000000000     
  -4.1406250000000000        3.4375000000000004        0.0000000000000000     
  -4.0625000000000000        3.4375000000000000        0.0000000000000000     
  -3.9843750000000009        3.4375000000000000        0.0000000000000000     
  -3.9062500000000004        3.4375000000000004        0.0000000000000000     
  -3.8281250000000000        3.4375000000000000        0.0000000000000000     
  -3.7500000000000009        3.4375000000000000        0.0000000000000000     
  -4.3750000000000000        3.5156250000000000        0.0000000000000000     
  -4.2968750000000009        3.5156250000000004        0.0000000000000000     
  -4.2187500000000000        3.5156250000000000        0.0000000000000000     
  -4.1406250000000000        3.5156250000000004        0.0000000000000000     
  -4.0625000000000000        3.5156249999999996        0.0000000000000000     
  -3.9843750000000000        3.5156250000000000        0.0000000000000000     
  -3.9062500000000000        3.5156250000000004        0.0000000000000000     
  -3.8281249999999996        3.5156249999999991        0.0000000000000000     
  -3.7499999999999996        3.5156249999999996        0.0000000000000000     
  -4.3750000000000000        3.5937500000000000        0.0000000000000000     
  -4.2968750000000018        3.5937500000000000        0.0000000000000000     
  -4.2187500000000000        3.5937500000000004        0.0000000000000000     
  -4.1406250000000009        3.5937500000000009        0.0000000000000000     
  -4.0625000000000000        3.5937499999999996        0.0000000000000000     
  -3.9843749999999996        3.5937500000000004        0.0000000000000000     
  -3.9062500000000004        3.5937500000000004        0.0000000000000000     
  -3.8281249999999996        3.5937499999999996        0.0000000000000000     
  -3.7499999999999996        3.5937500000000000        0.0000000000000000     
  -4.3750000000000000        3.6718750000000004        0.0000000000000000     
  -4.2968750000000000        3.6718750000000004        0.0000000000000000     
  -4.2187500000000000        3.6718750000000004        0.0000000000000000     
  -4.1406250000000000        3.6718750000000000        0.0000000000000000     
  -4.0625000000000000        3.6718750000000004        0.0000000000000000     
  -3.9843750000000004        3.6718750000000000        0.0000000000000000     
  -3.9062500000000004        3.6718750000000009        0.0000000000000000     
  -3.8281250000000000        3.6718750000000004        0.0000000000000000     
  -3.7500000000000000        3.6718749999999996        0.0000000000000000     
  -4.3750000000000000        3.7500000000000004        0.0000000000000000     
  -4.2968750000000009        3.7500000000000009        0.0000000000000000     
  -4.2187500000000000        3.7500000000000000        0.0000000000000000     
  -4.1406250000000000        3.7500000000000000        0.0000000000000000     
  -4.0625000000000000        3.7500000000000000        0.0000000000000000     
  -3.9843749999999996        3.7499999999999996        0.0000000000000000     
  -3.9062500000000009        3.7500000000000013        0.0000000000000000     
  -3.8281250000000000        3.7500000000000000        0.0000000000000000     
  -3.7500000000000000        3.7500000000000000        0.0000000000000000     
  -3.7500000000000000        3.1250000000000009        0.0000000000000000     
  -3.6718750000000000        3.1249999999999996        0.0000000000000000     
  -3.5937500000000009        3.1250000000000004        0.0000000000000000     
  -3.5156250000000000        3.1250000000000009        0.0000000000000000     
  -3.4375000000000000        3.1249999999999996        0.0000000000000000     
  -3.3593750000000004        3.1250000000000004        0.0000000000000000     
  -3.2812500000000004        3.1250000000000004        0.0000000000000000     
  -3.2031250000000000        3.1249999999999996        0.0000000000000000     
  -3.1250000000000004        3.1250000000000009        0.0000000000000000     
  -3.7500000000000009        3.2031250000000000        0.0000000000000000     
  -3.6718750000000004        3.2031250000000009        0.0000000000000000     
  -3.5937500000000004        3.2031250000000000        0.0000000000000000     
  -3.5156250000000009        3.2031250000000000        0.0000000000000000     
  -3.4375000000000000        3.2031250000000009        0.0000000000000000     
  -3.3593750000000000        3.2031250000000000        0.0000000000000000     
  -3.2812500000000009        3.2031250000000000        0.0000000000000000     
  -3.2031250000000000        3.2031250000000004        0.0000000000000000     
  -3.1250000000000004        3.2031250000000000        0.0000000000000000     
  -3.7500000000000000        3.2812500000000000        0.0000000000000000     
  -3.6718750000000009        3.2812500000000004        0.0000000000000000     
  -3.5937500000000000        3.2812500000000000        0.0000000000000000     
  -3.5156250000000000        3.2812500000000000        0.0000000000000000     
  -3.4375000000000000        3.2812500000000000        0.0000000000000000     
  -3.3593750000000000        3.2812500000000000        0.0000000000000000     
  -3.2812500000000000        3.2812500000000000        0.0000000000000000     
  -3.2031250000000009        3.2812500000000004        0.0000000000000000     
  -3.1250000000000000        3.2812500000000000        0.0000000000000000     
  -3.7499999999999991        3.3593750000000000        0.0000000000000000     
  -3.6718750000000000        3.3593749999999991        0.0000000000000000     
  -3.5937500000000004        3.3593750000000000        0.0000000000000000     
  -3.5156249999999987        3.3593750000000000        0.0000000000000000     
  -3.4375000000000000        3.3593749999999996        0.0000000000000000     
  -3.3593750000000004        3.3593750000000004        0.0000000000000000     
  -3.2812499999999987        3.3593750000000000        0.0000000000000000     
  -3.2031250000000004        3.3593749999999996        0.0000000000000000     
  -3.1249999999999996        3.3593750000000000        0.0000000000000000     
  -3.7500000000000009        3.4375000000000000        0.0000000000000000     
  -3.6718750000000000        3.4375000000000004        0.0000000000000000     
  -3.5937499999999996        3.4375000000000000        0.0000000000000000     
  -3.5156250000000009        3.4375000000000004        0.0000000000000000     
  -3.4375000000000000        3.4375000000000004        0.0000000000000000     
  -3.3593749999999996        3.4375000000000000        0.0000000000000000     
  -3.2812500000000004        3.4374999999999996        0.0000000000000000     
  -3.2031250000000009        3.4375000000000004        0.0000000000000000     
  -3.1250000000000000        3.4375000000000000        0.0000000000000000     
  -3.7499999999999996        3.5156249999999996        0.0000000000000000     
  -3.6718750000000000        3.5156250000000009        0.0000000000000000     
  -3.5937500000000009        3.5156250000000000        0.0000000000000000     
  -3.5156250000000000        3.5156249999999996        0.0000000000000000     
  -3.4375000000000000        3.5156250000000009        0.0000000000000000     
  -3.3593750000000000        3.5156250000000000        0.0000000000000000     
  -3.2812499999999996        3.5156250000000000        0.0000000000000000     
  -3.2031250000000009        3.5156250000000009        0.0000000000000000     
  -3.1250000000000004        3.5156249999999996        0.0000000000000000     
  -3.7499999999999996        3.5937500000000000        0.0000000000000000     
  -3.6718750000000000        3.5937499999999996        0.0000000000000000     
  -3.5937500000000004        3.5937500000000004        0.0000000000000000     
  -3.5156249999999987        3.5937499999999996        0.0000000000000000     
  -3.4375000000000000        3.5937499999999996        0.0000000000000000     
  -3.3593749999999996        3.5937500000000004        0.0000000000000000     
  -3.2812499999999987        3.5937499999999996        0.0000000000000000     
  -3.2031250000000000        3.5937499999999996        0.0000000000000000     
  -3.1249999999999996        3.5937500000000000        0.0000000000000000     
  -3.7500000000000000        3.6718749999999996        0.0000000000000000     
  -3.6718750000000009        3.6718750000000013        0.0000000000000000     
  -3.5937500000000004        3.6718750000000004        0.0000000000000000     
  -3.5156250000000000        3.6718749999999991        0.0000000000000000     
  -3.4375000000000009        3.6718750000000013        0.0000000000000000     
  -3.3593749999999996        3.6718750000000000        0.0000000000000000     
  -3.2812500000000000        3.6718749999999996        0.0000000000000000     
  -3.2031250000000009        3.6718750000000013        0.0000000000000000     
  -3.1249999999999996        3.6718749999999996        0.0000000000000000     
  -3.7500000000000000        3.7500000000000000        0.0000000000000000     
  -3.6718750000000000        3.7500000000000013        0.0000000000000000     
  -3.5937500000000009        3.7500000000000000        0.0000000000000000     
  -3.5156250000000000        3.7499999999999996        0.0000000000000000     
  -3.4375000000000000        3.7500000000000013        0.0000000000000000     
  -3.3593750000000004        3.7499999999999996        0.0000000000000000     
  -3.2812500000000004        3.7500000000000009        0.0000000000000000     
  -3.2031250000000000        3.7500000000000009        0.0000000000000000     
  -3.1250000000000004        3.7500000000000000        0.0000000000000000     
  -3.1250000000000004        3.1250000000000009        0.0000000000000000     
  -3.0468750000000004        3.1249999999999996        0.0000000000000000     
  -2.9687500000000000        3.1250000000000004        0.0000000000000000     
  -2.8906250000000000        3.1250000000000009        0.0000000000000000     
  -2.8125000000000004        3.1249999999999996        0.0000000000000000     
  -2.7343750000000000        3.1250000000000004        0.0000000000000000     
  -2.6562500000000004        3.1250000000000004        0.0000000000000000     
  -2.5781250000000004        3.1249999999999996        0.0000000000000000     
  -2.5000000000000004        3.1250000000000009        0.0000000000000000     
  -3.1250000000000004        3.2031250000000000        0.0000000000000000     
  -3.0468750000000004        3.2031250000000009        0.0000000000000000     
  -2.9687500000000004        3.2031250000000000        0.0000000000000000     
  -2.8906250000000000        3.2031250000000000        0.0000000000000000     
  -2.8125000000000004        3.2031250000000009        0.0000000000000000     
  -2.7343750000000004        3.2031250000000000        0.0000000000000000     
  -2.6562500000000000        3.2031250000000000        0.0000000000000000     
  -2.5781250000000004        3.2031250000000004        0.0000000000000000     
  -2.5000000000000004        3.2031250000000000        0.0000000000000000     
  -3.1250000000000000        3.2812500000000000        0.0000000000000000     
  -3.0468750000000004        3.2812500000000004        0.0000000000000000     
  -2.9687500000000000        3.2812500000000000        0.0000000000000000     
  -2.8906249999999996        3.2812500000000000        0.0000000000000000     
  -2.8125000000000004        3.2812500000000000        0.0000000000000000     
  -2.7343750000000000        3.2812500000000000        0.0000000000000000     
  -2.6562500000000000        3.2812500000000000        0.0000000000000000     
  -2.5781250000000004        3.2812500000000004        0.0000000000000000     
  -2.5000000000000000        3.2812500000000000        0.0000000000000000     
  -3.1249999999999996        3.3593750000000000        0.0000000000000000     
  -3.0468750000000004        3.3593749999999991        0.0000000000000000     
  -2.9687500000000000        3.3593750000000000        0.0000000000000000     
  -2.8906250000000000        3.3593750000000000        0.0000000000000000     
  -2.8125000000000004        3.3593749999999996        0.0000000000000000     
  -2.7343750000000000        3.3593750000000004        0.0000000000000000     
  -2.6562500000000000        3.3593750000000000        0.0000000000000000     
  -2.5781250000000000        3.3593749999999996        0.0000000000000000     
  -2.4999999999999996        3.3593750000000000        0.0000000000000000     
  -3.1250000000000000        3.4375000000000000        0.0000000000000000     
  -3.0468750000000004        3.4375000000000004        0.0000000000000000     
  -2.9687500000000000        3.4375000000000000        0.0000000000000000     
  -2.8906250000000000        3.4375000000000004        0.0000000000000000     
  -2.8125000000000004        3.4375000000000004        0.0000000000000000     
  -2.7343750000000004        3.4375000000000000        0.0000000000000000     
  -2.6562499999999996        3.4374999999999996        0.0000000000000000     
  -2.5781250000000004        3.4375000000000004        0.0000000000000000     
  -2.5000000000000004        3.4375000000000000        0.0000000000000000     
  -3.1250000000000004        3.5156249999999996        0.0000000000000000     
  -3.0468750000000009        3.5156250000000009        0.0000000000000000     
  -2.9687500000000000        3.5156250000000000        0.0000000000000000     
  -2.8906250000000000        3.5156249999999996        0.0000000000000000     
  -2.8125000000000004        3.5156250000000009        0.0000000000000000     
  -2.7343750000000000        3.5156250000000000        0.0000000000000000     
  -2.6562500000000000        3.5156250000000000        0.0000000000000000     
  -2.5781250000000004        3.5156250000000009        0.0000000000000000     
  -2.5000000000000000        3.5156249999999996        0.0000000000000000     
  -3.1249999999999996        3.5937500000000000        0.0000000000000000     
  -3.0468750000000004        3.5937499999999996        0.0000000000000000     
  -2.9687500000000004        3.5937500000000004        0.0000000000000000     
  -2.8906249999999996        3.5937499999999996        0.0000000000000000     
  -2.8125000000000000        3.5937499999999996        0.0000000000000000     
  -2.7343750000000000        3.5937500000000004        0.0000000000000000     
  -2.6562499999999996        3.5937499999999996        0.0000000000000000     
  -2.5781250000000004        3.5937499999999996        0.0000000000000000     
  -2.4999999999999996        3.5937500000000000        0.0000000000000000     
  -3.1249999999999996        3.6718749999999996        0.0000000000000000     
  -3.0468750000000004        3.6718750000000013        0.0000000000000000     
  -2.9687500000000004        3.6718750000000004        0.0000000000000000     
  -2.8906249999999991        3.6718749999999991        0.0000000000000000     
  -2.8125000000000009        3.6718750000000013        0.0000000000000000     
  -2.7343750000000004        3.6718750000000000        0.0000000000000000     
  -2.6562499999999991        3.6718749999999996        0.0000000000000000     
  -2.5781250000000004        3.6718750000000013        0.0000000000000000     
  -2.5000000000000000        3.6718749999999996        0.0000000000000000     
  -3.1250000000000004        3.7500000000000000        0.0000000000000000     
  -3.0468750000000004        3.7500000000000013        0.0000000000000000     
  -2.9687500000000000        3.7500000000000000        0.0000000000000000     
  -2.8906250000000000        3.7499999999999996        0.0000000000000000     
  -2.8125000000000004        3.7500000000000013        0.0000000000000000     
  -2.7343750000000000        3.7499999999999996        0.0000000000000000     
  -2.6562500000000004        3.7500000000000009        0.0000000000000000     
  -2.5781250000000004        3.7500000000000009        0.0000000000000000     
  -2.5000000000000004        3.7500000000000000        0.0000000000000000     
  -2.5000000000000004        3.1250000000000009        0.0000000000000000     
  -2.4218750000000004        3.1249999999999996        0.0000000000000000     
  -2.3437500000000004        3.1250000000000004        0.0000000000000000     
  -2.2656250000000000        3.1250000000000009        0.0000000000000000     
  -2.1875000000000000        3.1249999999999996        0.0000000000000000     
  -2.1093750000000000        3.1250000000000004        0.0000000000000000     
  -2.0312500000000000        3.1250000000000004        0.0000000000000000     
  -1.9531249999999998        3.1249999999999996        0.0000000000000000     
  -1.8750000000000002        3.1250000000000009        0.0000000000000000     
  -2.5000000000000004        3.2031250000000000        0.0000000000000000     
  -2.4218750000000000        3.2031250000000009        0.0000000000000000     
  -2.3437500000000000        3.2031250000000000        0.0000000000000000     
  -2.2656250000000000        3.2031250000000000        0.0000000000000000     
  -2.1875000000000000        3.2031250000000009        0.0000000000000000     
  -2.1093750000000000        3.2031250000000000        0.0000000000000000     
  -2.0312500000000004        3.2031250000000000        0.0000000000000000     
  -1.9531250000000004        3.2031250000000004        0.0000000000000000     
  -1.8750000000000002        3.2031250000000000        0.0000000000000000     
  -2.5000000000000000        3.2812500000000000        0.0000000000000000     
  -2.4218750000000004        3.2812500000000004        0.0000000000000000     
  -2.3437500000000000        3.2812500000000000        0.0000000000000000     
  -2.2656250000000000        3.2812500000000000        0.0000000000000000     
  -2.1875000000000000        3.2812500000000000        0.0000000000000000     
  -2.1093750000000000        3.2812500000000000        0.0000000000000000     
  -2.0312500000000000        3.2812500000000000        0.0000000000000000     
  -1.9531250000000002        3.2812500000000004        0.0000000000000000     
  -1.8750000000000002        3.2812500000000000        0.0000000000000000     
  -2.4999999999999996        3.3593750000000000        0.0000000000000000     
  -2.4218750000000004        3.3593749999999991        0.0000000000000000     
  -2.3437500000000004        3.3593750000000000        0.0000000000000000     
  -2.2656249999999996        3.3593750000000000        0.0000000000000000     
  -2.1875000000000004        3.3593749999999996        0.0000000000000000     
  -2.1093750000000004        3.3593750000000004        0.0000000000000000     
  -2.0312499999999996        3.3593750000000000        0.0000000000000000     
  -1.9531249999999996        3.3593749999999996        0.0000000000000000     
  -1.8749999999999996        3.3593750000000000        0.0000000000000000     
  -2.5000000000000004        3.4375000000000000        0.0000000000000000     
  -2.4218750000000000        3.4375000000000004        0.0000000000000000     
  -2.3437499999999996        3.4375000000000000        0.0000000000000000     
  -2.2656250000000004        3.4375000000000004        0.0000000000000000     
  -2.1875000000000000        3.4375000000000004        0.0000000000000000     
  -2.1093749999999996        3.4375000000000000        0.0000000000000000     
  -2.0312500000000004        3.4374999999999996        0.0000000000000000     
  -1.9531250000000004        3.4375000000000004        0.0000000000000000     
  -1.8750000000000000        3.4375000000000000        0.0000000000000000     
  -2.5000000000000000        3.5156249999999996        0.0000000000000000     
  -2.4218750000000000        3.5156250000000009        0.0000000000000000     
  -2.3437500000000000        3.5156250000000000        0.0000000000000000     
  -2.2656250000000000        3.5156249999999996        0.0000000000000000     
  -2.1875000000000000        3.5156250000000009        0.0000000000000000     
  -2.1093750000000000        3.5156250000000000        0.0000000000000000     
  -2.0312500000000000        3.5156250000000000        0.0000000000000000     
  -1.9531250000000000        3.5156250000000009        0.0000000000000000     
  -1.8750000000000000        3.5156249999999996        0.0000000000000000     
  -2.4999999999999996        3.5937500000000000        0.0000000000000000     
  -2.4218750000000004        3.5937499999999996        0.0000000000000000     
  -2.3437500000000004        3.5937500000000004        0.0000000000000000     
  -2.2656249999999996        3.5937499999999996        0.0000000000000000     
  -2.1875000000000000        3.5937499999999996        0.0000000000000000     
  -2.1093750000000004        3.5937500000000004        0.0000000000000000     
  -2.0312499999999996        3.5937499999999996        0.0000000000000000     
  -1.9531250000000000        3.5937499999999996        0.0000000000000000     
  -1.8749999999999996        3.5937500000000000        0.0000000000000000     
  -2.5000000000000000        3.6718749999999996        0.0000000000000000     
  -2.4218750000000004        3.6718750000000013        0.0000000000000000     
  -2.3437499999999996        3.6718750000000004        0.0000000000000000     
  -2.2656250000000000        3.6718749999999991        0.0000000000000000     
  -2.1875000000000004        3.6718750000000013        0.0000000000000000     
  -2.1093749999999996        3.6718750000000000        0.0000000000000000     
  -2.0312500000000000        3.6718749999999996        0.0000000000000000     
  -1.9531250000000009        3.6718750000000013        0.0000000000000000     
  -1.8749999999999998        3.6718749999999996        0.0000000000000000     
  -2.5000000000000004        3.7500000000000000        0.0000000000000000     
  -2.4218750000000004        3.7500000000000013        0.0000000000000000     
  -2.3437500000000004        3.7500000000000000        0.0000000000000000     
  -2.2656250000000000        3.7499999999999996        0.0000000000000000     
  -2.1875000000000000        3.7500000000000013        0.0000000000000000     
  -2.1093750000000000        3.7499999999999996        0.0000000000000000     
  -2.0312500000000000        3.7500000000000009        0.0000000000000000     
  -1.9531249999999998        3.7500000000000009        0.0000000000000000     
  -1.8750000000000002        3.7500000000000000        0.0000000000000000     
  -1.8750000000000002        3.1250000000000009        0.0000000000000000     
  -1.7968750000000002        3.1249999999999996        0.0000000000000000     
  -1.7187500000000004        3.1250000000000004        0.0000000000000000     
  -1.6406250000000000        3.1250000000000009        0.0000000000000000     
  -1.5625000000000000        3.1249999999999996        0.0000000000000000     
  -1.4843750000000000        3.1250000000000004        0.0000000000000000     
  -1.4062500000000000        3.1250000000000004        0.0000000000000000     
  -1.3281250000000000        3.1249999999999996        0.0000000000000000     
  -1.2500000000000002        3.1250000000000009        0.0000000000000000     
  -1.8750000000000002        3.2031250000000000        0.0000000000000000     
  -1.7968750000000004        3.2031250000000009        0.0000000000000000     
  -1.7187500000000002        3.2031250000000000        0.0000000000000000     
  -1.6406250000000000        3.2031250000000000        0.0000000000000000     
  -1.5625000000000004        3.2031250000000009        0.0000000000000000     
  -1.4843750000000000        3.2031250000000000        0.0000000000000000     
  -1.4062500000000000        3.2031250000000000        0.0000000000000000     
  -1.3281250000000004        3.2031250000000004        0.0000000000000000     
  -1.2500000000000002        3.2031250000000000        0.0000000000000000     
  -1.8750000000000002        3.2812500000000000        0.0000000000000000     
  -1.7968750000000002        3.2812500000000004        0.0000000000000000     
  -1.7187500000000002        3.2812500000000000        0.0000000000000000     
  -1.6406250000000000        3.2812500000000000        0.0000000000000000     
  -1.5625000000000002        3.2812500000000000        0.0000000000000000     
  -1.4843750000000000        3.2812500000000000        0.0000000000000000     
  -1.4062500000000002        3.2812500000000000        0.0000000000000000     
  -1.3281250000000002        3.2812500000000004        0.0000000000000000     
  -1.2500000000000000        3.2812500000000000        0.0000000000000000     
  -1.8749999999999996        3.3593750000000000        0.0000000000000000     
  -1.7968750000000000        3.3593749999999991        0.0000000000000000     
  -1.7187500000000000        3.3593750000000000        0.0000000000000000     
  -1.6406249999999996        3.3593750000000000        0.0000000000000000     
  -1.5625000000000000        3.3593749999999996        0.0000000000000000     
  -1.4843749999999998        3.3593750000000004        0.0000000000000000     
  -1.4062499999999996        3.3593750000000000        0.0000000000000000     
  -1.3281250000000000        3.3593749999999996        0.0000000000000000     
  -1.2499999999999998        3.3593750000000000        0.0000000000000000     
  -1.8750000000000000        3.4375000000000000        0.0000000000000000     
  -1.7968750000000004        3.4375000000000004        0.0000000000000000     
  -1.7187500000000002        3.4375000000000000        0.0000000000000000     
  -1.6406250000000000        3.4375000000000004        0.0000000000000000     
  -1.5625000000000004        3.4375000000000004        0.0000000000000000     
  -1.4843750000000002        3.4375000000000000        0.0000000000000000     
  -1.4062499999999998        3.4374999999999996        0.0000000000000000     
  -1.3281250000000004        3.4375000000000004        0.0000000000000000     
  -1.2500000000000000        3.4375000000000000        0.0000000000000000     
  -1.8750000000000000        3.5156249999999996        0.0000000000000000     
  -1.7968750000000000        3.5156250000000009        0.0000000000000000     
  -1.7187500000000000        3.5156250000000000        0.0000000000000000     
  -1.6406250000000002        3.5156249999999996        0.0000000000000000     
  -1.5625000000000002        3.5156250000000009        0.0000000000000000     
  -1.4843750000000000        3.5156250000000000        0.0000000000000000     
  -1.4062500000000000        3.5156250000000000        0.0000000000000000     
  -1.3281250000000002        3.5156250000000009        0.0000000000000000     
  -1.2500000000000000        3.5156249999999996        0.0000000000000000     
  -1.8749999999999996        3.5937500000000000        0.0000000000000000     
  -1.7968750000000004        3.5937499999999996        0.0000000000000000     
  -1.7187500000000002        3.5937500000000004        0.0000000000000000     
  -1.6406249999999996        3.5937499999999996        0.0000000000000000     
  -1.5625000000000000        3.5937499999999996        0.0000000000000000     
  -1.4843750000000000        3.5937500000000004        0.0000000000000000     
  -1.4062499999999996        3.5937499999999996        0.0000000000000000     
  -1.3281250000000002        3.5937499999999996        0.0000000000000000     
  -1.2499999999999998        3.5937500000000000        0.0000000000000000     
  -1.8749999999999998        3.6718749999999996        0.0000000000000000     
  -1.7968750000000009        3.6718750000000013        0.0000000000000000     
  -1.7187500000000002        3.6718750000000004        0.0000000000000000     
  -1.6406249999999996        3.6718749999999991        0.0000000000000000     
  -1.5625000000000009        3.6718750000000013        0.0000000000000000     
  -1.4843750000000002        3.6718750000000000        0.0000000000000000     
  -1.4062499999999996        3.6718749999999996        0.0000000000000000     
  -1.3281250000000009        3.6718750000000013        0.0000000000000000     
  -1.2500000000000000        3.6718749999999996        0.0000000000000000     
  -1.8750000000000002        3.7500000000000000        0.0000000000000000     
  -1.7968750000000002        3.7500000000000013        0.0000000000000000     
  -1.7187500000000004        3.7500000000000000        0.0000000000000000     
  -1.6406250000000000        3.7499999999999996        0.0000000000000000     
  -1.5625000000000000        3.7500000000000013        0.0000000000000000     
  -1.4843750000000000        3.7499999999999996        0.0000000000000000     
  -1.4062500000000000        3.7500000000000009        0.0000000000000000     
  -1.3281250000000000        3.7500000000000009        0.0000000000000000     
  -1.2500000000000002        3.7500000000000000        0.0000000000000000     
  -1.2500000000000002        3.1250000000000009        0.0000000000000000     
  -1.1718750000000002        3.1250000000000004        0.0000000000000000     
  -1.0937500000000002        3.1250000000000009        0.0000000000000000     
  -1.0156250000000000        3.1250000000000004        0.0000000000000000     
 -0.93749999999999989        3.1250000000000000        0.0000000000000000     
 -0.85937499999999989        3.1250000000000000        0.0000000000000000     
 -0.78125000000000011        3.1250000000000004        0.0000000000000000     
 -0.70312499999999989        3.1250000000000000        0.0000000000000000     
 -0.62500000000000011        3.1250000000000009        0.0000000000000000     
  -1.2500000000000002        3.2031250000000000        0.0000000000000000     
  -1.1718750000000002        3.2031250000000004        0.0000000000000000     
  -1.0937500000000000        3.2031250000000004        0.0000000000000000     
  -1.0156250000000000        3.2031250000000000        0.0000000000000000     
 -0.93750000000000022        3.2031250000000004        0.0000000000000000     
 -0.85937500000000011        3.2031250000000004        0.0000000000000000     
 -0.78125000000000011        3.2031250000000000        0.0000000000000000     
 -0.70312500000000022        3.2031250000000009        0.0000000000000000     
 -0.62500000000000011        3.2031250000000004        0.0000000000000000     
  -1.2500000000000000        3.2812500000000000        0.0000000000000000     
  -1.1718750000000002        3.2812500000000004        0.0000000000000000     
  -1.0937500000000002        3.2812500000000000        0.0000000000000000     
  -1.0156250000000000        3.2812500000000000        0.0000000000000000     
 -0.93749999999999989        3.2812500000000004        0.0000000000000000     
 -0.85937500000000000        3.2812500000000000        0.0000000000000000     
 -0.78125000000000011        3.2812500000000000        0.0000000000000000     
 -0.70312500000000000        3.2812500000000009        0.0000000000000000     
 -0.62500000000000000        3.2812500000000000        0.0000000000000000     
  -1.2499999999999998        3.3593750000000000        0.0000000000000000     
  -1.1718750000000002        3.3593750000000004        0.0000000000000000     
  -1.0937500000000000        3.3593749999999996        0.0000000000000000     
  -1.0156250000000000        3.3593750000000000        0.0000000000000000     
 -0.93749999999999978        3.3593749999999996        0.0000000000000000     
 -0.85937499999999989        3.3593750000000000        0.0000000000000000     
 -0.78125000000000000        3.3593750000000000        0.0000000000000000     
 -0.70312500000000000        3.3593750000000000        0.0000000000000000     
 -0.62499999999999989        3.3593750000000004        0.0000000000000000     
  -1.2500000000000000        3.4375000000000000        0.0000000000000000     
  -1.1718750000000002        3.4375000000000004        0.0000000000000000     
  -1.0937500000000000        3.4375000000000004        0.0000000000000000     
  -1.0156250000000002        3.4375000000000004        0.0000000000000000     
 -0.93750000000000022        3.4375000000000004        0.0000000000000000     
 -0.85937500000000011        3.4375000000000004        0.0000000000000000     
 -0.78125000000000000        3.4374999999999996        0.0000000000000000     
 -0.70312500000000022        3.4375000000000000        0.0000000000000000     
 -0.62500000000000011        3.4375000000000000        0.0000000000000000     
  -1.2500000000000000        3.5156249999999996        0.0000000000000000     
  -1.1718750000000000        3.5156250000000004        0.0000000000000000     
  -1.0937500000000000        3.5156250000000009        0.0000000000000000     
  -1.0156250000000000        3.5156249999999996        0.0000000000000000     
 -0.93750000000000000        3.5156250000000009        0.0000000000000000     
 -0.85937500000000011        3.5156250000000004        0.0000000000000000     
 -0.78125000000000011        3.5156250000000000        0.0000000000000000     
 -0.70312500000000011        3.5156250000000004        0.0000000000000000     
 -0.62500000000000000        3.5156250000000000        0.0000000000000000     
  -1.2499999999999998        3.5937500000000000        0.0000000000000000     
  -1.1718750000000000        3.5937499999999996        0.0000000000000000     
  -1.0937500000000002        3.5937500000000000        0.0000000000000000     
  -1.0156249999999998        3.5937500000000000        0.0000000000000000     
 -0.93749999999999978        3.5937499999999996        0.0000000000000000     
 -0.85937500000000022        3.5937500000000013        0.0000000000000000     
 -0.78125000000000000        3.5937499999999996        0.0000000000000000     
 -0.70312499999999989        3.5937499999999996        0.0000000000000000     
 -0.62499999999999989        3.5937500000000000        0.0000000000000000     
  -1.2500000000000000        3.6718749999999996        0.0000000000000000     
  -1.1718750000000002        3.6718750000000004        0.0000000000000000     
  -1.0937500000000000        3.6718750000000009        0.0000000000000000     
  -1.0156249999999998        3.6718749999999991        0.0000000000000000     
 -0.93750000000000011        3.6718750000000000        0.0000000000000000     
 -0.85937500000000011        3.6718750000000000        0.0000000000000000     
 -0.78124999999999989        3.6718749999999996        0.0000000000000000     
 -0.70312500000000011        3.6718750000000004        0.0000000000000000     
 -0.62500000000000011        3.6718750000000009        0.0000000000000000     
  -1.2500000000000002        3.7500000000000000        0.0000000000000000     
  -1.1718750000000002        3.7500000000000009        0.0000000000000000     
  -1.0937500000000002        3.7500000000000009        0.0000000000000000     
  -1.0156250000000000        3.7499999999999996        0.0000000000000000     
 -0.93749999999999989        3.7500000000000009        0.0000000000000000     
 -0.85937499999999989        3.7500000000000000        0.0000000000000000     
 -0.78125000000000011        3.7500000000000009        0.0000000000000000     
 -0.70312499999999989        3.7500000000000009        0.0000000000000000     
 -0.62500000000000011        3.7500000000000004        0.0000000000000000     
 -0.62500000000000011        3.1250000000000009        0.0000000000000000     
 -0.54687500000000000        3.1250000000000000        0.0000000000000000     
 -0.46875000000000000        3.1250000000000004        0.0000000000000000     
 -0.39062500000000006        3.1250000000000009        0.0000000000000000     
 -0.31250000000000006        3.1250000000000004        0.0000000000000000     
 -0.23437500000000006        3.1250000000000004        0.0000000000000000     
 -0.15625000000000000        3.1250000000000000        0.0000000000000000     
  -7.8124999999999972E-002   3.1250000000000000        0.0000000000000000     
   0.0000000000000000        3.1250000000000000        0.0000000000000000     
 -0.62500000000000011        3.2031250000000004        0.0000000000000000     
 -0.54687500000000011        3.2031250000000000        0.0000000000000000     
 -0.46875000000000000        3.2031250000000000        0.0000000000000000     
 -0.39062500000000000        3.2031250000000009        0.0000000000000000     
 -0.31250000000000011        3.2031250000000000        0.0000000000000000     
 -0.23437500000000000        3.2031250000000004        0.0000000000000000     
 -0.15625000000000003        3.2031250000000004        0.0000000000000000     
  -7.8125000000000000E-002   3.2031250000000000        0.0000000000000000     
   0.0000000000000000        3.2031250000000000        0.0000000000000000     
 -0.62500000000000000        3.2812500000000000        0.0000000000000000     
 -0.54687500000000011        3.2812500000000009        0.0000000000000000     
 -0.46875000000000000        3.2812500000000000        0.0000000000000000     
 -0.39062500000000000        3.2812500000000000        0.0000000000000000     
 -0.31250000000000011        3.2812500000000013        0.0000000000000000     
 -0.23437500000000000        3.2812500000000000        0.0000000000000000     
 -0.15625000000000000        3.2812500000000000        0.0000000000000000     
  -7.8125000000000014E-002   3.2812500000000009        0.0000000000000000     
   0.0000000000000000        3.2812500000000000        0.0000000000000000     
 -0.62499999999999989        3.3593750000000004        0.0000000000000000     
 -0.54687500000000011        3.3593750000000000        0.0000000000000000     
 -0.46875000000000000        3.3593749999999996        0.0000000000000000     
 -0.39062500000000006        3.3593750000000004        0.0000000000000000     
 -0.31250000000000000        3.3593750000000004        0.0000000000000000     
 -0.23437500000000000        3.3593750000000004        0.0000000000000000     
 -0.15625000000000000        3.3593750000000000        0.0000000000000000     
  -7.8124999999999986E-002   3.3593750000000000        0.0000000000000000     
   0.0000000000000000        3.3593750000000004        0.0000000000000000     
 -0.62500000000000011        3.4375000000000000        0.0000000000000000     
 -0.54687500000000011        3.4375000000000004        0.0000000000000000     
 -0.46875000000000000        3.4375000000000004        0.0000000000000000     
 -0.39062500000000006        3.4375000000000004        0.0000000000000000     
 -0.31250000000000006        3.4375000000000000        0.0000000000000000     
 -0.23437500000000000        3.4375000000000000        0.0000000000000000     
 -0.15625000000000003        3.4375000000000004        0.0000000000000000     
  -7.8125000000000000E-002   3.4374999999999996        0.0000000000000000     
   0.0000000000000000        3.4375000000000004        0.0000000000000000     
 -0.62500000000000000        3.5156250000000000        0.0000000000000000     
 -0.54687500000000011        3.5156250000000013        0.0000000000000000     
 -0.46875000000000006        3.5156250000000004        0.0000000000000000     
 -0.39062500000000006        3.5156250000000000        0.0000000000000000     
 -0.31250000000000000        3.5156250000000000        0.0000000000000000     
 -0.23437500000000000        3.5156250000000000        0.0000000000000000     
 -0.15625000000000000        3.5156250000000000        0.0000000000000000     
  -7.8125000000000000E-002   3.5156250000000004        0.0000000000000000     
   0.0000000000000000        3.5156250000000004        0.0000000000000000     
 -0.62499999999999989        3.5937500000000000        0.0000000000000000     
 -0.54687500000000011        3.5937500000000004        0.0000000000000000     
 -0.46875000000000000        3.5937500000000000        0.0000000000000000     
 -0.39062500000000006        3.5937500000000000        0.0000000000000000     
 -0.31250000000000006        3.5937500000000013        0.0000000000000000     
 -0.23437500000000000        3.5937500000000000        0.0000000000000000     
 -0.15625000000000000        3.5937500000000000        0.0000000000000000     
  -7.8124999999999986E-002   3.5937500000000000        0.0000000000000000     
   0.0000000000000000        3.5937500000000004        0.0000000000000000     
 -0.62500000000000011        3.6718750000000009        0.0000000000000000     
 -0.54687500000000000        3.6718749999999996        0.0000000000000000     
 -0.46875000000000000        3.6718750000000000        0.0000000000000000     
 -0.39062499999999989        3.6718749999999987        0.0000000000000000     
 -0.31250000000000011        3.6718750000000009        0.0000000000000000     
 -0.23437500000000000        3.6718750000000000        0.0000000000000000     
 -0.15625000000000000        3.6718750000000000        0.0000000000000000     
  -7.8125000000000014E-002   3.6718750000000000        0.0000000000000000     
   0.0000000000000000        3.6718750000000004        0.0000000000000000     
 -0.62500000000000011        3.7500000000000004        0.0000000000000000     
 -0.54687500000000000        3.7499999999999996        0.0000000000000000     
 -0.46875000000000000        3.7500000000000004        0.0000000000000000     
 -0.39062500000000006        3.7500000000000000        0.0000000000000000     
 -0.31250000000000006        3.7500000000000000        0.0000000000000000     
 -0.23437500000000006        3.7500000000000004        0.0000000000000000     
 -0.15625000000000000        3.7500000000000004        0.0000000000000000     
  -7.8124999999999972E-002   3.7499999999999991        0.0000000000000000     
   0.0000000000000000        3.7500000000000004        0.0000000000000000     
  -5.0000000000000018        3.7500000000000004        0.0000000000000000     
  -4.9218750000000000        3.7500000000000000        0.0000000000000000     
  -4.8437500000000000        3.7500000000000004        0.0000000000000000     
  -4.7656250000000009        3.7500000000000004        0.0000000000000000     
  -4.6875000000000018        3.7500000000000000        0.0000000000000000     
  -4.6093750000000000        3.7500000000000004        0.0000000000000000     
  -4.5312500000000009        3.7500000000000004        0.0000000000000000     
  -4.4531250000000009        3.7500000000000000        0.0000000000000000     
  -4.3750000000000000        3.7500000000000004        0.0000000000000000     
  -5.0000000000000000        3.8281249999999996        0.0000000000000000     
  -4.9218750000000000        3.8281250000000009        0.0000000000000000     
  -4.8437500000000000        3.8281249999999996        0.0000000000000000     
  -4.7656250000000000        3.8281249999999996        0.0000000000000000     
  -4.6875000000000000        3.8281250000000004        0.0000000000000000     
  -4.6093750000000000        3.8281250000000004        0.0000000000000000     
  -4.5312500000000000        3.8281249999999991        0.0000000000000000     
  -4.4531250000000000        3.8281250000000009        0.0000000000000000     
  -4.3750000000000009        3.8281250000000004        0.0000000000000000     
  -5.0000000000000000        3.9062500000000000        0.0000000000000000     
  -4.9218750000000000        3.9062500000000000        0.0000000000000000     
  -4.8437500000000000        3.9062500000000000        0.0000000000000000     
  -4.7656250000000000        3.9062500000000000        0.0000000000000000     
  -4.6875000000000000        3.9062500000000000        0.0000000000000000     
  -4.6093750000000000        3.9062500000000000        0.0000000000000000     
  -4.5312500000000000        3.9062500000000000        0.0000000000000000     
  -4.4531250000000009        3.9062500000000000        0.0000000000000000     
  -4.3750000000000000        3.9062500000000000        0.0000000000000000     
  -5.0000000000000009        3.9843750000000009        0.0000000000000000     
  -4.9218750000000000        3.9843749999999991        0.0000000000000000     
  -4.8437500000000000        3.9843750000000000        0.0000000000000000     
  -4.7656250000000000        3.9843750000000004        0.0000000000000000     
  -4.6875000000000009        3.9843750000000000        0.0000000000000000     
  -4.6093750000000009        3.9843750000000004        0.0000000000000000     
  -4.5312500000000000        3.9843750000000004        0.0000000000000000     
  -4.4531250000000009        3.9843750000000000        0.0000000000000000     
  -4.3750000000000009        3.9843750000000004        0.0000000000000000     
  -5.0000000000000000        4.0625000000000000        0.0000000000000000     
  -4.9218750000000000        4.0625000000000000        0.0000000000000000     
  -4.8437499999999991        4.0625000000000000        0.0000000000000000     
  -4.7656250000000000        4.0625000000000000        0.0000000000000000     
  -4.6875000000000018        4.0625000000000000        0.0000000000000000     
  -4.6093749999999991        4.0625000000000000        0.0000000000000000     
  -4.5312500000000000        4.0624999999999991        0.0000000000000000     
  -4.4531250000000009        4.0625000000000000        0.0000000000000000     
  -4.3749999999999991        4.0625000000000000        0.0000000000000000     
  -5.0000000000000009        4.1406250000000000        0.0000000000000000     
  -4.9218750000000000        4.1406250000000000        0.0000000000000000     
  -4.8437500000000009        4.1406250000000000        0.0000000000000000     
  -4.7656250000000000        4.1406250000000000        0.0000000000000000     
  -4.6875000000000009        4.1406250000000000        0.0000000000000000     
  -4.6093750000000000        4.1406250000000000        0.0000000000000000     
  -4.5312499999999991        4.1406250000000000        0.0000000000000000     
  -4.4531250000000009        4.1406250000000009        0.0000000000000000     
  -4.3750000000000000        4.1406250000000000        0.0000000000000000     
  -5.0000000000000009        4.2187500000000000        0.0000000000000000     
  -4.9218750000000018        4.2187500000000009        0.0000000000000000     
  -4.8437500000000009        4.2187500000000000        0.0000000000000000     
  -4.7656249999999991        4.2187500000000000        0.0000000000000000     
  -4.6875000000000009        4.2187500000000000        0.0000000000000000     
  -4.6093750000000009        4.2187500000000000        0.0000000000000000     
  -4.5312500000000000        4.2187499999999991        0.0000000000000000     
  -4.4531250000000009        4.2187500000000009        0.0000000000000000     
  -4.3750000000000000        4.2187499999999991        0.0000000000000000     
  -5.0000000000000000        4.2968750000000000        0.0000000000000000     
  -4.9218750000000009        4.2968750000000000        0.0000000000000000     
  -4.8437499999999991        4.2968750000000000        0.0000000000000000     
  -4.7656250000000000        4.2968750000000000        0.0000000000000000     
  -4.6875000000000018        4.2968750000000000        0.0000000000000000     
  -4.6093749999999991        4.2968750000000000        0.0000000000000000     
  -4.5312500000000000        4.2968750000000000        0.0000000000000000     
  -4.4531250000000009        4.2968750000000000        0.0000000000000000     
  -4.3749999999999991        4.2968750000000000        0.0000000000000000     
  -5.0000000000000000        4.3750000000000000        0.0000000000000000     
  -4.9218750000000000        4.3750000000000000        0.0000000000000000     
  -4.8437500000000009        4.3750000000000000        0.0000000000000000     
  -4.7656250000000009        4.3750000000000009        0.0000000000000000     
  -4.6875000000000009        4.3750000000000000        0.0000000000000000     
  -4.6093750000000000        4.3750000000000000        0.0000000000000000     
  -4.5312500000000000        4.3750000000000009        0.0000000000000000     
  -4.4531250000000009        4.3749999999999991        0.0000000000000000     
  -4.3750000000000009        4.3750000000000009        0.0000000000000000     
  -4.3750000000000000        3.7500000000000004        0.0000000000000000     
  -4.2968750000000009        3.7500000000000009        0.0000000000000000     
  -4.2187500000000000        3.7500000000000000        0.0000000000000000     
  -4.1406250000000000        3.7500000000000000        0.0000000000000000     
  -4.0625000000000000        3.7500000000000000        0.0000000000000000     
  -3.9843749999999996        3.7499999999999996        0.0000000000000000     
  -3.9062500000000009        3.7500000000000013        0.0000000000000000     
  -3.8281250000000000        3.7500000000000000        0.0000000000000000     
  -3.7500000000000000        3.7500000000000000        0.0000000000000000     
  -4.3750000000000009        3.8281250000000004        0.0000000000000000     
  -4.2968750000000009        3.8281250000000004        0.0000000000000000     
  -4.2187500000000009        3.8281250000000009        0.0000000000000000     
  -4.1406250000000000        3.8281249999999996        0.0000000000000000     
  -4.0625000000000000        3.8281250000000004        0.0000000000000000     
  -3.9843750000000009        3.8281250000000004        0.0000000000000000     
  -3.9062500000000009        3.8281250000000004        0.0000000000000000     
  -3.8281250000000004        3.8281250000000004        0.0000000000000000     
  -3.7500000000000004        3.8281250000000000        0.0000000000000000     
  -4.3750000000000000        3.9062500000000000        0.0000000000000000     
  -4.2968750000000009        3.9062500000000004        0.0000000000000000     
  -4.2187500000000000        3.9062499999999996        0.0000000000000000     
  -4.1406250000000018        3.9062500000000009        0.0000000000000000     
  -4.0625000000000000        3.9062500000000000        0.0000000000000000     
  -3.9843750000000000        3.9062500000000009        0.0000000000000000     
  -3.9062500000000004        3.9062500000000004        0.0000000000000000     
  -3.8281250000000004        3.9062500000000004        0.0000000000000000     
  -3.7500000000000004        3.9062500000000009        0.0000000000000000     
  -4.3750000000000009        3.9843750000000004        0.0000000000000000     
  -4.2968750000000000        3.9843749999999996        0.0000000000000000     
  -4.2187500000000000        3.9843750000000000        0.0000000000000000     
  -4.1406250000000000        3.9843750000000004        0.0000000000000000     
  -4.0625000000000000        3.9843749999999996        0.0000000000000000     
  -3.9843750000000000        3.9843750000000000        0.0000000000000000     
  -3.9062500000000000        3.9843750000000013        0.0000000000000000     
  -3.8281249999999996        3.9843749999999996        0.0000000000000000     
  -3.7499999999999991        3.9843749999999991        0.0000000000000000     
  -4.3749999999999991        4.0625000000000000        0.0000000000000000     
  -4.2968750000000000        4.0625000000000000        0.0000000000000000     
  -4.2187500000000009        4.0625000000000000        0.0000000000000000     
  -4.1406250000000000        4.0625000000000000        0.0000000000000000     
  -4.0625000000000000        4.0625000000000000        0.0000000000000000     
  -3.9843750000000009        4.0625000000000009        0.0000000000000000     
  -3.9062500000000004        4.0625000000000009        0.0000000000000000     
  -3.8281250000000000        4.0625000000000000        0.0000000000000000     
  -3.7500000000000004        4.0624999999999991        0.0000000000000000     
  -4.3750000000000000        4.1406250000000000        0.0000000000000000     
  -4.2968750000000000        4.1406250000000000        0.0000000000000000     
  -4.2187500000000000        4.1406250000000000        0.0000000000000000     
  -4.1406250000000000        4.1406250000000000        0.0000000000000000     
  -4.0625000000000009        4.1406250000000000        0.0000000000000000     
  -3.9843750000000000        4.1406250000000000        0.0000000000000000     
  -3.9062500000000000        4.1406250000000000        0.0000000000000000     
  -3.8281250000000000        4.1406250000000000        0.0000000000000000     
  -3.7499999999999996        4.1406250000000000        0.0000000000000000     
  -4.3750000000000000        4.2187499999999991        0.0000000000000000     
  -4.2968750000000018        4.2187500000000018        0.0000000000000000     
  -4.2187500000000000        4.2187500000000000        0.0000000000000000     
  -4.1406250000000009        4.2187500000000009        0.0000000000000000     
  -4.0625000000000000        4.2187500000000000        0.0000000000000000     
  -3.9843749999999996        4.2187499999999991        0.0000000000000000     
  -3.9062500000000013        4.2187500000000009        0.0000000000000000     
  -3.8281249999999996        4.2187500000000000        0.0000000000000000     
  -3.7499999999999991        4.2187499999999991        0.0000000000000000     
  -4.3749999999999991        4.2968750000000000        0.0000000000000000     
  -4.2968750000000009        4.2968750000000000        0.0000000000000000     
  -4.2187500000000000        4.2968750000000000        0.0000000000000000     
  -4.1406250000000000        4.2968750000000000        0.0000000000000000     
  -4.0625000000000000        4.2968750000000000        0.0000000000000000     
  -3.9843750000000004        4.2968750000000000        0.0000000000000000     
  -3.9062500000000000        4.2968750000000000        0.0000000000000000     
  -3.8281250000000000        4.2968750000000000        0.0000000000000000     
  -3.7500000000000004        4.2968750000000000        0.0000000000000000     
  -4.3750000000000009        4.3750000000000009        0.0000000000000000     
  -4.2968750000000000        4.3750000000000000        0.0000000000000000     
  -4.2187500000000000        4.3750000000000000        0.0000000000000000     
  -4.1406250000000000        4.3750000000000000        0.0000000000000000     
  -4.0625000000000000        4.3750000000000000        0.0000000000000000     
  -3.9843749999999996        4.3750000000000000        0.0000000000000000     
  -3.9062500000000000        4.3750000000000000        0.0000000000000000     
  -3.8281250000000009        4.3750000000000009        0.0000000000000000     
  -3.7500000000000000        4.3750000000000009        0.0000000000000000     
  -3.7500000000000000        3.7500000000000000        0.0000000000000000     
  -3.6718750000000000        3.7500000000000013        0.0000000000000000     
  -3.5937500000000009        3.7500000000000000        0.0000000000000000     
  -3.5156250000000000        3.7499999999999996        0.0000000000000000     
  -3.4375000000000000        3.7500000000000013        0.0000000000000000     
  -3.3593750000000004        3.7499999999999996        0.0000000000000000     
  -3.2812500000000004        3.7500000000000009        0.0000000000000000     
  -3.2031250000000000        3.7500000000000009        0.0000000000000000     
  -3.1250000000000004        3.7500000000000000        0.0000000000000000     
  -3.7500000000000004        3.8281250000000000        0.0000000000000000     
  -3.6718750000000009        3.8281250000000000        0.0000000000000000     
  -3.5937500000000004        3.8281250000000009        0.0000000000000000     
  -3.5156250000000009        3.8281250000000004        0.0000000000000000     
  -3.4375000000000000        3.8281249999999996        0.0000000000000000     
  -3.3593750000000000        3.8281250000000004        0.0000000000000000     
  -3.2812500000000009        3.8281250000000004        0.0000000000000000     
  -3.2031250000000004        3.8281250000000000        0.0000000000000000     
  -3.1249999999999996        3.8281250000000000        0.0000000000000000     
  -3.7500000000000004        3.9062500000000009        0.0000000000000000     
  -3.6718750000000009        3.9062500000000004        0.0000000000000000     
  -3.5937499999999996        3.9062499999999996        0.0000000000000000     
  -3.5156250000000000        3.9062500000000004        0.0000000000000000     
  -3.4375000000000000        3.9062500000000004        0.0000000000000000     
  -3.3593750000000000        3.9062500000000009        0.0000000000000000     
  -3.2812500000000000        3.9062500000000004        0.0000000000000000     
  -3.2031250000000009        3.9062500000000004        0.0000000000000000     
  -3.1250000000000009        3.9062500000000009        0.0000000000000000     
  -3.7499999999999991        3.9843749999999991        0.0000000000000000     
  -3.6718750000000000        3.9843750000000013        0.0000000000000000     
  -3.5937500000000004        3.9843750000000000        0.0000000000000000     
  -3.5156249999999987        3.9843749999999987        0.0000000000000000     
  -3.4375000000000000        3.9843750000000013        0.0000000000000000     
  -3.3593750000000004        3.9843750000000000        0.0000000000000000     
  -3.2812499999999991        3.9843749999999991        0.0000000000000000     
  -3.2031250000000000        3.9843750000000009        0.0000000000000000     
  -3.1249999999999996        3.9843749999999991        0.0000000000000000     
  -3.7500000000000004        4.0624999999999991        0.0000000000000000     
  -3.6718750000000009        4.0625000000000009        0.0000000000000000     
  -3.5937500000000004        4.0625000000000000        0.0000000000000000     
  -3.5156250000000009        4.0625000000000000        0.0000000000000000     
  -3.4375000000000009        4.0625000000000009        0.0000000000000000     
  -3.3593750000000004        4.0625000000000009        0.0000000000000000     
  -3.2812500000000004        4.0625000000000000        0.0000000000000000     
  -3.2031250000000009        4.0625000000000009        0.0000000000000000     
  -3.1249999999999996        4.0624999999999991        0.0000000000000000     
  -3.7499999999999996        4.1406250000000000        0.0000000000000000     
  -3.6718750000000000        4.1406250000000000        0.0000000000000000     
  -3.5937500000000000        4.1406250000000000        0.0000000000000000     
  -3.5156250000000000        4.1406250000000000        0.0000000000000000     
  -3.4375000000000000        4.1406250000000000        0.0000000000000000     
  -3.3593750000000004        4.1406250000000000        0.0000000000000000     
  -3.2812499999999996        4.1406250000000009        0.0000000000000000     
  -3.2031250000000000        4.1406249999999991        0.0000000000000000     
  -3.1250000000000000        4.1406250000000000        0.0000000000000000     
  -3.7499999999999991        4.2187499999999991        0.0000000000000000     
  -3.6718750000000000        4.2187500000000009        0.0000000000000000     
  -3.5937500000000004        4.2187500000000000        0.0000000000000000     
  -3.5156249999999996        4.2187500000000000        0.0000000000000000     
  -3.4375000000000000        4.2187500000000009        0.0000000000000000     
  -3.3593750000000000        4.2187500000000000        0.0000000000000000     
  -3.2812499999999996        4.2187500000000000        0.0000000000000000     
  -3.2031250000000000        4.2187500000000009        0.0000000000000000     
  -3.1249999999999996        4.2187499999999991        0.0000000000000000     
  -3.7500000000000004        4.2968750000000000        0.0000000000000000     
  -3.6718750000000004        4.2968750000000000        0.0000000000000000     
  -3.5937499999999996        4.2968750000000000        0.0000000000000000     
  -3.5156250000000004        4.2968750000000000        0.0000000000000000     
  -3.4375000000000009        4.2968750000000000        0.0000000000000000     
  -3.3593749999999996        4.2968750000000000        0.0000000000000000     
  -3.2812500000000004        4.2968750000000009        0.0000000000000000     
  -3.2031250000000004        4.2968750000000000        0.0000000000000000     
  -3.1249999999999996        4.2968750000000000        0.0000000000000000     
  -3.7500000000000000        4.3750000000000009        0.0000000000000000     
  -3.6718750000000000        4.3750000000000000        0.0000000000000000     
  -3.5937500000000000        4.3750000000000000        0.0000000000000000     
  -3.5156249999999996        4.3750000000000009        0.0000000000000000     
  -3.4374999999999996        4.3750000000000000        0.0000000000000000     
  -3.3593750000000004        4.3750000000000000        0.0000000000000000     
  -3.2812499999999996        4.3750000000000000        0.0000000000000000     
  -3.2031250000000000        4.3750000000000009        0.0000000000000000     
  -3.1250000000000004        4.3750000000000009        0.0000000000000000     
  -3.1250000000000004        3.7500000000000000        0.0000000000000000     
  -3.0468750000000004        3.7500000000000013        0.0000000000000000     
  -2.9687500000000000        3.7500000000000000        0.0000000000000000     
  -2.8906250000000000        3.7499999999999996        0.0000000000000000     
  -2.8125000000000004        3.7500000000000013        0.0000000000000000     
  -2.7343750000000000        3.7499999999999996        0.0000000000000000     
  -2.6562500000000004        3.7500000000000009        0.0000000000000000     
  -2.5781250000000004        3.7500000000000009        0.0000000000000000     
  -2.5000000000000004        3.7500000000000000        0.0000000000000000     
  -3.1249999999999996        3.8281250000000000        0.0000000000000000     
  -3.0468750000000004        3.8281250000000000        0.0000000000000000     
  -2.9687500000000004        3.8281250000000009        0.0000000000000000     
  -2.8906250000000000        3.8281250000000004        0.0000000000000000     
  -2.8125000000000004        3.8281249999999996        0.0000000000000000     
  -2.7343750000000004        3.8281250000000004        0.0000000000000000     
  -2.6562500000000000        3.8281250000000004        0.0000000000000000     
  -2.5781250000000004        3.8281250000000000        0.0000000000000000     
  -2.5000000000000000        3.8281250000000000        0.0000000000000000     
  -3.1250000000000009        3.9062500000000009        0.0000000000000000     
  -3.0468750000000004        3.9062500000000004        0.0000000000000000     
  -2.9687499999999996        3.9062499999999996        0.0000000000000000     
  -2.8906249999999996        3.9062500000000004        0.0000000000000000     
  -2.8125000000000000        3.9062500000000004        0.0000000000000000     
  -2.7343750000000000        3.9062500000000009        0.0000000000000000     
  -2.6562500000000000        3.9062500000000004        0.0000000000000000     
  -2.5781250000000004        3.9062500000000004        0.0000000000000000     
  -2.5000000000000000        3.9062500000000009        0.0000000000000000     
  -3.1249999999999996        3.9843749999999991        0.0000000000000000     
  -3.0468750000000004        3.9843750000000013        0.0000000000000000     
  -2.9687500000000000        3.9843750000000000        0.0000000000000000     
  -2.8906250000000000        3.9843749999999987        0.0000000000000000     
  -2.8125000000000004        3.9843750000000013        0.0000000000000000     
  -2.7343750000000000        3.9843750000000000        0.0000000000000000     
  -2.6562500000000000        3.9843749999999991        0.0000000000000000     
  -2.5781250000000000        3.9843750000000009        0.0000000000000000     
  -2.4999999999999996        3.9843749999999991        0.0000000000000000     
  -3.1249999999999996        4.0624999999999991        0.0000000000000000     
  -3.0468750000000004        4.0625000000000009        0.0000000000000000     
  -2.9687500000000004        4.0625000000000000        0.0000000000000000     
  -2.8906250000000000        4.0625000000000000        0.0000000000000000     
  -2.8125000000000004        4.0625000000000009        0.0000000000000000     
  -2.7343750000000004        4.0625000000000009        0.0000000000000000     
  -2.6562499999999996        4.0625000000000000        0.0000000000000000     
  -2.5781250000000004        4.0625000000000009        0.0000000000000000     
  -2.5000000000000000        4.0624999999999991        0.0000000000000000     
  -3.1250000000000000        4.1406250000000000        0.0000000000000000     
  -3.0468750000000004        4.1406250000000000        0.0000000000000000     
  -2.9687500000000000        4.1406250000000000        0.0000000000000000     
  -2.8906250000000000        4.1406250000000000        0.0000000000000000     
  -2.8125000000000004        4.1406250000000000        0.0000000000000000     
  -2.7343750000000000        4.1406250000000000        0.0000000000000000     
  -2.6562499999999996        4.1406250000000009        0.0000000000000000     
  -2.5781250000000004        4.1406249999999991        0.0000000000000000     
  -2.4999999999999996        4.1406250000000000        0.0000000000000000     
  -3.1249999999999996        4.2187499999999991        0.0000000000000000     
  -3.0468750000000004        4.2187500000000009        0.0000000000000000     
  -2.9687500000000004        4.2187500000000000        0.0000000000000000     
  -2.8906250000000000        4.2187500000000000        0.0000000000000000     
  -2.8125000000000000        4.2187500000000009        0.0000000000000000     
  -2.7343750000000000        4.2187500000000000        0.0000000000000000     
  -2.6562500000000000        4.2187500000000000        0.0000000000000000     
  -2.5781250000000004        4.2187500000000009        0.0000000000000000     
  -2.4999999999999996        4.2187499999999991        0.0000000000000000     
  -3.1249999999999996        4.2968750000000000        0.0000000000000000     
  -3.0468750000000004        4.2968750000000000        0.0000000000000000     
  -2.9687500000000004        4.2968750000000000        0.0000000000000000     
  -2.8906249999999996        4.2968750000000000        0.0000000000000000     
  -2.8125000000000000        4.2968750000000000        0.0000000000000000     
  -2.7343750000000004        4.2968750000000000        0.0000000000000000     
  -2.6562499999999996        4.2968750000000009        0.0000000000000000     
  -2.5781250000000004        4.2968750000000000        0.0000000000000000     
  -2.5000000000000000        4.2968750000000000        0.0000000000000000     
  -3.1250000000000004        4.3750000000000009        0.0000000000000000     
  -3.0468750000000000        4.3750000000000000        0.0000000000000000     
  -2.9687500000000000        4.3750000000000000        0.0000000000000000     
  -2.8906250000000004        4.3750000000000009        0.0000000000000000     
  -2.8125000000000000        4.3750000000000000        0.0000000000000000     
  -2.7343750000000000        4.3750000000000000        0.0000000000000000     
  -2.6562500000000000        4.3750000000000000        0.0000000000000000     
  -2.5781250000000000        4.3750000000000009        0.0000000000000000     
  -2.5000000000000000        4.3750000000000009        0.0000000000000000     
  -2.5000000000000004        3.7500000000000000        0.0000000000000000     
  -2.4218750000000004        3.7500000000000013        0.0000000000000000     
  -2.3437500000000004        3.7500000000000000        0.0000000000000000     
  -2.2656250000000000        3.7499999999999996        0.0000000000000000     
  -2.1875000000000000        3.7500000000000013        0.0000000000000000     
  -2.1093750000000000        3.7499999999999996        0.0000000000000000     
  -2.0312500000000000        3.7500000000000009        0.0000000000000000     
  -1.9531249999999998        3.7500000000000009        0.0000000000000000     
  -1.8750000000000002        3.7500000000000000        0.0000000000000000     
  -2.5000000000000000        3.8281250000000000        0.0000000000000000     
  -2.4218750000000004        3.8281250000000000        0.0000000000000000     
  -2.3437499999999996        3.8281250000000009        0.0000000000000000     
  -2.2656250000000004        3.8281250000000004        0.0000000000000000     
  -2.1875000000000000        3.8281249999999996        0.0000000000000000     
  -2.1093750000000000        3.8281250000000004        0.0000000000000000     
  -2.0312500000000004        3.8281250000000004        0.0000000000000000     
  -1.9531250000000004        3.8281250000000000        0.0000000000000000     
  -1.8750000000000000        3.8281250000000000        0.0000000000000000     
  -2.5000000000000000        3.9062500000000009        0.0000000000000000     
  -2.4218750000000004        3.9062500000000004        0.0000000000000000     
  -2.3437499999999996        3.9062499999999996        0.0000000000000000     
  -2.2656250000000000        3.9062500000000004        0.0000000000000000     
  -2.1875000000000004        3.9062500000000004        0.0000000000000000     
  -2.1093750000000000        3.9062500000000009        0.0000000000000000     
  -2.0312500000000000        3.9062500000000004        0.0000000000000000     
  -1.9531250000000004        3.9062500000000004        0.0000000000000000     
  -1.8750000000000002        3.9062500000000009        0.0000000000000000     
  -2.4999999999999996        3.9843749999999991        0.0000000000000000     
  -2.4218750000000000        3.9843750000000013        0.0000000000000000     
  -2.3437500000000004        3.9843750000000000        0.0000000000000000     
  -2.2656249999999996        3.9843749999999987        0.0000000000000000     
  -2.1875000000000004        3.9843750000000013        0.0000000000000000     
  -2.1093750000000004        3.9843750000000000        0.0000000000000000     
  -2.0312499999999996        3.9843749999999991        0.0000000000000000     
  -1.9531249999999996        3.9843750000000009        0.0000000000000000     
  -1.8749999999999996        3.9843749999999991        0.0000000000000000     
  -2.5000000000000000        4.0624999999999991        0.0000000000000000     
  -2.4218750000000000        4.0625000000000009        0.0000000000000000     
  -2.3437499999999996        4.0625000000000000        0.0000000000000000     
  -2.2656250000000004        4.0625000000000000        0.0000000000000000     
  -2.1875000000000000        4.0625000000000009        0.0000000000000000     
  -2.1093749999999996        4.0625000000000009        0.0000000000000000     
  -2.0312500000000004        4.0625000000000000        0.0000000000000000     
  -1.9531250000000004        4.0625000000000009        0.0000000000000000     
  -1.8749999999999998        4.0624999999999991        0.0000000000000000     
  -2.4999999999999996        4.1406250000000000        0.0000000000000000     
  -2.4218750000000000        4.1406250000000000        0.0000000000000000     
  -2.3437500000000000        4.1406250000000000        0.0000000000000000     
  -2.2656249999999996        4.1406250000000000        0.0000000000000000     
  -2.1875000000000000        4.1406250000000000        0.0000000000000000     
  -2.1093750000000000        4.1406250000000000        0.0000000000000000     
  -2.0312499999999996        4.1406250000000009        0.0000000000000000     
  -1.9531250000000000        4.1406249999999991        0.0000000000000000     
  -1.8750000000000000        4.1406250000000000        0.0000000000000000     
  -2.4999999999999996        4.2187499999999991        0.0000000000000000     
  -2.4218750000000004        4.2187500000000009        0.0000000000000000     
  -2.3437500000000004        4.2187500000000000        0.0000000000000000     
  -2.2656250000000000        4.2187500000000000        0.0000000000000000     
  -2.1875000000000000        4.2187500000000009        0.0000000000000000     
  -2.1093750000000004        4.2187500000000000        0.0000000000000000     
  -2.0312500000000000        4.2187500000000000        0.0000000000000000     
  -1.9531250000000000        4.2187500000000009        0.0000000000000000     
  -1.8749999999999996        4.2187499999999991        0.0000000000000000     
  -2.5000000000000000        4.2968750000000000        0.0000000000000000     
  -2.4218750000000000        4.2968750000000000        0.0000000000000000     
  -2.3437499999999991        4.2968750000000000        0.0000000000000000     
  -2.2656250000000000        4.2968750000000000        0.0000000000000000     
  -2.1875000000000000        4.2968750000000000        0.0000000000000000     
  -2.1093749999999996        4.2968750000000000        0.0000000000000000     
  -2.0312500000000000        4.2968750000000009        0.0000000000000000     
  -1.9531250000000004        4.2968750000000000        0.0000000000000000     
  -1.8749999999999998        4.2968750000000000        0.0000000000000000     
  -2.5000000000000000        4.3750000000000009        0.0000000000000000     
  -2.4218750000000000        4.3750000000000000        0.0000000000000000     
  -2.3437500000000004        4.3750000000000000        0.0000000000000000     
  -2.2656249999999996        4.3750000000000009        0.0000000000000000     
  -2.1875000000000000        4.3750000000000000        0.0000000000000000     
  -2.1093750000000000        4.3750000000000000        0.0000000000000000     
  -2.0312499999999996        4.3750000000000000        0.0000000000000000     
  -1.9531249999999998        4.3750000000000009        0.0000000000000000     
  -1.8750000000000002        4.3750000000000009        0.0000000000000000     
  -1.8750000000000002        3.7500000000000000        0.0000000000000000     
  -1.7968750000000002        3.7500000000000013        0.0000000000000000     
  -1.7187500000000004        3.7500000000000000        0.0000000000000000     
  -1.6406250000000000        3.7499999999999996        0.0000000000000000     
  -1.5625000000000000        3.7500000000000013        0.0000000000000000     
  -1.4843750000000000        3.7499999999999996        0.0000000000000000     
  -1.4062500000000000        3.7500000000000009        0.0000000000000000     
  -1.3281250000000000        3.7500000000000009        0.0000000000000000     
  -1.2500000000000002        3.7500000000000000        0.0000000000000000     
  -1.8750000000000000        3.8281250000000000        0.0000000000000000     
  -1.7968750000000004        3.8281250000000000        0.0000000000000000     
  -1.7187500000000002        3.8281250000000009        0.0000000000000000     
  -1.6406250000000000        3.8281250000000004        0.0000000000000000     
  -1.5625000000000004        3.8281249999999996        0.0000000000000000     
  -1.4843750000000002        3.8281250000000004        0.0000000000000000     
  -1.4062500000000000        3.8281250000000004        0.0000000000000000     
  -1.3281250000000004        3.8281250000000000        0.0000000000000000     
  -1.2500000000000000        3.8281250000000000        0.0000000000000000     
  -1.8750000000000002        3.9062500000000009        0.0000000000000000     
  -1.7968750000000002        3.9062500000000004        0.0000000000000000     
  -1.7187500000000000        3.9062499999999996        0.0000000000000000     
  -1.6406250000000000        3.9062500000000004        0.0000000000000000     
  -1.5625000000000002        3.9062500000000004        0.0000000000000000     
  -1.4843750000000000        3.9062500000000009        0.0000000000000000     
  -1.4062500000000002        3.9062500000000004        0.0000000000000000     
  -1.3281250000000002        3.9062500000000004        0.0000000000000000     
  -1.2500000000000000        3.9062500000000009        0.0000000000000000     
  -1.8749999999999996        3.9843749999999991        0.0000000000000000     
  -1.7968750000000000        3.9843750000000013        0.0000000000000000     
  -1.7187500000000000        3.9843750000000000        0.0000000000000000     
  -1.6406249999999996        3.9843749999999987        0.0000000000000000     
  -1.5625000000000000        3.9843750000000013        0.0000000000000000     
  -1.4843749999999998        3.9843750000000000        0.0000000000000000     
  -1.4062499999999998        3.9843749999999991        0.0000000000000000     
  -1.3281250000000000        3.9843750000000009        0.0000000000000000     
  -1.2499999999999998        3.9843749999999991        0.0000000000000000     
  -1.8749999999999998        4.0624999999999991        0.0000000000000000     
  -1.7968750000000004        4.0625000000000009        0.0000000000000000     
  -1.7187500000000002        4.0625000000000000        0.0000000000000000     
  -1.6406250000000000        4.0625000000000000        0.0000000000000000     
  -1.5625000000000004        4.0625000000000009        0.0000000000000000     
  -1.4843750000000002        4.0625000000000009        0.0000000000000000     
  -1.4062499999999998        4.0625000000000000        0.0000000000000000     
  -1.3281250000000004        4.0625000000000009        0.0000000000000000     
  -1.2500000000000000        4.0624999999999991        0.0000000000000000     
  -1.8750000000000000        4.1406250000000000        0.0000000000000000     
  -1.7968749999999998        4.1406250000000000        0.0000000000000000     
  -1.7187500000000000        4.1406250000000000        0.0000000000000000     
  -1.6406250000000002        4.1406250000000000        0.0000000000000000     
  -1.5624999999999998        4.1406250000000000        0.0000000000000000     
  -1.4843750000000000        4.1406250000000000        0.0000000000000000     
  -1.4062500000000000        4.1406250000000009        0.0000000000000000     
  -1.3281249999999998        4.1406249999999991        0.0000000000000000     
  -1.2500000000000000        4.1406250000000000        0.0000000000000000     
  -1.8749999999999996        4.2187499999999991        0.0000000000000000     
  -1.7968750000000000        4.2187500000000009        0.0000000000000000     
  -1.7187500000000002        4.2187500000000000        0.0000000000000000     
  -1.6406250000000000        4.2187500000000000        0.0000000000000000     
  -1.5625000000000000        4.2187500000000009        0.0000000000000000     
  -1.4843750000000000        4.2187500000000000        0.0000000000000000     
  -1.4062499999999998        4.2187500000000000        0.0000000000000000     
  -1.3281250000000002        4.2187500000000009        0.0000000000000000     
  -1.2499999999999998        4.2187499999999991        0.0000000000000000     
  -1.8749999999999998        4.2968750000000000        0.0000000000000000     
  -1.7968750000000004        4.2968750000000000        0.0000000000000000     
  -1.7187500000000000        4.2968750000000000        0.0000000000000000     
  -1.6406249999999998        4.2968750000000000        0.0000000000000000     
  -1.5625000000000004        4.2968750000000000        0.0000000000000000     
  -1.4843750000000000        4.2968750000000000        0.0000000000000000     
  -1.4062499999999998        4.2968750000000009        0.0000000000000000     
  -1.3281250000000004        4.2968750000000000        0.0000000000000000     
  -1.2500000000000000        4.2968750000000000        0.0000000000000000     
  -1.8750000000000002        4.3750000000000009        0.0000000000000000     
  -1.7968749999999998        4.3750000000000000        0.0000000000000000     
  -1.7187500000000000        4.3750000000000000        0.0000000000000000     
  -1.6406250000000002        4.3750000000000009        0.0000000000000000     
  -1.5624999999999998        4.3750000000000000        0.0000000000000000     
  -1.4843750000000000        4.3750000000000000        0.0000000000000000     
  -1.4062499999999998        4.3750000000000000        0.0000000000000000     
  -1.3281250000000000        4.3750000000000009        0.0000000000000000     
  -1.2500000000000000        4.3750000000000009        0.0000000000000000     
  -1.2500000000000002        3.7500000000000000        0.0000000000000000     
  -1.1718750000000002        3.7500000000000009        0.0000000000000000     
  -1.0937500000000002        3.7500000000000009        0.0000000000000000     
  -1.0156250000000000        3.7499999999999996        0.0000000000000000     
 -0.93749999999999989        3.7500000000000009        0.0000000000000000     
 -0.85937499999999989        3.7500000000000000        0.0000000000000000     
 -0.78125000000000011        3.7500000000000009        0.0000000000000000     
 -0.70312499999999989        3.7500000000000009        0.0000000000000000     
 -0.62500000000000011        3.7500000000000004        0.0000000000000000     
  -1.2500000000000000        3.8281250000000000        0.0000000000000000     
  -1.1718750000000002        3.8281250000000004        0.0000000000000000     
  -1.0937500000000000        3.8281250000000004        0.0000000000000000     
  -1.0156250000000000        3.8281250000000004        0.0000000000000000     
 -0.93750000000000022        3.8281250000000009        0.0000000000000000     
 -0.85937500000000011        3.8281250000000000        0.0000000000000000     
 -0.78125000000000000        3.8281250000000004        0.0000000000000000     
 -0.70312500000000022        3.8281250000000004        0.0000000000000000     
 -0.62500000000000011        3.8281250000000004        0.0000000000000000     
  -1.2500000000000000        3.9062500000000009        0.0000000000000000     
  -1.1718750000000002        3.9062500000000004        0.0000000000000000     
  -1.0937500000000000        3.9062499999999996        0.0000000000000000     
  -1.0156250000000002        3.9062500000000004        0.0000000000000000     
 -0.93749999999999989        3.9062500000000004        0.0000000000000000     
 -0.85937500000000000        3.9062500000000000        0.0000000000000000     
 -0.78125000000000000        3.9062500000000004        0.0000000000000000     
 -0.70312500000000011        3.9062500000000004        0.0000000000000000     
 -0.62500000000000000        3.9062500000000000        0.0000000000000000     
  -1.2499999999999998        3.9843749999999991        0.0000000000000000     
  -1.1718750000000002        3.9843750000000009        0.0000000000000000     
  -1.0937500000000000        3.9843750000000009        0.0000000000000000     
  -1.0156250000000000        3.9843749999999991        0.0000000000000000     
 -0.93749999999999978        3.9843750000000000        0.0000000000000000     
 -0.85937499999999989        3.9843750000000004        0.0000000000000000     
 -0.78125000000000000        3.9843749999999987        0.0000000000000000     
 -0.70312500000000000        3.9843750000000004        0.0000000000000000     
 -0.62499999999999989        3.9843750000000000        0.0000000000000000     
  -1.2500000000000000        4.0624999999999991        0.0000000000000000     
  -1.1718750000000002        4.0625000000000009        0.0000000000000000     
  -1.0937500000000000        4.0625000000000009        0.0000000000000000     
  -1.0156250000000002        4.0625000000000000        0.0000000000000000     
 -0.93750000000000022        4.0625000000000000        0.0000000000000000     
 -0.85937500000000011        4.0625000000000009        0.0000000000000000     
 -0.78125000000000000        4.0625000000000000        0.0000000000000000     
 -0.70312500000000022        4.0625000000000009        0.0000000000000000     
 -0.62500000000000011        4.0625000000000000        0.0000000000000000     
  -1.2500000000000000        4.1406250000000000        0.0000000000000000     
  -1.1718750000000000        4.1406250000000000        0.0000000000000000     
  -1.0937500000000000        4.1406250000000000        0.0000000000000000     
  -1.0156249999999998        4.1406250000000000        0.0000000000000000     
 -0.93750000000000011        4.1406250000000000        0.0000000000000000     
 -0.85937499999999989        4.1406250000000000        0.0000000000000000     
 -0.78125000000000011        4.1406250000000009        0.0000000000000000     
 -0.70312500000000000        4.1406249999999991        0.0000000000000000     
 -0.62500000000000000        4.1406250000000000        0.0000000000000000     
  -1.2499999999999998        4.2187499999999991        0.0000000000000000     
  -1.1718750000000000        4.2187500000000000        0.0000000000000000     
  -1.0937500000000002        4.2187500000000009        0.0000000000000000     
  -1.0156250000000000        4.2187500000000000        0.0000000000000000     
 -0.93749999999999978        4.2187500000000000        0.0000000000000000     
 -0.85937500000000011        4.2187500000000009        0.0000000000000000     
 -0.78125000000000011        4.2187500000000000        0.0000000000000000     
 -0.70312499999999989        4.2187500000000000        0.0000000000000000     
 -0.62500000000000022        4.2187500000000018        0.0000000000000000     
  -1.2500000000000000        4.2968750000000000        0.0000000000000000     
  -1.1718750000000002        4.2968750000000000        0.0000000000000000     
  -1.0937500000000000        4.2968750000000009        0.0000000000000000     
  -1.0156250000000000        4.2968750000000000        0.0000000000000000     
 -0.93750000000000011        4.2968750000000000        0.0000000000000000     
 -0.85937500000000011        4.2968750000000000        0.0000000000000000     
 -0.78125000000000000        4.2968750000000009        0.0000000000000000     
 -0.70312500000000011        4.2968750000000000        0.0000000000000000     
 -0.62500000000000022        4.2968750000000018        0.0000000000000000     
  -1.2500000000000000        4.3750000000000009        0.0000000000000000     
  -1.1718750000000002        4.3750000000000000        0.0000000000000000     
  -1.0937500000000000        4.3750000000000000        0.0000000000000000     
  -1.0156250000000000        4.3750000000000009        0.0000000000000000     
 -0.93750000000000011        4.3750000000000009        0.0000000000000000     
 -0.85937499999999989        4.3750000000000000        0.0000000000000000     
 -0.78124999999999989        4.3750000000000000        0.0000000000000000     
 -0.70312500000000000        4.3750000000000000        0.0000000000000000     
 -0.62499999999999989        4.3750000000000000        0.0000000000000000     
 -0.62500000000000011        3.7500000000000004        0.0000000000000000     
 -0.54687500000000000        3.7499999999999996        0.0000000000000000     
 -0.46875000000000000        3.7500000000000004        0.0000000000000000     
 -0.39062500000000006        3.7500000000000000        0.0000000000000000     
 -0.31250000000000006        3.7500000000000000        0.0000000000000000     
 -0.23437500000000006        3.7500000000000004        0.0000000000000000     
 -0.15625000000000000        3.7500000000000004        0.0000000000000000     
  -7.8124999999999972E-002   3.7499999999999991        0.0000000000000000     
   0.0000000000000000        3.7500000000000004        0.0000000000000000     
 -0.62500000000000011        3.8281250000000004        0.0000000000000000     
 -0.54687500000000011        3.8281250000000004        0.0000000000000000     
 -0.46875000000000000        3.8281249999999996        0.0000000000000000     
 -0.39062500000000000        3.8281250000000000        0.0000000000000000     
 -0.31250000000000011        3.8281250000000013        0.0000000000000000     
 -0.23437500000000000        3.8281250000000000        0.0000000000000000     
 -0.15625000000000003        3.8281250000000004        0.0000000000000000     
  -7.8125000000000000E-002   3.8281250000000009        0.0000000000000000     
   0.0000000000000000        3.8281249999999996        0.0000000000000000     
 -0.62500000000000000        3.9062500000000000        0.0000000000000000     
 -0.54687500000000000        3.9062500000000004        0.0000000000000000     
 -0.46875000000000000        3.9062500000000000        0.0000000000000000     
 -0.39062500000000006        3.9062500000000000        0.0000000000000000     
 -0.31250000000000011        3.9062500000000013        0.0000000000000000     
 -0.23437500000000000        3.9062499999999996        0.0000000000000000     
 -0.15625000000000000        3.9062500000000000        0.0000000000000000     
  -7.8125000000000014E-002   3.9062500000000009        0.0000000000000000     
   0.0000000000000000        3.9062500000000000        0.0000000000000000     
 -0.62499999999999989        3.9843750000000000        0.0000000000000000     
 -0.54687500000000011        3.9843750000000004        0.0000000000000000     
 -0.46875000000000000        3.9843750000000004        0.0000000000000000     
 -0.39062500000000006        3.9843750000000004        0.0000000000000000     
 -0.31250000000000000        3.9843750000000000        0.0000000000000000     
 -0.23437500000000000        3.9843750000000004        0.0000000000000000     
 -0.15625000000000000        3.9843750000000004        0.0000000000000000     
  -7.8124999999999986E-002   3.9843749999999991        0.0000000000000000     
   0.0000000000000000        3.9843750000000009        0.0000000000000000     
 -0.62500000000000011        4.0625000000000000        0.0000000000000000     
 -0.54687500000000011        4.0625000000000000        0.0000000000000000     
 -0.46875000000000000        4.0625000000000009        0.0000000000000000     
 -0.39062500000000000        4.0625000000000009        0.0000000000000000     
 -0.31250000000000011        4.0625000000000009        0.0000000000000000     
 -0.23437500000000000        4.0625000000000000        0.0000000000000000     
 -0.15625000000000000        4.0625000000000000        0.0000000000000000     
  -7.8125000000000000E-002   4.0625000000000000        0.0000000000000000     
   0.0000000000000000        4.0625000000000000        0.0000000000000000     
 -0.62500000000000000        4.1406250000000000        0.0000000000000000     
 -0.54687500000000011        4.1406250000000000        0.0000000000000000     
 -0.46875000000000000        4.1406250000000000        0.0000000000000000     
 -0.39062500000000006        4.1406250000000000        0.0000000000000000     
 -0.31250000000000000        4.1406249999999991        0.0000000000000000     
 -0.23437500000000000        4.1406250000000000        0.0000000000000000     
 -0.15625000000000000        4.1406250000000000        0.0000000000000000     
  -7.8124999999999986E-002   4.1406250000000000        0.0000000000000000     
   0.0000000000000000        4.1406250000000000        0.0000000000000000     
 -0.62500000000000022        4.2187500000000018        0.0000000000000000     
 -0.54687500000000011        4.2187500000000009        0.0000000000000000     
 -0.46875000000000011        4.2187500000000009        0.0000000000000000     
 -0.39062500000000006        4.2187500000000000        0.0000000000000000     
 -0.31250000000000006        4.2187500000000009        0.0000000000000000     
 -0.23437500000000006        4.2187500000000009        0.0000000000000000     
 -0.15625000000000000        4.2187500000000000        0.0000000000000000     
  -7.8124999999999986E-002   4.2187500000000009        0.0000000000000000     
   0.0000000000000000        4.2187500000000000        0.0000000000000000     
 -0.62500000000000022        4.2968750000000018        0.0000000000000000     
 -0.54687500000000000        4.2968749999999991        0.0000000000000000     
 -0.46875000000000000        4.2968750000000000        0.0000000000000000     
 -0.39062499999999989        4.2968749999999991        0.0000000000000000     
 -0.31250000000000011        4.2968750000000000        0.0000000000000000     
 -0.23437499999999997        4.2968750000000000        0.0000000000000000     
 -0.15625000000000000        4.2968750000000000        0.0000000000000000     
  -7.8125000000000000E-002   4.2968750000000000        0.0000000000000000     
   0.0000000000000000        4.2968750000000000        0.0000000000000000     
 -0.62499999999999989        4.3750000000000000        0.0000000000000000     
 -0.54687500000000000        4.3750000000000000        0.0000000000000000     
 -0.46875000000000006        4.3750000000000000        0.0000000000000000     
 -0.39062500000000006        4.3750000000000000        0.0000000000000000     
 -0.31249999999999994        4.3749999999999991        0.0000000000000000     
 -0.23437500000000000        4.3750000000000000        0.0000000000000000     
 -0.15625000000000000        4.3750000000000000        0.0000000000000000     
  -7.8125000000000000E-002   4.3750000000000009        0.0000000000000000     
   0.0000000000000000        4.3750000000000000        0.0000000000000000     
  -5.0000000000000000        4.3750000000000000        0.0000000000000000     
  -4.9218750000000000        4.3750000000000000        0.0000000000000000     
  -4.8437500000000009        4.3750000000000000        0.0000000000000000     
  -4.7656250000000009        4.3750000000000009        0.0000000000000000     
  -4.6875000000000009        4.3750000000000000        0.0000000000000000     
  -4.6093750000000000        4.3750000000000000        0.0000000000000000     
  -4.5312500000000000        4.3750000000000009        0.0000000000000000     
  -4.4531250000000009        4.3749999999999991        0.0000000000000000     
  -4.3750000000000009        4.3750000000000009        0.0000000000000000     
  -5.0000000000000009        4.4531250000000000        0.0000000000000000     
  -4.9218750000000000        4.4531250000000000        0.0000000000000000     
  -4.8437500000000000        4.4531250000000000        0.0000000000000000     
  -4.7656250000000009        4.4531250000000000        0.0000000000000000     
  -4.6875000000000009        4.4531250000000009        0.0000000000000000     
  -4.6093750000000000        4.4531250000000009        0.0000000000000000     
  -4.5312500000000000        4.4531250000000000        0.0000000000000000     
  -4.4531250000000009        4.4531250000000009        0.0000000000000000     
  -4.3750000000000009        4.4531250000000000        0.0000000000000000     
  -5.0000000000000000        4.5312500000000000        0.0000000000000000     
  -4.9218750000000000        4.5312500000000000        0.0000000000000000     
  -4.8437500000000000        4.5312500000000000        0.0000000000000000     
  -4.7656249999999991        4.5312499999999991        0.0000000000000000     
  -4.6875000000000000        4.5312500000000000        0.0000000000000000     
  -4.6093750000000000        4.5312499999999991        0.0000000000000000     
  -4.5312500000000009        4.5312500000000000        0.0000000000000000     
  -4.4531250000000000        4.5312500000000000        0.0000000000000000     
  -4.3750000000000000        4.5312500000000000        0.0000000000000000     
  -5.0000000000000000        4.6093750000000009        0.0000000000000000     
  -4.9218750000000000        4.6093749999999991        0.0000000000000000     
  -4.8437500000000009        4.6093750000000009        0.0000000000000000     
  -4.7656250000000000        4.6093750000000000        0.0000000000000000     
  -4.6875000000000000        4.6093750000000000        0.0000000000000000     
  -4.6093750000000018        4.6093750000000009        0.0000000000000000     
  -4.5312500000000000        4.6093749999999991        0.0000000000000000     
  -4.4531250000000000        4.6093750000000009        0.0000000000000000     
  -4.3750000000000009        4.6093750000000000        0.0000000000000000     
  -5.0000000000000009        4.6875000000000000        0.0000000000000000     
  -4.9218750000000009        4.6875000000000000        0.0000000000000000     
  -4.8437500000000000        4.6875000000000000        0.0000000000000000     
  -4.7656250000000000        4.6875000000000000        0.0000000000000000     
  -4.6875000000000009        4.6875000000000000        0.0000000000000000     
  -4.6093749999999991        4.6875000000000000        0.0000000000000000     
  -4.5312500000000000        4.6875000000000009        0.0000000000000000     
  -4.4531250000000009        4.6875000000000009        0.0000000000000000     
  -4.3750000000000000        4.6875000000000000        0.0000000000000000     
  -5.0000000000000000        4.7656250000000000        0.0000000000000000     
  -4.9218750000000000        4.7656250000000000        0.0000000000000000     
  -4.8437500000000000        4.7656250000000000        0.0000000000000000     
  -4.7656250000000000        4.7656250000000000        0.0000000000000000     
  -4.6875000000000000        4.7656250000000000        0.0000000000000000     
  -4.6093750000000000        4.7656250000000000        0.0000000000000000     
  -4.5312500000000000        4.7656249999999991        0.0000000000000000     
  -4.4531250000000000        4.7656249999999991        0.0000000000000000     
  -4.3750000000000000        4.7656250000000000        0.0000000000000000     
  -5.0000000000000000        4.8437499999999991        0.0000000000000000     
  -4.9218750000000000        4.8437500000000000        0.0000000000000000     
  -4.8437500000000000        4.8437499999999991        0.0000000000000000     
  -4.7656250000000000        4.8437499999999991        0.0000000000000000     
  -4.6875000000000009        4.8437500000000000        0.0000000000000000     
  -4.6093750000000000        4.8437499999999991        0.0000000000000000     
  -4.5312500000000000        4.8437500000000000        0.0000000000000000     
  -4.4531250000000000        4.8437500000000000        0.0000000000000000     
  -4.3750000000000009        4.8437500000000000        0.0000000000000000     
  -5.0000000000000000        4.9218750000000000        0.0000000000000000     
  -4.9218750000000000        4.9218749999999991        0.0000000000000000     
  -4.8437500000000000        4.9218750000000000        0.0000000000000000     
  -4.7656250000000000        4.9218750000000000        0.0000000000000000     
  -4.6875000000000009        4.9218750000000000        0.0000000000000000     
  -4.6093750000000000        4.9218750000000000        0.0000000000000000     
  -4.5312500000000000        4.9218750000000000        0.0000000000000000     
  -4.4531250000000009        4.9218750000000009        0.0000000000000000     
  -4.3750000000000000        4.9218750000000000        0.0000000000000000     
  -5.0000000000000000        5.0000000000000000        0.0000000000000000     
  -4.9218750000000000        5.0000000000000000        0.0000000000000000     
  -4.8437500000000000        5.0000000000000000        0.0000000000000000     
  -4.7656250000000000        5.0000000000000000        0.0000000000000000     
  -4.6875000000000000        5.0000000000000000        0.0000000000000000     
  -4.6093750000000000        5.0000000000000000        0.0000000000000000     
  -4.5312500000000000        5.0000000000000000        0.0000000000000000     
  -4.4531250000000000        4.9999999999999991        0.0000000000000000     
  -4.3750000000000000        5.0000000000000000        0.0000000000000000     
  -4.3750000000000009        4.3750000000000009        0.0000000000000000     
  -4.2968750000000000        4.3750000000000000        0.0000000000000000     
  -4.2187500000000000        4.3750000000000000        0.0000000000000000     
  -4.1406250000000000        4.3750000000000000        0.0000000000000000     
  -4.0625000000000000        4.3750000000000000        0.0000000000000000     
  -3.9843749999999996        4.3750000000000000        0.0000000000000000     
  -3.9062500000000000        4.3750000000000000        0.0000000000000000     
  -3.8281250000000009        4.3750000000000009        0.0000000000000000     
  -3.7500000000000000        4.3750000000000009        0.0000000000000000     
  -4.3750000000000009        4.4531250000000000        0.0000000000000000     
  -4.2968750000000009        4.4531250000000000        0.0000000000000000     
  -4.2187500000000000        4.4531249999999991        0.0000000000000000     
  -4.1406250000000000        4.4531250000000000        0.0000000000000000     
  -4.0625000000000009        4.4531250000000000        0.0000000000000000     
  -3.9843750000000004        4.4531249999999991        0.0000000000000000     
  -3.9062500000000004        4.4531250000000009        0.0000000000000000     
  -3.8281250000000004        4.4531250000000000        0.0000000000000000     
  -3.7500000000000004        4.4531250000000000        0.0000000000000000     
  -4.3750000000000000        4.5312500000000000        0.0000000000000000     
  -4.2968750000000000        4.5312499999999991        0.0000000000000000     
  -4.2187500000000000        4.5312500000000000        0.0000000000000000     
  -4.1406250000000000        4.5312500000000000        0.0000000000000000     
  -4.0625000000000009        4.5312500000000000        0.0000000000000000     
  -3.9843750000000000        4.5312500000000000        0.0000000000000000     
  -3.9062500000000000        4.5312500000000000        0.0000000000000000     
  -3.8281250000000000        4.5312500000000000        0.0000000000000000     
  -3.7500000000000000        4.5312500000000000        0.0000000000000000     
  -4.3750000000000009        4.6093750000000000        0.0000000000000000     
  -4.2968750000000018        4.6093750000000000        0.0000000000000000     
  -4.2187500000000009        4.6093750000000009        0.0000000000000000     
  -4.1406250000000009        4.6093750000000000        0.0000000000000000     
  -4.0625000000000009        4.6093750000000000        0.0000000000000000     
  -3.9843750000000000        4.6093750000000018        0.0000000000000000     
  -3.9062499999999996        4.6093750000000000        0.0000000000000000     
  -3.8281250000000000        4.6093750000000000        0.0000000000000000     
  -3.7499999999999996        4.6093750000000009        0.0000000000000000     
  -4.3750000000000000        4.6875000000000000        0.0000000000000000     
  -4.2968750000000000        4.6875000000000000        0.0000000000000000     
  -4.2187500000000000        4.6874999999999991        0.0000000000000000     
  -4.1406250000000000        4.6875000000000000        0.0000000000000000     
  -4.0625000000000009        4.6875000000000009        0.0000000000000000     
  -3.9843750000000004        4.6874999999999991        0.0000000000000000     
  -3.9062500000000004        4.6875000000000000        0.0000000000000000     
  -3.8281250000000000        4.6875000000000000        0.0000000000000000     
  -3.7500000000000013        4.6875000000000009        0.0000000000000000     
  -4.3750000000000000        4.7656250000000000        0.0000000000000000     
  -4.2968750000000000        4.7656250000000000        0.0000000000000000     
  -4.2187500000000000        4.7656250000000000        0.0000000000000000     
  -4.1406250000000000        4.7656250000000000        0.0000000000000000     
  -4.0625000000000000        4.7656250000000000        0.0000000000000000     
  -3.9843750000000000        4.7656250000000000        0.0000000000000000     
  -3.9062500000000000        4.7656250000000000        0.0000000000000000     
  -3.8281250000000000        4.7656250000000000        0.0000000000000000     
  -3.7500000000000009        4.7656250000000009        0.0000000000000000     
  -4.3750000000000009        4.8437500000000000        0.0000000000000000     
  -4.2968750000000000        4.8437500000000000        0.0000000000000000     
  -4.2187500000000000        4.8437500000000009        0.0000000000000000     
  -4.1406250000000009        4.8437500000000009        0.0000000000000000     
  -4.0625000000000009        4.8437500000000000        0.0000000000000000     
  -3.9843750000000000        4.8437500000000009        0.0000000000000000     
  -3.9062500000000000        4.8437500000000000        0.0000000000000000     
  -3.8281250000000004        4.8437500000000009        0.0000000000000000     
  -3.7499999999999996        4.8437500000000018        0.0000000000000000     
  -4.3750000000000000        4.9218750000000000        0.0000000000000000     
  -4.2968750000000000        4.9218749999999991        0.0000000000000000     
  -4.2187500000000000        4.9218749999999982        0.0000000000000000     
  -4.1406250000000000        4.9218750000000009        0.0000000000000000     
  -4.0625000000000000        4.9218750000000000        0.0000000000000000     
  -3.9843749999999996        4.9218749999999982        0.0000000000000000     
  -3.9062500000000013        4.9218750000000009        0.0000000000000000     
  -3.8281250000000004        4.9218750000000000        0.0000000000000000     
  -3.7499999999999996        4.9218749999999982        0.0000000000000000     
  -4.3750000000000000        5.0000000000000000        0.0000000000000000     
  -4.2968750000000000        5.0000000000000000        0.0000000000000000     
  -4.2187500000000000        4.9999999999999991        0.0000000000000000     
  -4.1406250000000009        5.0000000000000009        0.0000000000000000     
  -4.0625000000000000        5.0000000000000000        0.0000000000000000     
  -3.9843750000000009        5.0000000000000009        0.0000000000000000     
  -3.9062499999999996        5.0000000000000000        0.0000000000000000     
  -3.8281250000000000        5.0000000000000000        0.0000000000000000     
  -3.7500000000000009        5.0000000000000018        0.0000000000000000     
  -3.7500000000000000        4.3750000000000009        0.0000000000000000     
  -3.6718750000000000        4.3750000000000000        0.0000000000000000     
  -3.5937500000000000        4.3750000000000000        0.0000000000000000     
  -3.5156249999999996        4.3750000000000009        0.0000000000000000     
  -3.4374999999999996        4.3750000000000000        0.0000000000000000     
  -3.3593750000000004        4.3750000000000000        0.0000000000000000     
  -3.2812499999999996        4.3750000000000000        0.0000000000000000     
  -3.2031250000000000        4.3750000000000009        0.0000000000000000     
  -3.1250000000000004        4.3750000000000009        0.0000000000000000     
  -3.7500000000000004        4.4531250000000000        0.0000000000000000     
  -3.6718750000000013        4.4531250000000018        0.0000000000000000     
  -3.5937499999999996        4.4531249999999991        0.0000000000000000     
  -3.5156250000000004        4.4531249999999991        0.0000000000000000     
  -3.4375000000000000        4.4531250000000000        0.0000000000000000     
  -3.3593749999999996        4.4531249999999991        0.0000000000000000     
  -3.2812500000000000        4.4531249999999991        0.0000000000000000     
  -3.2031250000000004        4.4531250000000009        0.0000000000000000     
  -3.1250000000000000        4.4531250000000000        0.0000000000000000     
  -3.7500000000000000        4.5312500000000000        0.0000000000000000     
  -3.6718750000000000        4.5312500000000000        0.0000000000000000     
  -3.5937500000000000        4.5312500000000000        0.0000000000000000     
  -3.5156250000000000        4.5312500000000000        0.0000000000000000     
  -3.4375000000000000        4.5312500000000000        0.0000000000000000     
  -3.3593750000000000        4.5312500000000000        0.0000000000000000     
  -3.2812500000000000        4.5312500000000000        0.0000000000000000     
  -3.2031250000000000        4.5312500000000000        0.0000000000000000     
  -3.1250000000000000        4.5312500000000000        0.0000000000000000     
  -3.7499999999999996        4.6093750000000009        0.0000000000000000     
  -3.6718750000000000        4.6093750000000000        0.0000000000000000     
  -3.5937500000000000        4.6093750000000018        0.0000000000000000     
  -3.5156249999999996        4.6093750000000009        0.0000000000000000     
  -3.4375000000000000        4.6093750000000000        0.0000000000000000     
  -3.3593750000000004        4.6093750000000018        0.0000000000000000     
  -3.2812500000000004        4.6093750000000018        0.0000000000000000     
  -3.2031250000000004        4.6093750000000000        0.0000000000000000     
  -3.1250000000000004        4.6093750000000009        0.0000000000000000     
  -3.7500000000000013        4.6875000000000009        0.0000000000000000     
  -3.6718750000000013        4.6875000000000009        0.0000000000000000     
  -3.5937500000000000        4.6874999999999991        0.0000000000000000     
  -3.5156250000000004        4.6874999999999991        0.0000000000000000     
  -3.4375000000000004        4.6875000000000009        0.0000000000000000     
  -3.3593750000000000        4.6874999999999991        0.0000000000000000     
  -3.2812500000000000        4.6874999999999982        0.0000000000000000     
  -3.2031250000000009        4.6875000000000009        0.0000000000000000     
  -3.1250000000000009        4.6875000000000009        0.0000000000000000     
  -3.7500000000000009        4.7656250000000009        0.0000000000000000     
  -3.6718750000000000        4.7656250000000000        0.0000000000000000     
  -3.5937500000000000        4.7656250000000000        0.0000000000000000     
  -3.5156250000000000        4.7656250000000000        0.0000000000000000     
  -3.4375000000000000        4.7656250000000000        0.0000000000000000     
  -3.3593750000000000        4.7656250000000000        0.0000000000000000     
  -3.2812500000000000        4.7656250000000000        0.0000000000000000     
  -3.2031250000000000        4.7656250000000000        0.0000000000000000     
  -3.1250000000000004        4.7656250000000009        0.0000000000000000     
  -3.7499999999999996        4.8437500000000018        0.0000000000000000     
  -3.6718750000000004        4.8437500000000009        0.0000000000000000     
  -3.5937500000000000        4.8437500000000018        0.0000000000000000     
  -3.5156250000000004        4.8437500000000027        0.0000000000000000     
  -3.4375000000000004        4.8437500000000009        0.0000000000000000     
  -3.3593750000000000        4.8437500000000009        0.0000000000000000     
  -3.2812500000000000        4.8437500000000018        0.0000000000000000     
  -3.2031250000000004        4.8437500000000009        0.0000000000000000     
  -3.1250000000000000        4.8437500000000018        0.0000000000000000     
  -3.7499999999999996        4.9218749999999982        0.0000000000000000     
  -3.6718750000000004        4.9218750000000009        0.0000000000000000     
  -3.5937500000000000        4.9218749999999982        0.0000000000000000     
  -3.5156250000000004        4.9218749999999991        0.0000000000000000     
  -3.4375000000000004        4.9218750000000018        0.0000000000000000     
  -3.3593750000000000        4.9218749999999982        0.0000000000000000     
  -3.2812500000000004        4.9218750000000000        0.0000000000000000     
  -3.2031250000000004        4.9218750000000009        0.0000000000000000     
  -3.1250000000000000        4.9218749999999982        0.0000000000000000     
  -3.7500000000000009        5.0000000000000018        0.0000000000000000     
  -3.6718750000000000        5.0000000000000000        0.0000000000000000     
  -3.5937500000000000        4.9999999999999991        0.0000000000000000     
  -3.5156250000000004        5.0000000000000009        0.0000000000000000     
  -3.4375000000000004        5.0000000000000009        0.0000000000000000     
  -3.3593750000000004        5.0000000000000009        0.0000000000000000     
  -3.2812500000000000        5.0000000000000009        0.0000000000000000     
  -3.2031250000000000        5.0000000000000000        0.0000000000000000     
  -3.1250000000000000        5.0000000000000018        0.0000000000000000     
  -3.1250000000000004        4.3750000000000009        0.0000000000000000     
  -3.0468750000000000        4.3750000000000000        0.0000000000000000     
  -2.9687500000000000        4.3750000000000000        0.0000000000000000     
  -2.8906250000000004        4.3750000000000009        0.0000000000000000     
  -2.8125000000000000        4.3750000000000000        0.0000000000000000     
  -2.7343750000000000        4.3750000000000000        0.0000000000000000     
  -2.6562500000000000        4.3750000000000000        0.0000000000000000     
  -2.5781250000000000        4.3750000000000009        0.0000000000000000     
  -2.5000000000000000        4.3750000000000009        0.0000000000000000     
  -3.1250000000000000        4.4531250000000000        0.0000000000000000     
  -3.0468750000000013        4.4531250000000018        0.0000000000000000     
  -2.9687500000000004        4.4531249999999991        0.0000000000000000     
  -2.8906249999999996        4.4531249999999991        0.0000000000000000     
  -2.8125000000000000        4.4531250000000000        0.0000000000000000     
  -2.7343750000000004        4.4531249999999991        0.0000000000000000     
  -2.6562499999999996        4.4531249999999991        0.0000000000000000     
  -2.5781250000000004        4.4531250000000009        0.0000000000000000     
  -2.5000000000000000        4.4531250000000000        0.0000000000000000     
  -3.1250000000000000        4.5312500000000000        0.0000000000000000     
  -3.0468750000000000        4.5312500000000000        0.0000000000000000     
  -2.9687500000000000        4.5312500000000000        0.0000000000000000     
  -2.8906250000000000        4.5312500000000000        0.0000000000000000     
  -2.8125000000000000        4.5312500000000000        0.0000000000000000     
  -2.7343750000000000        4.5312500000000000        0.0000000000000000     
  -2.6562500000000000        4.5312500000000000        0.0000000000000000     
  -2.5781250000000000        4.5312500000000000        0.0000000000000000     
  -2.5000000000000000        4.5312500000000000        0.0000000000000000     
  -3.1250000000000004        4.6093750000000009        0.0000000000000000     
  -3.0468750000000000        4.6093750000000000        0.0000000000000000     
  -2.9687500000000000        4.6093750000000018        0.0000000000000000     
  -2.8906250000000004        4.6093750000000009        0.0000000000000000     
  -2.8124999999999996        4.6093750000000000        0.0000000000000000     
  -2.7343750000000004        4.6093750000000018        0.0000000000000000     
  -2.6562500000000004        4.6093750000000018        0.0000000000000000     
  -2.5781249999999996        4.6093750000000000        0.0000000000000000     
  -2.5000000000000004        4.6093750000000009        0.0000000000000000     
  -3.1250000000000009        4.6875000000000009        0.0000000000000000     
  -3.0468750000000009        4.6875000000000009        0.0000000000000000     
  -2.9687500000000000        4.6874999999999991        0.0000000000000000     
  -2.8906250000000000        4.6874999999999991        0.0000000000000000     
  -2.8125000000000004        4.6875000000000009        0.0000000000000000     
  -2.7343750000000000        4.6874999999999991        0.0000000000000000     
  -2.6562500000000000        4.6874999999999982        0.0000000000000000     
  -2.5781250000000009        4.6875000000000009        0.0000000000000000     
  -2.5000000000000004        4.6875000000000009        0.0000000000000000     
  -3.1250000000000004        4.7656250000000009        0.0000000000000000     
  -3.0468750000000000        4.7656250000000000        0.0000000000000000     
  -2.9687500000000000        4.7656250000000000        0.0000000000000000     
  -2.8906250000000000        4.7656250000000000        0.0000000000000000     
  -2.8125000000000000        4.7656250000000000        0.0000000000000000     
  -2.7343750000000000        4.7656250000000000        0.0000000000000000     
  -2.6562500000000000        4.7656250000000000        0.0000000000000000     
  -2.5781250000000000        4.7656250000000000        0.0000000000000000     
  -2.5000000000000004        4.7656250000000009        0.0000000000000000     
  -3.1250000000000000        4.8437500000000018        0.0000000000000000     
  -3.0468750000000000        4.8437500000000009        0.0000000000000000     
  -2.9687500000000004        4.8437500000000018        0.0000000000000000     
  -2.8906250000000009        4.8437500000000027        0.0000000000000000     
  -2.8125000000000004        4.8437500000000009        0.0000000000000000     
  -2.7343750000000000        4.8437500000000009        0.0000000000000000     
  -2.6562500000000000        4.8437500000000018        0.0000000000000000     
  -2.5781250000000004        4.8437500000000009        0.0000000000000000     
  -2.5000000000000004        4.8437500000000018        0.0000000000000000     
  -3.1250000000000000        4.9218749999999982        0.0000000000000000     
  -3.0468750000000013        4.9218750000000009        0.0000000000000000     
  -2.9687499999999996        4.9218749999999982        0.0000000000000000     
  -2.8906250000000000        4.9218749999999991        0.0000000000000000     
  -2.8125000000000009        4.9218750000000018        0.0000000000000000     
  -2.7343749999999996        4.9218749999999982        0.0000000000000000     
  -2.6562500000000000        4.9218750000000000        0.0000000000000000     
  -2.5781250000000009        4.9218750000000009        0.0000000000000000     
  -2.4999999999999996        4.9218749999999982        0.0000000000000000     
  -3.1250000000000000        5.0000000000000018        0.0000000000000000     
  -3.0468749999999996        5.0000000000000000        0.0000000000000000     
  -2.9687500000000000        4.9999999999999991        0.0000000000000000     
  -2.8906250000000004        5.0000000000000009        0.0000000000000000     
  -2.8125000000000004        5.0000000000000009        0.0000000000000000     
  -2.7343750000000004        5.0000000000000009        0.0000000000000000     
  -2.6562500000000004        5.0000000000000009        0.0000000000000000     
  -2.5781250000000000        5.0000000000000000        0.0000000000000000     
  -2.5000000000000004        5.0000000000000018        0.0000000000000000     
  -2.5000000000000000        4.3750000000000009        0.0000000000000000     
  -2.4218750000000000        4.3750000000000000        0.0000000000000000     
  -2.3437500000000004        4.3750000000000000        0.0000000000000000     
  -2.2656249999999996        4.3750000000000009        0.0000000000000000     
  -2.1875000000000000        4.3750000000000000        0.0000000000000000     
  -2.1093750000000000        4.3750000000000000        0.0000000000000000     
  -2.0312499999999996        4.3750000000000000        0.0000000000000000     
  -1.9531249999999998        4.3750000000000009        0.0000000000000000     
  -1.8750000000000002        4.3750000000000009        0.0000000000000000     
  -2.5000000000000000        4.4531250000000000        0.0000000000000000     
  -2.4218750000000004        4.4531250000000018        0.0000000000000000     
  -2.3437499999999996        4.4531249999999991        0.0000000000000000     
  -2.2656250000000000        4.4531249999999991        0.0000000000000000     
  -2.1875000000000000        4.4531250000000000        0.0000000000000000     
  -2.1093750000000000        4.4531249999999991        0.0000000000000000     
  -2.0312500000000004        4.4531249999999991        0.0000000000000000     
  -1.9531250000000004        4.4531250000000009        0.0000000000000000     
  -1.8750000000000000        4.4531250000000000        0.0000000000000000     
  -2.5000000000000000        4.5312500000000000        0.0000000000000000     
  -2.4218750000000000        4.5312500000000000        0.0000000000000000     
  -2.3437500000000000        4.5312500000000000        0.0000000000000000     
  -2.2656250000000000        4.5312500000000000        0.0000000000000000     
  -2.1875000000000000        4.5312500000000000        0.0000000000000000     
  -2.1093750000000000        4.5312500000000000        0.0000000000000000     
  -2.0312500000000000        4.5312500000000000        0.0000000000000000     
  -1.9531249999999998        4.5312500000000000        0.0000000000000000     
  -1.8750000000000000        4.5312500000000000        0.0000000000000000     
  -2.5000000000000004        4.6093750000000009        0.0000000000000000     
  -2.4218750000000004        4.6093750000000000        0.0000000000000000     
  -2.3437500000000004        4.6093750000000018        0.0000000000000000     
  -2.2656250000000000        4.6093750000000009        0.0000000000000000     
  -2.1875000000000000        4.6093750000000000        0.0000000000000000     
  -2.1093750000000004        4.6093750000000018        0.0000000000000000     
  -2.0312499999999996        4.6093750000000018        0.0000000000000000     
  -1.9531249999999998        4.6093750000000000        0.0000000000000000     
  -1.8750000000000000        4.6093750000000009        0.0000000000000000     
  -2.5000000000000004        4.6875000000000009        0.0000000000000000     
  -2.4218750000000004        4.6875000000000009        0.0000000000000000     
  -2.3437499999999996        4.6874999999999991        0.0000000000000000     
  -2.2656250000000000        4.6874999999999991        0.0000000000000000     
  -2.1875000000000000        4.6875000000000009        0.0000000000000000     
  -2.1093749999999996        4.6874999999999991        0.0000000000000000     
  -2.0312500000000000        4.6874999999999982        0.0000000000000000     
  -1.9531250000000009        4.6875000000000009        0.0000000000000000     
  -1.8750000000000007        4.6875000000000009        0.0000000000000000     
  -2.5000000000000004        4.7656250000000009        0.0000000000000000     
  -2.4218749999999996        4.7656250000000000        0.0000000000000000     
  -2.3437500000000000        4.7656250000000000        0.0000000000000000     
  -2.2656250000000000        4.7656250000000000        0.0000000000000000     
  -2.1875000000000000        4.7656250000000000        0.0000000000000000     
  -2.1093750000000000        4.7656250000000000        0.0000000000000000     
  -2.0312500000000000        4.7656250000000000        0.0000000000000000     
  -1.9531250000000000        4.7656250000000000        0.0000000000000000     
  -1.8750000000000002        4.7656250000000009        0.0000000000000000     
  -2.5000000000000004        4.8437500000000018        0.0000000000000000     
  -2.4218750000000000        4.8437500000000009        0.0000000000000000     
  -2.3437500000000004        4.8437500000000018        0.0000000000000000     
  -2.2656250000000004        4.8437500000000027        0.0000000000000000     
  -2.1875000000000004        4.8437500000000009        0.0000000000000000     
  -2.1093750000000000        4.8437500000000009        0.0000000000000000     
  -2.0312500000000000        4.8437500000000018        0.0000000000000000     
  -1.9531250000000002        4.8437500000000009        0.0000000000000000     
  -1.8750000000000000        4.8437500000000018        0.0000000000000000     
  -2.4999999999999996        4.9218749999999982        0.0000000000000000     
  -2.4218750000000009        4.9218750000000009        0.0000000000000000     
  -2.3437500000000000        4.9218749999999982        0.0000000000000000     
  -2.2656250000000000        4.9218749999999991        0.0000000000000000     
  -2.1875000000000009        4.9218750000000018        0.0000000000000000     
  -2.1093750000000000        4.9218749999999982        0.0000000000000000     
  -2.0312500000000004        4.9218750000000000        0.0000000000000000     
  -1.9531250000000002        4.9218750000000009        0.0000000000000000     
  -1.8749999999999998        4.9218749999999982        0.0000000000000000     
  -2.5000000000000004        5.0000000000000018        0.0000000000000000     
  -2.4218749999999996        5.0000000000000000        0.0000000000000000     
  -2.3437500000000000        4.9999999999999991        0.0000000000000000     
  -2.2656250000000004        5.0000000000000009        0.0000000000000000     
  -2.1875000000000004        5.0000000000000009        0.0000000000000000     
  -2.1093750000000004        5.0000000000000009        0.0000000000000000     
  -2.0312500000000004        5.0000000000000009        0.0000000000000000     
  -1.9531250000000002        5.0000000000000000        0.0000000000000000     
  -1.8750000000000002        5.0000000000000018        0.0000000000000000     
  -1.8750000000000002        4.3750000000000009        0.0000000000000000     
  -1.7968749999999998        4.3750000000000000        0.0000000000000000     
  -1.7187500000000000        4.3750000000000000        0.0000000000000000     
  -1.6406250000000002        4.3750000000000009        0.0000000000000000     
  -1.5624999999999998        4.3750000000000000        0.0000000000000000     
  -1.4843750000000000        4.3750000000000000        0.0000000000000000     
  -1.4062499999999998        4.3750000000000000        0.0000000000000000     
  -1.3281250000000000        4.3750000000000009        0.0000000000000000     
  -1.2500000000000000        4.3750000000000009        0.0000000000000000     
  -1.8750000000000000        4.4531250000000000        0.0000000000000000     
  -1.7968750000000007        4.4531250000000018        0.0000000000000000     
  -1.7187500000000002        4.4531249999999991        0.0000000000000000     
  -1.6406250000000000        4.4531249999999991        0.0000000000000000     
  -1.5625000000000000        4.4531250000000000        0.0000000000000000     
  -1.4843750000000002        4.4531249999999991        0.0000000000000000     
  -1.4062500000000000        4.4531249999999991        0.0000000000000000     
  -1.3281250000000002        4.4531250000000009        0.0000000000000000     
  -1.2500000000000000        4.4531250000000000        0.0000000000000000     
  -1.8750000000000000        4.5312500000000000        0.0000000000000000     
  -1.7968750000000000        4.5312500000000000        0.0000000000000000     
  -1.7187500000000000        4.5312500000000000        0.0000000000000000     
  -1.6406250000000000        4.5312500000000000        0.0000000000000000     
  -1.5625000000000000        4.5312500000000000        0.0000000000000000     
  -1.4843750000000000        4.5312500000000000        0.0000000000000000     
  -1.4062500000000000        4.5312500000000000        0.0000000000000000     
  -1.3281250000000000        4.5312500000000000        0.0000000000000000     
  -1.2500000000000000        4.5312500000000000        0.0000000000000000     
  -1.8750000000000000        4.6093750000000009        0.0000000000000000     
  -1.7968749999999998        4.6093750000000000        0.0000000000000000     
  -1.7187500000000000        4.6093750000000018        0.0000000000000000     
  -1.6406250000000000        4.6093750000000009        0.0000000000000000     
  -1.5625000000000000        4.6093750000000000        0.0000000000000000     
  -1.4843750000000000        4.6093750000000018        0.0000000000000000     
  -1.4062500000000000        4.6093750000000018        0.0000000000000000     
  -1.3281250000000000        4.6093750000000000        0.0000000000000000     
  -1.2500000000000000        4.6093750000000009        0.0000000000000000     
  -1.8750000000000007        4.6875000000000009        0.0000000000000000     
  -1.7968750000000007        4.6875000000000009        0.0000000000000000     
  -1.7187500000000000        4.6874999999999991        0.0000000000000000     
  -1.6406250000000000        4.6874999999999991        0.0000000000000000     
  -1.5625000000000002        4.6875000000000009        0.0000000000000000     
  -1.4843750000000000        4.6874999999999991        0.0000000000000000     
  -1.4062499999999996        4.6874999999999982        0.0000000000000000     
  -1.3281250000000004        4.6875000000000009        0.0000000000000000     
  -1.2500000000000004        4.6875000000000009        0.0000000000000000     
  -1.8750000000000002        4.7656250000000009        0.0000000000000000     
  -1.7968749999999998        4.7656250000000000        0.0000000000000000     
  -1.7187500000000000        4.7656250000000000        0.0000000000000000     
  -1.6406250000000000        4.7656250000000000        0.0000000000000000     
  -1.5625000000000000        4.7656250000000000        0.0000000000000000     
  -1.4843749999999998        4.7656250000000000        0.0000000000000000     
  -1.4062500000000000        4.7656250000000000        0.0000000000000000     
  -1.3281249999999998        4.7656250000000000        0.0000000000000000     
  -1.2500000000000002        4.7656250000000009        0.0000000000000000     
  -1.8750000000000000        4.8437500000000018        0.0000000000000000     
  -1.7968750000000000        4.8437500000000009        0.0000000000000000     
  -1.7187500000000000        4.8437500000000018        0.0000000000000000     
  -1.6406250000000004        4.8437500000000027        0.0000000000000000     
  -1.5625000000000002        4.8437500000000009        0.0000000000000000     
  -1.4843750000000000        4.8437500000000009        0.0000000000000000     
  -1.4062500000000000        4.8437500000000018        0.0000000000000000     
  -1.3281250000000000        4.8437500000000009        0.0000000000000000     
  -1.2500000000000000        4.8437500000000018        0.0000000000000000     
  -1.8749999999999998        4.9218749999999982        0.0000000000000000     
  -1.7968750000000007        4.9218750000000009        0.0000000000000000     
  -1.7187500000000000        4.9218749999999982        0.0000000000000000     
  -1.6406250000000002        4.9218749999999991        0.0000000000000000     
  -1.5625000000000007        4.9218750000000018        0.0000000000000000     
  -1.4843749999999998        4.9218749999999982        0.0000000000000000     
  -1.4062500000000000        4.9218750000000000        0.0000000000000000     
  -1.3281250000000002        4.9218750000000009        0.0000000000000000     
  -1.2500000000000000        4.9218749999999982        0.0000000000000000     
  -1.8750000000000002        5.0000000000000018        0.0000000000000000     
  -1.7968749999999998        5.0000000000000000        0.0000000000000000     
  -1.7187500000000000        4.9999999999999991        0.0000000000000000     
  -1.6406250000000004        5.0000000000000009        0.0000000000000000     
  -1.5625000000000002        5.0000000000000009        0.0000000000000000     
  -1.4843750000000002        5.0000000000000009        0.0000000000000000     
  -1.4062500000000002        5.0000000000000009        0.0000000000000000     
  -1.3281249999999998        5.0000000000000000        0.0000000000000000     
  -1.2500000000000002        5.0000000000000018        0.0000000000000000     
  -1.2500000000000000        4.3750000000000009        0.0000000000000000     
  -1.1718750000000002        4.3750000000000000        0.0000000000000000     
  -1.0937500000000000        4.3750000000000000        0.0000000000000000     
  -1.0156250000000000        4.3750000000000009        0.0000000000000000     
 -0.93750000000000011        4.3750000000000009        0.0000000000000000     
 -0.85937499999999989        4.3750000000000000        0.0000000000000000     
 -0.78124999999999989        4.3750000000000000        0.0000000000000000     
 -0.70312500000000000        4.3750000000000000        0.0000000000000000     
 -0.62499999999999989        4.3750000000000000        0.0000000000000000     
  -1.2500000000000000        4.4531250000000000        0.0000000000000000     
  -1.1718750000000002        4.4531250000000018        0.0000000000000000     
  -1.0937500000000000        4.4531250000000000        0.0000000000000000     
  -1.0156250000000000        4.4531249999999991        0.0000000000000000     
 -0.93750000000000000        4.4531250000000000        0.0000000000000000     
 -0.85937500000000011        4.4531250000000000        0.0000000000000000     
 -0.78125000000000000        4.4531249999999991        0.0000000000000000     
 -0.70312500000000022        4.4531250000000009        0.0000000000000000     
 -0.62500000000000000        4.4531250000000000        0.0000000000000000     
  -1.2500000000000000        4.5312500000000000        0.0000000000000000     
  -1.1718750000000000        4.5312500000000000        0.0000000000000000     
  -1.0937500000000000        4.5312500000000000        0.0000000000000000     
  -1.0156250000000000        4.5312500000000000        0.0000000000000000     
 -0.93750000000000000        4.5312500000000000        0.0000000000000000     
 -0.85937500000000000        4.5312500000000000        0.0000000000000000     
 -0.78125000000000000        4.5312500000000000        0.0000000000000000     
 -0.70312500000000000        4.5312500000000000        0.0000000000000000     
 -0.62500000000000000        4.5312500000000000        0.0000000000000000     
  -1.2500000000000000        4.6093750000000009        0.0000000000000000     
  -1.1718750000000000        4.6093750000000000        0.0000000000000000     
  -1.0937500000000000        4.6093750000000000        0.0000000000000000     
  -1.0156250000000000        4.6093750000000009        0.0000000000000000     
 -0.93750000000000011        4.6093750000000009        0.0000000000000000     
 -0.85937500000000000        4.6093750000000009        0.0000000000000000     
 -0.78125000000000011        4.6093750000000018        0.0000000000000000     
 -0.70312500000000000        4.6093750000000000        0.0000000000000000     
 -0.62500000000000000        4.6093750000000009        0.0000000000000000     
  -1.2500000000000004        4.6875000000000009        0.0000000000000000     
  -1.1718750000000002        4.6875000000000009        0.0000000000000000     
  -1.0937499999999998        4.6875000000000000        0.0000000000000000     
  -1.0156250000000000        4.6874999999999991        0.0000000000000000     
 -0.93750000000000000        4.6875000000000000        0.0000000000000000     
 -0.85937500000000000        4.6875000000000000        0.0000000000000000     
 -0.78125000000000000        4.6874999999999982        0.0000000000000000     
 -0.70312500000000022        4.6875000000000009        0.0000000000000000     
 -0.62500000000000000        4.6874999999999991        0.0000000000000000     
  -1.2500000000000002        4.7656250000000009        0.0000000000000000     
  -1.1718750000000000        4.7656250000000000        0.0000000000000000     
  -1.0937500000000000        4.7656250000000000        0.0000000000000000     
  -1.0156250000000000        4.7656250000000000        0.0000000000000000     
 -0.93750000000000000        4.7656250000000000        0.0000000000000000     
 -0.85937500000000000        4.7656250000000000        0.0000000000000000     
 -0.78125000000000000        4.7656250000000000        0.0000000000000000     
 -0.70312500000000000        4.7656249999999991        0.0000000000000000     
 -0.62500000000000000        4.7656250000000000        0.0000000000000000     
  -1.2500000000000000        4.8437500000000018        0.0000000000000000     
  -1.1718750000000000        4.8437500000000009        0.0000000000000000     
  -1.0937500000000002        4.8437500000000000        0.0000000000000000     
  -1.0156250000000002        4.8437500000000027        0.0000000000000000     
 -0.93749999999999978        4.8437500000000009        0.0000000000000000     
 -0.85937500000000000        4.8437500000000000        0.0000000000000000     
 -0.78125000000000000        4.8437500000000018        0.0000000000000000     
 -0.70312500000000000        4.8437500000000000        0.0000000000000000     
 -0.62500000000000000        4.8437500000000000        0.0000000000000000     
  -1.2500000000000000        4.9218749999999982        0.0000000000000000     
  -1.1718750000000002        4.9218750000000000        0.0000000000000000     
  -1.0937500000000000        4.9218750000000009        0.0000000000000000     
  -1.0156250000000002        4.9218749999999991        0.0000000000000000     
 -0.93750000000000011        4.9218749999999991        0.0000000000000000     
 -0.85937499999999978        4.9218750000000000        0.0000000000000000     
 -0.78125000000000022        4.9218749999999991        0.0000000000000000     
 -0.70312500000000000        4.9218750000000000        0.0000000000000000     
 -0.62500000000000000        4.9218750000000000        0.0000000000000000     
  -1.2500000000000002        5.0000000000000018        0.0000000000000000     
  -1.1718750000000000        5.0000000000000000        0.0000000000000000     
  -1.0937500000000000        5.0000000000000000        0.0000000000000000     
  -1.0156250000000002        5.0000000000000009        0.0000000000000000     
 -0.93750000000000000        5.0000000000000000        0.0000000000000000     
 -0.85937500000000011        5.0000000000000009        0.0000000000000000     
 -0.78125000000000011        5.0000000000000009        0.0000000000000000     
 -0.70312500000000000        5.0000000000000000        0.0000000000000000     
 -0.62500000000000000        5.0000000000000000        0.0000000000000000     
 -0.62499999999999989        4.3750000000000000        0.0000000000000000     
 -0.54687500000000000        4.3750000000000000        0.0000000000000000     
 -0.46875000000000006        4.3750000000000000        0.0000000000000000     
 -0.39062500000000006        4.3750000000000000        0.0000000000000000     
 -0.31249999999999994        4.3749999999999991        0.0000000000000000     
 -0.23437500000000000        4.3750000000000000        0.0000000000000000     
 -0.15625000000000000        4.3750000000000000        0.0000000000000000     
  -7.8125000000000000E-002   4.3750000000000009        0.0000000000000000     
   0.0000000000000000        4.3750000000000000        0.0000000000000000     
 -0.62500000000000000        4.4531250000000000        0.0000000000000000     
 -0.54687500000000011        4.4531250000000009        0.0000000000000000     
 -0.46875000000000000        4.4531250000000000        0.0000000000000000     
 -0.39062500000000006        4.4531250000000000        0.0000000000000000     
 -0.31250000000000006        4.4531250000000009        0.0000000000000000     
 -0.23437500000000000        4.4531250000000000        0.0000000000000000     
 -0.15625000000000000        4.4531250000000000        0.0000000000000000     
  -7.8125000000000000E-002   4.4531250000000000        0.0000000000000000     
   0.0000000000000000        4.4531250000000000        0.0000000000000000     
 -0.62500000000000000        4.5312500000000000        0.0000000000000000     
 -0.54687500000000000        4.5312500000000000        0.0000000000000000     
 -0.46875000000000011        4.5312500000000000        0.0000000000000000     
 -0.39062500000000000        4.5312500000000000        0.0000000000000000     
 -0.31250000000000000        4.5312500000000000        0.0000000000000000     
 -0.23437500000000000        4.5312500000000000        0.0000000000000000     
 -0.15625000000000000        4.5312500000000000        0.0000000000000000     
  -7.8125000000000000E-002   4.5312500000000000        0.0000000000000000     
   0.0000000000000000        4.5312500000000000        0.0000000000000000     
 -0.62500000000000000        4.6093750000000009        0.0000000000000000     
 -0.54687500000000011        4.6093750000000000        0.0000000000000000     
 -0.46875000000000000        4.6093750000000009        0.0000000000000000     
 -0.39062500000000011        4.6093750000000009        0.0000000000000000     
 -0.31249999999999994        4.6093750000000000        0.0000000000000000     
 -0.23437500000000000        4.6093750000000000        0.0000000000000000     
 -0.15625000000000000        4.6093750000000000        0.0000000000000000     
  -7.8125000000000014E-002   4.6093750000000009        0.0000000000000000     
   0.0000000000000000        4.6093750000000009        0.0000000000000000     
 -0.62500000000000000        4.6874999999999991        0.0000000000000000     
 -0.54687500000000011        4.6875000000000009        0.0000000000000000     
 -0.46875000000000000        4.6875000000000000        0.0000000000000000     
 -0.39062500000000006        4.6875000000000000        0.0000000000000000     
 -0.31250000000000011        4.6875000000000009        0.0000000000000000     
 -0.23437500000000000        4.6874999999999991        0.0000000000000000     
 -0.15625000000000003        4.6875000000000000        0.0000000000000000     
  -7.8125000000000000E-002   4.6875000000000000        0.0000000000000000     
   0.0000000000000000        4.6875000000000000        0.0000000000000000     
 -0.62500000000000000        4.7656250000000000        0.0000000000000000     
 -0.54687500000000000        4.7656250000000000        0.0000000000000000     
 -0.46875000000000000        4.7656249999999991        0.0000000000000000     
 -0.39062500000000006        4.7656250000000000        0.0000000000000000     
 -0.31250000000000000        4.7656250000000000        0.0000000000000000     
 -0.23437500000000000        4.7656250000000000        0.0000000000000000     
 -0.15625000000000000        4.7656249999999991        0.0000000000000000     
  -7.8124999999999986E-002   4.7656250000000000        0.0000000000000000     
   0.0000000000000000        4.7656250000000000        0.0000000000000000     
 -0.62500000000000000        4.8437500000000000        0.0000000000000000     
 -0.54687500000000000        4.8437500000000009        0.0000000000000000     
 -0.46875000000000000        4.8437499999999991        0.0000000000000000     
 -0.39062500000000006        4.8437500000000000        0.0000000000000000     
 -0.31250000000000006        4.8437500000000009        0.0000000000000000     
 -0.23437500000000000        4.8437499999999991        0.0000000000000000     
 -0.15624999999999997        4.8437499999999991        0.0000000000000000     
  -7.8125000000000000E-002   4.8437500000000000        0.0000000000000000     
   0.0000000000000000        4.8437499999999991        0.0000000000000000     
 -0.62500000000000000        4.9218750000000000        0.0000000000000000     
 -0.54687500000000011        4.9218749999999991        0.0000000000000000     
 -0.46875000000000000        4.9218750000000000        0.0000000000000000     
 -0.39062500000000006        4.9218750000000000        0.0000000000000000     
 -0.31250000000000000        4.9218750000000000        0.0000000000000000     
 -0.23437500000000000        4.9218750000000000        0.0000000000000000     
 -0.15624999999999997        4.9218750000000000        0.0000000000000000     
  -7.8124999999999972E-002   4.9218749999999991        0.0000000000000000     
   0.0000000000000000        4.9218750000000000        0.0000000000000000     
 -0.62500000000000000        5.0000000000000000        0.0000000000000000     
 -0.54687500000000011        5.0000000000000009        0.0000000000000000     
 -0.46875000000000000        5.0000000000000000        0.0000000000000000     
 -0.39062500000000011        5.0000000000000000        0.0000000000000000     
 -0.31250000000000006        5.0000000000000009        0.0000000000000000     
 -0.23437500000000000        5.0000000000000000        0.0000000000000000     
 -0.15625000000000000        5.0000000000000000        0.0000000000000000     
  -7.8124999999999986E-002   5.0000000000000000        0.0000000000000000     
   0.0000000000000000        5.0000000000000000        0.0000000000000000     
 </DataArray>
 </Points>
 <Cells>
 <DataArray  type="Int32"  Name="connectivity"  format="ascii">
           0           1          10           9
           1           2          11          10
           2           3          12          11
           3           4          13          12
           4           5          14          13
           5           6          15          14
           6           7          16          15
           7           8          17          16
           9          10          19          18
          10          11          20          19
          11          12          21          20
          12          13          22          21
          13          14          23          22
          14          15          24          23
          15          16          25          24
          16          17          26          25
          18          19          28          27
          19          20          29          28
          20          21          30          29
          21          22          31          30
          22          23          32          31
          23          24          33          32
          24          25          34          33
          25          26          35          34
          27          28          37          36
          28          29          38          37
          29          30          39          38
          30          31          40          39
          31          32          41          40
          32          33          42          41
          33          34          43          42
          34          35          44          43
          36          37          46          45
          37          38          47          46
          38          39          48          47
          39          40          49          48
          40          41          50          49
          41          42          51          50
          42          43          52          51
          43          44          53          52
          45          46          55          54
          46          47          56          55
          47          48          57          56
          48          49          58          57
          49          50          59          58
          50          51          60          59
          51          52          61          60
          52          53          62          61
          54          55          64          63
          55          56          65          64
          56          57          66          65
          57          58          67          66
          58          59          68          67
          59          60          69          68
          60          61          70          69
          61          62          71          70
          63          64          73          72
          64          65          74          73
          65          66          75          74
          66          67          76          75
          67          68          77          76
          68          69          78          77
          69          70          79          78
          70          71          80          79
          81          82          91          90
          82          83          92          91
          83          84          93          92
          84          85          94          93
          85          86          95          94
          86          87          96          95
          87          88          97          96
          88          89          98          97
          90          91         100          99
          91          92         101         100
          92          93         102         101
          93          94         103         102
          94          95         104         103
          95          96         105         104
          96          97         106         105
          97          98         107         106
          99         100         109         108
         100         101         110         109
         101         102         111         110
         102         103         112         111
         103         104         113         112
         104         105         114         113
         105         106         115         114
         106         107         116         115
         108         109         118         117
         109         110         119         118
         110         111         120         119
         111         112         121         120
         112         113         122         121
         113         114         123         122
         114         115         124         123
         115         116         125         124
         117         118         127         126
         118         119         128         127
         119         120         129         128
         120         121         130         129
         121         122         131         130
         122         123         132         131
         123         124         133         132
         124         125         134         133
         126         127         136         135
         127         128         137         136
         128         129         138         137
         129         130         139         138
         130         131         140         139
         131         132         141         140
         132         133         142         141
         133         134         143         142
         135         136         145         144
         136         137         146         145
         137         138         147         146
         138         139         148         147
         139         140         149         148
         140         141         150         149
         141         142         151         150
         142         143         152         151
         144         145         154         153
         145         146         155         154
         146         147         156         155
         147         148         157         156
         148         149         158         157
         149         150         159         158
         150         151         160         159
         151         152         161         160
         162         163         172         171
         163         164         173         172
         164         165         174         173
         165         166         175         174
         166         167         176         175
         167         168         177         176
         168         169         178         177
         169         170         179         178
         171         172         181         180
         172         173         182         181
         173         174         183         182
         174         175         184         183
         175         176         185         184
         176         177         186         185
         177         178         187         186
         178         179         188         187
         180         181         190         189
         181         182         191         190
         182         183         192         191
         183         184         193         192
         184         185         194         193
         185         186         195         194
         186         187         196         195
         187         188         197         196
         189         190         199         198
         190         191         200         199
         191         192         201         200
         192         193         202         201
         193         194         203         202
         194         195         204         203
         195         196         205         204
         196         197         206         205
         198         199         208         207
         199         200         209         208
         200         201         210         209
         201         202         211         210
         202         203         212         211
         203         204         213         212
         204         205         214         213
         205         206         215         214
         207         208         217         216
         208         209         218         217
         209         210         219         218
         210         211         220         219
         211         212         221         220
         212         213         222         221
         213         214         223         222
         214         215         224         223
         216         217         226         225
         217         218         227         226
         218         219         228         227
         219         220         229         228
         220         221         230         229
         221         222         231         230
         222         223         232         231
         223         224         233         232
         225         226         235         234
         226         227         236         235
         227         228         237         236
         228         229         238         237
         229         230         239         238
         230         231         240         239
         231         232         241         240
         232         233         242         241
         243         244         253         252
         244         245         254         253
         245         246         255         254
         246         247         256         255
         247         248         257         256
         248         249         258         257
         249         250         259         258
         250         251         260         259
         252         253         262         261
         253         254         263         262
         254         255         264         263
         255         256         265         264
         256         257         266         265
         257         258         267         266
         258         259         268         267
         259         260         269         268
         261         262         271         270
         262         263         272         271
         263         264         273         272
         264         265         274         273
         265         266         275         274
         266         267         276         275
         267         268         277         276
         268         269         278         277
         270         271         280         279
         271         272         281         280
         272         273         282         281
         273         274         283         282
         274         275         284         283
         275         276         285         284
         276         277         286         285
         277         278         287         286
         279         280         289         288
         280         281         290         289
         281         282         291         290
         282         283         292         291
         283         284         293         292
         284         285         294         293
         285         286         295         294
         286         287         296         295
         288         289         298         297
         289         290         299         298
         290         291         300         299
         291         292         301         300
         292         293         302         301
         293         294         303         302
         294         295         304         303
         295         296         305         304
         297         298         307         306
         298         299         308         307
         299         300         309         308
         300         301         310         309
         301         302         311         310
         302         303         312         311
         303         304         313         312
         304         305         314         313
         306         307         316         315
         307         308         317         316
         308         309         318         317
         309         310         319         318
         310         311         320         319
         311         312         321         320
         312         313         322         321
         313         314         323         322
         324         325         334         333
         325         326         335         334
         326         327         336         335
         327         328         337         336
         328         329         338         337
         329         330         339         338
         330         331         340         339
         331         332         341         340
         333         334         343         342
         334         335         344         343
         335         336         345         344
         336         337         346         345
         337         338         347         346
         338         339         348         347
         339         340         349         348
         340         341         350         349
         342         343         352         351
         343         344         353         352
         344         345         354         353
         345         346         355         354
         346         347         356         355
         347         348         357         356
         348         349         358         357
         349         350         359         358
         351         352         361         360
         352         353         362         361
         353         354         363         362
         354         355         364         363
         355         356         365         364
         356         357         366         365
         357         358         367         366
         358         359         368         367
         360         361         370         369
         361         362         371         370
         362         363         372         371
         363         364         373         372
         364         365         374         373
         365         366         375         374
         366         367         376         375
         367         368         377         376
         369         370         379         378
         370         371         380         379
         371         372         381         380
         372         373         382         381
         373         374         383         382
         374         375         384         383
         375         376         385         384
         376         377         386         385
         378         379         388         387
         379         380         389         388
         380         381         390         389
         381         382         391         390
         382         383         392         391
         383         384         393         392
         384         385         394         393
         385         386         395         394
         387         388         397         396
         388         389         398         397
         389         390         399         398
         390         391         400         399
         391         392         401         400
         392         393         402         401
         393         394         403         402
         394         395         404         403
         405         406         415         414
         406         407         416         415
         407         408         417         416
         408         409         418         417
         409         410         419         418
         410         411         420         419
         411         412         421         420
         412         413         422         421
         414         415         424         423
         415         416         425         424
         416         417         426         425
         417         418         427         426
         418         419         428         427
         419         420         429         428
         420         421         430         429
         421         422         431         430
         423         424         433         432
         424         425         434         433
         425         426         435         434
         426         427         436         435
         427         428         437         436
         428         429         438         437
         429         430         439         438
         430         431         440         439
         432         433         442         441
         433         434         443         442
         434         435         444         443
         435         436         445         444
         436         437         446         445
         437         438         447         446
         438         439         448         447
         439         440         449         448
         441         442         451         450
         442         443         452         451
         443         444         453         452
         444         445         454         453
         445         446         455         454
         446         447         456         455
         447         448         457         456
         448         449         458         457
         450         451         460         459
         451         452         461         460
         452         453         462         461
         453         454         463         462
         454         455         464         463
         455         456         465         464
         456         457         466         465
         457         458         467         466
         459         460         469         468
         460         461         470         469
         461         462         471         470
         462         463         472         471
         463         464         473         472
         464         465         474         473
         465         466         475         474
         466         467         476         475
         468         469         478         477
         469         470         479         478
         470         471         480         479
         471         472         481         480
         472         473         482         481
         473         474         483         482
         474         475         484         483
         475         476         485         484
         486         487         496         495
         487         488         497         496
         488         489         498         497
         489         490         499         498
         490         491         500         499
         491         492         501         500
         492         493         502         501
         493         494         503         502
         495         496         505         504
         496         497         506         505
         497         498         507         506
         498         499         508         507
         499         500         509         508
         500         501         510         509
         501         502         511         510
         502         503         512         511
         504         505         514         513
         505         506         515         514
         506         507         516         515
         507         508         517         516
         508         509         518         517
         509         510         519         518
         510         511         520         519
         511         512         521         520
         513         514         523         522
         514         515         524         523
         515         516         525         524
         516         517         526         525
         517         518         527         526
         518         519         528         527
         519         520         529         528
         520         521         530         529
         522         523         532         531
         523         524         533         532
         524         525         534         533
         525         526         535         534
         526         527         536         535
         527         528         537         536
         528         529         538         537
         529         530         539         538
         531         532         541         540
         532         533         542         541
         533         534         543         542
         534         535         544         543
         535         536         545         544
         536         537         546         545
         537         538         547         546
         538         539         548         547
         540         541         550         549
         541         542         551         550
         542         543         552         551
         543         544         553         552
         544         545         554         553
         545         546         555         554
         546         547         556         555
         547         548         557         556
         549         550         559         558
         550         551         560         559
         551         552         561         560
         552         553         562         561
         553         554         563         562
         554         555         564         563
         555         556         565         564
         556         557         566         565
         567         568         577         576
         568         569         578         577
         569         570         579         578
         570         571         580         579
         571         572         581         580
         572         573         582         581
         573         574         583         582
         574         575         584         583
         576         577         586         585
         577         578         587         586
         578         579         588         587
         579         580         589         588
         580         581         590         589
         581         582         591         590
         582         583         592         591
         583         584         593         592
         585         586         595         594
         586         587         596         595
         587         588         597         596
         588         589         598         597
         589         590         599         598
         590         591         600         599
         591         592         601         600
         592         593         602         601
         594         595         604         603
         595         596         605         604
         596         597         606         605
         597         598         607         606
         598         599         608         607
         599         600         609         608
         600         601         610         609
         601         602         611         610
         603         604         613         612
         604         605         614         613
         605         606         615         614
         606         607         616         615
         607         608         617         616
         608         609         618         617
         609         610         619         618
         610         611         620         619
         612         613         622         621
         613         614         623         622
         614         615         624         623
         615         616         625         624
         616         617         626         625
         617         618         627         626
         618         619         628         627
         619         620         629         628
         621         622         631         630
         622         623         632         631
         623         624         633         632
         624         625         634         633
         625         626         635         634
         626         627         636         635
         627         628         637         636
         628         629         638         637
         630         631         640         639
         631         632         641         640
         632         633         642         641
         633         634         643         642
         634         635         644         643
         635         636         645         644
         636         637         646         645
         637         638         647         646
         648         649         658         657
         649         650         659         658
         650         651         660         659
         651         652         661         660
         652         653         662         661
         653         654         663         662
         654         655         664         663
         655         656         665         664
         657         658         667         666
         658         659         668         667
         659         660         669         668
         660         661         670         669
         661         662         671         670
         662         663         672         671
         663         664         673         672
         664         665         674         673
         666         667         676         675
         667         668         677         676
         668         669         678         677
         669         670         679         678
         670         671         680         679
         671         672         681         680
         672         673         682         681
         673         674         683         682
         675         676         685         684
         676         677         686         685
         677         678         687         686
         678         679         688         687
         679         680         689         688
         680         681         690         689
         681         682         691         690
         682         683         692         691
         684         685         694         693
         685         686         695         694
         686         687         696         695
         687         688         697         696
         688         689         698         697
         689         690         699         698
         690         691         700         699
         691         692         701         700
         693         694         703         702
         694         695         704         703
         695         696         705         704
         696         697         706         705
         697         698         707         706
         698         699         708         707
         699         700         709         708
         700         701         710         709
         702         703         712         711
         703         704         713         712
         704         705         714         713
         705         706         715         714
         706         707         716         715
         707         708         717         716
         708         709         718         717
         709         710         719         718
         711         712         721         720
         712         713         722         721
         713         714         723         722
         714         715         724         723
         715         716         725         724
         716         717         726         725
         717         718         727         726
         718         719         728         727
         729         730         739         738
         730         731         740         739
         731         732         741         740
         732         733         742         741
         733         734         743         742
         734         735         744         743
         735         736         745         744
         736         737         746         745
         738         739         748         747
         739         740         749         748
         740         741         750         749
         741         742         751         750
         742         743         752         751
         743         744         753         752
         744         745         754         753
         745         746         755         754
         747         748         757         756
         748         749         758         757
         749         750         759         758
         750         751         760         759
         751         752         761         760
         752         753         762         761
         753         754         763         762
         754         755         764         763
         756         757         766         765
         757         758         767         766
         758         759         768         767
         759         760         769         768
         760         761         770         769
         761         762         771         770
         762         763         772         771
         763         764         773         772
         765         766         775         774
         766         767         776         775
         767         768         777         776
         768         769         778         777
         769         770         779         778
         770         771         780         779
         771         772         781         780
         772         773         782         781
         774         775         784         783
         775         776         785         784
         776         777         786         785
         777         778         787         786
         778         779         788         787
         779         780         789         788
         780         781         790         789
         781         782         791         790
         783         784         793         792
         784         785         794         793
         785         786         795         794
         786         787         796         795
         787         788         797         796
         788         789         798         797
         789         790         799         798
         790         791         800         799
         792         793         802         801
         793         794         803         802
         794         795         804         803
         795         796         805         804
         796         797         806         805
         797         798         807         806
         798         799         808         807
         799         800         809         808
         810         811         820         819
         811         812         821         820
         812         813         822         821
         813         814         823         822
         814         815         824         823
         815         816         825         824
         816         817         826         825
         817         818         827         826
         819         820         829         828
         820         821         830         829
         821         822         831         830
         822         823         832         831
         823         824         833         832
         824         825         834         833
         825         826         835         834
         826         827         836         835
         828         829         838         837
         829         830         839         838
         830         831         840         839
         831         832         841         840
         832         833         842         841
         833         834         843         842
         834         835         844         843
         835         836         845         844
         837         838         847         846
         838         839         848         847
         839         840         849         848
         840         841         850         849
         841         842         851         850
         842         843         852         851
         843         844         853         852
         844         845         854         853
         846         847         856         855
         847         848         857         856
         848         849         858         857
         849         850         859         858
         850         851         860         859
         851         852         861         860
         852         853         862         861
         853         854         863         862
         855         856         865         864
         856         857         866         865
         857         858         867         866
         858         859         868         867
         859         860         869         868
         860         861         870         869
         861         862         871         870
         862         863         872         871
         864         865         874         873
         865         866         875         874
         866         867         876         875
         867         868         877         876
         868         869         878         877
         869         870         879         878
         870         871         880         879
         871         872         881         880
         873         874         883         882
         874         875         884         883
         875         876         885         884
         876         877         886         885
         877         878         887         886
         878         879         888         887
         879         880         889         888
         880         881         890         889
         891         892         901         900
         892         893         902         901
         893         894         903         902
         894         895         904         903
         895         896         905         904
         896         897         906         905
         897         898         907         906
         898         899         908         907
         900         901         910         909
         901         902         911         910
         902         903         912         911
         903         904         913         912
         904         905         914         913
         905         906         915         914
         906         907         916         915
         907         908         917         916
         909         910         919         918
         910         911         920         919
         911         912         921         920
         912         913         922         921
         913         914         923         922
         914         915         924         923
         915         916         925         924
         916         917         926         925
         918         919         928         927
         919         920         929         928
         920         921         930         929
         921         922         931         930
         922         923         932         931
         923         924         933         932
         924         925         934         933
         925         926         935         934
         927         928         937         936
         928         929         938         937
         929         930         939         938
         930         931         940         939
         931         932         941         940
         932         933         942         941
         933         934         943         942
         934         935         944         943
         936         937         946         945
         937         938         947         946
         938         939         948         947
         939         940         949         948
         940         941         950         949
         941         942         951         950
         942         943         952         951
         943         944         953         952
         945         946         955         954
         946         947         956         955
         947         948         957         956
         948         949         958         957
         949         950         959         958
         950         951         960         959
         951         952         961         960
         952         953         962         961
         954         955         964         963
         955         956         965         964
         956         957         966         965
         957         958         967         966
         958         959         968         967
         959         960         969         968
         960         961         970         969
         961         962         971         970
         972         973         982         981
         973         974         983         982
         974         975         984         983
         975         976         985         984
         976         977         986         985
         977         978         987         986
         978         979         988         987
         979         980         989         988
         981         982         991         990
         982         983         992         991
         983         984         993         992
         984         985         994         993
         985         986         995         994
         986         987         996         995
         987         988         997         996
         988         989         998         997
         990         991        1000         999
         991         992        1001        1000
         992         993        1002        1001
         993         994        1003        1002
         994         995        1004        1003
         995         996        1005        1004
         996         997        1006        1005
         997         998        1007        1006
         999        1000        1009        1008
        1000        1001        1010        1009
        1001        1002        1011        1010
        1002        1003        1012        1011
        1003        1004        1013        1012
        1004        1005        1014        1013
        1005        1006        1015        1014
        1006        1007        1016        1015
        1008        1009        1018        1017
        1009        1010        1019        1018
        1010        1011        1020        1019
        1011        1012        1021        1020
        1012        1013        1022        1021
        1013        1014        1023        1022
        1014        1015        1024        1023
        1015        1016        1025        1024
        1017        1018        1027        1026
        1018        1019        1028        1027
        1019        1020        1029        1028
        1020        1021        1030        1029
        1021        1022        1031        1030
        1022        1023        1032        1031
        1023        1024        1033        1032
        1024        1025        1034        1033
        1026        1027        1036        1035
        1027        1028        1037        1036
        1028        1029        1038        1037
        1029        1030        1039        1038
        1030        1031        1040        1039
        1031        1032        1041        1040
        1032        1033        1042        1041
        1033        1034        1043        1042
        1035        1036        1045        1044
        1036        1037        1046        1045
        1037        1038        1047        1046
        1038        1039        1048        1047
        1039        1040        1049        1048
        1040        1041        1050        1049
        1041        1042        1051        1050
        1042        1043        1052        1051
        1053        1054        1063        1062
        1054        1055        1064        1063
        1055        1056        1065        1064
        1056        1057        1066        1065
        1057        1058        1067        1066
        1058        1059        1068        1067
        1059        1060        1069        1068
        1060        1061        1070        1069
        1062        1063        1072        1071
        1063        1064        1073        1072
        1064        1065        1074        1073
        1065        1066        1075        1074
        1066        1067        1076        1075
        1067        1068        1077        1076
        1068        1069        1078        1077
        1069        1070        1079        1078
        1071        1072        1081        1080
        1072        1073        1082        1081
        1073        1074        1083        1082
        1074        1075        1084        1083
        1075        1076        1085        1084
        1076        1077        1086        1085
        1077        1078        1087        1086
        1078        1079        1088        1087
        1080        1081        1090        1089
        1081        1082        1091        1090
        1082        1083        1092        1091
        1083        1084        1093        1092
        1084        1085        1094        1093
        1085        1086        1095        1094
        1086        1087        1096        1095
        1087        1088        1097        1096
        1089        1090        1099        1098
        1090        1091        1100        1099
        1091        1092        1101        1100
        1092        1093        1102        1101
        1093        1094        1103        1102
        1094        1095        1104        1103
        1095        1096        1105        1104
        1096        1097        1106        1105
        1098        1099        1108        1107
        1099        1100        1109        1108
        1100        1101        1110        1109
        1101        1102        1111        1110
        1102        1103        1112        1111
        1103        1104        1113        1112
        1104        1105        1114        1113
        1105        1106        1115        1114
        1107        1108        1117        1116
        1108        1109        1118        1117
        1109        1110        1119        1118
        1110        1111        1120        1119
        1111        1112        1121        1120
        1112        1113        1122        1121
        1113        1114        1123        1122
        1114        1115        1124        1123
        1116        1117        1126        1125
        1117        1118        1127        1126
        1118        1119        1128        1127
        1119        1120        1129        1128
        1120        1121        1130        1129
        1121        1122        1131        1130
        1122        1123        1132        1131
        1123        1124        1133        1132
        1134        1135        1144        1143
        1135        1136        1145        1144
        1136        1137        1146        1145
        1137        1138        1147        1146
        1138        1139        1148        1147
        1139        1140        1149        1148
        1140        1141        1150        1149
        1141        1142        1151        1150
        1143        1144        1153        1152
        1144        1145        1154        1153
        1145        1146        1155        1154
        1146        1147        1156        1155
        1147        1148        1157        1156
        1148        1149        1158        1157
        1149        1150        1159        1158
        1150        1151        1160        1159
        1152        1153        1162        1161
        1153        1154        1163        1162
        1154        1155        1164        1163
        1155        1156        1165        1164
        1156        1157        1166        1165
        1157        1158        1167        1166
        1158        1159        1168        1167
        1159        1160        1169        1168
        1161        1162        1171        1170
        1162        1163        1172        1171
        1163        1164        1173        1172
        1164        1165        1174        1173
        1165        1166        1175        1174
        1166        1167        1176        1175
        1167        1168        1177        1176
        1168        1169        1178        1177
        1170        1171        1180        1179
        1171        1172        1181        1180
        1172        1173        1182        1181
        1173        1174        1183        1182
        1174        1175        1184        1183
        1175        1176        1185        1184
        1176        1177        1186        1185
        1177        1178        1187        1186
        1179        1180        1189        1188
        1180        1181        1190        1189
        1181        1182        1191        1190
        1182        1183        1192        1191
        1183        1184        1193        1192
        1184        1185        1194        1193
        1185        1186        1195        1194
        1186        1187        1196        1195
        1188        1189        1198        1197
        1189        1190        1199        1198
        1190        1191        1200        1199
        1191        1192        1201        1200
        1192        1193        1202        1201
        1193        1194        1203        1202
        1194        1195        1204        1203
        1195        1196        1205        1204
        1197        1198        1207        1206
        1198        1199        1208        1207
        1199        1200        1209        1208
        1200        1201        1210        1209
        1201        1202        1211        1210
        1202        1203        1212        1211
        1203        1204        1213        1212
        1204        1205        1214        1213
        1215        1216        1225        1224
        1216        1217        1226        1225
        1217        1218        1227        1226
        1218        1219        1228        1227
        1219        1220        1229        1228
        1220        1221        1230        1229
        1221        1222        1231        1230
        1222        1223        1232        1231
        1224        1225        1234        1233
        1225        1226        1235        1234
        1226        1227        1236        1235
        1227        1228        1237        1236
        1228        1229        1238        1237
        1229        1230        1239        1238
        1230        1231        1240        1239
        1231        1232        1241        1240
        1233        1234        1243        1242
        1234        1235        1244        1243
        1235        1236        1245        1244
        1236        1237        1246        1245
        1237        1238        1247        1246
        1238        1239        1248        1247
        1239        1240        1249        1248
        1240        1241        1250        1249
        1242        1243        1252        1251
        1243        1244        1253        1252
        1244        1245        1254        1253
        1245        1246        1255        1254
        1246        1247        1256        1255
        1247        1248        1257        1256
        1248        1249        1258        1257
        1249        1250        1259        1258
        1251        1252        1261        1260
        1252        1253        1262        1261
        1253        1254        1263        1262
        1254        1255        1264        1263
        1255        1256        1265        1264
        1256        1257        1266        1265
        1257        1258        1267        1266
        1258        1259        1268        1267
        1260        1261        1270        1269
        1261        1262        1271        1270
        1262        1263        1272        1271
        1263        1264        1273        1272
        1264        1265        1274        1273
        1265        1266        1275        1274
        1266        1267        1276        1275
        1267        1268        1277        1276
        1269        1270        1279        1278
        1270        1271        1280        1279
        1271        1272        1281        1280
        1272        1273        1282        1281
        1273        1274        1283        1282
        1274        1275        1284        1283
        1275        1276        1285        1284
        1276        1277        1286        1285
        1278        1279        1288        1287
        1279        1280        1289        1288
        1280        1281        1290        1289
        1281        1282        1291        1290
        1282        1283        1292        1291
        1283        1284        1293        1292
        1284        1285        1294        1293
        1285        1286        1295        1294
        1296        1297        1306        1305
        1297        1298        1307        1306
        1298        1299        1308        1307
        1299        1300        1309        1308
        1300        1301        1310        1309
        1301        1302        1311        1310
        1302        1303        1312        1311
        1303        1304        1313        1312
        1305        1306        1315        1314
        1306        1307        1316        1315
        1307        1308        1317        1316
        1308        1309        1318        1317
        1309        1310        1319        1318
        1310        1311        1320        1319
        1311        1312        1321        1320
        1312        1313        1322        1321
        1314        1315        1324        1323
        1315        1316        1325        1324
        1316        1317        1326        1325
        1317        1318        1327        1326
        1318        1319        1328        1327
        1319        1320        1329        1328
        1320        1321        1330        1329
        1321        1322        1331        1330
        1323        1324        1333        1332
        1324        1325        1334        1333
        1325        1326        1335        1334
        1326        1327        1336        1335
        1327        1328        1337        1336
        1328        1329        1338        1337
        1329        1330        1339        1338
        1330        1331        1340        1339
        1332        1333        1342        1341
        1333        1334        1343        1342
        1334        1335        1344        1343
        1335        1336        1345        1344
        1336        1337        1346        1345
        1337        1338        1347        1346
        1338        1339        1348        1347
        1339        1340        1349        1348
        1341        1342        1351        1350
        1342        1343        1352        1351
        1343        1344        1353        1352
        1344        1345        1354        1353
        1345        1346        1355        1354
        1346        1347        1356        1355
        1347        1348        1357        1356
        1348        1349        1358        1357
        1350        1351        1360        1359
        1351        1352        1361        1360
        1352        1353        1362        1361
        1353        1354        1363        1362
        1354        1355        1364        1363
        1355        1356        1365        1364
        1356        1357        1366        1365
        1357        1358        1367        1366
        1359        1360        1369        1368
        1360        1361        1370        1369
        1361        1362        1371        1370
        1362        1363        1372        1371
        1363        1364        1373        1372
        1364        1365        1374        1373
        1365        1366        1375        1374
        1366        1367        1376        1375
        1377        1378        1387        1386
        1378        1379        1388        1387
        1379        1380        1389        1388
        1380        1381        1390        1389
        1381        1382        1391        1390
        1382        1383        1392        1391
        1383        1384        1393        1392
        1384        1385        1394        1393
        1386        1387        1396        1395
        1387        1388        1397        1396
        1388        1389        1398        1397
        1389        1390        1399        1398
        1390        1391        1400        1399
        1391        1392        1401        1400
        1392        1393        1402        1401
        1393        1394        1403        1402
        1395        1396        1405        1404
        1396        1397        1406        1405
        1397        1398        1407        1406
        1398        1399        1408        1407
        1399        1400        1409        1408
        1400        1401        1410        1409
        1401        1402        1411        1410
        1402        1403        1412        1411
        1404        1405        1414        1413
        1405        1406        1415        1414
        1406        1407        1416        1415
        1407        1408        1417        1416
        1408        1409        1418        1417
        1409        1410        1419        1418
        1410        1411        1420        1419
        1411        1412        1421        1420
        1413        1414        1423        1422
        1414        1415        1424        1423
        1415        1416        1425        1424
        1416        1417        1426        1425
        1417        1418        1427        1426
        1418        1419        1428        1427
        1419        1420        1429        1428
        1420        1421        1430        1429
        1422        1423        1432        1431
        1423        1424        1433        1432
        1424        1425        1434        1433
        1425        1426        1435        1434
        1426        1427        1436        1435
        1427        1428        1437        1436
        1428        1429        1438        1437
        1429        1430        1439        1438
        1431        1432        1441        1440
        1432        1433        1442        1441
        1433        1434        1443        1442
        1434        1435        1444        1443
        1435        1436        1445        1444
        1436        1437        1446        1445
        1437        1438        1447        1446
        1438        1439        1448        1447
        1440        1441        1450        1449
        1441        1442        1451        1450
        1442        1443        1452        1451
        1443        1444        1453        1452
        1444        1445        1454        1453
        1445        1446        1455        1454
        1446        1447        1456        1455
        1447        1448        1457        1456
        1458        1459        1468        1467
        1459        1460        1469        1468
        1460        1461        1470        1469
        1461        1462        1471        1470
        1462        1463        1472        1471
        1463        1464        1473        1472
        1464        1465        1474        1473
        1465        1466        1475        1474
        1467        1468        1477        1476
        1468        1469        1478        1477
        1469        1470        1479        1478
        1470        1471        1480        1479
        1471        1472        1481        1480
        1472        1473        1482        1481
        1473        1474        1483        1482
        1474        1475        1484        1483
        1476        1477        1486        1485
        1477        1478        1487        1486
        1478        1479        1488        1487
        1479        1480        1489        1488
        1480        1481        1490        1489
        1481        1482        1491        1490
        1482        1483        1492        1491
        1483        1484        1493        1492
        1485        1486        1495        1494
        1486        1487        1496        1495
        1487        1488        1497        1496
        1488        1489        1498        1497
        1489        1490        1499        1498
        1490        1491        1500        1499
        1491        1492        1501        1500
        1492        1493        1502        1501
        1494        1495        1504        1503
        1495        1496        1505        1504
        1496        1497        1506        1505
        1497        1498        1507        1506
        1498        1499        1508        1507
        1499        1500        1509        1508
        1500        1501        1510        1509
        1501        1502        1511        1510
        1503        1504        1513        1512
        1504        1505        1514        1513
        1505        1506        1515        1514
        1506        1507        1516        1515
        1507        1508        1517        1516
        1508        1509        1518        1517
        1509        1510        1519        1518
        1510        1511        1520        1519
        1512        1513        1522        1521
        1513        1514        1523        1522
        1514        1515        1524        1523
        1515        1516        1525        1524
        1516        1517        1526        1525
        1517        1518        1527        1526
        1518        1519        1528        1527
        1519        1520        1529        1528
        1521        1522        1531        1530
        1522        1523        1532        1531
        1523        1524        1533        1532
        1524        1525        1534        1533
        1525        1526        1535        1534
        1526        1527        1536        1535
        1527        1528        1537        1536
        1528        1529        1538        1537
        1539        1540        1549        1548
        1540        1541        1550        1549
        1541        1542        1551        1550
        1542        1543        1552        1551
        1543        1544        1553        1552
        1544        1545        1554        1553
        1545        1546        1555        1554
        1546        1547        1556        1555
        1548        1549        1558        1557
        1549        1550        1559        1558
        1550        1551        1560        1559
        1551        1552        1561        1560
        1552        1553        1562        1561
        1553        1554        1563        1562
        1554        1555        1564        1563
        1555        1556        1565        1564
        1557        1558        1567        1566
        1558        1559        1568        1567
        1559        1560        1569        1568
        1560        1561        1570        1569
        1561        1562        1571        1570
        1562        1563        1572        1571
        1563        1564        1573        1572
        1564        1565        1574        1573
        1566        1567        1576        1575
        1567        1568        1577        1576
        1568        1569        1578        1577
        1569        1570        1579        1578
        1570        1571        1580        1579
        1571        1572        1581        1580
        1572        1573        1582        1581
        1573        1574        1583        1582
        1575        1576        1585        1584
        1576        1577        1586        1585
        1577        1578        1587        1586
        1578        1579        1588        1587
        1579        1580        1589        1588
        1580        1581        1590        1589
        1581        1582        1591        1590
        1582        1583        1592        1591
        1584        1585        1594        1593
        1585        1586        1595        1594
        1586        1587        1596        1595
        1587        1588        1597        1596
        1588        1589        1598        1597
        1589        1590        1599        1598
        1590        1591        1600        1599
        1591        1592        1601        1600
        1593        1594        1603        1602
        1594        1595        1604        1603
        1595        1596        1605        1604
        1596        1597        1606        1605
        1597        1598        1607        1606
        1598        1599        1608        1607
        1599        1600        1609        1608
        1600        1601        1610        1609
        1602        1603        1612        1611
        1603        1604        1613        1612
        1604        1605        1614        1613
        1605        1606        1615        1614
        1606        1607        1616        1615
        1607        1608        1617        1616
        1608        1609        1618        1617
        1609        1610        1619        1618
        1620        1621        1630        1629
        1621        1622        1631        1630
        1622        1623        1632        1631
        1623        1624        1633        1632
        1624        1625        1634        1633
        1625        1626        1635        1634
        1626        1627        1636        1635
        1627        1628        1637        1636
        1629        1630        1639        1638
        1630        1631        1640        1639
        1631        1632        1641        1640
        1632        1633        1642        1641
        1633        1634        1643        1642
        1634        1635        1644        1643
        1635        1636        1645        1644
        1636        1637        1646        1645
        1638        1639        1648        1647
        1639        1640        1649        1648
        1640        1641        1650        1649
        1641        1642        1651        1650
        1642        1643        1652        1651
        1643        1644        1653        1652
        1644        1645        1654        1653
        1645        1646        1655        1654
        1647        1648        1657        1656
        1648        1649        1658        1657
        1649        1650        1659        1658
        1650        1651        1660        1659
        1651        1652        1661        1660
        1652        1653        1662        1661
        1653        1654        1663        1662
        1654        1655        1664        1663
        1656        1657        1666        1665
        1657        1658        1667        1666
        1658        1659        1668        1667
        1659        1660        1669        1668
        1660        1661        1670        1669
        1661        1662        1671        1670
        1662        1663        1672        1671
        1663        1664        1673        1672
        1665        1666        1675        1674
        1666        1667        1676        1675
        1667        1668        1677        1676
        1668        1669        1678        1677
        1669        1670        1679        1678
        1670        1671        1680        1679
        1671        1672        1681        1680
        1672        1673        1682        1681
        1674        1675        1684        1683
        1675        1676        1685        1684
        1676        1677        1686        1685
        1677        1678        1687        1686
        1678        1679        1688        1687
        1679        1680        1689        1688
        1680        1681        1690        1689
        1681        1682        1691        1690
        1683        1684        1693        1692
        1684        1685        1694        1693
        1685        1686        1695        1694
        1686        1687        1696        1695
        1687        1688        1697        1696
        1688        1689        1698        1697
        1689        1690        1699        1698
        1690        1691        1700        1699
        1701        1702        1711        1710
        1702        1703        1712        1711
        1703        1704        1713        1712
        1704        1705        1714        1713
        1705        1706        1715        1714
        1706        1707        1716        1715
        1707        1708        1717        1716
        1708        1709        1718        1717
        1710        1711        1720        1719
        1711        1712        1721        1720
        1712        1713        1722        1721
        1713        1714        1723        1722
        1714        1715        1724        1723
        1715        1716        1725        1724
        1716        1717        1726        1725
        1717        1718        1727        1726
        1719        1720        1729        1728
        1720        1721        1730        1729
        1721        1722        1731        1730
        1722        1723        1732        1731
        1723        1724        1733        1732
        1724        1725        1734        1733
        1725        1726        1735        1734
        1726        1727        1736        1735
        1728        1729        1738        1737
        1729        1730        1739        1738
        1730        1731        1740        1739
        1731        1732        1741        1740
        1732        1733        1742        1741
        1733        1734        1743        1742
        1734        1735        1744        1743
        1735        1736        1745        1744
        1737        1738        1747        1746
        1738        1739        1748        1747
        1739        1740        1749        1748
        1740        1741        1750        1749
        1741        1742        1751        1750
        1742        1743        1752        1751
        1743        1744        1753        1752
        1744        1745        1754        1753
        1746        1747        1756        1755
        1747        1748        1757        1756
        1748        1749        1758        1757
        1749        1750        1759        1758
        1750        1751        1760        1759
        1751        1752        1761        1760
        1752        1753        1762        1761
        1753        1754        1763        1762
        1755        1756        1765        1764
        1756        1757        1766        1765
        1757        1758        1767        1766
        1758        1759        1768        1767
        1759        1760        1769        1768
        1760        1761        1770        1769
        1761        1762        1771        1770
        1762        1763        1772        1771
        1764        1765        1774        1773
        1765        1766        1775        1774
        1766        1767        1776        1775
        1767        1768        1777        1776
        1768        1769        1778        1777
        1769        1770        1779        1778
        1770        1771        1780        1779
        1771        1772        1781        1780
        1782        1783        1792        1791
        1783        1784        1793        1792
        1784        1785        1794        1793
        1785        1786        1795        1794
        1786        1787        1796        1795
        1787        1788        1797        1796
        1788        1789        1798        1797
        1789        1790        1799        1798
        1791        1792        1801        1800
        1792        1793        1802        1801
        1793        1794        1803        1802
        1794        1795        1804        1803
        1795        1796        1805        1804
        1796        1797        1806        1805
        1797        1798        1807        1806
        1798        1799        1808        1807
        1800        1801        1810        1809
        1801        1802        1811        1810
        1802        1803        1812        1811
        1803        1804        1813        1812
        1804        1805        1814        1813
        1805        1806        1815        1814
        1806        1807        1816        1815
        1807        1808        1817        1816
        1809        1810        1819        1818
        1810        1811        1820        1819
        1811        1812        1821        1820
        1812        1813        1822        1821
        1813        1814        1823        1822
        1814        1815        1824        1823
        1815        1816        1825        1824
        1816        1817        1826        1825
        1818        1819        1828        1827
        1819        1820        1829        1828
        1820        1821        1830        1829
        1821        1822        1831        1830
        1822        1823        1832        1831
        1823        1824        1833        1832
        1824        1825        1834        1833
        1825        1826        1835        1834
        1827        1828        1837        1836
        1828        1829        1838        1837
        1829        1830        1839        1838
        1830        1831        1840        1839
        1831        1832        1841        1840
        1832        1833        1842        1841
        1833        1834        1843        1842
        1834        1835        1844        1843
        1836        1837        1846        1845
        1837        1838        1847        1846
        1838        1839        1848        1847
        1839        1840        1849        1848
        1840        1841        1850        1849
        1841        1842        1851        1850
        1842        1843        1852        1851
        1843        1844        1853        1852
        1845        1846        1855        1854
        1846        1847        1856        1855
        1847        1848        1857        1856
        1848        1849        1858        1857
        1849        1850        1859        1858
        1850        1851        1860        1859
        1851        1852        1861        1860
        1852        1853        1862        1861
        1863        1864        1873        1872
        1864        1865        1874        1873
        1865        1866        1875        1874
        1866        1867        1876        1875
        1867        1868        1877        1876
        1868        1869        1878        1877
        1869        1870        1879        1878
        1870        1871        1880        1879
        1872        1873        1882        1881
        1873        1874        1883        1882
        1874        1875        1884        1883
        1875        1876        1885        1884
        1876        1877        1886        1885
        1877        1878        1887        1886
        1878        1879        1888        1887
        1879        1880        1889        1888
        1881        1882        1891        1890
        1882        1883        1892        1891
        1883        1884        1893        1892
        1884        1885        1894        1893
        1885        1886        1895        1894
        1886        1887        1896        1895
        1887        1888        1897        1896
        1888        1889        1898        1897
        1890        1891        1900        1899
        1891        1892        1901        1900
        1892        1893        1902        1901
        1893        1894        1903        1902
        1894        1895        1904        1903
        1895        1896        1905        1904
        1896        1897        1906        1905
        1897        1898        1907        1906
        1899        1900        1909        1908
        1900        1901        1910        1909
        1901        1902        1911        1910
        1902        1903        1912        1911
        1903        1904        1913        1912
        1904        1905        1914        1913
        1905        1906        1915        1914
        1906        1907        1916        1915
        1908        1909        1918        1917
        1909        1910        1919        1918
        1910        1911        1920        1919
        1911        1912        1921        1920
        1912        1913        1922        1921
        1913        1914        1923        1922
        1914        1915        1924        1923
        1915        1916        1925        1924
        1917        1918        1927        1926
        1918        1919        1928        1927
        1919        1920        1929        1928
        1920        1921        1930        1929
        1921        1922        1931        1930
        1922        1923        1932        1931
        1923        1924        1933        1932
        1924        1925        1934        1933
        1926        1927        1936        1935
        1927        1928        1937        1936
        1928        1929        1938        1937
        1929        1930        1939        1938
        1930        1931        1940        1939
        1931        1932        1941        1940
        1932        1933        1942        1941
        1933        1934        1943        1942
        1944        1945        1954        1953
        1945        1946        1955        1954
        1946        1947        1956        1955
        1947        1948        1957        1956
        1948        1949        1958        1957
        1949        1950        1959        1958
        1950        1951        1960        1959
        1951        1952        1961        1960
        1953        1954        1963        1962
        1954        1955        1964        1963
        1955        1956        1965        1964
        1956        1957        1966        1965
        1957        1958        1967        1966
        1958        1959        1968        1967
        1959        1960        1969        1968
        1960        1961        1970        1969
        1962        1963        1972        1971
        1963        1964        1973        1972
        1964        1965        1974        1973
        1965        1966        1975        1974
        1966        1967        1976        1975
        1967        1968        1977        1976
        1968        1969        1978        1977
        1969        1970        1979        1978
        1971        1972        1981        1980
        1972        1973        1982        1981
        1973        1974        1983        1982
        1974        1975        1984        1983
        1975        1976        1985        1984
        1976        1977        1986        1985
        1977        1978        1987        1986
        1978        1979        1988        1987
        1980        1981        1990        1989
        1981        1982        1991        1990
        1982        1983        1992        1991
        1983        1984        1993        1992
        1984        1985        1994        1993
        1985        1986        1995        1994
        1986        1987        1996        1995
        1987        1988        1997        1996
        1989        1990        1999        1998
        1990        1991        2000        1999
        1991        1992        2001        2000
        1992        1993        2002        2001
        1993        1994        2003        2002
        1994        1995        2004        2003
        1995        1996        2005        2004
        1996        1997        2006        2005
        1998        1999        2008        2007
        1999        2000        2009        2008
        2000        2001        2010        2009
        2001        2002        2011        2010
        2002        2003        2012        2011
        2003        2004        2013        2012
        2004        2005        2014        2013
        2005        2006        2015        2014
        2007        2008        2017        2016
        2008        2009        2018        2017
        2009        2010        2019        2018
        2010        2011        2020        2019
        2011        2012        2021        2020
        2012        2013        2022        2021
        2013        2014        2023        2022
        2014        2015        2024        2023
        2025        2026        2035        2034
        2026        2027        2036        2035
        2027        2028        2037        2036
        2028        2029        2038        2037
        2029        2030        2039        2038
        2030        2031        2040        2039
        2031        2032        2041        2040
        2032        2033        2042        2041
        2034        2035        2044        2043
        2035        2036        2045        2044
        2036        2037        2046        2045
        2037        2038        2047        2046
        2038        2039        2048        2047
        2039        2040        2049        2048
        2040        2041        2050        2049
        2041        2042        2051        2050
        2043        2044        2053        2052
        2044        2045        2054        2053
        2045        2046        2055        2054
        2046        2047        2056        2055
        2047        2048        2057        2056
        2048        2049        2058        2057
        2049        2050        2059        2058
        2050        2051        2060        2059
        2052        2053        2062        2061
        2053        2054        2063        2062
        2054        2055        2064        2063
        2055        2056        2065        2064
        2056        2057        2066        2065
        2057        2058        2067        2066
        2058        2059        2068        2067
        2059        2060        2069        2068
        2061        2062        2071        2070
        2062        2063        2072        2071
        2063        2064        2073        2072
        2064        2065        2074        2073
        2065        2066        2075        2074
        2066        2067        2076        2075
        2067        2068        2077        2076
        2068        2069        2078        2077
        2070        2071        2080        2079
        2071        2072        2081        2080
        2072        2073        2082        2081
        2073        2074        2083        2082
        2074        2075        2084        2083
        2075        2076        2085        2084
        2076        2077        2086        2085
        2077        2078        2087        2086
        2079        2080        2089        2088
        2080        2081        2090        2089
        2081        2082        2091        2090
        2082        2083        2092        2091
        2083        2084        2093        2092
        2084        2085        2094        2093
        2085        2086        2095        2094
        2086        2087        2096        2095
        2088        2089        2098        2097
        2089        2090        2099        2098
        2090        2091        2100        2099
        2091        2092        2101        2100
        2092        2093        2102        2101
        2093        2094        2103        2102
        2094        2095        2104        2103
        2095        2096        2105        2104
        2106        2107        2116        2115
        2107        2108        2117        2116
        2108        2109        2118        2117
        2109        2110        2119        2118
        2110        2111        2120        2119
        2111        2112        2121        2120
        2112        2113        2122        2121
        2113        2114        2123        2122
        2115        2116        2125        2124
        2116        2117        2126        2125
        2117        2118        2127        2126
        2118        2119        2128        2127
        2119        2120        2129        2128
        2120        2121        2130        2129
        2121        2122        2131        2130
        2122        2123        2132        2131
        2124        2125        2134        2133
        2125        2126        2135        2134
        2126        2127        2136        2135
        2127        2128        2137        2136
        2128        2129        2138        2137
        2129        2130        2139        2138
        2130        2131        2140        2139
        2131        2132        2141        2140
        2133        2134        2143        2142
        2134        2135        2144        2143
        2135        2136        2145        2144
        2136        2137        2146        2145
        2137        2138        2147        2146
        2138        2139        2148        2147
        2139        2140        2149        2148
        2140        2141        2150        2149
        2142        2143        2152        2151
        2143        2144        2153        2152
        2144        2145        2154        2153
        2145        2146        2155        2154
        2146        2147        2156        2155
        2147        2148        2157        2156
        2148        2149        2158        2157
        2149        2150        2159        2158
        2151        2152        2161        2160
        2152        2153        2162        2161
        2153        2154        2163        2162
        2154        2155        2164        2163
        2155        2156        2165        2164
        2156        2157        2166        2165
        2157        2158        2167        2166
        2158        2159        2168        2167
        2160        2161        2170        2169
        2161        2162        2171        2170
        2162        2163        2172        2171
        2163        2164        2173        2172
        2164        2165        2174        2173
        2165        2166        2175        2174
        2166        2167        2176        2175
        2167        2168        2177        2176
        2169        2170        2179        2178
        2170        2171        2180        2179
        2171        2172        2181        2180
        2172        2173        2182        2181
        2173        2174        2183        2182
        2174        2175        2184        2183
        2175        2176        2185        2184
        2176        2177        2186        2185
        2187        2188        2197        2196
        2188        2189        2198        2197
        2189        2190        2199        2198
        2190        2191        2200        2199
        2191        2192        2201        2200
        2192        2193        2202        2201
        2193        2194        2203        2202
        2194        2195        2204        2203
        2196        2197        2206        2205
        2197        2198        2207        2206
        2198        2199        2208        2207
        2199        2200        2209        2208
        2200        2201        2210        2209
        2201        2202        2211        2210
        2202        2203        2212        2211
        2203        2204        2213        2212
        2205        2206        2215        2214
        2206        2207        2216        2215
        2207        2208        2217        2216
        2208        2209        2218        2217
        2209        2210        2219        2218
        2210        2211        2220        2219
        2211        2212        2221        2220
        2212        2213        2222        2221
        2214        2215        2224        2223
        2215        2216        2225        2224
        2216        2217        2226        2225
        2217        2218        2227        2226
        2218        2219        2228        2227
        2219        2220        2229        2228
        2220        2221        2230        2229
        2221        2222        2231        2230
        2223        2224        2233        2232
        2224        2225        2234        2233
        2225        2226        2235        2234
        2226        2227        2236        2235
        2227        2228        2237        2236
        2228        2229        2238        2237
        2229        2230        2239        2238
        2230        2231        2240        2239
        2232        2233        2242        2241
        2233        2234        2243        2242
        2234        2235        2244        2243
        2235        2236        2245        2244
        2236        2237        2246        2245
        2237        2238        2247        2246
        2238        2239        2248        2247
        2239        2240        2249        2248
        2241        2242        2251        2250
        2242        2243        2252        2251
        2243        2244        2253        2252
        2244        2245        2254        2253
        2245        2246        2255        2254
        2246        2247        2256        2255
        2247        2248        2257        2256
        2248        2249        2258        2257
        2250        2251        2260        2259
        2251        2252        2261        2260
        2252        2253        2262        2261
        2253        2254        2263        2262
        2254        2255        2264        2263
        2255        2256        2265        2264
        2256        2257        2266        2265
        2257        2258        2267        2266
        2268        2269        2278        2277
        2269        2270        2279        2278
        2270        2271        2280        2279
        2271        2272        2281        2280
        2272        2273        2282        2281
        2273        2274        2283        2282
        2274        2275        2284        2283
        2275        2276        2285        2284
        2277        2278        2287        2286
        2278        2279        2288        2287
        2279        2280        2289        2288
        2280        2281        2290        2289
        2281        2282        2291        2290
        2282        2283        2292        2291
        2283        2284        2293        2292
        2284        2285        2294        2293
        2286        2287        2296        2295
        2287        2288        2297        2296
        2288        2289        2298        2297
        2289        2290        2299        2298
        2290        2291        2300        2299
        2291        2292        2301        2300
        2292        2293        2302        2301
        2293        2294        2303        2302
        2295        2296        2305        2304
        2296        2297        2306        2305
        2297        2298        2307        2306
        2298        2299        2308        2307
        2299        2300        2309        2308
        2300        2301        2310        2309
        2301        2302        2311        2310
        2302        2303        2312        2311
        2304        2305        2314        2313
        2305        2306        2315        2314
        2306        2307        2316        2315
        2307        2308        2317        2316
        2308        2309        2318        2317
        2309        2310        2319        2318
        2310        2311        2320        2319
        2311        2312        2321        2320
        2313        2314        2323        2322
        2314        2315        2324        2323
        2315        2316        2325        2324
        2316        2317        2326        2325
        2317        2318        2327        2326
        2318        2319        2328        2327
        2319        2320        2329        2328
        2320        2321        2330        2329
        2322        2323        2332        2331
        2323        2324        2333        2332
        2324        2325        2334        2333
        2325        2326        2335        2334
        2326        2327        2336        2335
        2327        2328        2337        2336
        2328        2329        2338        2337
        2329        2330        2339        2338
        2331        2332        2341        2340
        2332        2333        2342        2341
        2333        2334        2343        2342
        2334        2335        2344        2343
        2335        2336        2345        2344
        2336        2337        2346        2345
        2337        2338        2347        2346
        2338        2339        2348        2347
        2349        2350        2359        2358
        2350        2351        2360        2359
        2351        2352        2361        2360
        2352        2353        2362        2361
        2353        2354        2363        2362
        2354        2355        2364        2363
        2355        2356        2365        2364
        2356        2357        2366        2365
        2358        2359        2368        2367
        2359        2360        2369        2368
        2360        2361        2370        2369
        2361        2362        2371        2370
        2362        2363        2372        2371
        2363        2364        2373        2372
        2364        2365        2374        2373
        2365        2366        2375        2374
        2367        2368        2377        2376
        2368        2369        2378        2377
        2369        2370        2379        2378
        2370        2371        2380        2379
        2371        2372        2381        2380
        2372        2373        2382        2381
        2373        2374        2383        2382
        2374        2375        2384        2383
        2376        2377        2386        2385
        2377        2378        2387        2386
        2378        2379        2388        2387
        2379        2380        2389        2388
        2380        2381        2390        2389
        2381        2382        2391        2390
        2382        2383        2392        2391
        2383        2384        2393        2392
        2385        2386        2395        2394
        2386        2387        2396        2395
        2387        2388        2397        2396
        2388        2389        2398        2397
        2389        2390        2399        2398
        2390        2391        2400        2399
        2391        2392        2401        2400
        2392        2393        2402        2401
        2394        2395        2404        2403
        2395        2396        2405        2404
        2396        2397        2406        2405
        2397        2398        2407        2406
        2398        2399        2408        2407
        2399        2400        2409        2408
        2400        2401        2410        2409
        2401        2402        2411        2410
        2403        2404        2413        2412
        2404        2405        2414        2413
        2405        2406        2415        2414
        2406        2407        2416        2415
        2407        2408        2417        2416
        2408        2409        2418        2417
        2409        2410        2419        2418
        2410        2411        2420        2419
        2412        2413        2422        2421
        2413        2414        2423        2422
        2414        2415        2424        2423
        2415        2416        2425        2424
        2416        2417        2426        2425
        2417        2418        2427        2426
        2418        2419        2428        2427
        2419        2420        2429        2428
        2430        2431        2440        2439
        2431        2432        2441        2440
        2432        2433        2442        2441
        2433        2434        2443        2442
        2434        2435        2444        2443
        2435        2436        2445        2444
        2436        2437        2446        2445
        2437        2438        2447        2446
        2439        2440        2449        2448
        2440        2441        2450        2449
        2441        2442        2451        2450
        2442        2443        2452        2451
        2443        2444        2453        2452
        2444        2445        2454        2453
        2445        2446        2455        2454
        2446        2447        2456        2455
        2448        2449        2458        2457
        2449        2450        2459        2458
        2450        2451        2460        2459
        2451        2452        2461        2460
        2452        2453        2462        2461
        2453        2454        2463        2462
        2454        2455        2464        2463
        2455        2456        2465        2464
        2457        2458        2467        2466
        2458        2459        2468        2467
        2459        2460        2469        2468
        2460        2461        2470        2469
        2461        2462        2471        2470
        2462        2463        2472        2471
        2463        2464        2473        2472
        2464        2465        2474        2473
        2466        2467        2476        2475
        2467        2468        2477        2476
        2468        2469        2478        2477
        2469        2470        2479        2478
        2470        2471        2480        2479
        2471        2472        2481        2480
        2472        2473        2482        2481
        2473        2474        2483        2482
        2475        2476        2485        2484
        2476        2477        2486        2485
        2477        2478        2487        2486
        2478        2479        2488        2487
        2479        2480        2489        2488
        2480        2481        2490        2489
        2481        2482        2491        2490
        2482        2483        2492        2491
        2484        2485        2494        2493
        2485        2486        2495        2494
        2486        2487        2496        2495
        2487        2488        2497        2496
        2488        2489        2498        2497
        2489        2490        2499        2498
        2490        2491        2500        2499
        2491        2492        2501        2500
        2493        2494        2503        2502
        2494        2495        2504        2503
        2495        2496        2505        2504
        2496        2497        2506        2505
        2497        2498        2507        2506
        2498        2499        2508        2507
        2499        2500        2509        2508
        2500        2501        2510        2509
        2511        2512        2521        2520
        2512        2513        2522        2521
        2513        2514        2523        2522
        2514        2515        2524        2523
        2515        2516        2525        2524
        2516        2517        2526        2525
        2517        2518        2527        2526
        2518        2519        2528        2527
        2520        2521        2530        2529
        2521        2522        2531        2530
        2522        2523        2532        2531
        2523        2524        2533        2532
        2524        2525        2534        2533
        2525        2526        2535        2534
        2526        2527        2536        2535
        2527        2528        2537        2536
        2529        2530        2539        2538
        2530        2531        2540        2539
        2531        2532        2541        2540
        2532        2533        2542        2541
        2533        2534        2543        2542
        2534        2535        2544        2543
        2535        2536        2545        2544
        2536        2537        2546        2545
        2538        2539        2548        2547
        2539        2540        2549        2548
        2540        2541        2550        2549
        2541        2542        2551        2550
        2542        2543        2552        2551
        2543        2544        2553        2552
        2544        2545        2554        2553
        2545        2546        2555        2554
        2547        2548        2557        2556
        2548        2549        2558        2557
        2549        2550        2559        2558
        2550        2551        2560        2559
        2551        2552        2561        2560
        2552        2553        2562        2561
        2553        2554        2563        2562
        2554        2555        2564        2563
        2556        2557        2566        2565
        2557        2558        2567        2566
        2558        2559        2568        2567
        2559        2560        2569        2568
        2560        2561        2570        2569
        2561        2562        2571        2570
        2562        2563        2572        2571
        2563        2564        2573        2572
        2565        2566        2575        2574
        2566        2567        2576        2575
        2567        2568        2577        2576
        2568        2569        2578        2577
        2569        2570        2579        2578
        2570        2571        2580        2579
        2571        2572        2581        2580
        2572        2573        2582        2581
        2574        2575        2584        2583
        2575        2576        2585        2584
        2576        2577        2586        2585
        2577        2578        2587        2586
        2578        2579        2588        2587
        2579        2580        2589        2588
        2580        2581        2590        2589
        2581        2582        2591        2590
        2592        2593        2602        2601
        2593        2594        2603        2602
        2594        2595        2604        2603
        2595        2596        2605        2604
        2596        2597        2606        2605
        2597        2598        2607        2606
        2598        2599        2608        2607
        2599        2600        2609        2608
        2601        2602        2611        2610
        2602        2603        2612        2611
        2603        2604        2613        2612
        2604        2605        2614        2613
        2605        2606        2615        2614
        2606        2607        2616        2615
        2607        2608        2617        2616
        2608        2609        2618        2617
        2610        2611        2620        2619
        2611        2612        2621        2620
        2612        2613        2622        2621
        2613        2614        2623        2622
        2614        2615        2624        2623
        2615        2616        2625        2624
        2616        2617        2626        2625
        2617        2618        2627        2626
        2619        2620        2629        2628
        2620        2621        2630        2629
        2621        2622        2631        2630
        2622        2623        2632        2631
        2623        2624        2633        2632
        2624        2625        2634        2633
        2625        2626        2635        2634
        2626        2627        2636        2635
        2628        2629        2638        2637
        2629        2630        2639        2638
        2630        2631        2640        2639
        2631        2632        2641        2640
        2632        2633        2642        2641
        2633        2634        2643        2642
        2634        2635        2644        2643
        2635        2636        2645        2644
        2637        2638        2647        2646
        2638        2639        2648        2647
        2639        2640        2649        2648
        2640        2641        2650        2649
        2641        2642        2651        2650
        2642        2643        2652        2651
        2643        2644        2653        2652
        2644        2645        2654        2653
        2646        2647        2656        2655
        2647        2648        2657        2656
        2648        2649        2658        2657
        2649        2650        2659        2658
        2650        2651        2660        2659
        2651        2652        2661        2660
        2652        2653        2662        2661
        2653        2654        2663        2662
        2655        2656        2665        2664
        2656        2657        2666        2665
        2657        2658        2667        2666
        2658        2659        2668        2667
        2659        2660        2669        2668
        2660        2661        2670        2669
        2661        2662        2671        2670
        2662        2663        2672        2671
        2673        2674        2683        2682
        2674        2675        2684        2683
        2675        2676        2685        2684
        2676        2677        2686        2685
        2677        2678        2687        2686
        2678        2679        2688        2687
        2679        2680        2689        2688
        2680        2681        2690        2689
        2682        2683        2692        2691
        2683        2684        2693        2692
        2684        2685        2694        2693
        2685        2686        2695        2694
        2686        2687        2696        2695
        2687        2688        2697        2696
        2688        2689        2698        2697
        2689        2690        2699        2698
        2691        2692        2701        2700
        2692        2693        2702        2701
        2693        2694        2703        2702
        2694        2695        2704        2703
        2695        2696        2705        2704
        2696        2697        2706        2705
        2697        2698        2707        2706
        2698        2699        2708        2707
        2700        2701        2710        2709
        2701        2702        2711        2710
        2702        2703        2712        2711
        2703        2704        2713        2712
        2704        2705        2714        2713
        2705        2706        2715        2714
        2706        2707        2716        2715
        2707        2708        2717        2716
        2709        2710        2719        2718
        2710        2711        2720        2719
        2711        2712        2721        2720
        2712        2713        2722        2721
        2713        2714        2723        2722
        2714        2715        2724        2723
        2715        2716        2725        2724
        2716        2717        2726        2725
        2718        2719        2728        2727
        2719        2720        2729        2728
        2720        2721        2730        2729
        2721        2722        2731        2730
        2722        2723        2732        2731
        2723        2724        2733        2732
        2724        2725        2734        2733
        2725        2726        2735        2734
        2727        2728        2737        2736
        2728        2729        2738        2737
        2729        2730        2739        2738
        2730        2731        2740        2739
        2731        2732        2741        2740
        2732        2733        2742        2741
        2733        2734        2743        2742
        2734        2735        2744        2743
        2736        2737        2746        2745
        2737        2738        2747        2746
        2738        2739        2748        2747
        2739        2740        2749        2748
        2740        2741        2750        2749
        2741        2742        2751        2750
        2742        2743        2752        2751
        2743        2744        2753        2752
        2754        2755        2764        2763
        2755        2756        2765        2764
        2756        2757        2766        2765
        2757        2758        2767        2766
        2758        2759        2768        2767
        2759        2760        2769        2768
        2760        2761        2770        2769
        2761        2762        2771        2770
        2763        2764        2773        2772
        2764        2765        2774        2773
        2765        2766        2775        2774
        2766        2767        2776        2775
        2767        2768        2777        2776
        2768        2769        2778        2777
        2769        2770        2779        2778
        2770        2771        2780        2779
        2772        2773        2782        2781
        2773        2774        2783        2782
        2774        2775        2784        2783
        2775        2776        2785        2784
        2776        2777        2786        2785
        2777        2778        2787        2786
        2778        2779        2788        2787
        2779        2780        2789        2788
        2781        2782        2791        2790
        2782        2783        2792        2791
        2783        2784        2793        2792
        2784        2785        2794        2793
        2785        2786        2795        2794
        2786        2787        2796        2795
        2787        2788        2797        2796
        2788        2789        2798        2797
        2790        2791        2800        2799
        2791        2792        2801        2800
        2792        2793        2802        2801
        2793        2794        2803        2802
        2794        2795        2804        2803
        2795        2796        2805        2804
        2796        2797        2806        2805
        2797        2798        2807        2806
        2799        2800        2809        2808
        2800        2801        2810        2809
        2801        2802        2811        2810
        2802        2803        2812        2811
        2803        2804        2813        2812
        2804        2805        2814        2813
        2805        2806        2815        2814
        2806        2807        2816        2815
        2808        2809        2818        2817
        2809        2810        2819        2818
        2810        2811        2820        2819
        2811        2812        2821        2820
        2812        2813        2822        2821
        2813        2814        2823        2822
        2814        2815        2824        2823
        2815        2816        2825        2824
        2817        2818        2827        2826
        2818        2819        2828        2827
        2819        2820        2829        2828
        2820        2821        2830        2829
        2821        2822        2831        2830
        2822        2823        2832        2831
        2823        2824        2833        2832
        2824        2825        2834        2833
        2835        2836        2845        2844
        2836        2837        2846        2845
        2837        2838        2847        2846
        2838        2839        2848        2847
        2839        2840        2849        2848
        2840        2841        2850        2849
        2841        2842        2851        2850
        2842        2843        2852        2851
        2844        2845        2854        2853
        2845        2846        2855        2854
        2846        2847        2856        2855
        2847        2848        2857        2856
        2848        2849        2858        2857
        2849        2850        2859        2858
        2850        2851        2860        2859
        2851        2852        2861        2860
        2853        2854        2863        2862
        2854        2855        2864        2863
        2855        2856        2865        2864
        2856        2857        2866        2865
        2857        2858        2867        2866
        2858        2859        2868        2867
        2859        2860        2869        2868
        2860        2861        2870        2869
        2862        2863        2872        2871
        2863        2864        2873        2872
        2864        2865        2874        2873
        2865        2866        2875        2874
        2866        2867        2876        2875
        2867        2868        2877        2876
        2868        2869        2878        2877
        2869        2870        2879        2878
        2871        2872        2881        2880
        2872        2873        2882        2881
        2873        2874        2883        2882
        2874        2875        2884        2883
        2875        2876        2885        2884
        2876        2877        2886        2885
        2877        2878        2887        2886
        2878        2879        2888        2887
        2880        2881        2890        2889
        2881        2882        2891        2890
        2882        2883        2892        2891
        2883        2884        2893        2892
        2884        2885        2894        2893
        2885        2886        2895        2894
        2886        2887        2896        2895
        2887        2888        2897        2896
        2889        2890        2899        2898
        2890        2891        2900        2899
        2891        2892        2901        2900
        2892        2893        2902        2901
        2893        2894        2903        2902
        2894        2895        2904        2903
        2895        2896        2905        2904
        2896        2897        2906        2905
        2898        2899        2908        2907
        2899        2900        2909        2908
        2900        2901        2910        2909
        2901        2902        2911        2910
        2902        2903        2912        2911
        2903        2904        2913        2912
        2904        2905        2914        2913
        2905        2906        2915        2914
        2916        2917        2926        2925
        2917        2918        2927        2926
        2918        2919        2928        2927
        2919        2920        2929        2928
        2920        2921        2930        2929
        2921        2922        2931        2930
        2922        2923        2932        2931
        2923        2924        2933        2932
        2925        2926        2935        2934
        2926        2927        2936        2935
        2927        2928        2937        2936
        2928        2929        2938        2937
        2929        2930        2939        2938
        2930        2931        2940        2939
        2931        2932        2941        2940
        2932        2933        2942        2941
        2934        2935        2944        2943
        2935        2936        2945        2944
        2936        2937        2946        2945
        2937        2938        2947        2946
        2938        2939        2948        2947
        2939        2940        2949        2948
        2940        2941        2950        2949
        2941        2942        2951        2950
        2943        2944        2953        2952
        2944        2945        2954        2953
        2945        2946        2955        2954
        2946        2947        2956        2955
        2947        2948        2957        2956
        2948        2949        2958        2957
        2949        2950        2959        2958
        2950        2951        2960        2959
        2952        2953        2962        2961
        2953        2954        2963        2962
        2954        2955        2964        2963
        2955        2956        2965        2964
        2956        2957        2966        2965
        2957        2958        2967        2966
        2958        2959        2968        2967
        2959        2960        2969        2968
        2961        2962        2971        2970
        2962        2963        2972        2971
        2963        2964        2973        2972
        2964        2965        2974        2973
        2965        2966        2975        2974
        2966        2967        2976        2975
        2967        2968        2977        2976
        2968        2969        2978        2977
        2970        2971        2980        2979
        2971        2972        2981        2980
        2972        2973        2982        2981
        2973        2974        2983        2982
        2974        2975        2984        2983
        2975        2976        2985        2984
        2976        2977        2986        2985
        2977        2978        2987        2986
        2979        2980        2989        2988
        2980        2981        2990        2989
        2981        2982        2991        2990
        2982        2983        2992        2991
        2983        2984        2993        2992
        2984        2985        2994        2993
        2985        2986        2995        2994
        2986        2987        2996        2995
        2997        2998        3007        3006
        2998        2999        3008        3007
        2999        3000        3009        3008
        3000        3001        3010        3009
        3001        3002        3011        3010
        3002        3003        3012        3011
        3003        3004        3013        3012
        3004        3005        3014        3013
        3006        3007        3016        3015
        3007        3008        3017        3016
        3008        3009        3018        3017
        3009        3010        3019        3018
        3010        3011        3020        3019
        3011        3012        3021        3020
        3012        3013        3022        3021
        3013        3014        3023        3022
        3015        3016        3025        3024
        3016        3017        3026        3025
        3017        3018        3027        3026
        3018        3019        3028        3027
        3019        3020        3029        3028
        3020        3021        3030        3029
        3021        3022        3031        3030
        3022        3023        3032        3031
        3024        3025        3034        3033
        3025        3026        3035        3034
        3026        3027        3036        3035
        3027        3028        3037        3036
        3028        3029        3038        3037
        3029        3030        3039        3038
        3030        3031        3040        3039
        3031        3032        3041        3040
        3033        3034        3043        3042
        3034        3035        3044        3043
        3035        3036        3045        3044
        3036        3037        3046        3045
        3037        3038        3047        3046
        3038        3039        3048        3047
        3039        3040        3049        3048
        3040        3041        3050        3049
        3042        3043        3052        3051
        3043        3044        3053        3052
        3044        3045        3054        3053
        3045        3046        3055        3054
        3046        3047        3056        3055
        3047        3048        3057        3056
        3048        3049        3058        3057
        3049        3050        3059        3058
        3051        3052        3061        3060
        3052        3053        3062        3061
        3053        3054        3063        3062
        3054        3055        3064        3063
        3055        3056        3065        3064
        3056        3057        3066        3065
        3057        3058        3067        3066
        3058        3059        3068        3067
        3060        3061        3070        3069
        3061        3062        3071        3070
        3062        3063        3072        3071
        3063        3064        3073        3072
        3064        3065        3074        3073
        3065        3066        3075        3074
        3066        3067        3076        3075
        3067        3068        3077        3076
        3078        3079        3088        3087
        3079        3080        3089        3088
        3080        3081        3090        3089
        3081        3082        3091        3090
        3082        3083        3092        3091
        3083        3084        3093        3092
        3084        3085        3094        3093
        3085        3086        3095        3094
        3087        3088        3097        3096
        3088        3089        3098        3097
        3089        3090        3099        3098
        3090        3091        3100        3099
        3091        3092        3101        3100
        3092        3093        3102        3101
        3093        3094        3103        3102
        3094        3095        3104        3103
        3096        3097        3106        3105
        3097        3098        3107        3106
        3098        3099        3108        3107
        3099        3100        3109        3108
        3100        3101        3110        3109
        3101        3102        3111        3110
        3102        3103        3112        3111
        3103        3104        3113        3112
        3105        3106        3115        3114
        3106        3107        3116        3115
        3107        3108        3117        3116
        3108        3109        3118        3117
        3109        3110        3119        3118
        3110        3111        3120        3119
        3111        3112        3121        3120
        3112        3113        3122        3121
        3114        3115        3124        3123
        3115        3116        3125        3124
        3116        3117        3126        3125
        3117        3118        3127        3126
        3118        3119        3128        3127
        3119        3120        3129        3128
        3120        3121        3130        3129
        3121        3122        3131        3130
        3123        3124        3133        3132
        3124        3125        3134        3133
        3125        3126        3135        3134
        3126        3127        3136        3135
        3127        3128        3137        3136
        3128        3129        3138        3137
        3129        3130        3139        3138
        3130        3131        3140        3139
        3132        3133        3142        3141
        3133        3134        3143        3142
        3134        3135        3144        3143
        3135        3136        3145        3144
        3136        3137        3146        3145
        3137        3138        3147        3146
        3138        3139        3148        3147
        3139        3140        3149        3148
        3141        3142        3151        3150
        3142        3143        3152        3151
        3143        3144        3153        3152
        3144        3145        3154        3153
        3145        3146        3155        3154
        3146        3147        3156        3155
        3147        3148        3157        3156
        3148        3149        3158        3157
        3159        3160        3169        3168
        3160        3161        3170        3169
        3161        3162        3171        3170
        3162        3163        3172        3171
        3163        3164        3173        3172
        3164        3165        3174        3173
        3165        3166        3175        3174
        3166        3167        3176        3175
        3168        3169        3178        3177
        3169        3170        3179        3178
        3170        3171        3180        3179
        3171        3172        3181        3180
        3172        3173        3182        3181
        3173        3174        3183        3182
        3174        3175        3184        3183
        3175        3176        3185        3184
        3177        3178        3187        3186
        3178        3179        3188        3187
        3179        3180        3189        3188
        3180        3181        3190        3189
        3181        3182        3191        3190
        3182        3183        3192        3191
        3183        3184        3193        3192
        3184        3185        3194        3193
        3186        3187        3196        3195
        3187        3188        3197        3196
        3188        3189        3198        3197
        3189        3190        3199        3198
        3190        3191        3200        3199
        3191        3192        3201        3200
        3192        3193        3202        3201
        3193        3194        3203        3202
        3195        3196        3205        3204
        3196        3197        3206        3205
        3197        3198        3207        3206
        3198        3199        3208        3207
        3199        3200        3209        3208
        3200        3201        3210        3209
        3201        3202        3211        3210
        3202        3203        3212        3211
        3204        3205        3214        3213
        3205        3206        3215        3214
        3206        3207        3216        3215
        3207        3208        3217        3216
        3208        3209        3218        3217
        3209        3210        3219        3218
        3210        3211        3220        3219
        3211        3212        3221        3220
        3213        3214        3223        3222
        3214        3215        3224        3223
        3215        3216        3225        3224
        3216        3217        3226        3225
        3217        3218        3227        3226
        3218        3219        3228        3227
        3219        3220        3229        3228
        3220        3221        3230        3229
        3222        3223        3232        3231
        3223        3224        3233        3232
        3224        3225        3234        3233
        3225        3226        3235        3234
        3226        3227        3236        3235
        3227        3228        3237        3236
        3228        3229        3238        3237
        3229        3230        3239        3238
        3240        3241        3250        3249
        3241        3242        3251        3250
        3242        3243        3252        3251
        3243        3244        3253        3252
        3244        3245        3254        3253
        3245        3246        3255        3254
        3246        3247        3256        3255
        3247        3248        3257        3256
        3249        3250        3259        3258
        3250        3251        3260        3259
        3251        3252        3261        3260
        3252        3253        3262        3261
        3253        3254        3263        3262
        3254        3255        3264        3263
        3255        3256        3265        3264
        3256        3257        3266        3265
        3258        3259        3268        3267
        3259        3260        3269        3268
        3260        3261        3270        3269
        3261        3262        3271        3270
        3262        3263        3272        3271
        3263        3264        3273        3272
        3264        3265        3274        3273
        3265        3266        3275        3274
        3267        3268        3277        3276
        3268        3269        3278        3277
        3269        3270        3279        3278
        3270        3271        3280        3279
        3271        3272        3281        3280
        3272        3273        3282        3281
        3273        3274        3283        3282
        3274        3275        3284        3283
        3276        3277        3286        3285
        3277        3278        3287        3286
        3278        3279        3288        3287
        3279        3280        3289        3288
        3280        3281        3290        3289
        3281        3282        3291        3290
        3282        3283        3292        3291
        3283        3284        3293        3292
        3285        3286        3295        3294
        3286        3287        3296        3295
        3287        3288        3297        3296
        3288        3289        3298        3297
        3289        3290        3299        3298
        3290        3291        3300        3299
        3291        3292        3301        3300
        3292        3293        3302        3301
        3294        3295        3304        3303
        3295        3296        3305        3304
        3296        3297        3306        3305
        3297        3298        3307        3306
        3298        3299        3308        3307
        3299        3300        3309        3308
        3300        3301        3310        3309
        3301        3302        3311        3310
        3303        3304        3313        3312
        3304        3305        3314        3313
        3305        3306        3315        3314
        3306        3307        3316        3315
        3307        3308        3317        3316
        3308        3309        3318        3317
        3309        3310        3319        3318
        3310        3311        3320        3319
        3321        3322        3331        3330
        3322        3323        3332        3331
        3323        3324        3333        3332
        3324        3325        3334        3333
        3325        3326        3335        3334
        3326        3327        3336        3335
        3327        3328        3337        3336
        3328        3329        3338        3337
        3330        3331        3340        3339
        3331        3332        3341        3340
        3332        3333        3342        3341
        3333        3334        3343        3342
        3334        3335        3344        3343
        3335        3336        3345        3344
        3336        3337        3346        3345
        3337        3338        3347        3346
        3339        3340        3349        3348
        3340        3341        3350        3349
        3341        3342        3351        3350
        3342        3343        3352        3351
        3343        3344        3353        3352
        3344        3345        3354        3353
        3345        3346        3355        3354
        3346        3347        3356        3355
        3348        3349        3358        3357
        3349        3350        3359        3358
        3350        3351        3360        3359
        3351        3352        3361        3360
        3352        3353        3362        3361
        3353        3354        3363        3362
        3354        3355        3364        3363
        3355        3356        3365        3364
        3357        3358        3367        3366
        3358        3359        3368        3367
        3359        3360        3369        3368
        3360        3361        3370        3369
        3361        3362        3371        3370
        3362        3363        3372        3371
        3363        3364        3373        3372
        3364        3365        3374        3373
        3366        3367        3376        3375
        3367        3368        3377        3376
        3368        3369        3378        3377
        3369        3370        3379        3378
        3370        3371        3380        3379
        3371        3372        3381        3380
        3372        3373        3382        3381
        3373        3374        3383        3382
        3375        3376        3385        3384
        3376        3377        3386        3385
        3377        3378        3387        3386
        3378        3379        3388        3387
        3379        3380        3389        3388
        3380        3381        3390        3389
        3381        3382        3391        3390
        3382        3383        3392        3391
        3384        3385        3394        3393
        3385        3386        3395        3394
        3386        3387        3396        3395
        3387        3388        3397        3396
        3388        3389        3398        3397
        3389        3390        3399        3398
        3390        3391        3400        3399
        3391        3392        3401        3400
        3402        3403        3412        3411
        3403        3404        3413        3412
        3404        3405        3414        3413
        3405        3406        3415        3414
        3406        3407        3416        3415
        3407        3408        3417        3416
        3408        3409        3418        3417
        3409        3410        3419        3418
        3411        3412        3421        3420
        3412        3413        3422        3421
        3413        3414        3423        3422
        3414        3415        3424        3423
        3415        3416        3425        3424
        3416        3417        3426        3425
        3417        3418        3427        3426
        3418        3419        3428        3427
        3420        3421        3430        3429
        3421        3422        3431        3430
        3422        3423        3432        3431
        3423        3424        3433        3432
        3424        3425        3434        3433
        3425        3426        3435        3434
        3426        3427        3436        3435
        3427        3428        3437        3436
        3429        3430        3439        3438
        3430        3431        3440        3439
        3431        3432        3441        3440
        3432        3433        3442        3441
        3433        3434        3443        3442
        3434        3435        3444        3443
        3435        3436        3445        3444
        3436        3437        3446        3445
        3438        3439        3448        3447
        3439        3440        3449        3448
        3440        3441        3450        3449
        3441        3442        3451        3450
        3442        3443        3452        3451
        3443        3444        3453        3452
        3444        3445        3454        3453
        3445        3446        3455        3454
        3447        3448        3457        3456
        3448        3449        3458        3457
        3449        3450        3459        3458
        3450        3451        3460        3459
        3451        3452        3461        3460
        3452        3453        3462        3461
        3453        3454        3463        3462
        3454        3455        3464        3463
        3456        3457        3466        3465
        3457        3458        3467        3466
        3458        3459        3468        3467
        3459        3460        3469        3468
        3460        3461        3470        3469
        3461        3462        3471        3470
        3462        3463        3472        3471
        3463        3464        3473        3472
        3465        3466        3475        3474
        3466        3467        3476        3475
        3467        3468        3477        3476
        3468        3469        3478        3477
        3469        3470        3479        3478
        3470        3471        3480        3479
        3471        3472        3481        3480
        3472        3473        3482        3481
        3483        3484        3493        3492
        3484        3485        3494        3493
        3485        3486        3495        3494
        3486        3487        3496        3495
        3487        3488        3497        3496
        3488        3489        3498        3497
        3489        3490        3499        3498
        3490        3491        3500        3499
        3492        3493        3502        3501
        3493        3494        3503        3502
        3494        3495        3504        3503
        3495        3496        3505        3504
        3496        3497        3506        3505
        3497        3498        3507        3506
        3498        3499        3508        3507
        3499        3500        3509        3508
        3501        3502        3511        3510
        3502        3503        3512        3511
        3503        3504        3513        3512
        3504        3505        3514        3513
        3505        3506        3515        3514
        3506        3507        3516        3515
        3507        3508        3517        3516
        3508        3509        3518        3517
        3510        3511        3520        3519
        3511        3512        3521        3520
        3512        3513        3522        3521
        3513        3514        3523        3522
        3514        3515        3524        3523
        3515        3516        3525        3524
        3516        3517        3526        3525
        3517        3518        3527        3526
        3519        3520        3529        3528
        3520        3521        3530        3529
        3521        3522        3531        3530
        3522        3523        3532        3531
        3523        3524        3533        3532
        3524        3525        3534        3533
        3525        3526        3535        3534
        3526        3527        3536        3535
        3528        3529        3538        3537
        3529        3530        3539        3538
        3530        3531        3540        3539
        3531        3532        3541        3540
        3532        3533        3542        3541
        3533        3534        3543        3542
        3534        3535        3544        3543
        3535        3536        3545        3544
        3537        3538        3547        3546
        3538        3539        3548        3547
        3539        3540        3549        3548
        3540        3541        3550        3549
        3541        3542        3551        3550
        3542        3543        3552        3551
        3543        3544        3553        3552
        3544        3545        3554        3553
        3546        3547        3556        3555
        3547        3548        3557        3556
        3548        3549        3558        3557
        3549        3550        3559        3558
        3550        3551        3560        3559
        3551        3552        3561        3560
        3552        3553        3562        3561
        3553        3554        3563        3562
        3564        3565        3574        3573
        3565        3566        3575        3574
        3566        3567        3576        3575
        3567        3568        3577        3576
        3568        3569        3578        3577
        3569        3570        3579        3578
        3570        3571        3580        3579
        3571        3572        3581        3580
        3573        3574        3583        3582
        3574        3575        3584        3583
        3575        3576        3585        3584
        3576        3577        3586        3585
        3577        3578        3587        3586
        3578        3579        3588        3587
        3579        3580        3589        3588
        3580        3581        3590        3589
        3582        3583        3592        3591
        3583        3584        3593        3592
        3584        3585        3594        3593
        3585        3586        3595        3594
        3586        3587        3596        3595
        3587        3588        3597        3596
        3588        3589        3598        3597
        3589        3590        3599        3598
        3591        3592        3601        3600
        3592        3593        3602        3601
        3593        3594        3603        3602
        3594        3595        3604        3603
        3595        3596        3605        3604
        3596        3597        3606        3605
        3597        3598        3607        3606
        3598        3599        3608        3607
        3600        3601        3610        3609
        3601        3602        3611        3610
        3602        3603        3612        3611
        3603        3604        3613        3612
        3604        3605        3614        3613
        3605        3606        3615        3614
        3606        3607        3616        3615
        3607        3608        3617        3616
        3609        3610        3619        3618
        3610        3611        3620        3619
        3611        3612        3621        3620
        3612        3613        3622        3621
        3613        3614        3623        3622
        3614        3615        3624        3623
        3615        3616        3625        3624
        3616        3617        3626        3625
        3618        3619        3628        3627
        3619        3620        3629        3628
        3620        3621        3630        3629
        3621        3622        3631        3630
        3622        3623        3632        3631
        3623        3624        3633        3632
        3624        3625        3634        3633
        3625        3626        3635        3634
        3627        3628        3637        3636
        3628        3629        3638        3637
        3629        3630        3639        3638
        3630        3631        3640        3639
        3631        3632        3641        3640
        3632        3633        3642        3641
        3633        3634        3643        3642
        3634        3635        3644        3643
        3645        3646        3655        3654
        3646        3647        3656        3655
        3647        3648        3657        3656
        3648        3649        3658        3657
        3649        3650        3659        3658
        3650        3651        3660        3659
        3651        3652        3661        3660
        3652        3653        3662        3661
        3654        3655        3664        3663
        3655        3656        3665        3664
        3656        3657        3666        3665
        3657        3658        3667        3666
        3658        3659        3668        3667
        3659        3660        3669        3668
        3660        3661        3670        3669
        3661        3662        3671        3670
        3663        3664        3673        3672
        3664        3665        3674        3673
        3665        3666        3675        3674
        3666        3667        3676        3675
        3667        3668        3677        3676
        3668        3669        3678        3677
        3669        3670        3679        3678
        3670        3671        3680        3679
        3672        3673        3682        3681
        3673        3674        3683        3682
        3674        3675        3684        3683
        3675        3676        3685        3684
        3676        3677        3686        3685
        3677        3678        3687        3686
        3678        3679        3688        3687
        3679        3680        3689        3688
        3681        3682        3691        3690
        3682        3683        3692        3691
        3683        3684        3693        3692
        3684        3685        3694        3693
        3685        3686        3695        3694
        3686        3687        3696        3695
        3687        3688        3697        3696
        3688        3689        3698        3697
        3690        3691        3700        3699
        3691        3692        3701        3700
        3692        3693        3702        3701
        3693        3694        3703        3702
        3694        3695        3704        3703
        3695        3696        3705        3704
        3696        3697        3706        3705
        3697        3698        3707        3706
        3699        3700        3709        3708
        3700        3701        3710        3709
        3701        3702        3711        3710
        3702        3703        3712        3711
        3703        3704        3713        3712
        3704        3705        3714        3713
        3705        3706        3715        3714
        3706        3707        3716        3715
        3708        3709        3718        3717
        3709        3710        3719        3718
        3710        3711        3720        3719
        3711        3712        3721        3720
        3712        3713        3722        3721
        3713        3714        3723        3722
        3714        3715        3724        3723
        3715        3716        3725        3724
        3726        3727        3736        3735
        3727        3728        3737        3736
        3728        3729        3738        3737
        3729        3730        3739        3738
        3730        3731        3740        3739
        3731        3732        3741        3740
        3732        3733        3742        3741
        3733        3734        3743        3742
        3735        3736        3745        3744
        3736        3737        3746        3745
        3737        3738        3747        3746
        3738        3739        3748        3747
        3739        3740        3749        3748
        3740        3741        3750        3749
        3741        3742        3751        3750
        3742        3743        3752        3751
        3744        3745        3754        3753
        3745        3746        3755        3754
        3746        3747        3756        3755
        3747        3748        3757        3756
        3748        3749        3758        3757
        3749        3750        3759        3758
        3750        3751        3760        3759
        3751        3752        3761        3760
        3753        3754        3763        3762
        3754        3755        3764        3763
        3755        3756        3765        3764
        3756        3757        3766        3765
        3757        3758        3767        3766
        3758        3759        3768        3767
        3759        3760        3769        3768
        3760        3761        3770        3769
        3762        3763        3772        3771
        3763        3764        3773        3772
        3764        3765        3774        3773
        3765        3766        3775        3774
        3766        3767        3776        3775
        3767        3768        3777        3776
        3768        3769        3778        3777
        3769        3770        3779        3778
        3771        3772        3781        3780
        3772        3773        3782        3781
        3773        3774        3783        3782
        3774        3775        3784        3783
        3775        3776        3785        3784
        3776        3777        3786        3785
        3777        3778        3787        3786
        3778        3779        3788        3787
        3780        3781        3790        3789
        3781        3782        3791        3790
        3782        3783        3792        3791
        3783        3784        3793        3792
        3784        3785        3794        3793
        3785        3786        3795        3794
        3786        3787        3796        3795
        3787        3788        3797        3796
        3789        3790        3799        3798
        3790        3791        3800        3799
        3791        3792        3801        3800
        3792        3793        3802        3801
        3793        3794        3803        3802
        3794        3795        3804        3803
        3795        3796        3805        3804
        3796        3797        3806        3805
        3807        3808        3817        3816
        3808        3809        3818        3817
        3809        3810        3819        3818
        3810        3811        3820        3819
        3811        3812        3821        3820
        3812        3813        3822        3821
        3813        3814        3823        3822
        3814        3815        3824        3823
        3816        3817        3826        3825
        3817        3818        3827        3826
        3818        3819        3828        3827
        3819        3820        3829        3828
        3820        3821        3830        3829
        3821        3822        3831        3830
        3822        3823        3832        3831
        3823        3824        3833        3832
        3825        3826        3835        3834
        3826        3827        3836        3835
        3827        3828        3837        3836
        3828        3829        3838        3837
        3829        3830        3839        3838
        3830        3831        3840        3839
        3831        3832        3841        3840
        3832        3833        3842        3841
        3834        3835        3844        3843
        3835        3836        3845        3844
        3836        3837        3846        3845
        3837        3838        3847        3846
        3838        3839        3848        3847
        3839        3840        3849        3848
        3840        3841        3850        3849
        3841        3842        3851        3850
        3843        3844        3853        3852
        3844        3845        3854        3853
        3845        3846        3855        3854
        3846        3847        3856        3855
        3847        3848        3857        3856
        3848        3849        3858        3857
        3849        3850        3859        3858
        3850        3851        3860        3859
        3852        3853        3862        3861
        3853        3854        3863        3862
        3854        3855        3864        3863
        3855        3856        3865        3864
        3856        3857        3866        3865
        3857        3858        3867        3866
        3858        3859        3868        3867
        3859        3860        3869        3868
        3861        3862        3871        3870
        3862        3863        3872        3871
        3863        3864        3873        3872
        3864        3865        3874        3873
        3865        3866        3875        3874
        3866        3867        3876        3875
        3867        3868        3877        3876
        3868        3869        3878        3877
        3870        3871        3880        3879
        3871        3872        3881        3880
        3872        3873        3882        3881
        3873        3874        3883        3882
        3874        3875        3884        3883
        3875        3876        3885        3884
        3876        3877        3886        3885
        3877        3878        3887        3886
        3888        3889        3898        3897
        3889        3890        3899        3898
        3890        3891        3900        3899
        3891        3892        3901        3900
        3892        3893        3902        3901
        3893        3894        3903        3902
        3894        3895        3904        3903
        3895        3896        3905        3904
        3897        3898        3907        3906
        3898        3899        3908        3907
        3899        3900        3909        3908
        3900        3901        3910        3909
        3901        3902        3911        3910
        3902        3903        3912        3911
        3903        3904        3913        3912
        3904        3905        3914        3913
        3906        3907        3916        3915
        3907        3908        3917        3916
        3908        3909        3918        3917
        3909        3910        3919        3918
        3910        3911        3920        3919
        3911        3912        3921        3920
        3912        3913        3922        3921
        3913        3914        3923        3922
        3915        3916        3925        3924
        3916        3917        3926        3925
        3917        3918        3927        3926
        3918        3919        3928        3927
        3919        3920        3929        3928
        3920        3921        3930        3929
        3921        3922        3931        3930
        3922        3923        3932        3931
        3924        3925        3934        3933
        3925        3926        3935        3934
        3926        3927        3936        3935
        3927        3928        3937        3936
        3928        3929        3938        3937
        3929        3930        3939        3938
        3930        3931        3940        3939
        3931        3932        3941        3940
        3933        3934        3943        3942
        3934        3935        3944        3943
        3935        3936        3945        3944
        3936        3937        3946        3945
        3937        3938        3947        3946
        3938        3939        3948        3947
        3939        3940        3949        3948
        3940        3941        3950        3949
        3942        3943        3952        3951
        3943        3944        3953        3952
        3944        3945        3954        3953
        3945        3946        3955        3954
        3946        3947        3956        3955
        3947        3948        3957        3956
        3948        3949        3958        3957
        3949        3950        3959        3958
        3951        3952        3961        3960
        3952        3953        3962        3961
        3953        3954        3963        3962
        3954        3955        3964        3963
        3955        3956        3965        3964
        3956        3957        3966        3965
        3957        3958        3967        3966
        3958        3959        3968        3967
        3969        3970        3979        3978
        3970        3971        3980        3979
        3971        3972        3981        3980
        3972        3973        3982        3981
        3973        3974        3983        3982
        3974        3975        3984        3983
        3975        3976        3985        3984
        3976        3977        3986        3985
        3978        3979        3988        3987
        3979        3980        3989        3988
        3980        3981        3990        3989
        3981        3982        3991        3990
        3982        3983        3992        3991
        3983        3984        3993        3992
        3984        3985        3994        3993
        3985        3986        3995        3994
        3987        3988        3997        3996
        3988        3989        3998        3997
        3989        3990        3999        3998
        3990        3991        4000        3999
        3991        3992        4001        4000
        3992        3993        4002        4001
        3993        3994        4003        4002
        3994        3995        4004        4003
        3996        3997        4006        4005
        3997        3998        4007        4006
        3998        3999        4008        4007
        3999        4000        4009        4008
        4000        4001        4010        4009
        4001        4002        4011        4010
        4002        4003        4012        4011
        4003        4004        4013        4012
        4005        4006        4015        4014
        4006        4007        4016        4015
        4007        4008        4017        4016
        4008        4009        4018        4017
        4009        4010        4019        4018
        4010        4011        4020        4019
        4011        4012        4021        4020
        4012        4013        4022        4021
        4014        4015        4024        4023
        4015        4016        4025        4024
        4016        4017        4026        4025
        4017        4018        4027        4026
        4018        4019        4028        4027
        4019        4020        4029        4028
        4020        4021        4030        4029
        4021        4022        4031        4030
        4023        4024        4033        4032
        4024        4025        4034        4033
        4025        4026        4035        4034
        4026        4027        4036        4035
        4027        4028        4037        4036
        4028        4029        4038        4037
        4029        4030        4039        4038
        4030        4031        4040        4039
        4032        4033        4042        4041
        4033        4034        4043        4042
        4034        4035        4044        4043
        4035        4036        4045        4044
        4036        4037        4046        4045
        4037        4038        4047        4046
        4038        4039        4048        4047
        4039        4040        4049        4048
        4050        4051        4060        4059
        4051        4052        4061        4060
        4052        4053        4062        4061
        4053        4054        4063        4062
        4054        4055        4064        4063
        4055        4056        4065        4064
        4056        4057        4066        4065
        4057        4058        4067        4066
        4059        4060        4069        4068
        4060        4061        4070        4069
        4061        4062        4071        4070
        4062        4063        4072        4071
        4063        4064        4073        4072
        4064        4065        4074        4073
        4065        4066        4075        4074
        4066        4067        4076        4075
        4068        4069        4078        4077
        4069        4070        4079        4078
        4070        4071        4080        4079
        4071        4072        4081        4080
        4072        4073        4082        4081
        4073        4074        4083        4082
        4074        4075        4084        4083
        4075        4076        4085        4084
        4077        4078        4087        4086
        4078        4079        4088        4087
        4079        4080        4089        4088
        4080        4081        4090        4089
        4081        4082        4091        4090
        4082        4083        4092        4091
        4083        4084        4093        4092
        4084        4085        4094        4093
        4086        4087        4096        4095
        4087        4088        4097        4096
        4088        4089        4098        4097
        4089        4090        4099        4098
        4090        4091        4100        4099
        4091        4092        4101        4100
        4092        4093        4102        4101
        4093        4094        4103        4102
        4095        4096        4105        4104
        4096        4097        4106        4105
        4097        4098        4107        4106
        4098        4099        4108        4107
        4099        4100        4109        4108
        4100        4101        4110        4109
        4101        4102        4111        4110
        4102        4103        4112        4111
        4104        4105        4114        4113
        4105        4106        4115        4114
        4106        4107        4116        4115
        4107        4108        4117        4116
        4108        4109        4118        4117
        4109        4110        4119        4118
        4110        4111        4120        4119
        4111        4112        4121        4120
        4113        4114        4123        4122
        4114        4115        4124        4123
        4115        4116        4125        4124
        4116        4117        4126        4125
        4117        4118        4127        4126
        4118        4119        4128        4127
        4119        4120        4129        4128
        4120        4121        4130        4129
        4131        4132        4141        4140
        4132        4133        4142        4141
        4133        4134        4143        4142
        4134        4135        4144        4143
        4135        4136        4145        4144
        4136        4137        4146        4145
        4137        4138        4147        4146
        4138        4139        4148        4147
        4140        4141        4150        4149
        4141        4142        4151        4150
        4142        4143        4152        4151
        4143        4144        4153        4152
        4144        4145        4154        4153
        4145        4146        4155        4154
        4146        4147        4156        4155
        4147        4148        4157        4156
        4149        4150        4159        4158
        4150        4151        4160        4159
        4151        4152        4161        4160
        4152        4153        4162        4161
        4153        4154        4163        4162
        4154        4155        4164        4163
        4155        4156        4165        4164
        4156        4157        4166        4165
        4158        4159        4168        4167
        4159        4160        4169        4168
        4160        4161        4170        4169
        4161        4162        4171        4170
        4162        4163        4172        4171
        4163        4164        4173        4172
        4164        4165        4174        4173
        4165        4166        4175        4174
        4167        4168        4177        4176
        4168        4169        4178        4177
        4169        4170        4179        4178
        4170        4171        4180        4179
        4171        4172        4181        4180
        4172        4173        4182        4181
        4173        4174        4183        4182
        4174        4175        4184        4183
        4176        4177        4186        4185
        4177        4178        4187        4186
        4178        4179        4188        4187
        4179        4180        4189        4188
        4180        4181        4190        4189
        4181        4182        4191        4190
        4182        4183        4192        4191
        4183        4184        4193        4192
        4185        4186        4195        4194
        4186        4187        4196        4195
        4187        4188        4197        4196
        4188        4189        4198        4197
        4189        4190        4199        4198
        4190        4191        4200        4199
        4191        4192        4201        4200
        4192        4193        4202        4201
        4194        4195        4204        4203
        4195        4196        4205        4204
        4196        4197        4206        4205
        4197        4198        4207        4206
        4198        4199        4208        4207
        4199        4200        4209        4208
        4200        4201        4210        4209
        4201        4202        4211        4210
        4212        4213        4222        4221
        4213        4214        4223        4222
        4214        4215        4224        4223
        4215        4216        4225        4224
        4216        4217        4226        4225
        4217        4218        4227        4226
        4218        4219        4228        4227
        4219        4220        4229        4228
        4221        4222        4231        4230
        4222        4223        4232        4231
        4223        4224        4233        4232
        4224        4225        4234        4233
        4225        4226        4235        4234
        4226        4227        4236        4235
        4227        4228        4237        4236
        4228        4229        4238        4237
        4230        4231        4240        4239
        4231        4232        4241        4240
        4232        4233        4242        4241
        4233        4234        4243        4242
        4234        4235        4244        4243
        4235        4236        4245        4244
        4236        4237        4246        4245
        4237        4238        4247        4246
        4239        4240        4249        4248
        4240        4241        4250        4249
        4241        4242        4251        4250
        4242        4243        4252        4251
        4243        4244        4253        4252
        4244        4245        4254        4253
        4245        4246        4255        4254
        4246        4247        4256        4255
        4248        4249        4258        4257
        4249        4250        4259        4258
        4250        4251        4260        4259
        4251        4252        4261        4260
        4252        4253        4262        4261
        4253        4254        4263        4262
        4254        4255        4264        4263
        4255        4256        4265        4264
        4257        4258        4267        4266
        4258        4259        4268        4267
        4259        4260        4269        4268
        4260        4261        4270        4269
        4261        4262        4271        4270
        4262        4263        4272        4271
        4263        4264        4273        4272
        4264        4265        4274        4273
        4266        4267        4276        4275
        4267        4268        4277        4276
        4268        4269        4278        4277
        4269        4270        4279        4278
        4270        4271        4280        4279
        4271        4272        4281        4280
        4272        4273        4282        4281
        4273        4274        4283        4282
        4275        4276        4285        4284
        4276        4277        4286        4285
        4277        4278        4287        4286
        4278        4279        4288        4287
        4279        4280        4289        4288
        4280        4281        4290        4289
        4281        4282        4291        4290
        4282        4283        4292        4291
        4293        4294        4303        4302
        4294        4295        4304        4303
        4295        4296        4305        4304
        4296        4297        4306        4305
        4297        4298        4307        4306
        4298        4299        4308        4307
        4299        4300        4309        4308
        4300        4301        4310        4309
        4302        4303        4312        4311
        4303        4304        4313        4312
        4304        4305        4314        4313
        4305        4306        4315        4314
        4306        4307        4316        4315
        4307        4308        4317        4316
        4308        4309        4318        4317
        4309        4310        4319        4318
        4311        4312        4321        4320
        4312        4313        4322        4321
        4313        4314        4323        4322
        4314        4315        4324        4323
        4315        4316        4325        4324
        4316        4317        4326        4325
        4317        4318        4327        4326
        4318        4319        4328        4327
        4320        4321        4330        4329
        4321        4322        4331        4330
        4322        4323        4332        4331
        4323        4324        4333        4332
        4324        4325        4334        4333
        4325        4326        4335        4334
        4326        4327        4336        4335
        4327        4328        4337        4336
        4329        4330        4339        4338
        4330        4331        4340        4339
        4331        4332        4341        4340
        4332        4333        4342        4341
        4333        4334        4343        4342
        4334        4335        4344        4343
        4335        4336        4345        4344
        4336        4337        4346        4345
        4338        4339        4348        4347
        4339        4340        4349        4348
        4340        4341        4350        4349
        4341        4342        4351        4350
        4342        4343        4352        4351
        4343        4344        4353        4352
        4344        4345        4354        4353
        4345        4346        4355        4354
        4347        4348        4357        4356
        4348        4349        4358        4357
        4349        4350        4359        4358
        4350        4351        4360        4359
        4351        4352        4361        4360
        4352        4353        4362        4361
        4353        4354        4363        4362
        4354        4355        4364        4363
        4356        4357        4366        4365
        4357        4358        4367        4366
        4358        4359        4368        4367
        4359        4360        4369        4368
        4360        4361        4370        4369
        4361        4362        4371        4370
        4362        4363        4372        4371
        4363        4364        4373        4372
        4374        4375        4384        4383
        4375        4376        4385        4384
        4376        4377        4386        4385
        4377        4378        4387        4386
        4378        4379        4388        4387
        4379        4380        4389        4388
        4380        4381        4390        4389
        4381        4382        4391        4390
        4383        4384        4393        4392
        4384        4385        4394        4393
        4385        4386        4395        4394
        4386        4387        4396        4395
        4387        4388        4397        4396
        4388        4389        4398        4397
        4389        4390        4399        4398
        4390        4391        4400        4399
        4392        4393        4402        4401
        4393        4394        4403        4402
        4394        4395        4404        4403
        4395        4396        4405        4404
        4396        4397        4406        4405
        4397        4398        4407        4406
        4398        4399        4408        4407
        4399        4400        4409        4408
        4401        4402        4411        4410
        4402        4403        4412        4411
        4403        4404        4413        4412
        4404        4405        4414        4413
        4405        4406        4415        4414
        4406        4407        4416        4415
        4407        4408        4417        4416
        4408        4409        4418        4417
        4410        4411        4420        4419
        4411        4412        4421        4420
        4412        4413        4422        4421
        4413        4414        4423        4422
        4414        4415        4424        4423
        4415        4416        4425        4424
        4416        4417        4426        4425
        4417        4418        4427        4426
        4419        4420        4429        4428
        4420        4421        4430        4429
        4421        4422        4431        4430
        4422        4423        4432        4431
        4423        4424        4433        4432
        4424        4425        4434        4433
        4425        4426        4435        4434
        4426        4427        4436        4435
        4428        4429        4438        4437
        4429        4430        4439        4438
        4430        4431        4440        4439
        4431        4432        4441        4440
        4432        4433        4442        4441
        4433        4434        4443        4442
        4434        4435        4444        4443
        4435        4436        4445        4444
        4437        4438        4447        4446
        4438        4439        4448        4447
        4439        4440        4449        4448
        4440        4441        4450        4449
        4441        4442        4451        4450
        4442        4443        4452        4451
        4443        4444        4453        4452
        4444        4445        4454        4453
        4455        4456        4465        4464
        4456        4457        4466        4465
        4457        4458        4467        4466
        4458        4459        4468        4467
        4459        4460        4469        4468
        4460        4461        4470        4469
        4461        4462        4471        4470
        4462        4463        4472        4471
        4464        4465        4474        4473
        4465        4466        4475        4474
        4466        4467        4476        4475
        4467        4468        4477        4476
        4468        4469        4478        4477
        4469        4470        4479        4478
        4470        4471        4480        4479
        4471        4472        4481        4480
        4473        4474        4483        4482
        4474        4475        4484        4483
        4475        4476        4485        4484
        4476        4477        4486        4485
        4477        4478        4487        4486
        4478        4479        4488        4487
        4479        4480        4489        4488
        4480        4481        4490        4489
        4482        4483        4492        4491
        4483        4484        4493        4492
        4484        4485        4494        4493
        4485        4486        4495        4494
        4486        4487        4496        4495
        4487        4488        4497        4496
        4488        4489        4498        4497
        4489        4490        4499        4498
        4491        4492        4501        4500
        4492        4493        4502        4501
        4493        4494        4503        4502
        4494        4495        4504        4503
        4495        4496        4505        4504
        4496        4497        4506        4505
        4497        4498        4507        4506
        4498        4499        4508        4507
        4500        4501        4510        4509
        4501        4502        4511        4510
        4502        4503        4512        4511
        4503        4504        4513        4512
        4504        4505        4514        4513
        4505        4506        4515        4514
        4506        4507        4516        4515
        4507        4508        4517        4516
        4509        4510        4519        4518
        4510        4511        4520        4519
        4511        4512        4521        4520
        4512        4513        4522        4521
        4513        4514        4523        4522
        4514        4515        4524        4523
        4515        4516        4525        4524
        4516        4517        4526        4525
        4518        4519        4528        4527
        4519        4520        4529        4528
        4520        4521        4530        4529
        4521        4522        4531        4530
        4522        4523        4532        4531
        4523        4524        4533        4532
        4524        4525        4534        4533
        4525        4526        4535        4534
        4536        4537        4546        4545
        4537        4538        4547        4546
        4538        4539        4548        4547
        4539        4540        4549        4548
        4540        4541        4550        4549
        4541        4542        4551        4550
        4542        4543        4552        4551
        4543        4544        4553        4552
        4545        4546        4555        4554
        4546        4547        4556        4555
        4547        4548        4557        4556
        4548        4549        4558        4557
        4549        4550        4559        4558
        4550        4551        4560        4559
        4551        4552        4561        4560
        4552        4553        4562        4561
        4554        4555        4564        4563
        4555        4556        4565        4564
        4556        4557        4566        4565
        4557        4558        4567        4566
        4558        4559        4568        4567
        4559        4560        4569        4568
        4560        4561        4570        4569
        4561        4562        4571        4570
        4563        4564        4573        4572
        4564        4565        4574        4573
        4565        4566        4575        4574
        4566        4567        4576        4575
        4567        4568        4577        4576
        4568        4569        4578        4577
        4569        4570        4579        4578
        4570        4571        4580        4579
        4572        4573        4582        4581
        4573        4574        4583        4582
        4574        4575        4584        4583
        4575        4576        4585        4584
        4576        4577        4586        4585
        4577        4578        4587        4586
        4578        4579        4588        4587
        4579        4580        4589        4588
        4581        4582        4591        4590
        4582        4583        4592        4591
        4583        4584        4593        4592
        4584        4585        4594        4593
        4585        4586        4595        4594
        4586        4587        4596        4595
        4587        4588        4597        4596
        4588        4589        4598        4597
        4590        4591        4600        4599
        4591        4592        4601        4600
        4592        4593        4602        4601
        4593        4594        4603        4602
        4594        4595        4604        4603
        4595        4596        4605        4604
        4596        4597        4606        4605
        4597        4598        4607        4606
        4599        4600        4609        4608
        4600        4601        4610        4609
        4601        4602        4611        4610
        4602        4603        4612        4611
        4603        4604        4613        4612
        4604        4605        4614        4613
        4605        4606        4615        4614
        4606        4607        4616        4615
        4617        4618        4627        4626
        4618        4619        4628        4627
        4619        4620        4629        4628
        4620        4621        4630        4629
        4621        4622        4631        4630
        4622        4623        4632        4631
        4623        4624        4633        4632
        4624        4625        4634        4633
        4626        4627        4636        4635
        4627        4628        4637        4636
        4628        4629        4638        4637
        4629        4630        4639        4638
        4630        4631        4640        4639
        4631        4632        4641        4640
        4632        4633        4642        4641
        4633        4634        4643        4642
        4635        4636        4645        4644
        4636        4637        4646        4645
        4637        4638        4647        4646
        4638        4639        4648        4647
        4639        4640        4649        4648
        4640        4641        4650        4649
        4641        4642        4651        4650
        4642        4643        4652        4651
        4644        4645        4654        4653
        4645        4646        4655        4654
        4646        4647        4656        4655
        4647        4648        4657        4656
        4648        4649        4658        4657
        4649        4650        4659        4658
        4650        4651        4660        4659
        4651        4652        4661        4660
        4653        4654        4663        4662
        4654        4655        4664        4663
        4655        4656        4665        4664
        4656        4657        4666        4665
        4657        4658        4667        4666
        4658        4659        4668        4667
        4659        4660        4669        4668
        4660        4661        4670        4669
        4662        4663        4672        4671
        4663        4664        4673        4672
        4664        4665        4674        4673
        4665        4666        4675        4674
        4666        4667        4676        4675
        4667        4668        4677        4676
        4668        4669        4678        4677
        4669        4670        4679        4678
        4671        4672        4681        4680
        4672        4673        4682        4681
        4673        4674        4683        4682
        4674        4675        4684        4683
        4675        4676        4685        4684
        4676        4677        4686        4685
        4677        4678        4687        4686
        4678        4679        4688        4687
        4680        4681        4690        4689
        4681        4682        4691        4690
        4682        4683        4692        4691
        4683        4684        4693        4692
        4684        4685        4694        4693
        4685        4686        4695        4694
        4686        4687        4696        4695
        4687        4688        4697        4696
        4698        4699        4708        4707
        4699        4700        4709        4708
        4700        4701        4710        4709
        4701        4702        4711        4710
        4702        4703        4712        4711
        4703        4704        4713        4712
        4704        4705        4714        4713
        4705        4706        4715        4714
        4707        4708        4717        4716
        4708        4709        4718        4717
        4709        4710        4719        4718
        4710        4711        4720        4719
        4711        4712        4721        4720
        4712        4713        4722        4721
        4713        4714        4723        4722
        4714        4715        4724        4723
        4716        4717        4726        4725
        4717        4718        4727        4726
        4718        4719        4728        4727
        4719        4720        4729        4728
        4720        4721        4730        4729
        4721        4722        4731        4730
        4722        4723        4732        4731
        4723        4724        4733        4732
        4725        4726        4735        4734
        4726        4727        4736        4735
        4727        4728        4737        4736
        4728        4729        4738        4737
        4729        4730        4739        4738
        4730        4731        4740        4739
        4731        4732        4741        4740
        4732        4733        4742        4741
        4734        4735        4744        4743
        4735        4736        4745        4744
        4736        4737        4746        4745
        4737        4738        4747        4746
        4738        4739        4748        4747
        4739        4740        4749        4748
        4740        4741        4750        4749
        4741        4742        4751        4750
        4743        4744        4753        4752
        4744        4745        4754        4753
        4745        4746        4755        4754
        4746        4747        4756        4755
        4747        4748        4757        4756
        4748        4749        4758        4757
        4749        4750        4759        4758
        4750        4751        4760        4759
        4752        4753        4762        4761
        4753        4754        4763        4762
        4754        4755        4764        4763
        4755        4756        4765        4764
        4756        4757        4766        4765
        4757        4758        4767        4766
        4758        4759        4768        4767
        4759        4760        4769        4768
        4761        4762        4771        4770
        4762        4763        4772        4771
        4763        4764        4773        4772
        4764        4765        4774        4773
        4765        4766        4775        4774
        4766        4767        4776        4775
        4767        4768        4777        4776
        4768        4769        4778        4777
        4779        4780        4789        4788
        4780        4781        4790        4789
        4781        4782        4791        4790
        4782        4783        4792        4791
        4783        4784        4793        4792
        4784        4785        4794        4793
        4785        4786        4795        4794
        4786        4787        4796        4795
        4788        4789        4798        4797
        4789        4790        4799        4798
        4790        4791        4800        4799
        4791        4792        4801        4800
        4792        4793        4802        4801
        4793        4794        4803        4802
        4794        4795        4804        4803
        4795        4796        4805        4804
        4797        4798        4807        4806
        4798        4799        4808        4807
        4799        4800        4809        4808
        4800        4801        4810        4809
        4801        4802        4811        4810
        4802        4803        4812        4811
        4803        4804        4813        4812
        4804        4805        4814        4813
        4806        4807        4816        4815
        4807        4808        4817        4816
        4808        4809        4818        4817
        4809        4810        4819        4818
        4810        4811        4820        4819
        4811        4812        4821        4820
        4812        4813        4822        4821
        4813        4814        4823        4822
        4815        4816        4825        4824
        4816        4817        4826        4825
        4817        4818        4827        4826
        4818        4819        4828        4827
        4819        4820        4829        4828
        4820        4821        4830        4829
        4821        4822        4831        4830
        4822        4823        4832        4831
        4824        4825        4834        4833
        4825        4826        4835        4834
        4826        4827        4836        4835
        4827        4828        4837        4836
        4828        4829        4838        4837
        4829        4830        4839        4838
        4830        4831        4840        4839
        4831        4832        4841        4840
        4833        4834        4843        4842
        4834        4835        4844        4843
        4835        4836        4845        4844
        4836        4837        4846        4845
        4837        4838        4847        4846
        4838        4839        4848        4847
        4839        4840        4849        4848
        4840        4841        4850        4849
        4842        4843        4852        4851
        4843        4844        4853        4852
        4844        4845        4854        4853
        4845        4846        4855        4854
        4846        4847        4856        4855
        4847        4848        4857        4856
        4848        4849        4858        4857
        4849        4850        4859        4858
        4860        4861        4870        4869
        4861        4862        4871        4870
        4862        4863        4872        4871
        4863        4864        4873        4872
        4864        4865        4874        4873
        4865        4866        4875        4874
        4866        4867        4876        4875
        4867        4868        4877        4876
        4869        4870        4879        4878
        4870        4871        4880        4879
        4871        4872        4881        4880
        4872        4873        4882        4881
        4873        4874        4883        4882
        4874        4875        4884        4883
        4875        4876        4885        4884
        4876        4877        4886        4885
        4878        4879        4888        4887
        4879        4880        4889        4888
        4880        4881        4890        4889
        4881        4882        4891        4890
        4882        4883        4892        4891
        4883        4884        4893        4892
        4884        4885        4894        4893
        4885        4886        4895        4894
        4887        4888        4897        4896
        4888        4889        4898        4897
        4889        4890        4899        4898
        4890        4891        4900        4899
        4891        4892        4901        4900
        4892        4893        4902        4901
        4893        4894        4903        4902
        4894        4895        4904        4903
        4896        4897        4906        4905
        4897        4898        4907        4906
        4898        4899        4908        4907
        4899        4900        4909        4908
        4900        4901        4910        4909
        4901        4902        4911        4910
        4902        4903        4912        4911
        4903        4904        4913        4912
        4905        4906        4915        4914
        4906        4907        4916        4915
        4907        4908        4917        4916
        4908        4909        4918        4917
        4909        4910        4919        4918
        4910        4911        4920        4919
        4911        4912        4921        4920
        4912        4913        4922        4921
        4914        4915        4924        4923
        4915        4916        4925        4924
        4916        4917        4926        4925
        4917        4918        4927        4926
        4918        4919        4928        4927
        4919        4920        4929        4928
        4920        4921        4930        4929
        4921        4922        4931        4930
        4923        4924        4933        4932
        4924        4925        4934        4933
        4925        4926        4935        4934
        4926        4927        4936        4935
        4927        4928        4937        4936
        4928        4929        4938        4937
        4929        4930        4939        4938
        4930        4931        4940        4939
        4941        4942        4951        4950
        4942        4943        4952        4951
        4943        4944        4953        4952
        4944        4945        4954        4953
        4945        4946        4955        4954
        4946        4947        4956        4955
        4947        4948        4957        4956
        4948        4949        4958        4957
        4950        4951        4960        4959
        4951        4952        4961        4960
        4952        4953        4962        4961
        4953        4954        4963        4962
        4954        4955        4964        4963
        4955        4956        4965        4964
        4956        4957        4966        4965
        4957        4958        4967        4966
        4959        4960        4969        4968
        4960        4961        4970        4969
        4961        4962        4971        4970
        4962        4963        4972        4971
        4963        4964        4973        4972
        4964        4965        4974        4973
        4965        4966        4975        4974
        4966        4967        4976        4975
        4968        4969        4978        4977
        4969        4970        4979        4978
        4970        4971        4980        4979
        4971        4972        4981        4980
        4972        4973        4982        4981
        4973        4974        4983        4982
        4974        4975        4984        4983
        4975        4976        4985        4984
        4977        4978        4987        4986
        4978        4979        4988        4987
        4979        4980        4989        4988
        4980        4981        4990        4989
        4981        4982        4991        4990
        4982        4983        4992        4991
        4983        4984        4993        4992
        4984        4985        4994        4993
        4986        4987        4996        4995
        4987        4988        4997        4996
        4988        4989        4998        4997
        4989        4990        4999        4998
        4990        4991        5000        4999
        4991        4992        5001        5000
        4992        4993        5002        5001
        4993        4994        5003        5002
        4995        4996        5005        5004
        4996        4997        5006        5005
        4997        4998        5007        5006
        4998        4999        5008        5007
        4999        5000        5009        5008
        5000        5001        5010        5009
        5001        5002        5011        5010
        5002        5003        5012        5011
        5004        5005        5014        5013
        5005        5006        5015        5014
        5006        5007        5016        5015
        5007        5008        5017        5016
        5008        5009        5018        5017
        5009        5010        5019        5018
        5010        5011        5020        5019
        5011        5012        5021        5020
        5022        5023        5032        5031
        5023        5024        5033        5032
        5024        5025        5034        5033
        5025        5026        5035        5034
        5026        5027        5036        5035
        5027        5028        5037        5036
        5028        5029        5038        5037
        5029        5030        5039        5038
        5031        5032        5041        5040
        5032        5033        5042        5041
        5033        5034        5043        5042
        5034        5035        5044        5043
        5035        5036        5045        5044
        5036        5037        5046        5045
        5037        5038        5047        5046
        5038        5039        5048        5047
        5040        5041        5050        5049
        5041        5042        5051        5050
        5042        5043        5052        5051
        5043        5044        5053        5052
        5044        5045        5054        5053
        5045        5046        5055        5054
        5046        5047        5056        5055
        5047        5048        5057        5056
        5049        5050        5059        5058
        5050        5051        5060        5059
        5051        5052        5061        5060
        5052        5053        5062        5061
        5053        5054        5063        5062
        5054        5055        5064        5063
        5055        5056        5065        5064
        5056        5057        5066        5065
        5058        5059        5068        5067
        5059        5060        5069        5068
        5060        5061        5070        5069
        5061        5062        5071        5070
        5062        5063        5072        5071
        5063        5064        5073        5072
        5064        5065        5074        5073
        5065        5066        5075        5074
        5067        5068        5077        5076
        5068        5069        5078        5077
        5069        5070        5079        5078
        5070        5071        5080        5079
        5071        5072        5081        5080
        5072        5073        5082        5081
        5073        5074        5083        5082
        5074        5075        5084        5083
        5076        5077        5086        5085
        5077        5078        5087        5086
        5078        5079        5088        5087
        5079        5080        5089        5088
        5080        5081        5090        5089
        5081        5082        5091        5090
        5082        5083        5092        5091
        5083        5084        5093        5092
        5085        5086        5095        5094
        5086        5087        5096        5095
        5087        5088        5097        5096
        5088        5089        5098        5097
        5089        5090        5099        5098
        5090        5091        5100        5099
        5091        5092        5101        5100
        5092        5093        5102        5101
        5103        5104        5113        5112
        5104        5105        5114        5113
        5105        5106        5115        5114
        5106        5107        5116        5115
        5107        5108        5117        5116
        5108        5109        5118        5117
        5109        5110        5119        5118
        5110        5111        5120        5119
        5112        5113        5122        5121
        5113        5114        5123        5122
        5114        5115        5124        5123
        5115        5116        5125        5124
        5116        5117        5126        5125
        5117        5118        5127        5126
        5118        5119        5128        5127
        5119        5120        5129        5128
        5121        5122        5131        5130
        5122        5123        5132        5131
        5123        5124        5133        5132
        5124        5125        5134        5133
        5125        5126        5135        5134
        5126        5127        5136        5135
        5127        5128        5137        5136
        5128        5129        5138        5137
        5130        5131        5140        5139
        5131        5132        5141        5140
        5132        5133        5142        5141
        5133        5134        5143        5142
        5134        5135        5144        5143
        5135        5136        5145        5144
        5136        5137        5146        5145
        5137        5138        5147        5146
        5139        5140        5149        5148
        5140        5141        5150        5149
        5141        5142        5151        5150
        5142        5143        5152        5151
        5143        5144        5153        5152
        5144        5145        5154        5153
        5145        5146        5155        5154
        5146        5147        5156        5155
        5148        5149        5158        5157
        5149        5150        5159        5158
        5150        5151        5160        5159
        5151        5152        5161        5160
        5152        5153        5162        5161
        5153        5154        5163        5162
        5154        5155        5164        5163
        5155        5156        5165        5164
        5157        5158        5167        5166
        5158        5159        5168        5167
        5159        5160        5169        5168
        5160        5161        5170        5169
        5161        5162        5171        5170
        5162        5163        5172        5171
        5163        5164        5173        5172
        5164        5165        5174        5173
        5166        5167        5176        5175
        5167        5168        5177        5176
        5168        5169        5178        5177
        5169        5170        5179        5178
        5170        5171        5180        5179
        5171        5172        5181        5180
        5172        5173        5182        5181
        5173        5174        5183        5182
 </DataArray>
 <DataArray  type="Int32"  Name="offsets"  format="ascii"> 
           4
           8
          12
          16
          20
          24
          28
          32
          36
          40
          44
          48
          52
          56
          60
          64
          68
          72
          76
          80
          84
          88
          92
          96
         100
         104
         108
         112
         116
         120
         124
         128
         132
         136
         140
         144
         148
         152
         156
         160
         164
         168
         172
         176
         180
         184
         188
         192
         196
         200
         204
         208
         212
         216
         220
         224
         228
         232
         236
         240
         244
         248
         252
         256
         260
         264
         268
         272
         276
         280
         284
         288
         292
         296
         300
         304
         308
         312
         316
         320
         324
         328
         332
         336
         340
         344
         348
         352
         356
         360
         364
         368
         372
         376
         380
         384
         388
         392
         396
         400
         404
         408
         412
         416
         420
         424
         428
         432
         436
         440
         444
         448
         452
         456
         460
         464
         468
         472
         476
         480
         484
         488
         492
         496
         500
         504
         508
         512
         516
         520
         524
         528
         532
         536
         540
         544
         548
         552
         556
         560
         564
         568
         572
         576
         580
         584
         588
         592
         596
         600
         604
         608
         612
         616
         620
         624
         628
         632
         636
         640
         644
         648
         652
         656
         660
         664
         668
         672
         676
         680
         684
         688
         692
         696
         700
         704
         708
         712
         716
         720
         724
         728
         732
         736
         740
         744
         748
         752
         756
         760
         764
         768
         772
         776
         780
         784
         788
         792
         796
         800
         804
         808
         812
         816
         820
         824
         828
         832
         836
         840
         844
         848
         852
         856
         860
         864
         868
         872
         876
         880
         884
         888
         892
         896
         900
         904
         908
         912
         916
         920
         924
         928
         932
         936
         940
         944
         948
         952
         956
         960
         964
         968
         972
         976
         980
         984
         988
         992
         996
        1000
        1004
        1008
        1012
        1016
        1020
        1024
        1028
        1032
        1036
        1040
        1044
        1048
        1052
        1056
        1060
        1064
        1068
        1072
        1076
        1080
        1084
        1088
        1092
        1096
        1100
        1104
        1108
        1112
        1116
        1120
        1124
        1128
        1132
        1136
        1140
        1144
        1148
        1152
        1156
        1160
        1164
        1168
        1172
        1176
        1180
        1184
        1188
        1192
        1196
        1200
        1204
        1208
        1212
        1216
        1220
        1224
        1228
        1232
        1236
        1240
        1244
        1248
        1252
        1256
        1260
        1264
        1268
        1272
        1276
        1280
        1284
        1288
        1292
        1296
        1300
        1304
        1308
        1312
        1316
        1320
        1324
        1328
        1332
        1336
        1340
        1344
        1348
        1352
        1356
        1360
        1364
        1368
        1372
        1376
        1380
        1384
        1388
        1392
        1396
        1400
        1404
        1408
        1412
        1416
        1420
        1424
        1428
        1432
        1436
        1440
        1444
        1448
        1452
        1456
        1460
        1464
        1468
        1472
        1476
        1480
        1484
        1488
        1492
        1496
        1500
        1504
        1508
        1512
        1516
        1520
        1524
        1528
        1532
        1536
        1540
        1544
        1548
        1552
        1556
        1560
        1564
        1568
        1572
        1576
        1580
        1584
        1588
        1592
        1596
        1600
        1604
        1608
        1612
        1616
        1620
        1624
        1628
        1632
        1636
        1640
        1644
        1648
        1652
        1656
        1660
        1664
        1668
        1672
        1676
        1680
        1684
        1688
        1692
        1696
        1700
        1704
        1708
        1712
        1716
        1720
        1724
        1728
        1732
        1736
        1740
        1744
        1748
        1752
        1756
        1760
        1764
        1768
        1772
        1776
        1780
        1784
        1788
        1792
        1796
        1800
        1804
        1808
        1812
        1816
        1820
        1824
        1828
        1832
        1836
        1840
        1844
        1848
        1852
        1856
        1860
        1864
        1868
        1872
        1876
        1880
        1884
        1888
        1892
        1896
        1900
        1904
        1908
        1912
        1916
        1920
        1924
        1928
        1932
        1936
        1940
        1944
        1948
        1952
        1956
        1960
        1964
        1968
        1972
        1976
        1980
        1984
        1988
        1992
        1996
        2000
        2004
        2008
        2012
        2016
        2020
        2024
        2028
        2032
        2036
        2040
        2044
        2048
        2052
        2056
        2060
        2064
        2068
        2072
        2076
        2080
        2084
        2088
        2092
        2096
        2100
        2104
        2108
        2112
        2116
        2120
        2124
        2128
        2132
        2136
        2140
        2144
        2148
        2152
        2156
        2160
        2164
        2168
        2172
        2176
        2180
        2184
        2188
        2192
        2196
        2200
        2204
        2208
        2212
        2216
        2220
        2224
        2228
        2232
        2236
        2240
        2244
        2248
        2252
        2256
        2260
        2264
        2268
        2272
        2276
        2280
        2284
        2288
        2292
        2296
        2300
        2304
        2308
        2312
        2316
        2320
        2324
        2328
        2332
        2336
        2340
        2344
        2348
        2352
        2356
        2360
        2364
        2368
        2372
        2376
        2380
        2384
        2388
        2392
        2396
        2400
        2404
        2408
        2412
        2416
        2420
        2424
        2428
        2432
        2436
        2440
        2444
        2448
        2452
        2456
        2460
        2464
        2468
        2472
        2476
        2480
        2484
        2488
        2492
        2496
        2500
        2504
        2508
        2512
        2516
        2520
        2524
        2528
        2532
        2536
        2540
        2544
        2548
        2552
        2556
        2560
        2564
        2568
        2572
        2576
        2580
        2584
        2588
        2592
        2596
        2600
        2604
        2608
        2612
        2616
        2620
        2624
        2628
        2632
        2636
        2640
        2644
        2648
        2652
        2656
        2660
        2664
        2668
        2672
        2676
        2680
        2684
        2688
        2692
        2696
        2700
        2704
        2708
        2712
        2716
        2720
        2724
        2728
        2732
        2736
        2740
        2744
        2748
        2752
        2756
        2760
        2764
        2768
        2772
        2776
        2780
        2784
        2788
        2792
        2796
        2800
        2804
        2808
        2812
        2816
        2820
        2824
        2828
        2832
        2836
        2840
        2844
        2848
        2852
        2856
        2860
        2864
        2868
        2872
        2876
        2880
        2884
        2888
        2892
        2896
        2900
        2904
        2908
        2912
        2916
        2920
        2924
        2928
        2932
        2936
        2940
        2944
        2948
        2952
        2956
        2960
        2964
        2968
        2972
        2976
        2980
        2984
        2988
        2992
        2996
        3000
        3004
        3008
        3012
        3016
        3020
        3024
        3028
        3032
        3036
        3040
        3044
        3048
        3052
        3056
        3060
        3064
        3068
        3072
        3076
        3080
        3084
        3088
        3092
        3096
        3100
        3104
        3108
        3112
        3116
        3120
        3124
        3128
        3132
        3136
        3140
        3144
        3148
        3152
        3156
        3160
        3164
        3168
        3172
        3176
        3180
        3184
        3188
        3192
        3196
        3200
        3204
        3208
        3212
        3216
        3220
        3224
        3228
        3232
        3236
        3240
        3244
        3248
        3252
        3256
        3260
        3264
        3268
        3272
        3276
        3280
        3284
        3288
        3292
        3296
        3300
        3304
        3308
        3312
        3316
        3320
        3324
        3328
        3332
        3336
        3340
        3344
        3348
        3352
        3356
        3360
        3364
        3368
        3372
        3376
        3380
        3384
        3388
        3392
        3396
        3400
        3404
        3408
        3412
        3416
        3420
        3424
        3428
        3432
        3436
        3440
        3444
        3448
        3452
        3456
        3460
        3464
        3468
        3472
        3476
        3480
        3484
        3488
        3492
        3496
        3500
        3504
        3508
        3512
        3516
        3520
        3524
        3528
        3532
        3536
        3540
        3544
        3548
        3552
        3556
        3560
        3564
        3568
        3572
        3576
        3580
        3584
        3588
        3592
        3596
        3600
        3604
        3608
        3612
        3616
        3620
        3624
        3628
        3632
        3636
        3640
        3644
        3648
        3652
        3656
        3660
        3664
        3668
        3672
        3676
        3680
        3684
        3688
        3692
        3696
        3700
        3704
        3708
        3712
        3716
        3720
        3724
        3728
        3732
        3736
        3740
        3744
        3748
        3752
        3756
        3760
        3764
        3768
        3772
        3776
        3780
        3784
        3788
        3792
        3796
        3800
        3804
        3808
        3812
        3816
        3820
        3824
        3828
        3832
        3836
        3840
        3844
        3848
        3852
        3856
        3860
        3864
        3868
        3872
        3876
        3880
        3884
        3888
        3892
        3896
        3900
        3904
        3908
        3912
        3916
        3920
        3924
        3928
        3932
        3936
        3940
        3944
        3948
        3952
        3956
        3960
        3964
        3968
        3972
        3976
        3980
        3984
        3988
        3992
        3996
        4000
        4004
        4008
        4012
        4016
        4020
        4024
        4028
        4032
        4036
        4040
        4044
        4048
        4052
        4056
        4060
        4064
        4068
        4072
        4076
        4080
        4084
        4088
        4092
        4096
        4100
        4104
        4108
        4112
        4116
        4120
        4124
        4128
        4132
        4136
        4140
        4144
        4148
        4152
        4156
        4160
        4164
        4168
        4172
        4176
        4180
        4184
        4188
        4192
        4196
        4200
        4204
        4208
        4212
        4216
        4220
        4224
        4228
        4232
        4236
        4240
        4244
        4248
        4252
        4256
        4260
        4264
        4268
        4272
        4276
        4280
        4284
        4288
        4292
        4296
        4300
        4304
        4308
        4312
        4316
        4320
        4324
        4328
        4332
        4336
        4340
        4344
        4348
        4352
        4356
        4360
        4364
        4368
        4372
        4376
        4380
        4384
        4388
        4392
        4396
        4400
        4404
        4408
        4412
        4416
        4420
        4424
        4428
        4432
        4436
        4440
        4444
        4448
        4452
        4456
        4460
        4464
        4468
        4472
        4476
        4480
        4484
        4488
        4492
        4496
        4500
        4504
        4508
        4512
        4516
        4520
        4524
        4528
        4532
        4536
        4540
        4544
        4548
        4552
        4556
        4560
        4564
        4568
        4572
        4576
        4580
        4584
        4588
        4592
        4596
        4600
        4604
        4608
        4612
        4616
        4620
        4624
        4628
        4632
        4636
        4640
        4644
        4648
        4652
        4656
        4660
        4664
        4668
        4672
        4676
        4680
        4684
        4688
        4692
        4696
        4700
        4704
        4708
        4712
        4716
        4720
        4724
        4728
        4732
        4736
        4740
        4744
        4748
        4752
        4756
        4760
        4764
        4768
        4772
        4776
        4780
        4784
        4788
        4792
        4796
        4800
        4804
        4808
        4812
        4816
        4820
        4824
        4828
        4832
        4836
        4840
        4844
        4848
        4852
        4856
        4860
        4864
        4868
        4872
        4876
        4880
        4884
        4888
        4892
        4896
        4900
        4904
        4908
        4912
        4916
        4920
        4924
        4928
        4932
        4936
        4940
        4944
        4948
        4952
        4956
        4960
        4964
        4968
        4972
        4976
        4980
        4984
        4988
        4992
        4996
        5000
        5004
        5008
        5012
        5016
        5020
        5024
        5028
        5032
        5036
        5040
        5044
        5048
        5052
        5056
        5060
        5064
        5068
        5072
        5076
        5080
        5084
        5088
        5092
        5096
        5100
        5104
        5108
        5112
        5116
        5120
        5124
        5128
        5132
        5136
        5140
        5144
        5148
        5152
        5156
        5160
        5164
        5168
        5172
        5176
        5180
        5184
        5188
        5192
        5196
        5200
        5204
        5208
        5212
        5216
        5220
        5224
        5228
        5232
        5236
        5240
        5244
        5248
        5252
        5256
        5260
        5264
        5268
        5272
        5276
        5280
        5284
        5288
        5292
        5296
        5300
        5304
        5308
        5312
        5316
        5320
        5324
        5328
        5332
        5336
        5340
        5344
        5348
        5352
        5356
        5360
        5364
        5368
        5372
        5376
        5380
        5384
        5388
        5392
        5396
        5400
        5404
        5408
        5412
        5416
        5420
        5424
        5428
        5432
        5436
        5440
        5444
        5448
        5452
        5456
        5460
        5464
        5468
        5472
        5476
        5480
        5484
        5488
        5492
        5496
        5500
        5504
        5508
        5512
        5516
        5520
        5524
        5528
        5532
        5536
        5540
        5544
        5548
        5552
        5556
        5560
        5564
        5568
        5572
        5576
        5580
        5584
        5588
        5592
        5596
        5600
        5604
        5608
        5612
        5616
        5620
        5624
        5628
        5632
        5636
        5640
        5644
        5648
        5652
        5656
        5660
        5664
        5668
        5672
        5676
        5680
        5684
        5688
        5692
        5696
        5700
        5704
        5708
        5712
        5716
        5720
        5724
        5728
        5732
        5736
        5740
        5744
        5748
        5752
        5756
        5760
        5764
        5768
        5772
        5776
        5780
        5784
        5788
        5792
        5796
        5800
        5804
        5808
        5812
        5816
        5820
        5824
        5828
        5832
        5836
        5840
        5844
        5848
        5852
        5856
        5860
        5864
        5868
        5872
        5876
        5880
        5884
        5888
        5892
        5896
        5900
        5904
        5908
        5912
        5916
        5920
        5924
        5928
        5932
        5936
        5940
        5944
        5948
        5952
        5956
        5960
        5964
        5968
        5972
        5976
        5980
        5984
        5988
        5992
        5996
        6000
        6004
        6008
        6012
        6016
        6020
        6024
        6028
        6032
        6036
        6040
        6044
        6048
        6052
        6056
        6060
        6064
        6068
        6072
        6076
        6080
        6084
        6088
        6092
        6096
        6100
        6104
        6108
        6112
        6116
        6120
        6124
        6128
        6132
        6136
        6140
        6144
        6148
        6152
        6156
        6160
        6164
        6168
        6172
        6176
        6180
        6184
        6188
        6192
        6196
        6200
        6204
        6208
        6212
        6216
        6220
        6224
        6228
        6232
        6236
        6240
        6244
        6248
        6252
        6256
        6260
        6264
        6268
        6272
        6276
        6280
        6284
        6288
        6292
        6296
        6300
        6304
        6308
        6312
        6316
        6320
        6324
        6328
        6332
        6336
        6340
        6344
        6348
        6352
        6356
        6360
        6364
        6368
        6372
        6376
        6380
        6384
        6388
        6392
        6396
        6400
        6404
        6408
        6412
        6416
        6420
        6424
        6428
        6432
        6436
        6440
        6444
        6448
        6452
        6456
        6460
        6464
        6468
        6472
        6476
        6480
        6484
        6488
        6492
        6496
        6500
        6504
        6508
        6512
        6516
        6520
        6524
        6528
        6532
        6536
        6540
        6544
        6548
        6552
        6556
        6560
        6564
        6568
        6572
        6576
        6580
        6584
        6588
        6592
        6596
        6600
        6604
        6608
        6612
        6616
        6620
        6624
        6628
        6632
        6636
        6640
        6644
        6648
        6652
        6656
        6660
        6664
        6668
        6672
        6676
        6680
        6684
        6688
        6692
        6696
        6700
        6704
        6708
        6712
        6716
        6720
        6724
        6728
        6732
        6736
        6740
        6744
        6748
        6752
        6756
        6760
        6764
        6768
        6772
        6776
        6780
        6784
        6788
        6792
        6796
        6800
        6804
        6808
        6812
        6816
        6820
        6824
        6828
        6832
        6836
        6840
        6844
        6848
        6852
        6856
        6860
        6864
        6868
        6872
        6876
        6880
        6884
        6888
        6892
        6896
        6900
        6904
        6908
        6912
        6916
        6920
        6924
        6928
        6932
        6936
        6940
        6944
        6948
        6952
        6956
        6960
        6964
        6968
        6972
        6976
        6980
        6984
        6988
        6992
        6996
        7000
        7004
        7008
        7012
        7016
        7020
        7024
        7028
        7032
        7036
        7040
        7044
        7048
        7052
        7056
        7060
        7064
        7068
        7072
        7076
        7080
        7084
        7088
        7092
        7096
        7100
        7104
        7108
        7112
        7116
        7120
        7124
        7128
        7132
        7136
        7140
        7144
        7148
        7152
        7156
        7160
        7164
        7168
        7172
        7176
        7180
        7184
        7188
        7192
        7196
        7200
        7204
        7208
        7212
        7216
        7220
        7224
        7228
        7232
        7236
        7240
        7244
        7248
        7252
        7256
        7260
        7264
        7268
        7272
        7276
        7280
        7284
        7288
        7292
        7296
        7300
        7304
        7308
        7312
        7316
        7320
        7324
        7328
        7332
        7336
        7340
        7344
        7348
        7352
        7356
        7360
        7364
        7368
        7372
        7376
        7380
        7384
        7388
        7392
        7396
        7400
        7404
        7408
        7412
        7416
        7420
        7424
        7428
        7432
        7436
        7440
        7444
        7448
        7452
        7456
        7460
        7464
        7468
        7472
        7476
        7480
        7484
        7488
        7492
        7496
        7500
        7504
        7508
        7512
        7516
        7520
        7524
        7528
        7532
        7536
        7540
        7544
        7548
        7552
        7556
        7560
        7564
        7568
        7572
        7576
        7580
        7584
        7588
        7592
        7596
        7600
        7604
        7608
        7612
        7616
        7620
        7624
        7628
        7632
        7636
        7640
        7644
        7648
        7652
        7656
        7660
        7664
        7668
        7672
        7676
        7680
        7684
        7688
        7692
        7696
        7700
        7704
        7708
        7712
        7716
        7720
        7724
        7728
        7732
        7736
        7740
        7744
        7748
        7752
        7756
        7760
        7764
        7768
        7772
        7776
        7780
        7784
        7788
        7792
        7796
        7800
        7804
        7808
        7812
        7816
        7820
        7824
        7828
        7832
        7836
        7840
        7844
        7848
        7852
        7856
        7860
        7864
        7868
        7872
        7876
        7880
        7884
        7888
        7892
        7896
        7900
        7904
        7908
        7912
        7916
        7920
        7924
        7928
        7932
        7936
        7940
        7944
        7948
        7952
        7956
        7960
        7964
        7968
        7972
        7976
        7980
        7984
        7988
        7992
        7996
        8000
        8004
        8008
        8012
        8016
        8020
        8024
        8028
        8032
        8036
        8040
        8044
        8048
        8052
        8056
        8060
        8064
        8068
        8072
        8076
        8080
        8084
        8088
        8092
        8096
        8100
        8104
        8108
        8112
        8116
        8120
        8124
        8128
        8132
        8136
        8140
        8144
        8148
        8152
        8156
        8160
        8164
        8168
        8172
        8176
        8180
        8184
        8188
        8192
        8196
        8200
        8204
        8208
        8212
        8216
        8220
        8224
        8228
        8232
        8236
        8240
        8244
        8248
        8252
        8256
        8260
        8264
        8268
        8272
        8276
        8280
        8284
        8288
        8292
        8296
        8300
        8304
        8308
        8312
        8316
        8320
        8324
        8328
        8332
        8336
        8340
        8344
        8348
        8352
        8356
        8360
        8364
        8368
        8372
        8376
        8380
        8384
        8388
        8392
        8396
        8400
        8404
        8408
        8412
        8416
        8420
        8424
        8428
        8432
        8436
        8440
        8444
        8448
        8452
        8456
        8460
        8464
        8468
        8472
        8476
        8480
        8484
        8488
        8492
        8496
        8500
        8504
        8508
        8512
        8516
        8520
        8524
        8528
        8532
        8536
        8540
        8544
        8548
        8552
        8556
        8560
        8564
        8568
        8572
        8576
        8580
        8584
        8588
        8592
        8596
        8600
        8604
        8608
        8612
        8616
        8620
        8624
        8628
        8632
        8636
        8640
        8644
        8648
        8652
        8656
        8660
        8664
        8668
        8672
        8676
        8680
        8684
        8688
        8692
        8696
        8700
        8704
        8708
        8712
        8716
        8720
        8724
        8728
        8732
        8736
        8740
        8744
        8748
        8752
        8756
        8760
        8764
        8768
        8772
        8776
        8780
        8784
        8788
        8792
        8796
        8800
        8804
        8808
        8812
        8816
        8820
        8824
        8828
        8832
        8836
        8840
        8844
        8848
        8852
        8856
        8860
        8864
        8868
        8872
        8876
        8880
        8884
        8888
        8892
        8896
        8900
        8904
        8908
        8912
        8916
        8920
        8924
        8928
        8932
        8936
        8940
        8944
        8948
        8952
        8956
        8960
        8964
        8968
        8972
        8976
        8980
        8984
        8988
        8992
        8996
        9000
        9004
        9008
        9012
        9016
        9020
        9024
        9028
        9032
        9036
        9040
        9044
        9048
        9052
        9056
        9060
        9064
        9068
        9072
        9076
        9080
        9084
        9088
        9092
        9096
        9100
        9104
        9108
        9112
        9116
        9120
        9124
        9128
        9132
        9136
        9140
        9144
        9148
        9152
        9156
        9160
        9164
        9168
        9172
        9176
        9180
        9184
        9188
        9192
        9196
        9200
        9204
        9208
        9212
        9216
        9220
        9224
        9228
        9232
        9236
        9240
        9244
        9248
        9252
        9256
        9260
        9264
        9268
        9272
        9276
        9280
        9284
        9288
        9292
        9296
        9300
        9304
        9308
        9312
        9316
        9320
        9324
        9328
        9332
        9336
        9340
        9344
        9348
        9352
        9356
        9360
        9364
        9368
        9372
        9376
        9380
        9384
        9388
        9392
        9396
        9400
        9404
        9408
        9412
        9416
        9420
        9424
        9428
        9432
        9436
        9440
        9444
        9448
        9452
        9456
        9460
        9464
        9468
        9472
        9476
        9480
        9484
        9488
        9492
        9496
        9500
        9504
        9508
        9512
        9516
        9520
        9524
        9528
        9532
        9536
        9540
        9544
        9548
        9552
        9556
        9560
        9564
        9568
        9572
        9576
        9580
        9584
        9588
        9592
        9596
        9600
        9604
        9608
        9612
        9616
        9620
        9624
        9628
        9632
        9636
        9640
        9644
        9648
        9652
        9656
        9660
        9664
        9668
        9672
        9676
        9680
        9684
        9688
        9692
        9696
        9700
        9704
        9708
        9712
        9716
        9720
        9724
        9728
        9732
        9736
        9740
        9744
        9748
        9752
        9756
        9760
        9764
        9768
        9772
        9776
        9780
        9784
        9788
        9792
        9796
        9800
        9804
        9808
        9812
        9816
        9820
        9824
        9828
        9832
        9836
        9840
        9844
        9848
        9852
        9856
        9860
        9864
        9868
        9872
        9876
        9880
        9884
        9888
        9892
        9896
        9900
        9904
        9908
        9912
        9916
        9920
        9924
        9928
        9932
        9936
        9940
        9944
        9948
        9952
        9956
        9960
        9964
        9968
        9972
        9976
        9980
        9984
        9988
        9992
        9996
       10000
       10004
       10008
       10012
       10016
       10020
       10024
       10028
       10032
       10036
       10040
       10044
       10048
       10052
       10056
       10060
       10064
       10068
       10072
       10076
       10080
       10084
       10088
       10092
       10096
       10100
       10104
       10108
       10112
       10116
       10120
       10124
       10128
       10132
       10136
       10140
       10144
       10148
       10152
       10156
       10160
       10164
       10168
       10172
       10176
       10180
       10184
       10188
       10192
       10196
       10200
       10204
       10208
       10212
       10216
       10220
       10224
       10228
       10232
       10236
       10240
       10244
       10248
       10252
       10256
       10260
       10264
       10268
       10272
       10276
       10280
       10284
       10288
       10292
       10296
       10300
       10304
       10308
       10312
       10316
       10320
       10324
       10328
       10332
       10336
       10340
       10344
       10348
       10352
       10356
       10360
       10364
       10368
       10372
       10376
       10380
       10384
       10388
       10392
       10396
       10400
       10404
       10408
       10412
       10416
       10420
       10424
       10428
       10432
       10436
       10440
       10444
       10448
       10452
       10456
       10460
       10464
       10468
       10472
       10476
       10480
       10484
       10488
       10492
       10496
       10500
       10504
       10508
       10512
       10516
       10520
       10524
       10528
       10532
       10536
       10540
       10544
       10548
       10552
       10556
       10560
       10564
       10568
       10572
       10576
       10580
       10584
       10588
       10592
       10596
       10600
       10604
       10608
       10612
       10616
       10620
       10624
       10628
       10632
       10636
       10640
       10644
       10648
       10652
       10656
       10660
       10664
       10668
       10672
       10676
       10680
       10684
       10688
       10692
       10696
       10700
       10704
       10708
       10712
       10716
       10720
       10724
       10728
       10732
       10736
       10740
       10744
       10748
       10752
       10756
       10760
       10764
       10768
       10772
       10776
       10780
       10784
       10788
       10792
       10796
       10800
       10804
       10808
       10812
       10816
       10820
       10824
       10828
       10832
       10836
       10840
       10844
       10848
       10852
       10856
       10860
       10864
       10868
       10872
       10876
       10880
       10884
       10888
       10892
       10896
       10900
       10904
       10908
       10912
       10916
       10920
       10924
       10928
       10932
       10936
       10940
       10944
       10948
       10952
       10956
       10960
       10964
       10968
       10972
       10976
       10980
       10984
       10988
       10992
       10996
       11000
       11004
       11008
       11012
       11016
       11020
       11024
       11028
       11032
       11036
       11040
       11044
       11048
       11052
       11056
       11060
       11064
       11068
       11072
       11076
       11080
       11084
       11088
       11092
       11096
       11100
       11104
       11108
       11112
       11116
       11120
       11124
       11128
       11132
       11136
       11140
       11144
       11148
       11152
       11156
       11160
       11164
       11168
       11172
       11176
       11180
       11184
       11188
       11192
       11196
       11200
       11204
       11208
       11212
       11216
       11220
       11224
       11228
       11232
       11236
       11240
       11244
       11248
       11252
       11256
       11260
       11264
       11268
       11272
       11276
       11280
       11284
       11288
       11292
       11296
       11300
       11304
       11308
       11312
       11316
       11320
       11324
       11328
       11332
       11336
       11340
       11344
       11348
       11352
       11356
       11360
       11364
       11368
       11372
       11376
       11380
       11384
       11388
       11392
       11396
       11400
       11404
       11408
       11412
       11416
       11420
       11424
       11428
       11432
       11436
       11440
       11444
       11448
       11452
       11456
       11460
       11464
       11468
       11472
       11476
       11480
       11484
       11488
       11492
       11496
       11500
       11504
       11508
       11512
       11516
       11520
       11524
       11528
       11532
       11536
       11540
       11544
       11548
       11552
       11556
       11560
       11564
       11568
       11572
       11576
       11580
       11584
       11588
       11592
       11596
       11600
       11604
       11608
       11612
       11616
       11620
       11624
       11628
       11632
       11636
       11640
       11644
       11648
       11652
       11656
       11660
       11664
       11668
       11672
       11676
       11680
       11684
       11688
       11692
       11696
       11700
       11704
       11708
       11712
       11716
       11720
       11724
       11728
       11732
       11736
       11740
       11744
       11748
       11752
       11756
       11760
       11764
       11768
       11772
       11776
       11780
       11784
       11788
       11792
       11796
       11800
       11804
       11808
       11812
       11816
       11820
       11824
       11828
       11832
       11836
       11840
       11844
       11848
       11852
       11856
       11860
       11864
       11868
       11872
       11876
       11880
       11884
       11888
       11892
       11896
       11900
       11904
       11908
       11912
       11916
       11920
       11924
       11928
       11932
       11936
       11940
       11944
       11948
       11952
       11956
       11960
       11964
       11968
       11972
       11976
       11980
       11984
       11988
       11992
       11996
       12000
       12004
       12008
       12012
       12016
       12020
       12024
       12028
       12032
       12036
       12040
       12044
       12048
       12052
       12056
       12060
       12064
       12068
       12072
       12076
       12080
       12084
       12088
       12092
       12096
       12100
       12104
       12108
       12112
       12116
       12120
       12124
       12128
       12132
       12136
       12140
       12144
       12148
       12152
       12156
       12160
       12164
       12168
       12172
       12176
       12180
       12184
       12188
       12192
       12196
       12200
       12204
       12208
       12212
       12216
       12220
       12224
       12228
       12232
       12236
       12240
       12244
       12248
       12252
       12256
       12260
       12264
       12268
       12272
       12276
       12280
       12284
       12288
       12292
       12296
       12300
       12304
       12308
       12312
       12316
       12320
       12324
       12328
       12332
       12336
       12340
       12344
       12348
       12352
       12356
       12360
       12364
       12368
       12372
       12376
       12380
       12384
       12388
       12392
       12396
       12400
       12404
       12408
       12412
       12416
       12420
       12424
       12428
       12432
       12436
       12440
       12444
       12448
       12452
       12456
       12460
       12464
       12468
       12472
       12476
       12480
       12484
       12488
       12492
       12496
       12500
       12504
       12508
       12512
       12516
       12520
       12524
       12528
       12532
       12536
       12540
       12544
       12548
       12552
       12556
       12560
       12564
       12568
       12572
       12576
       12580
       12584
       12588
       12592
       12596
       12600
       12604
       12608
       12612
       12616
       12620
       12624
       12628
       12632
       12636
       12640
       12644
       12648
       12652
       12656
       12660
       12664
       12668
       12672
       12676
       12680
       12684
       12688
       12692
       12696
       12700
       12704
       12708
       12712
       12716
       12720
       12724
       12728
       12732
       12736
       12740
       12744
       12748
       12752
       12756
       12760
       12764
       12768
       12772
       12776
       12780
       12784
       12788
       12792
       12796
       12800
       12804
       12808
       12812
       12816
       12820
       12824
       12828
       12832
       12836
       12840
       12844
       12848
       12852
       12856
       12860
       12864
       12868
       12872
       12876
       12880
       12884
       12888
       12892
       12896
       12900
       12904
       12908
       12912
       12916
       12920
       12924
       12928
       12932
       12936
       12940
       12944
       12948
       12952
       12956
       12960
       12964
       12968
       12972
       12976
       12980
       12984
       12988
       12992
       12996
       13000
       13004
       13008
       13012
       13016
       13020
       13024
       13028
       13032
       13036
       13040
       13044
       13048
       13052
       13056
       13060
       13064
       13068
       13072
       13076
       13080
       13084
       13088
       13092
       13096
       13100
       13104
       13108
       13112
       13116
       13120
       13124
       13128
       13132
       13136
       13140
       13144
       13148
       13152
       13156
       13160
       13164
       13168
       13172
       13176
       13180
       13184
       13188
       13192
       13196
       13200
       13204
       13208
       13212
       13216
       13220
       13224
       13228
       13232
       13236
       13240
       13244
       13248
       13252
       13256
       13260
       13264
       13268
       13272
       13276
       13280
       13284
       13288
       13292
       13296
       13300
       13304
       13308
       13312
       13316
       13320
       13324
       13328
       13332
       13336
       13340
       13344
       13348
       13352
       13356
       13360
       13364
       13368
       13372
       13376
       13380
       13384
       13388
       13392
       13396
       13400
       13404
       13408
       13412
       13416
       13420
       13424
       13428
       13432
       13436
       13440
       13444
       13448
       13452
       13456
       13460
       13464
       13468
       13472
       13476
       13480
       13484
       13488
       13492
       13496
       13500
       13504
       13508
       13512
       13516
       13520
       13524
       13528
       13532
       13536
       13540
       13544
       13548
       13552
       13556
       13560
       13564
       13568
       13572
       13576
       13580
       13584
       13588
       13592
       13596
       13600
       13604
       13608
       13612
       13616
       13620
       13624
       13628
       13632
       13636
       13640
       13644
       13648
       13652
       13656
       13660
       13664
       13668
       13672
       13676
       13680
       13684
       13688
       13692
       13696
       13700
       13704
       13708
       13712
       13716
       13720
       13724
       13728
       13732
       13736
       13740
       13744
       13748
       13752
       13756
       13760
       13764
       13768
       13772
       13776
       13780
       13784
       13788
       13792
       13796
       13800
       13804
       13808
       13812
       13816
       13820
       13824
       13828
       13832
       13836
       13840
       13844
       13848
       13852
       13856
       13860
       13864
       13868
       13872
       13876
       13880
       13884
       13888
       13892
       13896
       13900
       13904
       13908
       13912
       13916
       13920
       13924
       13928
       13932
       13936
       13940
       13944
       13948
       13952
       13956
       13960
       13964
       13968
       13972
       13976
       13980
       13984
       13988
       13992
       13996
       14000
       14004
       14008
       14012
       14016
       14020
       14024
       14028
       14032
       14036
       14040
       14044
       14048
       14052
       14056
       14060
       14064
       14068
       14072
       14076
       14080
       14084
       14088
       14092
       14096
       14100
       14104
       14108
       14112
       14116
       14120
       14124
       14128
       14132
       14136
       14140
       14144
       14148
       14152
       14156
       14160
       14164
       14168
       14172
       14176
       14180
       14184
       14188
       14192
       14196
       14200
       14204
       14208
       14212
       14216
       14220
       14224
       14228
       14232
       14236
       14240
       14244
       14248
       14252
       14256
       14260
       14264
       14268
       14272
       14276
       14280
       14284
       14288
       14292
       14296
       14300
       14304
       14308
       14312
       14316
       14320
       14324
       14328
       14332
       14336
       14340
       14344
       14348
       14352
       14356
       14360
       14364
       14368
       14372
       14376
       14380
       14384
       14388
       14392
       14396
       14400
       14404
       14408
       14412
       14416
       14420
       14424
       14428
       14432
       14436
       14440
       14444
       14448
       14452
       14456
       14460
       14464
       14468
       14472
       14476
       14480
       14484
       14488
       14492
       14496
       14500
       14504
       14508
       14512
       14516
       14520
       14524
       14528
       14532
       14536
       14540
       14544
       14548
       14552
       14556
       14560
       14564
       14568
       14572
       14576
       14580
       14584
       14588
       14592
       14596
       14600
       14604
       14608
       14612
       14616
       14620
       14624
       14628
       14632
       14636
       14640
       14644
       14648
       14652
       14656
       14660
       14664
       14668
       14672
       14676
       14680
       14684
       14688
       14692
       14696
       14700
       14704
       14708
       14712
       14716
       14720
       14724
       14728
       14732
       14736
       14740
       14744
       14748
       14752
       14756
       14760
       14764
       14768
       14772
       14776
       14780
       14784
       14788
       14792
       14796
       14800
       14804
       14808
       14812
       14816
       14820
       14824
       14828
       14832
       14836
       14840
       14844
       14848
       14852
       14856
       14860
       14864
       14868
       14872
       14876
       14880
       14884
       14888
       14892
       14896
       14900
       14904
       14908
       14912
       14916
       14920
       14924
       14928
       14932
       14936
       14940
       14944
       14948
       14952
       14956
       14960
       14964
       14968
       14972
       14976
       14980
       14984
       14988
       14992
       14996
       15000
       15004
       15008
       15012
       15016
       15020
       15024
       15028
       15032
       15036
       15040
       15044
       15048
       15052
       15056
       15060
       15064
       15068
       15072
       15076
       15080
       15084
       15088
       15092
       15096
       15100
       15104
       15108
       15112
       15116
       15120
       15124
       15128
       15132
       15136
       15140
       15144
       15148
       15152
       15156
       15160
       15164
       15168
       15172
       15176
       15180
       15184
       15188
       15192
       15196
       15200
       15204
       15208
       15212
       15216
       15220
       15224
       15228
       15232
       15236
       15240
       15244
       15248
       15252
       15256
       15260
       15264
       15268
       15272
       15276
       15280
       15284
       15288
       15292
       15296
       15300
       15304
       15308
       15312
       15316
       15320
       15324
       15328
       15332
       15336
       15340
       15344
       15348
       15352
       15356
       15360
       15364
       15368
       15372
       15376
       15380
       15384
       15388
       15392
       15396
       15400
       15404
       15408
       15412
       15416
       15420
       15424
       15428
       15432
       15436
       15440
       15444
       15448
       15452
       15456
       15460
       15464
       15468
       15472
       15476
       15480
       15484
       15488
       15492
       15496
       15500
       15504
       15508
       15512
       15516
       15520
       15524
       15528
       15532
       15536
       15540
       15544
       15548
       15552
       15556
       15560
       15564
       15568
       15572
       15576
       15580
       15584
       15588
       15592
       15596
       15600
       15604
       15608
       15612
       15616
       15620
       15624
       15628
       15632
       15636
       15640
       15644
       15648
       15652
       15656
       15660
       15664
       15668
       15672
       15676
       15680
       15684
       15688
       15692
       15696
       15700
       15704
       15708
       15712
       15716
       15720
       15724
       15728
       15732
       15736
       15740
       15744
       15748
       15752
       15756
       15760
       15764
       15768
       15772
       15776
       15780
       15784
       15788
       15792
       15796
       15800
       15804
       15808
       15812
       15816
       15820
       15824
       15828
       15832
       15836
       15840
       15844
       15848
       15852
       15856
       15860
       15864
       15868
       15872
       15876
       15880
       15884
       15888
       15892
       15896
       15900
       15904
       15908
       15912
       15916
       15920
       15924
       15928
       15932
       15936
       15940
       15944
       15948
       15952
       15956
       15960
       15964
       15968
       15972
       15976
       15980
       15984
       15988
       15992
       15996
       16000
       16004
       16008
       16012
       16016
       16020
       16024
       16028
       16032
       16036
       16040
       16044
       16048
       16052
       16056
       16060
       16064
       16068
       16072
       16076
       16080
       16084
       16088
       16092
       16096
       16100
       16104
       16108
       16112
       16116
       16120
       16124
       16128
       16132
       16136
       16140
       16144
       16148
       16152
       16156
       16160
       16164
       16168
       16172
       16176
       16180
       16184
       16188
       16192
       16196
       16200
       16204
       16208
       16212
       16216
       16220
       16224
       16228
       16232
       16236
       16240
       16244
       16248
       16252
       16256
       16260
       16264
       16268
       16272
       16276
       16280
       16284
       16288
       16292
       16296
       16300
       16304
       16308
       16312
       16316
       16320
       16324
       16328
       16332
       16336
       16340
       16344
       16348
       16352
       16356
       16360
       16364
       16368
       16372
       16376
       16380
       16384
 </DataArray>
 <DataArray  type="UInt8"  Name="types"  format="ascii">
 9
 9
 9
 9
 9
 9
 9
 9
 9
 9
 9
 9
 9
 9
 9
 9
 9
 9
 9
 9
 9
 9
 9
 9
 9
 9
 9
 9
 9
 9
 9
 9
 9
 9
 9
 9
 9
 9
 9
 9
 9
 9
 9
 9
 9
 9
 9
 9
 9
 9
 9
 9
 9
 9
 9
 9
 9
 9
 9
 9
 9
 9
 9
 9
 9
 9
 9
 9
 9
 9
 9
 9
 9
 9
 9
 9
 9
 9
 9
 9
 9
 9
 9
 9
 9
 9
 9
 9
 9
 9
 9
 9
 9
 9
 9
 9
 9
 9
 9
 9
 9
 9
 9
 9
 9
 9
 9
 9
 9
 9
 9
 9
 9
 9
 9
 9
 9
 9
 9
 9
 9
 9
 9
 9
 9
 9
 9
 9
 9
 9
 9
 9
 9
 9
 9
 9
 9
 9
 9
 9
 9
 9
 9
 9
 9
 9
 9
 9
 9
 9
 9
 9
 9
 9
 9
 9
 9
 9
 9
 9
 9
 9
 9
 9
 9
 9
 9
 9
 9
 9
 9
 9
 9
 9
 9
 9
 9
 9
 9
 9
 9
 9
 9
 9
 9
 9
 9
 9
 9
 9
 9
 9
 9
 9
 9
 9
 9
 9
 9
 9
 9
 9
 9
 9
 9
 9
 9
 9
 9
 9
 9
 9
 9
 9
 9
 9
 9
 9
 9
 9
 9
 9
 9
 9
 9
 9
 9
 9
 9
 9
 9
 9
 9
 9
 9
 9
 9
 9
 9
 9
 9
 9
 9
 9
 9
 9
 9
 9
 9
 9
 9
 9
 9
 9
 9
 9
 9
 9
 9
 9
 9
 9
 9
 9
 9
 9
 9
 9
 9
 9
 9
 9
 9
 9
 9
 9
 9
 9
 9
 9
 9
 9
 9
 9
 9
 9
 9
 9
 9
 9
 9
 9
 9
 9
 9
 9
 9
 9
 9
 9
 9
 9
 9
 9
 9
 9
 9
 9
 9
 9
 9
 9
 9
 9
 9
 9
 9
 9
 9
 9
 9
 9
 9
 9
 9
 9
 9
 9
 9
 9
 9
 9
 9
 9
 9
 9
 9
 9
 9
 9
 9
 9
 9
 9
 9
 9
 9
 9
 9
 9
 9
 9
 9
 9
 9
 9
 9
 9
 9
 9
 9
 9
 9
 9
 9
 9
 9
 9
 9
 9
 9
 9
 9
 9
 9
 9
 9
 9
 9
 9
 9
 9
 9
 9
 9
 9
 9
 9
 9
 9
 9
 9
 9
 9
 9
 9
 9
 9
 9
 9
 9
 9
 9
 9
 9
 9
 9
 9
 9
 9
 9
 9
 9
 9
 9
 9
 9
 9
 9
 9
 9
 9
 9
 9
 9
 9
 9
 9
 9
 9
 9
 9
 9
 9
 9
 9
 9
 9
 9
 9
 9
 9
 9
 9
 9
 9
 9
 9
 9
 9
 9
 9
 9
 9
 9
 9
 9
 9
 9
 9
 9
 9
 9
 9
 9
 9
 9
 9
 9
 9
 9
 9
 9
 9
 9
 9
 9
 9
 9
 9
 9
 9
 9
 9
 9
 9
 9
 9
 9
 9
 9
 9
 9
 9
 9
 9
 9
 9
 9
 9
 9
 9
 9
 9
 9
 9
 9
 9
 9
 9
 9
 9
 9
 9
 9
 9
 9
 9
 9
 9
 9
 9
 9
 9
 9
 9
 9
 9
 9
 9
 9
 9
 9
 9
 9
 9
 9
 9
 9
 9
 9
 9
 9
 9
 9
 9
 9
 9
 9
 9
 9
 9
 9
 9
 9
 9
 9
 9
 9
 9
 9
 9
 9
 9
 9
 9
 9
 9
 9
 9
 9
 9
 9
 9
 9
 9
 9
 9
 9
 9
 9
 9
 9
 9
 9
 9
 9
 9
 9
 9
 9
 9
 9
 9
 9
 9
 9
 9
 9
 9
 9
 9
 9
 9
 9
 9
 9
 9
 9
 9
 9
 9
 9
 9
 9
 9
 9
 9
 9
 9
 9
 9
 9
 9
 9
 9
 9
 9
 9
 9
 9
 9
 9
 9
 9
 9
 9
 9
 9
 9
 9
 9
 9
 9
 9
 9
 9
 9
 9
 9
 9
 9
 9
 9
 9
 9
 9
 9
 9
 9
 9
 9
 9
 9
 9
 9
 9
 9
 9
 9
 9
 9
 9
 9
 9
 9
 9
 9
 9
 9
 9
 9
 9
 9
 9
 9
 9
 9
 9
 9
 9
 9
 9
 9
 9
 9
 9
 9
 9
 9
 9
 9
 9
 9
 9
 9
 9
 9
 9
 9
 9
 9
 9
 9
 9
 9
 9
 9
 9
 9
 9
 9
 9
 9
 9
 9
 9
 9
 9
 9
 9
 9
 9
 9
 9
 9
 9
 9
 9
 9
 9
 9
 9
 9
 9
 9
 9
 9
 9
 9
 9
 9
 9
 9
 9
 9
 9
 9
 9
 9
 9
 9
 9
 9
 9
 9
 9
 9
 9
 9
 9
 9
 9
 9
 9
 9
 9
 9
 9
 9
 9
 9
 9
 9
 9
 9
 9
 9
 9
 9
 9
 9
 9
 9
 9
 9
 9
 9
 9
 9
 9
 9
 9
 9
 9
 9
 9
 9
 9
 9
 9
 9
 9
 9
 9
 9
 9
 9
 9
 9
 9
 9
 9
 9
 9
 9
 9
 9
 9
 9
 9
 9
 9
 9
 9
 9
 9
 9
 9
 9
 9
 9
 9
 9
 9
 9
 9
 9
 9
 9
 9
 9
 9
 9
 9
 9
 9
 9
 9
 9
 9
 9
 9
 9
 9
 9
 9
 9
 9
 9
 9
 9
 9
 9
 9
 9
 9
 9
 9
 9
 9
 9
 9
 9
 9
 9
 9
 9
 9
 9
 9
 9
 9
 9
 9
 9
 9
 9
 9
 9
 9
 9
 9
 9
 9
 9
 9
 9
 9
 9
 9
 9
 9
 9
 9
 9
 9
 9
 9
 9
 9
 9
 9
 9
 9
 9
 9
 9
 9
 9
 9
 9
 9
 9
 9
 9
 9
 9
 9
 9
 9
 9
 9
 9
 9
 9
 9
 9
 9
 9
 9
 9
 9
 9
 9
 9
 9
 9
 9
 9
 9
 9
 9
 9
 9
 9
 9
 9
 9
 9
 9
 9
 9
 9
 9
 9
 9
 9
 9
 9
 9
 9
 9
 9
 9
 9
 9
 9
 9
 9
 9
 9
 9
 9
 9
 9
 9
 9
 9
 9
 9
 9
 9
 9
 9
 9
 9
 9
 9
 9
 9
 9
 9
 9
 9
 9
 9
 9
 9
 9
 9
 9
 9
 9
 9
 9
 9
 9
 9
 9
 9
 9
 9
 9
 9
 9
 9
 9
 9
 9
 9
 9
 9
 9
 9
 9
 9
 9
 9
 9
 9
 9
 9
 9
 9
 9
 9
 9
 9
 9
 9
 9
 9
 9
 9
 9
 9
 9
 9
 9
 9
 9
 9
 9
 9
 9
 9
 9
 9
 9
 9
 9
 9
 9
 9
 9
 9
 9
 9
 9
 9
 9
 9
 9
 9
 9
 9
 9
 9
 9
 9
 9
 9
 9
 9
 9
 9
 9
 9
 9
 9
 9
 9
 9
 9
 9
 9
 9
 9
 9
 9
 9
 9
 9
 9
 9
 9
 9
 9
 9
 9
 9
 9
 9
 9
 9
 9
 9
 9
 9
 9
 9
 9
 9
 9
 9
 9
 9
 9
 9
 9
 9
 9
 9
 9
 9
 9
 9
 9
 9
 9
 9
 9
 9
 9
 9
 9
 9
 9
 9
 9
 9
 9
 9
 9
 9
 9
 9
 9
 9
 9
 9
 9
 9
 9
 9
 9
 9
 9
 9
 9
 9
 9
 9
 9
 9
 9
 9
 9
 9
 9
 9
 9
 9
 9
 9
 9
 9
 9
 9
 9
 9
 9
 9
 9
 9
 9
 9
 9
 9
 9
 9
 9
 9
 9
 9
 9
 9
 9
 9
 9
 9
 9
 9
 9
 9
 9
 9
 9
 9
 9
 9
 9
 9
 9
 9
 9
 9
 9
 9
 9
 9
 9
 9
 9
 9
 9
 9
 9
 9
 9
 9
 9
 9
 9
 9
 9
 9
 9
 9
 9
 9
 9
 9
 9
 9
 9
 9
 9
 9
 9
 9
 9
 9
 9
 9
 9
 9
 9
 9
 9
 9
 9
 9
 9
 9
 9
 9
 9
 9
 9
 9
 9
 9
 9
 9
 9
 9
 9
 9
 9
 9
 9
 9
 9
 9
 9
 9
 9
 9
 9
 9
 9
 9
 9
 9
 9
 9
 9
 9
 9
 9
 9
 9
 9
 9
 9
 9
 9
 9
 9
 9
 9
 9
 9
 9
 9
 9
 9
 9
 9
 9
 9
 9
 9
 9
 9
 9
 9
 9
 9
 9
 9
 9
 9
 9
 9
 9
 9
 9
 9
 9
 9
 9
 9
 9
 9
 9
 9
 9
 9
 9
 9
 9
 9
 9
 9
 9
 9
 9
 9
 9
 9
 9
 9
 9
 9
 9
 9
 9
 9
 9
 9
 9
 9
 9
 9
 9
 9
 9
 9
 9
 9
 9
 9
 9
 9
 9
 9
 9
 9
 9
 9
 9
 9
 9
 9
 9
 9
 9
 9
 9
 9
 9
 9
 9
 9
 9
 9
 9
 9
 9
 9
 9
 9
 9
 9
 9
 9
 9
 9
 9
 9
 9
 9
 9
 9
 9
 9
 9
 9
 9
 9
 9
 9
 9
 9
 9
 9
 9
 9
 9
 9
 9
 9
 9
 9
 9
 9
 9
 9
 9
 9
 9
 9
 9
 9
 9
 9
 9
 9
 9
 9
 9
 9
 9
 9
 9
 9
 9
 9
 9
 9
 9
 9
 9
 9
 9
 9
 9
 9
 9
 9
 9
 9
 9
 9
 9
 9
 9
 9
 9
 9
 9
 9
 9
 9
 9
 9
 9
 9
 9
 9
 9
 9
 9
 9
 9
 9
 9
 9
 9
 9
 9
 9
 9
 9
 9
 9
 9
 9
 9
 9
 9
 9
 9
 9
 9
 9
 9
 9
 9
 9
 9
 9
 9
 9
 9
 9
 9
 9
 9
 9
 9
 9
 9
 9
 9
 9
 9
 9
 9
 9
 9
 9
 9
 9
 9
 9
 9
 9
 9
 9
 9
 9
 9
 9
 9
 9
 9
 9
 9
 9
 9
 9
 9
 9
 9
 9
 9
 9
 9
 9
 9
 9
 9
 9
 9
 9
 9
 9
 9
 9
 9
 9
 9
 9
 9
 9
 9
 9
 9
 9
 9
 9
 9
 9
 9
 9
 9
 9
 9
 9
 9
 9
 9
 9
 9
 9
 9
 9
 9
 9
 9
 9
 9
 9
 9
 9
 9
 9
 9
 9
 9
 9
 9
 9
 9
 9
 9
 9
 9
 9
 9
 9
 9
 9
 9
 9
 9
 9
 9
 9
 9
 9
 9
 9
 9
 9
 9
 9
 9
 9
 9
 9
 9
 9
 9
 9
 9
 9
 9
 9
 9
 9
 9
 9
 9
 9
 9
 9
 9
 9
 9
 9
 9
 9
 9
 9
 9
 9
 9
 9
 9
 9
 9
 9
 9
 9
 9
 9
 9
 9
 9
 9
 9
 9
 9
 9
 9
 9
 9
 9
 9
 9
 9
 9
 9
 9
 9
 9
 9
 9
 9
 9
 9
 9
 9
 9
 9
 9
 9
 9
 9
 9
 9
 9
 9
 9
 9
 9
 9
 9
 9
 9
 9
 9
 9
 9
 9
 9
 9
 9
 9
 9
 9
 9
 9
 9
 9
 9
 9
 9
 9
 9
 9
 9
 9
 9
 9
 9
 9
 9
 9
 9
 9
 9
 9
 9
 9
 9
 9
 9
 9
 9
 9
 9
 9
 9
 9
 9
 9
 9
 9
 9
 9
 9
 9
 9
 9
 9
 9
 9
 9
 9
 9
 9
 9
 9
 9
 9
 9
 9
 9
 9
 9
 9
 9
 9
 9
 9
 9
 9
 9
 9
 9
 9
 9
 9
 9
 9
 9
 9
 9
 9
 9
 9
 9
 9
 9
 9
 9
 9
 9
 9
 9
 9
 9
 9
 9
 9
 9
 9
 9
 9
 9
 9
 9
 9
 9
 9
 9
 9
 9
 9
 9
 9
 9
 9
 9
 9
 9
 9
 9
 9
 9
 9
 9
 9
 9
 9
 9
 9
 9
 9
 9
 9
 9
 9
 9
 9
 9
 9
 9
 9
 9
 9
 9
 9
 9
 9
 9
 9
 9
 9
 9
 9
 9
 9
 9
 9
 9
 9
 9
 9
 9
 9
 9
 9
 9
 9
 9
 9
 9
 9
 9
 9
 9
 9
 9
 9
 9
 9
 9
 9
 9
 9
 9
 9
 9
 9
 9
 9
 9
 9
 9
 9
 9
 9
 9
 9
 9
 9
 9
 9
 9
 9
 9
 9
 9
 9
 9
 9
 9
 9
 9
 9
 9
 9
 9
 9
 9
 9
 9
 9
 9
 9
 9
 9
 9
 9
 9
 9
 9
 9
 9
 9
 9
 9
 9
 9
 9
 9
 9
 9
 9
 9
 9
 9
 9
 9
 9
 9
 9
 9
 9
 9
 9
 9
 9
 9
 9
 9
 9
 9
 9
 9
 9
 9
 9
 9
 9
 9
 9
 9
 9
 9
 9
 9
 9
 9
 9
 9
 9
 9
 9
 9
 9
 9
 9
 9
 9
 9
 9
 9
 9
 9
 9
 9
 9
 9
 9
 9
 9
 9
 9
 9
 9
 9
 9
 9
 9
 9
 9
 9
 9
 9
 9
 9
 9
 9
 9
 9
 9
 9
 9
 9
 9
 9
 9
 9
 9
 9
 9
 9
 9
 9
 9
 9
 9
 9
 9
 9
 9
 9
 9
 9
 9
 9
 9
 9
 9
 9
 9
 9
 9
 9
 9
 9
 9
 9
 9
 9
 9
 9
 9
 9
 9
 9
 9
 9
 9
 9
 9
 9
 9
 9
 9
 9
 9
 9
 9
 9
 9
 9
 9
 9
 9
 9
 9
 9
 9
 9
 9
 9
 9
 9
 9
 9
 9
 9
 9
 9
 9
 9
 9
 9
 9
 9
 9
 9
 9
 9
 9
 9
 9
 9
 9
 9
 9
 9
 9
 9
 9
 9
 9
 9
 9
 9
 9
 9
 9
 9
 9
 9
 9
 9
 9
 9
 9
 9
 9
 9
 9
 9
 9
 9
 9
 9
 9
 9
 9
 9
 9
 9
 9
 9
 9
 9
 9
 9
 9
 9
 9
 9
 9
 9
 9
 9
 9
 9
 9
 9
 9
 9
 9
 9
 9
 9
 9
 9
 9
 9
 9
 9
 9
 9
 9
 9
 9
 9
 9
 9
 9
 9
 9
 9
 9
 9
 9
 9
 9
 9
 9
 9
 9
 9
 9
 9
 9
 9
 9
 9
 9
 9
 9
 9
 9
 9
 9
 9
 9
 9
 9
 9
 9
 9
 9
 9
 9
 9
 9
 9
 9
 9
 9
 9
 9
 9
 9
 9
 9
 9
 9
 9
 9
 9
 9
 9
 9
 9
 9
 9
 9
 9
 9
 9
 9
 9
 9
 9
 9
 9
 9
 9
 9
 9
 9
 9
 9
 9
 9
 9
 9
 9
 9
 9
 9
 9
 9
 9
 9
 9
 9
 9
 9
 9
 9
 9
 9
 9
 9
 9
 9
 9
 9
 9
 9
 9
 9
 9
 9
 9
 9
 9
 9
 9
 9
 9
 9
 9
 9
 9
 9
 9
 9
 9
 9
 9
 9
 9
 9
 9
 9
 9
 9
 9
 9
 9
 9
 9
 9
 9
 9
 9
 9
 9
 9
 9
 9
 9
 9
 9
 9
 9
 9
 9
 9
 9
 9
 9
 9
 9
 9
 9
 9
 9
 9
 9
 9
 9
 9
 9
 9
 9
 9
 9
 9
 9
 9
 9
 9
 9
 9
 9
 9
 9
 9
 9
 9
 9
 9
 9
 9
 9
 9
 9
 9
 9
 9
 9
 9
 9
 9
 9
 9
 9
 9
 9
 9
 9
 9
 9
 9
 9
 9
 9
 9
 9
 9
 9
 9
 9
 9
 9
 9
 9
 9
 9
 9
 9
 9
 9
 9
 9
 9
 9
 9
 9
 9
 9
 9
 9
 9
 9
 9
 9
 9
 9
 9
 9
 9
 9
 9
 9
 9
 9
 9
 9
 9
 9
 9
 9
 9
 9
 9
 9
 9
 9
 9
 9
 9
 9
 9
 9
 9
 9
 9
 9
 9
 9
 9
 9
 9
 9
 9
 9
 9
 9
 9
 9
 9
 9
 9
 9
 9
 9
 9
 9
 9
 9
 9
 9
 9
 9
 9
 9
 9
 9
 9
 9
 9
 9
 9
 9
 9
 9
 9
 9
 9
 9
 9
 9
 9
 9
 9
 9
 9
 9
 9
 9
 9
 9
 9
 9
 9
 9
 9
 9
 9
 9
 9
 9
 9
 9
 9
 9
 9
 9
 9
 9
 9
 9
 9
 9
 9
 9
 9
 9
 9
 9
 9
 9
 9
 9
 9
 9
 9
 9
 9
 9
 9
 9
 9
 9
 9
 9
 9
 9
 9
 9
 9
 9
 9
 9
 9
 9
 9
 9
 9
 9
 9
 9
 9
 9
 9
 9
 9
 9
 9
 9
 9
 9
 9
 9
 9
 9
 9
 9
 9
 9
 9
 9
 9
 9
 9
 9
 9
 9
 9
 9
 9
 9
 9
 9
 9
 9
 9
 9
 9
 9
 9
 9
 9
 9
 9
 9
 9
 9
 9
 9
 9
 9
 9
 9
 9
 9
 9
 9
 9
 9
 9
 9
 9
 9
 9
 9
 9
 9
 9
 9
 9
 9
 9
 9
 9
 9
 9
 9
 9
 9
 9
 9
 9
 9
 9
 9
 9
 9
 9
 9
 9
 9
 9
 9
 9
 9
 9
 9
 9
 9
 9
 9
 9
 9
 9
 9
 9
 9
 9
 9
 9
 9
 9
 9
 9
 9
 9
 9
 9
 9
 9
 9
 9
 9
 9
 9
 9
 9
 9
 9
 9
 9
 9
 9
 9
 9
 9
 9
 9
 9
 9
 9
 9
 9
 9
 9
 9
 9
 9
 9
 9
 9
 9
 9
 9
 9
 9
 9
 9
 9
 9
 9
 9
 9
 9
 9
 9
 9
 9
 9
 9
 9
 9
 9
 9
 9
 9
 9
 9
 9
 9
 9
 9
 9
 9
 9
 9
 9
 9
 9
 9
 9
 9
 9
 9
 9
 9
 9
 9
 9
 9
 9
 9
 9
 9
 9
 9
 9
 9
 9
 9
 9
 9
 9
 9
 9
 9
 9
 9
 9
 9
 9
 9
 9
 9
 9
 9
 9
 9
 9
 9
 9
 9
 9
 9
 9
 9
 9
 9
 9
 9
 9
 9
 9
 9
 9
 9
 9
 9
 9
 9
 9
 9
 9
 9
 9
 9
 9
 9
 9
 9
 9
 9
 9
 9
 9
 9
 9
 9
 9
 9
 9
 9
 9
 9
 9
 9
 9
 9
 9
 9
 9
 9
 9
 9
 9
 9
 9
 9
 9
 9
 9
 9
 9
 9
 9
 9
 9
 9
 9
 9
 9
 9
 9
 9
 9
 9
 9
 9
 9
 9
 9
 9
 9
 9
 9
 9
 9
 9
 9
 9
 9
 9
 9
 9
 9
 9
 9
 9
 9
 9
 9
 9
 9
 9
 9
 9
 9
 9
 9
 9
 9
 9
 9
 9
 9
 9
 9
 9
 9
 9
 9
 9
 9
 9
 9
 9
 9
 9
 9
 9
 9
 9
 9
 9
 9
 9
 9
 9
 9
 9
 9
 9
 9
 9
 9
 9
 9
 9
 9
 9
 9
 9
 9
 9
 9
 9
 9
 9
 9
 9
 9
 9
 9
 9
 9
 9
 9
 9
 9
 9
 9
 9
 9
 9
 9
 9
 9
 9
 9
 9
 9
 9
 9
 9
 9
 9
 9
 9
 9
 9
 9
 9
 9
 9
 9
 9
 9
 9
 9
 9
 9
 9
 9
 9
 9
 9
 9
 9
 9
 9
 9
 9
 9
 9
 9
 9
 9
 9
 9
 9
 9
 9
 9
 9
 9
 9
 9
 9
 9
 9
 9
 9
 9
 9
 9
 9
 9
 9
 9
 9
 9
 9
 9
 9
 9
 9
 9
 9
 9
 9
 9
 9
 9
 9
 9
 9
 9
 9
 9
 9
 9
 9
 9
 9
 9
 9
 9
 9
 9
 9
 9
 9
 9
 9
 9
 9
 9
 9
 9
 9
 9
 9
 9
 9
 9
 9
 9
 9
 9
 9
 9
 9
 9
 9
 9
 9
 9
 9
 9
 9
 9
 9
 9
 9
 9
 9
 9
 9
 9
 9
 9
 9
 9
 9
 9
 9
 9
 9
 9
 9
 9
 9
 9
 9
 9
 9
 9
 9
 9
 9
 9
 9
 9
 9
 9
 9
 9
 9
 9
 9
 9
 9
 9
 9
 9
 9
 9
 9
 9
 9
 9
 9
 9
 9
 9
 9
 9
 9
 9
 9
 9
 9
 9
 9
 9
 9
 9
 9
 9
 9
 9
 9
 9
 9
 9
 9
 9
 9
 9
 9
 9
 9
 9
 9
 9
 9
 9
 9
 9
 9
 9
 9
 9
 9
 9
 9
 9
 9
 9
 9
 9
 9
 9
 9
 9
 9
 9
 9
 9
 9
 9
 9
 9
 9
 9
 9
 9
 9
 9
 9
 9
 9
 9
 9
 9
 9
 9
 9
 9
 9
 9
 9
 9
 9
 9
 9
 9
 9
 9
 9
 9
 9
 9
 9
 9
 9
 9
 9
 9
 9
 9
 9
 9
 9
 9
 9
 9
 9
 9
 9
 9
 9
 9
 9
 9
 9
 9
 9
 9
 9
 9
 9
 9
 9
 9
 9
 9
 9
 9
 9
 9
 9
 9
 9
 9
 9
 9
 9
 9
 9
 9
 9
 9
 9
 9
 9
 9
 9
 9
 9
 9
 9
 9
 9
 9
 9
 9
 9
 9
 9
 9
 9
 9
 9
 9
 9
 9
 9
 9
 9
 9
 9
 9
 9
 9
 9
 9
 9
 9
 9
 9
 9
 9
 9
 9
 9
 9
 9
 9
 9
 9
 9
 9
 9
 9
 9
 9
 9
 9
 9
 9
 9
 9
 9
 9
 9
 9
 9
 9
 9
 9
 9
 9
 9
 9
 9
 9
 9
 9
 9
 9
 9
 9
 9
 9
 9
 9
 9
 9
 9
 9
 9
 9
 9
 9
 9
 9
 9
 9
 9
 9
 9
 9
 9
 9
 9
 9
 9
 9
 9
 9
 9
 9
 9
 9
 9
 9
 9
 9
 9
 9
 9
 9
 9
 9
 9
 9
 9
 9
 9
 9
 9
 9
 9
 9
 9
 9
 9
 9
 9
 9
 9
 9
 9
 9
 9
 9
 9
 9
 9
 9
 9
 9
 9
 9
 9
 9
 9
 9
 9
 9
 9
 9
 9
 9
 9
 9
 9
 9
 9
 9
 9
 9
 9
 9
 9
 9
 9
 9
 9
 9
 9
 9
 9
 9
 9
 9
 9
 9
 9
 9
 9
 9
 9
 9
 9
 9
 9
 9
 9
 9
 9
 9
 9
 9
 9
 9
 9
 9
 9
 9
 9
 9
 9
 9
 9
 9
 9
 9
 9
 9
 9
 9
 9
 9
 9
 9
 9
 9
 9
 9
 9
 9
 9
 9
 9
 9
 9
 9
 9
 9
 9
 9
 9
 9
 9
 9
 9
 9
 9
 9
 9
 9
 9
 9
 9
 9
 9
 9
 9
 9
 9
 9
 9
 9
 9
 9
 9
 9
 9
 9
 9
 9
 9
 9
 9
 9
 9
 9
 9
 9
 9
 9
 9
 9
 9
 9
 9
 9
 9
 9
 9
 9
 9
 9
 9
 9
 9
 9
 9
 9
 9
 9
 9
 9
 9
 9
 9
 9
 9
 9
 9
 9
 9
 9
 9
 9
 9
 9
 9
 9
 9
 9
 9
 9
 9
 9
 9
 9
 9
 9
 9
 9
 9
 9
 9
 9
 9
 9
 9
 9
 9
 9
 9
 9
 9
 9
 9
 9
 9
 9
 9
 9
 9
 9
 9
 9
 9
 9
 9
 9
 9
 9
 9
 9
 9
 9
 9
 9
 9
 9
 9
 9
 9
 9
 9
 9
 9
 9
 9
 9
 9
 9
 9
 9
 9
 9
 9
 9
 9
 9
 9
 9
 9
 9
 9
 9
 9
 9
 9
 9
 9
 9
 9
 9
 9
 9
 9
 9
 9
 9
 9
 9
 9
 9
 9
 9
 9
 9
 9
 9
 9
 9
 9
 9
 9
 9
 9
 9
 9
 9
 9
 9
 9
 9
 9
 9
 9
 9
 9
 9
 9
 9
 9
 9
 9
 9
 9
 9
 9
 9
 9
 9
 9
 9
 9
 9
 9
 9
 9
 9
 9
 9
 9
 9
 9
 9
 9
 9
 9
 9
 9
 9
 9
 9
 9
 9
 9
 9
 9
 9
 9
 9
 9
 9
 9
 9
 9
 9
 9
 9
 9
 9
 9
 9
 9
 9
 9
 9
 9
 9
 9
 9
 9
 9
 9
 9
 9
 9
 9
 9
 9
 9
 9
 9
 9
 9
 9
 9
 9
 9
 9
 9
 9
 9
 9
 9
 9
 9
 9
 9
 9
 9
 9
 9
 9
 9
 9
 9
 9
 9
 9
 9
 9
 9
 9
 9
 9
 9
 9
 9
 9
 9
 9
 9
 9
 9
 9
 9
 9
 9
 9
 9
 9
 9
 9
 9
 9
 9
 9
 9
 9
 9
 9
 9
 9
 9
 9
 9
 9
 9
 9
 9
 9
 9
 9
 9
 9
 9
 9
 9
 9
 9
 9
 9
 9
 9
 9
 9
 9
 9
 9
 9
 9
 9
 9
 9
 9
 9
 9
 9
 9
 9
 9
 9
 9
 9
 9
 9
 9
 9
 9
 9
 9
 9
 9
 9
 9
 9
 9
 9
 9
 9
 9
 9
 9
 9
 9
 9
 9
 9
 9
 9
 9
 9
 9
 9
 9
 9
 9
 9
 9
 9
 9
 9
 9
 9
 9
 9
 9
 9
 9
 9
 9
 9
 9
 9
 9
 9
 9
 9
 9
 9
 9
 9
 9
 9
 9
 9
 9
 9
 9
 9
 9
 9
 9
 9
 9
 9
 9
 9
 9
 9
 9
 9
 9
 9
 9
 9
 9
 9
 9
 9
 9
 9
 9
 9
 9
 9
 9
 9
 9
 9
 9
 </DataArray>
 </Cells> 
 <PointData>
 <DataArray  type="Float64" Name="disp" NumberOfComponents="3" format="ascii">
   1.7560068754789576E-006   2.1442474896085944E-006   0.0000000000000000     
   1.7793788181267330E-006   2.2024859819825764E-006   0.0000000000000000     
   1.8026292368257426E-006   2.2614517085907987E-006   0.0000000000000000     
   1.8257581007690077E-006   2.3211410692919387E-006   0.0000000000000000     
   1.8487653791495480E-006   2.3815504639446740E-006   0.0000000000000000     
   1.8716510411603846E-006   2.4426762924076811E-006   0.0000000000000000     
   1.8944150559945385E-006   2.5045149545396393E-006   0.0000000000000000     
   1.9170573928450300E-006   2.5670628501992248E-006   0.0000000000000000     
   1.9395780209048797E-006   2.6303163792451155E-006   0.0000000000000000     
   1.6982730392524317E-006   2.1373281728615405E-006   0.0000000000000000     
   1.7209152218077071E-006   2.1956021689588803E-006   0.0000000000000000     
   1.7434396571482713E-006   2.2546035327327001E-006   0.0000000000000000     
   1.7658463038917783E-006   2.3143286439168177E-006   0.0000000000000000     
   1.7881351206558801E-006   2.3747738822450492E-006   0.0000000000000000     
   1.8103060660582302E-006   2.4359356274512136E-006   0.0000000000000000     
   1.8323590987164818E-006   2.4978102592691274E-006   0.0000000000000000     
   1.8542941772482879E-006   2.5603941574326085E-006   0.0000000000000000     
   1.8761112602713012E-006   2.6236837016754741E-006   0.0000000000000000     
   1.6408111342733146E-006   2.1306290710667467E-006   0.0000000000000000     
   1.6627234890750816E-006   2.1889371733010050E-006   0.0000000000000000     
   1.6845218712645415E-006   2.2479728467412054E-006   0.0000000000000000     
   1.7062062324315642E-006   2.3077324408188152E-006   0.0000000000000000     
   1.7277765241660188E-006   2.3682123049653027E-006   0.0000000000000000     
   1.7492326980577748E-006   2.4294087886121339E-006   0.0000000000000000     
   1.7705747056967031E-006   2.4913182411907783E-006   0.0000000000000000     
   1.7918024986726709E-006   2.5539370121327019E-006   0.0000000000000000     
   1.8129160285755499E-006   2.6172614508693722E-006   0.0000000000000000     
   1.5836124363296785E-006   2.1241499747435818E-006   0.0000000000000000     
   1.6047949039988411E-006   2.1824908618621492E-006   0.0000000000000000     
   1.6258671707430629E-006   2.2415595736672054E-006   0.0000000000000000     
   1.6468291843938401E-006   2.3013524220599404E-006   0.0000000000000000     
   1.6676808927826710E-006   2.3618657189415450E-006   0.0000000000000000     
   1.6884222437410517E-006   2.4230957762132105E-006   0.0000000000000000     
   1.7090531851004807E-006   2.4850389057761265E-006   0.0000000000000000     
   1.7295736646924542E-006   2.5476914195314849E-006   0.0000000000000000     
   1.7499836303484707E-006   2.6110496293804770E-006   0.0000000000000000     
   1.5266682212095944E-006   2.1178906744114148E-006   0.0000000000000000     
   1.5471207506489722E-006   2.1762631014955140E-006   0.0000000000000000     
   1.5674668471523475E-006   2.2353636365615926E-006   0.0000000000000000     
   1.5877064577840839E-006   2.2951885497022012E-006   0.0000000000000000     
   1.6078395296085453E-006   2.3557341110098903E-006   0.0000000000000000     
   1.6278660096900951E-006   2.4169965905772102E-006   0.0000000000000000     
   1.6477858450930963E-006   2.4789722584967110E-006   0.0000000000000000     
   1.6675989828819127E-006   2.5416573848609427E-006   0.0000000000000000     
   1.6873053701209086E-006   2.6050482397624561E-006   0.0000000000000000     
   1.4699697647011352E-006   2.1118509605896146E-006   0.0000000000000000     
   1.4896923130954577E-006   2.1702537590542955E-006   0.0000000000000000     
   1.5093121920609041E-006   2.2293849584752558E-006   0.0000000000000000     
   1.5288293506077695E-006   2.2892407858076049E-006   0.0000000000000000     
   1.5482437377463489E-006   2.3498174680064508E-006   0.0000000000000000     
   1.5675553024869373E-006   2.4111112320269019E-006   0.0000000000000000     
   1.5867639938398299E-006   2.4731183048240682E-006   0.0000000000000000     
   1.6058697608153212E-006   2.5358349133530559E-006   0.0000000000000000     
   1.6248725524237073E-006   2.5992572845689761E-006   0.0000000000000000     
   1.4135083425923732E-006   2.1060306237975523E-006   0.0000000000000000     
   1.4325008754082840E-006   2.1644627013916950E-006   0.0000000000000000     
   1.4513944970372447E-006   2.2236234624590876E-006   0.0000000000000000     
   1.4701891608703731E-006   2.2835090924381597E-006   0.0000000000000000     
   1.4888848202987899E-006   2.3441157767673383E-006   0.0000000000000000     
   1.5074814287136127E-006   2.4054397008850545E-006   0.0000000000000000     
   1.5259789395059610E-006   2.4674770502297345E-006   0.0000000000000000     
   1.5443773060669546E-006   2.5302240102398082E-006   0.0000000000000000     
   1.5626764817877123E-006   2.5936767663537028E-006   0.0000000000000000     
   1.3572752306713795E-006   2.1004294545545950E-006   0.0000000000000000     
   1.3755377216574358E-006   2.1588897953609103E-006   0.0000000000000000     
   1.3937050536498787E-006   2.2180790715639791E-006   0.0000000000000000     
   1.4117771865773711E-006   2.2779934316558737E-006   0.0000000000000000     
   1.4297540803685755E-006   2.3386290241286670E-006   0.0000000000000000     
   1.4476356949521544E-006   2.3999819974744343E-006   0.0000000000000000     
   1.4654219902567712E-006   2.4620485001852474E-006   0.0000000000000000     
   1.4831129262110882E-006   2.5248246807531793E-006   0.0000000000000000     
   1.5007084627437672E-006   2.5883066876703051E-006   0.0000000000000000     
   1.3012617047262271E-006   2.0950472433801139E-006   0.0000000000000000     
   1.3187941359128980E-006   2.1535349078151425E-006   0.0000000000000000     
   1.3362351534673173E-006   2.2127517088408208E-006   0.0000000000000000     
   1.3535847257342385E-006   2.2726937655227544E-006   0.0000000000000000     
   1.3708428210584136E-006   2.3333571969265487E-006   0.0000000000000000     
   1.3880094077845969E-006   2.3947381221178101E-006   0.0000000000000000     
   1.4050844542575398E-006   2.4568326601621427E-006   0.0000000000000000     
   1.4220679288219955E-006   2.5196369301251541E-006   0.0000000000000000     
   1.4389597998227177E-006   2.5831470510724488E-006   0.0000000000000000     
   1.9395780209048797E-006   2.6303163792451155E-006   0.0000000000000000     
   1.9619769074072672E-006   2.6942719046250293E-006   0.0000000000000000     
   1.9842540117460068E-006   2.7589256416428482E-006   0.0000000000000000     
   2.0064092913550719E-006   2.8242737686914943E-006   0.0000000000000000     
   2.0284427036684347E-006   2.8903124641638886E-006   0.0000000000000000     
   2.0503542061200686E-006   2.9570379064529554E-006   0.0000000000000000     
   2.0721437561439464E-006   3.0244462739516138E-006   0.0000000000000000     
   2.0938113111740422E-006   3.0925337450527887E-006   0.0000000000000000     
   2.1153568286443280E-006   3.1612964981494017E-006   0.0000000000000000     
   1.8761112602713012E-006   2.6236837016754741E-006   0.0000000000000000     
   1.8978103091970693E-006   2.6876752385345899E-006   0.0000000000000000     
   1.9193912966127224E-006   2.7523649817590263E-006   0.0000000000000000     
   1.9408541978992827E-006   2.8177491119008993E-006   0.0000000000000000     
   1.9621989884377752E-006   2.8838238095123267E-006   0.0000000000000000     
   1.9834256436092216E-006   2.9505852551454268E-006   0.0000000000000000     
   2.0045341387946478E-006   3.0180296293523178E-006   0.0000000000000000     
   2.0255244493750763E-006   3.0861531126851158E-006   0.0000000000000000     
   2.0463965507315319E-006   3.1549518856959415E-006   0.0000000000000000     
   1.8129160285755499E-006   2.6172614508693722E-006   0.0000000000000000     
   1.8339152532024516E-006   2.6812878790035836E-006   0.0000000000000000     
   1.8548001551794590E-006   2.7460125068234379E-006   0.0000000000000000     
   1.8755707233398994E-006   2.8114315167883614E-006   0.0000000000000000     
   1.8962269465170984E-006   2.8775410913577825E-006   0.0000000000000000     
   1.9167688135443824E-006   2.9443374129911282E-006   0.0000000000000000     
   1.9371963132550784E-006   3.0118166641478280E-006   0.0000000000000000     
   1.9575094344825123E-006   3.0799750272873071E-006   0.0000000000000000     
   1.9777081660600101E-006   3.1488086848689948E-006   0.0000000000000000     
   1.7499836303484707E-006   2.6110496293804770E-006   0.0000000000000000     
   1.7702830383301308E-006   2.6751098259218933E-006   0.0000000000000000     
   1.7904718786194505E-006   2.7398682145449284E-006   0.0000000000000000     
   1.8105501496285505E-006   2.8053209793363780E-006   0.0000000000000000     
   1.8305178497695514E-006   2.8714643043830347E-006   0.0000000000000000     
   1.8503749774545722E-006   2.9382943737716958E-006   0.0000000000000000     
   1.8701215310957333E-006   3.0058073715891544E-006   0.0000000000000000     
   1.8897575091051556E-006   3.0739994819222087E-006   0.0000000000000000     
   1.9092829098949592E-006   3.1428668888576498E-006   0.0000000000000000     
   1.6873053701209086E-006   2.6050482397624561E-006   0.0000000000000000     
   1.7069049634868263E-006   2.6691410791794037E-006   0.0000000000000000     
   1.7263977581059314E-006   2.7339321026323452E-006   0.0000000000000000     
   1.7457837587168673E-006   2.7994174955274435E-006   0.0000000000000000     
   1.7650629700582792E-006   2.8655934432708623E-006   0.0000000000000000     
   1.7842353968688115E-006   2.9324561312687645E-006   0.0000000000000000     
   1.8033010438871089E-006   3.0000017449273122E-006   0.0000000000000000     
   1.8222599158518154E-006   3.0682264696526684E-006   0.0000000000000000     
   1.8411120175015758E-006   3.1371264908509968E-006   0.0000000000000000     
   1.6248725524237073E-006   2.5992572845689761E-006   0.0000000000000000     
   1.6437723275792563E-006   2.6633816386659969E-006   0.0000000000000000     
   1.6625690848121340E-006   2.7282041687945312E-006   0.0000000000000000     
   1.6812628325564777E-006   2.7937210613440564E-006   0.0000000000000000     
   1.6998535792464272E-006   2.8599285027040434E-006   0.0000000000000000     
   1.7183413333161216E-006   2.9268226792639696E-006   0.0000000000000000     
   1.7367261031996981E-006   2.9943997774133093E-006   0.0000000000000000     
   1.7550078973312973E-006   3.0626559835415361E-006   0.0000000000000000     
   1.7731867241450562E-006   3.1315874840381251E-006   0.0000000000000000     
   1.5626764817877123E-006   2.5936767663537028E-006   0.0000000000000000     
   1.5808764295141394E-006   2.6578315042715576E-006   0.0000000000000000     
   1.5989771499112921E-006   2.7226844107403354E-006   0.0000000000000000     
   1.6169786530990121E-006   2.7882316727687116E-006   0.0000000000000000     
   1.6348809491971417E-006   2.8544694773653580E-006   0.0000000000000000     
   1.6526840483255226E-006   2.9213940115389489E-006   0.0000000000000000     
   1.6703879606039977E-006   2.9890014622981574E-006   0.0000000000000000     
   1.6879926961524089E-006   3.0572880166516577E-006   0.0000000000000000     
   1.7054982650905984E-006   3.1262498616081232E-006   0.0000000000000000     
   1.5007084627437672E-006   2.5883066876703051E-006   0.0000000000000000     
   1.5182085681981937E-006   2.6524906758859683E-006   0.0000000000000000     
   1.5356132445766398E-006   2.7173728261786010E-006   0.0000000000000000     
   1.5529225022960997E-006   2.7829493257839050E-006   0.0000000000000000     
   1.5701363517735677E-006   2.8492163619375826E-006   0.0000000000000000     
   1.5872548034260369E-006   2.9161701218753362E-006   0.0000000000000000     
   1.6042778676705023E-006   2.9838067928328686E-006   0.0000000000000000     
   1.6212055549239578E-006   3.0521225620458836E-006   0.0000000000000000     
   1.6380378756033976E-006   3.1211136167500819E-006   0.0000000000000000     
   1.4389597998227177E-006   2.5831470510724488E-006   0.0000000000000000     
   1.4557600425381378E-006   2.6473591533991149E-006   0.0000000000000000     
   1.4724686599814113E-006   2.7122694128181752E-006   0.0000000000000000     
   1.4890856620993702E-006   2.7778740163721345E-006   0.0000000000000000     
   1.5056110588388503E-006   2.8441691511034971E-006   0.0000000000000000     
   1.5220448601466844E-006   2.9111510040547699E-006   0.0000000000000000     
   1.5383870759697064E-006   2.9788157622684544E-006   0.0000000000000000     
   1.5546377162547512E-006   3.0471596127870607E-006   0.0000000000000000     
   1.5707967909486516E-006   3.1161787426530892E-006   0.0000000000000000     
   2.1153568286443280E-006   3.1612964981494017E-006   0.0000000000000000     
   2.1367802734645170E-006   3.2307307118328709E-006   0.0000000000000000     
   2.1580816404472826E-006   3.3008325654886077E-006   0.0000000000000000     
   2.1792609318810387E-006   3.3715982387005202E-006   0.0000000000000000     
   2.2003181500541977E-006   3.4430239110525147E-006   0.0000000000000000     
   2.2212532972551735E-006   3.5151057621284982E-006   0.0000000000000000     
   2.2420663757723791E-006   3.5878399715123804E-006   0.0000000000000000     
   2.2627573878942269E-006   3.6612227187880666E-006   0.0000000000000000     
   2.2833263359091329E-006   3.7352501835394667E-006   0.0000000000000000     
   2.0463965507315319E-006   3.1549518856959415E-006   0.0000000000000000     
   2.0671504219029201E-006   3.2244221285156171E-006   0.0000000000000000     
   2.0877860565596816E-006   3.2945600195898002E-006   0.0000000000000000     
   2.1083034520301370E-006   3.3653617369428541E-006   0.0000000000000000     
   2.1287026056426101E-006   3.4368234585991412E-006   0.0000000000000000     
   2.1489835147254221E-006   3.5089413625830266E-006   0.0000000000000000     
   2.1691461766068956E-006   3.5817116269188736E-006   0.0000000000000000     
   2.1891905886153532E-006   3.6551304296310435E-006   0.0000000000000000     
   2.2091167480791170E-006   3.7291939487439027E-006   0.0000000000000000     
   1.9777081660600101E-006   3.1488086848689948E-006   0.0000000000000000     
   1.9977924977490680E-006   3.2183138184420204E-006   0.0000000000000000     
   2.0177624230238589E-006   3.2884866059143318E-006   0.0000000000000000     
   2.0376179362867270E-006   3.3593232242835770E-006   0.0000000000000000     
   2.0573590319400144E-006   3.4308198505474061E-006   0.0000000000000000     
   2.0769857043860636E-006   3.5029726617034672E-006   0.0000000000000000     
   2.0964979480272189E-006   3.5757778347494111E-006   0.0000000000000000     
   2.1158957572658223E-006   3.6492315466828860E-006   0.0000000000000000     
   2.1351791265042169E-006   3.7233299745015406E-006   0.0000000000000000     
   1.9092829098949592E-006   3.1428668888576498E-006   0.0000000000000000     
   1.9286977310024845E-006   3.2124057752073802E-006   0.0000000000000000     
   1.9480019664659613E-006   3.2826123186837277E-006   0.0000000000000000     
   1.9671956094488381E-006   3.3534826957241253E-006   0.0000000000000000     
   1.9862786531145649E-006   3.4250130827660050E-006   0.0000000000000000     
   2.0052510906265913E-006   3.4971996562468006E-006   0.0000000000000000     
   2.0241129151483677E-006   3.5700385926039467E-006   0.0000000000000000     
   2.0428641198433428E-006   3.6435260682748741E-006   0.0000000000000000     
   2.0615046978749673E-006   3.7176582596970191E-006   0.0000000000000000     
   1.8411120175015758E-006   3.1371264908509968E-006   0.0000000000000000     
   1.8598573516626965E-006   3.2066979924069960E-006   0.0000000000000000     
   1.8784959135121328E-006   3.2769371521195130E-006   0.0000000000000000     
   1.8970276963144998E-006   3.3478401462659312E-006   0.0000000000000000     
   1.9154526933344166E-006   3.4194031511236362E-006   0.0000000000000000     
   1.9337708978364978E-006   3.4916223429700078E-006   0.0000000000000000     
   1.9519823030853601E-006   3.5644938980824316E-006   0.0000000000000000     
   1.9700869023456230E-006   3.6380139927382914E-006   0.0000000000000000     
   1.9880846888818990E-006   3.7121788032149699E-006   0.0000000000000000     
   1.7731867241450562E-006   3.1315874840381251E-006   0.0000000000000000     
   1.7912625897292285E-006   3.2011904636361664E-006   0.0000000000000000     
   1.8092354907885180E-006   3.2714611004432137E-006   0.0000000000000000     
   1.8271054216817435E-006   3.3423955709104340E-006   0.0000000000000000     
   1.8448723767677226E-006   3.4139900514889958E-006   0.0000000000000000     
   1.8625363504052740E-006   3.4862407186300687E-006   0.0000000000000000     
   1.8800973369532169E-006   3.5591437487848195E-006   0.0000000000000000     
   1.8975553307703674E-006   3.6326953184044164E-006   0.0000000000000000     
   1.9149103262155458E-006   3.7068916039400301E-006   0.0000000000000000     
   1.7054982650905984E-006   3.1262498616081232E-006   0.0000000000000000     
   1.7229046752016057E-006   3.1958831824901906E-006   0.0000000000000000     
   1.7402119249212624E-006   3.2661841578763523E-006   0.0000000000000000     
   1.7574200103485967E-006   3.3371489646590644E-006   0.0000000000000000     
   1.7745289275826375E-006   3.4087737797307821E-006   0.0000000000000000     
   1.7915386727224141E-006   3.4810547799839622E-006   0.0000000000000000     
   1.8084492418669540E-006   3.5539881423110603E-006   0.0000000000000000     
   1.8252606311152860E-006   3.6275700436045309E-006   0.0000000000000000     
   1.8419728365664408E-006   3.7017966607568337E-006   0.0000000000000000     
   1.6380378756033976E-006   3.1211136167500819E-006   0.0000000000000000     
   1.6547748380793543E-006   3.1907761425643692E-006   0.0000000000000000     
   1.6714164425365108E-006   3.2611063186404558E-006   0.0000000000000000     
   1.6879626871130910E-006   3.3321003225132587E-006   0.0000000000000000     
   1.7044135699473167E-006   3.4037543317176927E-006   0.0000000000000000     
   1.7207690891774088E-006   3.4760645237886701E-006   0.0000000000000000     
   1.7370292429415917E-006   3.5490270762611062E-006   0.0000000000000000     
   1.7531940293780870E-006   3.6226381666699179E-006   0.0000000000000000     
   1.7692634466251159E-006   3.6968939725500148E-006   0.0000000000000000     
   1.5707967909486516E-006   3.1161787426530892E-006   0.0000000000000000     
   1.5868643083619985E-006   3.1858693374539986E-006   0.0000000000000000     
   1.6028402702604092E-006   3.2562275769570485E-006   0.0000000000000000     
   1.6187246767732553E-006   3.3272496394744526E-006   0.0000000000000000     
   1.6345175280299124E-006   3.3989317033184231E-006   0.0000000000000000     
   1.6502188241597523E-006   3.4712699468011718E-006   0.0000000000000000     
   1.6658285652921488E-006   3.5442605482349107E-006   0.0000000000000000     
   1.6813467515564758E-006   3.6178996859318537E-006   0.0000000000000000     
   1.6967733830821053E-006   3.6921835382042122E-006   0.0000000000000000     
   2.2833263359091329E-006   3.7352501835394667E-006   0.0000000000000000     
   2.3037732212879146E-006   3.8099185460206806E-006   0.0000000000000000     
   2.3240980422310217E-006   3.8852239891665938E-006   0.0000000000000000     
   2.3443007961213100E-006   3.9611626965822823E-006   0.0000000000000000     
   2.3643814803416329E-006   4.0377308518728239E-006   0.0000000000000000     
   2.3843400922748473E-006   4.1149246386432961E-006   0.0000000000000000     
   2.4041766293038070E-006   4.1927402404987770E-006   0.0000000000000000     
   2.4238910888113687E-006   4.2711738410443449E-006   0.0000000000000000     
   2.4434834681803877E-006   4.3502216238850771E-006   0.0000000000000000     
   2.2091167480791170E-006   3.7291939487439027E-006   0.0000000000000000     
   2.2289246526459672E-006   3.8038983632966625E-006   0.0000000000000000     
   2.2486143012415196E-006   3.8792398563879426E-006   0.0000000000000000     
   2.2681856931108459E-006   3.9552146121312112E-006   0.0000000000000000     
   2.2876388274990200E-006   4.0318188146399333E-006   0.0000000000000000     
   2.3069737036511143E-006   4.1090486480275813E-006   0.0000000000000000     
   2.3261903208122024E-006   4.1869002964076210E-006   0.0000000000000000     
   2.3452886782273576E-006   4.2653699438935204E-006   0.0000000000000000     
   2.3642687751416517E-006   4.3444537745987489E-006   0.0000000000000000     
   2.1351791265042169E-006   3.7233299745015406E-006   0.0000000000000000     
   2.1543480511552609E-006   3.7980692964342722E-006   0.0000000000000000     
   2.1734025306738722E-006   3.8734456956349565E-006   0.0000000000000000     
   2.1923425655254822E-006   3.9494553564887180E-006   0.0000000000000000     
   2.2111681561755241E-006   4.0260944633806822E-006   0.0000000000000000     
   2.2298793030894302E-006   4.1033592006959686E-006   0.0000000000000000     
   2.2484760067326337E-006   4.1812457528197058E-006   0.0000000000000000     
   2.2669582675705660E-006   4.2597503041370156E-006   0.0000000000000000     
   2.2853260860686600E-006   4.3388690390330208E-006   0.0000000000000000     
   2.0615046978749673E-006   3.7176582596970191E-006   0.0000000000000000     
   2.0800346437382447E-006   3.7924313446461757E-006   0.0000000000000000     
   2.0984539572544047E-006   3.8678415062516036E-006   0.0000000000000000     
   2.1167626395762288E-006   3.9438849289809226E-006   0.0000000000000000     
   2.1349606918565008E-006   4.0205577973017540E-006   0.0000000000000000     
   2.1530481152480033E-006   4.0978562956817181E-006   0.0000000000000000     
   2.1710249109035190E-006   4.1757766085884369E-006   0.0000000000000000     
   2.1888910799758318E-006   4.2543149204895308E-006   0.0000000000000000     
   2.2066466236177259E-006   4.3334674158526218E-006   0.0000000000000000     
   1.9880846888818990E-006   3.7121788032149699E-006   0.0000000000000000     
   2.0059756573173668E-006   3.7869845071450431E-006   0.0000000000000000     
   2.0237598077094409E-006   3.8624272875818549E-006   0.0000000000000000     
   2.0414371414740945E-006   3.9385033289339409E-006   0.0000000000000000     
   2.0590076600273040E-006   4.0152088156098413E-006   0.0000000000000000     
   2.0764713647850397E-006   4.0925399320180873E-006   0.0000000000000000     
   2.0938282571632784E-006   4.1704928625672172E-006   0.0000000000000000     
   2.1110783385779945E-006   4.2490637916657706E-006   0.0000000000000000     
   2.1282216104451599E-006   4.3282489037222781E-006   0.0000000000000000     
   1.9149103262155458E-006   3.7068916039400301E-006   0.0000000000000000     
   1.9321623188150755E-006   3.7817287831435395E-006   0.0000000000000000     
   1.9493113087653062E-006   3.8572030389696786E-006   0.0000000000000000     
   1.9663572974300915E-006   3.9333105556738939E-006   0.0000000000000000     
   1.9833002861732878E-006   4.0100475175116300E-006   0.0000000000000000     
   2.0001402763587495E-006   4.0874101087383348E-006   0.0000000000000000     
   2.0168772693503317E-006   4.1653945136094528E-006   0.0000000000000000     
   2.0335112665118888E-006   4.2439969163804311E-006   0.0000000000000000     
   2.0500422692072772E-006   4.3232135013067158E-006   0.0000000000000000     
   1.8419728365664408E-006   3.7017966607568337E-006   0.0000000000000000     
   1.8585858551538190E-006   3.7766641718543318E-006   0.0000000000000000     
   1.8750996871483236E-006   3.8521687597590440E-006   0.0000000000000000     
   1.8915143336552277E-006   3.9283066085268947E-006   0.0000000000000000     
   1.9078297957798077E-006   4.0050739022138110E-006   0.0000000000000000     
   1.9240460746273382E-006   4.0824668248757213E-006   0.0000000000000000     
   1.9401631713030959E-006   4.1604815605685483E-006   0.0000000000000000     
   1.9561810869123534E-006   4.2391142933482193E-006   0.0000000000000000     
   1.9720998225603882E-006   4.3183612072706639E-006   0.0000000000000000     
   1.7692634466251159E-006   3.6968939725500148E-006   0.0000000000000000     
   1.7852374932560475E-006   3.7717906724900912E-006   0.0000000000000000     
   1.8011161695848171E-006   3.8473244492939226E-006   0.0000000000000000     
   1.8168994763605130E-006   3.9234914868190644E-006   0.0000000000000000     
   1.8325874143322183E-006   4.0002879689230745E-006   0.0000000000000000     
   1.8481799842490158E-006   4.0777100794635030E-006   0.0000000000000000     
   1.8636771868599905E-006   4.1557540022979039E-006   0.0000000000000000     
   1.8790790229142275E-006   4.2344159212838349E-006   0.0000000000000000     
   1.8943854931608080E-006   4.3136920202788459E-006   0.0000000000000000     
   1.6967733830821053E-006   3.6921835382042122E-006   0.0000000000000000     
   1.7121084600442050E-006   3.7671082842634796E-006   0.0000000000000000     
   1.7273519828011124E-006   3.8426701069182814E-006   0.0000000000000000     
   1.7425039517569574E-006   3.9188651898765212E-006   0.0000000000000000     
   1.7575643673158729E-006   3.9956897168461055E-006   0.0000000000000000     
   1.7725332298819882E-006   4.0731398715349398E-006   0.0000000000000000     
   1.7874105398594357E-006   4.1512118376509277E-006   0.0000000000000000     
   1.8021962976523453E-006   4.2299017989019773E-006   0.0000000000000000     
   1.8168905036648485E-006   4.3092059389959916E-006   0.0000000000000000     
   2.4434834681803877E-006   4.3502216238850771E-006   0.0000000000000000     
   2.4629537654551484E-006   4.4298797726157180E-006   0.0000000000000000     
   2.4823019813256637E-006   4.5101444707896854E-006   0.0000000000000000     
   2.5015281171433763E-006   4.5910119019500640E-006   0.0000000000000000     
   2.5206321742597266E-006   4.6724782496399375E-006   0.0000000000000000     
   2.5396141540261582E-006   4.7545396974023892E-006   0.0000000000000000     
   2.5584740577941120E-006   4.8371924287805054E-006   0.0000000000000000     
   2.5772118869150317E-006   4.9204326273173691E-006   0.0000000000000000     
   2.5958276427403592E-006   5.0042564765560676E-006   0.0000000000000000     
   2.3642687751416517E-006   4.3444537745987489E-006   0.0000000000000000     
   2.3831306109746151E-006   4.4241479724949100E-006   0.0000000000000000     
   2.4018741858436013E-006   4.5044487209861608E-006   0.0000000000000000     
   2.4204995000404190E-006   4.5853522033347971E-006   0.0000000000000000     
   2.4390065538568808E-006   4.6668546028031105E-006   0.0000000000000000     
   2.4573953475847942E-006   4.7489521026533943E-006   0.0000000000000000     
   2.4756658815159706E-006   4.8316408861479452E-006   0.0000000000000000     
   2.4938181559422192E-006   4.9149171365490532E-006   0.0000000000000000     
   2.5118521711553508E-006   4.9987770371190157E-006   0.0000000000000000     
   2.2853260860686600E-006   4.3388690390330208E-006   0.0000000000000000     
   2.3035794625491900E-006   4.4185981416865349E-006   0.0000000000000000     
   2.3217183967617943E-006   4.4989337954511282E-006   0.0000000000000000     
   2.3397428883129553E-006   4.5798721834740593E-006   0.0000000000000000     
   2.3576529368091526E-006   4.6614094889025861E-006   0.0000000000000000     
   2.3754485418568665E-006   4.7435418948839671E-006   0.0000000000000000     
   2.3931297030625774E-006   4.8262655845654618E-006   0.0000000000000000     
   2.4106964200327685E-006   4.9095767410943287E-006   0.0000000000000000     
   2.4281486923739177E-006   4.9934715476178258E-006   0.0000000000000000     
   2.2066466236177259E-006   4.3334674158526218E-006   0.0000000000000000     
   2.2242915426620876E-006   4.4132302789286118E-006   0.0000000000000000     
   2.2418258366622362E-006   4.4935996931015365E-006   0.0000000000000000     
   2.2592495048515933E-006   4.5745718415387096E-006   0.0000000000000000     
   2.2765625464635831E-006   4.6561429074074492E-006   0.0000000000000000     
   2.2937649607316272E-006   4.7383090738750691E-006   0.0000000000000000     
   2.3108567468891497E-006   4.8210665241088857E-006   0.0000000000000000     
   2.3278379041695729E-006   4.9044114412762127E-006   0.0000000000000000     
   2.3447084318063211E-006   4.9883400085443724E-006   0.0000000000000000     
   2.1282216104451599E-006   4.3282489037222781E-006   0.0000000000000000     
   2.1452580737965221E-006   4.4080443829591575E-006   0.0000000000000000     
   2.1621877281269145E-006   4.4884464128543330E-006   0.0000000000000000     
   2.1790105725469423E-006   4.5694511766996060E-006   0.0000000000000000     
   2.1957266061672134E-006   4.6510548577867821E-006   0.0000000000000000     
   2.2123358280983303E-006   4.7332536394076568E-006   0.0000000000000000     
   2.2288382374509005E-006   4.8160437048540382E-006   0.0000000000000000     
   2.2452338333355308E-006   4.8994212374177286E-006   0.0000000000000000     
   2.2615226148628237E-006   4.9833824203905260E-006   0.0000000000000000     
   2.0500422692072772E-006   4.3232135013067158E-006   0.0000000000000000     
   2.0664702784357070E-006   4.4030404525161885E-006   0.0000000000000000     
   2.0827952937378203E-006   4.4834739536264675E-006   0.0000000000000000     
   2.0990173142896138E-006   4.5645101881276083E-006   0.0000000000000000     
   2.1151363392670840E-006   4.6461453395096653E-006   0.0000000000000000     
   2.1311523678462297E-006   4.7283755912626933E-006   0.0000000000000000     
   2.1470653992030470E-006   4.8111971268767508E-006   0.0000000000000000     
   2.1628754325135335E-006   4.8946061298418874E-006   0.0000000000000000     
   2.1785824669536874E-006   4.9785987836481610E-006   0.0000000000000000     
   1.9720998225603882E-006   4.3183612072706639E-006   0.0000000000000000     
   1.9879193790628564E-006   4.3982184863377205E-006   0.0000000000000000     
   2.0036397560769432E-006   4.4786823143348855E-006   0.0000000000000000     
   2.0192609529702145E-006   4.5597488749935703E-006   0.0000000000000000     
   2.0347829691102366E-006   4.6414143520451838E-006   0.0000000000000000     
   2.0502058038645787E-006   4.7236749292211385E-006   0.0000000000000000     
   2.0655294566008039E-006   4.8065267902528449E-006   0.0000000000000000     
   2.0807539266864795E-006   4.8899661188717103E-006   0.0000000000000000     
   2.0958792134891742E-006   4.9739890988091504E-006   0.0000000000000000     
   1.8943854931608080E-006   4.3136920202788459E-006   0.0000000000000000     
   1.9095965981611858E-006   4.3935784831617720E-006   0.0000000000000000     
   1.9247123377262741E-006   4.4740714938965368E-006   0.0000000000000000     
   1.9397327114793554E-006   4.5551672364683518E-006   0.0000000000000000     
   1.9546577190437138E-006   4.6368618948624215E-006   0.0000000000000000     
   1.9694873600426289E-006   4.7191516530639505E-006   0.0000000000000000     
   1.9842216340993848E-006   4.8020326950581476E-006   0.0000000000000000     
   1.9988605408372633E-006   4.8855012048302174E-006   0.0000000000000000     
   2.0134040798795443E-006   4.9695533663653629E-006   0.0000000000000000     
   1.8168905036648485E-006   4.3092059389959916E-006   0.0000000000000000     
   1.8314931582139060E-006   4.3891204417263561E-006   0.0000000000000000     
   1.8460042612678014E-006   4.4696414912283705E-006   0.0000000000000000     
   1.8604238127076454E-006   4.5507652717228118E-006   0.0000000000000000     
   1.8747518124145529E-006   4.6324879674304590E-006   0.0000000000000000     
   1.8889882602696356E-006   4.7148057625720908E-006   0.0000000000000000     
   1.9031331561540067E-006   4.7977148413684862E-006   0.0000000000000000     
   1.9171864999487784E-006   4.8812113880404223E-006   0.0000000000000000     
   1.9311482915350648E-006   4.9652915868086771E-006   0.0000000000000000     
   2.5958276427403592E-006   5.0042564765560676E-006   0.0000000000000000     
   2.6143213263826795E-006   5.0886601603771317E-006   0.0000000000000000     
   2.6326929379991553E-006   5.1736398640109035E-006   0.0000000000000000     
   2.6509424775080912E-006   5.2591917730251748E-006   0.0000000000000000     
   2.6690699448277920E-006   5.3453120729877336E-006   0.0000000000000000     
   2.6870753398765627E-006   5.4319969494663718E-006   0.0000000000000000     
   2.7049586625727087E-006   5.5192425880288774E-006   0.0000000000000000     
   2.7227199128345341E-006   5.6070451742430422E-006   0.0000000000000000     
   2.7403590905803464E-006   5.6954008936766594E-006   0.0000000000000000     
   2.5118521711553508E-006   4.9987770371190157E-006   0.0000000000000000     
   2.5297679274411349E-006   5.0832167715279267E-006   0.0000000000000000     
   2.5475654250611831E-006   5.1682325250770961E-006   0.0000000000000000     
   2.5652446642710660E-006   5.2538204834756355E-006   0.0000000000000000     
   2.5828056453263547E-006   5.3399768324326546E-006   0.0000000000000000     
   2.6002483684826218E-006   5.4266977576572665E-006   0.0000000000000000     
   2.6175728339954371E-006   5.5139794448585827E-006   0.0000000000000000     
   2.6347790421203712E-006   5.6018180797457129E-006   0.0000000000000000     
   2.6518669931129976E-006   5.6902098480277703E-006   0.0000000000000000     
   2.4281486923739177E-006   4.9934715476178258E-006   0.0000000000000000     
   2.4454865198314497E-006   5.0779461877166577E-006   0.0000000000000000     
   2.4627099027065592E-006   5.1629968467053101E-006   0.0000000000000000     
   2.4798188414393840E-006   5.2486197103317173E-006   0.0000000000000000     
   2.4968133364700618E-006   5.3348109643438121E-006   0.0000000000000000     
   2.5136933882387302E-006   5.4215667944895227E-006   0.0000000000000000     
   2.5304589971855269E-006   5.5088833865167828E-006   0.0000000000000000     
   2.5471101637505900E-006   5.5967569261735284E-006   0.0000000000000000     
   2.5636468883740563E-006   5.6851835992076862E-006   0.0000000000000000     
   2.3447084318063211E-006   4.9883400085443724E-006   0.0000000000000000     
   2.3614683292439387E-006   5.0728484095037920E-006   0.0000000000000000     
   2.3781175967714666E-006   5.1579328294373881E-006   0.0000000000000000     
   2.3946562348890648E-006   5.2435894540511880E-006   0.0000000000000000     
   2.4110842440968964E-006   5.3298144690512210E-006   0.0000000000000000     
   2.4274016248951230E-006   5.4166040601435194E-006   0.0000000000000000     
   2.4436083777839065E-006   5.5039544130341124E-006   0.0000000000000000     
   2.4597045032634093E-006   5.5918617134290265E-006   0.0000000000000000     
   2.4756900018337946E-006   5.6803221470342968E-006   0.0000000000000000     
   2.2615226148628237E-006   4.9833824203905260E-006   0.0000000000000000     
   2.2777045813689199E-006   5.0679234374497986E-006   0.0000000000000000     
   2.2937797330920873E-006   5.1530404738151661E-006   0.0000000000000000     
   2.3097480704961277E-006   5.2387297150918072E-006   0.0000000000000000     
   2.3256095940448437E-006   5.3249873468849066E-006   0.0000000000000000     
   2.3413643042020346E-006   5.4118095547996399E-006   0.0000000000000000     
   2.3570122014315029E-006   5.4991925244411934E-006   0.0000000000000000     
   2.3725532861970517E-006   5.5871324414147519E-006   0.0000000000000000     
   2.3879875589624808E-006   5.6756254913254882E-006   0.0000000000000000     
   2.1785824669536874E-006   4.9785987836481610E-006   0.0000000000000000     
   2.1941865018967065E-006   5.0631712721151440E-006   0.0000000000000000     
   2.2096875375046048E-006   5.1483197803804835E-006   0.0000000000000000     
   2.2250855741365934E-006   5.2340404939113393E-006   0.0000000000000000     
   2.2403806121518867E-006   5.3203295981748790E-006   0.0000000000000000     
   2.2555726519096999E-006   5.4071832786382666E-006   0.0000000000000000     
   2.2706616937692444E-006   5.4945977207686647E-006   0.0000000000000000     
   2.2856477380897342E-006   5.5825691100332364E-006   0.0000000000000000     
   2.3005307852303845E-006   5.6710936318991476E-006   0.0000000000000000     
   2.0958792134891742E-006   4.9739890988091504E-006   0.0000000000000000     
   2.1109053165176165E-006   5.0585919140602946E-006   0.0000000000000000     
   2.1258322358452010E-006   5.1437707496751745E-006   0.0000000000000000     
   2.1406599716864794E-006   5.2295217909675464E-006   0.0000000000000000     
   2.1553885242560107E-006   5.3158412232511632E-006   0.0000000000000000     
   2.1700178937683508E-006   5.4027252318397803E-006   0.0000000000000000     
   2.1845480804380545E-006   5.4901700020471490E-006   0.0000000000000000     
   2.1989790844796764E-006   5.5781717191870255E-006   0.0000000000000000     
   2.2133109061077765E-006   5.6667265685731653E-006   0.0000000000000000     
   2.0134040798795443E-006   4.9695533663653629E-006   0.0000000000000000     
   2.0278522509219665E-006   5.0541853638457177E-006   0.0000000000000000     
   2.0422050539500573E-006   5.1393933822410836E-006   0.0000000000000000     
   2.0564624890218072E-006   5.2251736067181913E-006   0.0000000000000000     
   2.0706245561952016E-006   5.3115222224437760E-006   0.0000000000000000     
   2.0846912555282240E-006   5.3984354145845601E-006   0.0000000000000000     
   2.0986625870788620E-006   5.4859093683072785E-006   0.0000000000000000     
   2.1125385509051017E-006   5.5739402687786597E-006   0.0000000000000000     
   2.1263191470649259E-006   5.6625243011654242E-006   0.0000000000000000     
   1.9311482915350648E-006   4.9652915868086771E-006   0.0000000000000000     
   1.9450185308000680E-006   5.0499516220318789E-006   0.0000000000000000     
   1.9587972176553585E-006   5.1351876786200450E-006   0.0000000000000000     
   1.9724843520185951E-006   5.2209959416210404E-006   0.0000000000000000     
   1.9860799338074400E-006   5.3073725960827343E-006   0.0000000000000000     
   1.9995839629395530E-006   5.3943138270529925E-006   0.0000000000000000     
   2.0129964393325938E-006   5.4818158195796819E-006   0.0000000000000000     
   2.0263173629042243E-006   5.5698747587106674E-006   0.0000000000000000     
   2.0395467335721027E-006   5.6584868294938173E-006   0.0000000000000000     
   2.7403590905803464E-006   5.6954008936766594E-006   0.0000000000000000     
   2.7578761957753566E-006   5.7843059317793646E-006   0.0000000000000000     
   2.7752712285724132E-006   5.8737564735281915E-006   0.0000000000000000     
   2.7925441891712722E-006   5.9637487037820261E-006   0.0000000000000000     
   2.8096950777716879E-006   6.0542788073997442E-006   0.0000000000000000     
   2.8267238945734181E-006   6.1453429692402327E-006   0.0000000000000000     
   2.8436306397762155E-006   6.2369373741623726E-006   0.0000000000000000     
   2.8604153135798387E-006   6.3290582070250449E-006   0.0000000000000000     
   2.8770779161840419E-006   6.4217016526871338E-006   0.0000000000000000     
   2.6518669931129976E-006   5.6902098480277703E-006   0.0000000000000000     
   2.6688366871924984E-006   5.7791509352600773E-006   0.0000000000000000     
   2.6856881244325116E-006   5.8686375263828013E-006   0.0000000000000000     
   2.7024213048702882E-006   5.9586658061823231E-006   0.0000000000000000     
   2.7190362285430771E-006   6.0492319594450261E-006   0.0000000000000000     
   2.7355328954881297E-006   6.1403321709572861E-006   0.0000000000000000     
   2.7519113057426951E-006   6.2319626255054848E-006   0.0000000000000000     
   2.7681714593440249E-006   6.3241195078760039E-006   0.0000000000000000     
   2.7843133563293670E-006   6.4167990028552209E-006   0.0000000000000000     
   2.5636468883740563E-006   5.6851835992076862E-006   0.0000000000000000     
   2.5800691714129207E-006   5.7741595912057411E-006   0.0000000000000000     
   2.5963770128916020E-006   5.8636810871083592E-006   0.0000000000000000     
   2.6125704127513750E-006   5.9537442716947623E-006   0.0000000000000000     
   2.6286493709335170E-006   6.0443453297441670E-006   0.0000000000000000     
   2.6446138873793011E-006   6.1354804460357909E-006   0.0000000000000000     
   2.6604639620300041E-006   6.2271458053488548E-006   0.0000000000000000     
   2.6761995948269014E-006   6.3193375924625763E-006   0.0000000000000000     
   2.6918207857112681E-006   6.4120519921561720E-006   0.0000000000000000     
   2.4756900018337946E-006   5.6803221470342968E-006   0.0000000000000000     
   2.4915648738950880E-006   5.7693318994087736E-006   0.0000000000000000     
   2.5073291194467866E-006   5.8588871555226126E-006   0.0000000000000000     
   2.5229827383882508E-006   5.9489841001987906E-006   0.0000000000000000     
   2.5385257306188417E-006   6.0396189182602839E-006   0.0000000000000000     
   2.5539580960379222E-006   6.1307877945300734E-006   0.0000000000000000     
   2.5692798345448523E-006   6.2224869138311303E-006   0.0000000000000000     
   2.5844909460389931E-006   6.3147124609864348E-006   0.0000000000000000     
   2.5995914304197079E-006   6.4074606208189698E-006   0.0000000000000000     
   2.3879875589624808E-006   5.6756254913254882E-006   0.0000000000000000     
   2.4033150200974640E-006   5.7646678596616001E-006   0.0000000000000000     
   2.4185356695951680E-006   5.8542557314433112E-006   0.0000000000000000     
   2.4336495073546294E-006   5.9443852915738634E-006   0.0000000000000000     
   2.4486565332748890E-006   6.0350527249564993E-006   0.0000000000000000     
   2.4635567472549822E-006   6.1262542164944462E-006   0.0000000000000000     
   2.4783501491939470E-006   6.2179859510909518E-006   0.0000000000000000     
   2.4930367389908242E-006   6.3102441136492546E-006   0.0000000000000000     
   2.5076165165446499E-006   6.4030248890725877E-006   0.0000000000000000     
   2.3005307852303845E-006   5.6710936318991476E-006   0.0000000000000000     
   2.3153108354785123E-006   5.7601674717566323E-006   0.0000000000000000     
   2.3299878888338483E-006   5.8497868146882008E-006   0.0000000000000000     
   2.3445619452242294E-006   5.9399478456994369E-006   0.0000000000000000     
   2.3590330045774915E-006   6.0306467497959217E-006   0.0000000000000000     
   2.3734010668214693E-006   6.1218797119832405E-006   0.0000000000000000     
   2.3876661318839993E-006   6.2136429172669728E-006   0.0000000000000000     
   2.4018281996929174E-006   6.3059325506527022E-006   0.0000000000000000     
   2.4158872701760594E-006   6.3987447971460116E-006   0.0000000000000000     
   2.2133109061077765E-006   5.6667265685731653E-006   0.0000000000000000     
   2.2275435454966948E-006   5.7558307354862920E-006   0.0000000000000000     
   2.2416770026599300E-006   5.8454804050750261E-006   0.0000000000000000     
   2.2557112775707655E-006   5.9356717624549588E-006   0.0000000000000000     
   2.2696463702024855E-006   6.0264009927416737E-006   0.0000000000000000     
   2.2834822805283748E-006   6.1176642810507705E-006   0.0000000000000000     
   2.2972190085217165E-006   6.2094578124978320E-006   0.0000000000000000     
   2.3108565541557964E-006   6.3017777721984511E-006   0.0000000000000000     
   2.3243949174038990E-006   6.3946203452682191E-006   0.0000000000000000     
   2.1263191470649259E-006   5.6625243011654242E-006   0.0000000000000000     
   2.1400043756104788E-006   5.7516576506430003E-006   0.0000000000000000     
   2.1535942365705164E-006   5.8413365024215377E-006   0.0000000000000000     
   2.1670887299679546E-006   5.9315570417198810E-006   0.0000000000000000     
   2.1804878558257070E-006   6.0223154537568747E-006   0.0000000000000000     
   2.1937916141666871E-006   6.1136079237513575E-006   0.0000000000000000     
   2.2070000050138085E-006   6.2054306369221771E-006   0.0000000000000000     
   2.2201130283899866E-006   6.2977797784881749E-006   0.0000000000000000     
   2.2331306843181339E-006   6.3906515336681903E-006   0.0000000000000000     
   2.0395467335721027E-006   5.6584868294938173E-006   0.0000000000000000     
   2.0526845512783238E-006   5.7476482170191732E-006   0.0000000000000000     
   2.0657308160627088E-006   5.8373551065454831E-006   0.0000000000000000     
   2.0786855279895126E-006   5.9276036833736607E-006   0.0000000000000000     
   2.0915486871229899E-006   6.0183901328046365E-006   0.0000000000000000     
   2.1043202935273946E-006   6.1097106401393257E-006   0.0000000000000000     
   2.1170003472669830E-006   6.2015613906786529E-006   0.0000000000000000     
   2.1295888484060088E-006   6.2939385697235402E-006   0.0000000000000000     
   2.1420857970087277E-006   6.3868383625749071E-006   0.0000000000000000     
   2.8770779161840419E-006   6.4217016526871338E-006   0.0000000000000000     
   2.8936184477731071E-006   6.5148638961343305E-006   0.0000000000000000     
   2.9100369084694228E-006   6.6085411228595709E-006   0.0000000000000000     
   2.9263332983799046E-006   6.7027295184826063E-006   0.0000000000000000     
   2.9425076176114648E-006   6.7974252686231809E-006   0.0000000000000000     
   2.9585598662710186E-006   6.8926245589010417E-006   0.0000000000000000     
   2.9744900444654801E-006   6.9883235749359365E-006   0.0000000000000000     
   2.9902981523017644E-006   7.0845185023476165E-006   0.0000000000000000     
   3.0059841898867861E-006   7.1812055267558252E-006   0.0000000000000000     
   2.7843133563293670E-006   6.4167990028552209E-006   0.0000000000000000     
   2.8003369967547492E-006   6.5099972953819818E-006   0.0000000000000000     
   2.8162423807512926E-006   6.6037105710049826E-006   0.0000000000000000     
   2.8320295084688946E-006   6.6979350154253862E-006   0.0000000000000000     
   2.8476983800574529E-006   6.7926668143443489E-006   0.0000000000000000     
   2.8632489956668651E-006   6.8879021534630376E-006   0.0000000000000000     
   2.8786813554470279E-006   6.9836372184826060E-006   0.0000000000000000     
   2.8939954595478400E-006   7.0798681951042203E-006   0.0000000000000000     
   2.9091913081191986E-006   7.1765912690290401E-006   0.0000000000000000     
   2.6918207857112681E-006   6.4120519921561720E-006   0.0000000000000000     
   2.7073275346604685E-006   6.5052851893644441E-006   0.0000000000000000     
   2.7227198417962242E-006   6.5990333696445185E-006   0.0000000000000000     
   2.7379977072763451E-006   6.6932927187091012E-006   0.0000000000000000     
   2.7531611312586405E-006   6.7880594222709021E-006   0.0000000000000000     
   2.7682101139009222E-006   6.8833296660426291E-006   0.0000000000000000     
   2.7831446553609986E-006   6.9790996357369901E-006   0.0000000000000000     
   2.7979647557966793E-006   7.0753655170666939E-006   0.0000000000000000     
   2.8126704153657761E-006   7.1721234957444459E-006   0.0000000000000000     
   2.5995914304197079E-006   6.4074606208189698E-006   0.0000000000000000     
   2.6145812876261944E-006   6.5007275782928830E-006   0.0000000000000000     
   2.6294605177570063E-006   6.5945095189370583E-006   0.0000000000000000     
   2.6442291209505351E-006   6.6888026284215488E-006   0.0000000000000000     
   2.6588870973451729E-006   6.7836030924164145E-006   0.0000000000000000     
   2.6734344470793117E-006   6.8789070965917116E-006   0.0000000000000000     
   2.6878711702913412E-006   6.9747108266174984E-006   0.0000000000000000     
   2.7021972671196541E-006   7.0710104681638272E-006   0.0000000000000000     
   2.7164127377026425E-006   7.1678022069007602E-006   0.0000000000000000     
   2.5076165165446499E-006   6.4030248890725877E-006   0.0000000000000000     
   2.5220894817878535E-006   6.4963244623784670E-006   0.0000000000000000     
   2.5364556347864248E-006   6.5901390190414902E-006   0.0000000000000000     
   2.5507149756397456E-006   6.6844647446505350E-006   0.0000000000000000     
   2.5648675044471962E-006   6.7792978247944781E-006   0.0000000000000000     
   2.5789132213081573E-006   6.8746344450621880E-006   0.0000000000000000     
   2.5928521263220114E-006   6.9704707910425465E-006   0.0000000000000000     
   2.6066842195881382E-006   7.0668030483244245E-006   0.0000000000000000     
   2.6204095012059200E-006   7.1636274024967005E-006   0.0000000000000000     
   2.4158872701760594E-006   6.3987447971460116E-006   0.0000000000000000     
   2.4298433432813740E-006   6.4920758418323572E-006   0.0000000000000000     
   2.4436964190372655E-006   6.5859218701166930E-006   0.0000000000000000     
   2.4574464974922532E-006   6.6802790674838538E-006   0.0000000000000000     
   2.4710935786948513E-006   6.7751436194186601E-006   0.0000000000000000     
   2.4846376626935814E-006   6.8705117114059485E-006   0.0000000000000000     
   2.4980787495369598E-006   6.9663795289305455E-006   0.0000000000000000     
   2.5114168392735048E-006   7.0627432574772809E-006   0.0000000000000000     
   2.5246519319517330E-006   7.1595990825309845E-006   0.0000000000000000     
   2.3243949174038990E-006   6.3946203452682191E-006   0.0000000000000000     
   2.3378340982426831E-006   6.4879817168657224E-006   0.0000000000000000     
   2.3511740966623151E-006   6.5818580723215557E-006   0.0000000000000000     
   2.3644149126563371E-006   6.6762455970093011E-006   0.0000000000000000     
   2.3775565462182868E-006   6.7711404763025518E-006   0.0000000000000000     
   2.3905989973417072E-006   6.8665388955748884E-006   0.0000000000000000     
   2.4035422660201401E-006   6.9624370401999058E-006   0.0000000000000000     
   2.4163863522471260E-006   7.0588310955511922E-006   0.0000000000000000     
   2.4291312560162042E-006   7.1557172470023314E-006   0.0000000000000000     
   2.2331306843181339E-006   6.3906515336681903E-006   0.0000000000000000     
   2.2460529728077116E-006   6.4840420876897330E-006   0.0000000000000000     
   2.2588798938143615E-006   6.5779476258149596E-006   0.0000000000000000     
   2.2716114472802774E-006   6.6723643333146846E-006   0.0000000000000000     
   2.2842476331476463E-006   6.7672883954597296E-006   0.0000000000000000     
   2.2967884513586586E-006   6.8627159975209099E-006   0.0000000000000000     
   2.3092339018555044E-006   6.9586433247690439E-006   0.0000000000000000     
   2.3215839845803741E-006   7.0550665624749568E-006   0.0000000000000000     
   2.3338386994754581E-006   7.1519818959094597E-006   0.0000000000000000     
   2.1420857970087277E-006   6.3868383625749071E-006   0.0000000000000000     
   2.1544911931123835E-006   6.4802569545155516E-006   0.0000000000000000     
   2.1668050366461906E-006   6.5741905307557853E-006   0.0000000000000000     
   2.1790273275123524E-006   6.6686352764877957E-006   0.0000000000000000     
   2.1911580656130724E-006   6.7635873769037713E-006   0.0000000000000000     
   2.2031972508505552E-006   6.8590430171959005E-006   0.0000000000000000     
   2.2151448831270046E-006   6.9549983825563716E-006   0.0000000000000000     
   2.2270009623446237E-006   7.0514496581773715E-006   0.0000000000000000     
   2.2387654884056168E-006   7.1483930292510860E-006   0.0000000000000000     
   1.3012617047262271E-006   2.0950472433801139E-006   0.0000000000000000     
   1.3187941359128980E-006   2.1535349078151425E-006   0.0000000000000000     
   1.3362351534673173E-006   2.2127517088408208E-006   0.0000000000000000     
   1.3535847257342385E-006   2.2726937655227544E-006   0.0000000000000000     
   1.3708428210584136E-006   2.3333571969265487E-006   0.0000000000000000     
   1.3880094077845969E-006   2.3947381221178101E-006   0.0000000000000000     
   1.4050844542575398E-006   2.4568326601621427E-006   0.0000000000000000     
   1.4220679288219955E-006   2.5196369301251541E-006   0.0000000000000000     
   1.4389597998227177E-006   2.5831470510724488E-006   0.0000000000000000     
   1.2454590294845169E-006   2.0898838295938952E-006   0.0000000000000000     
   1.2622613888287359E-006   2.1483979368129265E-006   0.0000000000000000     
   1.2789760729257712E-006   2.2076413157084709E-006   0.0000000000000000     
   1.2956030600926862E-006   2.2676100656758981E-006   0.0000000000000000     
   1.3121423286465438E-006   2.3283002861105770E-006   0.0000000000000000     
   1.3285938569044053E-006   2.3897080764078750E-006   0.0000000000000000     
   1.3449576231833345E-006   2.4518295359631617E-006   0.0000000000000000     
   1.3612336058003932E-006   2.5146607641718056E-006   0.0000000000000000     
   1.3774217830726446E-006   2.5781978604291768E-006   0.0000000000000000     
   1.1898584254319704E-006   2.0849392477174021E-006   0.0000000000000000     
   1.2059306973953408E-006   2.1434789052341512E-006   0.0000000000000000     
   1.2219190279322586E-006   2.2027479070576587E-006   0.0000000000000000     
   1.2378234063893713E-006   2.2627423420527545E-006   0.0000000000000000     
   1.2536438221133289E-006   2.3234582990842661E-006   0.0000000000000000     
   1.2693802644507800E-006   2.3848918670170229E-006   0.0000000000000000     
   1.2850327227483732E-006   2.4470391347158524E-006   0.0000000000000000     
   1.3006011863527572E-006   2.5098961910455845E-006   0.0000000000000000     
   1.3160856446105816E-006   2.5734591248710459E-006   0.0000000000000000     
   1.1344511019938384E-006   2.0802135810725171E-006   0.0000000000000000     
   1.1497932651871854E-006   2.1387778671640428E-006   0.0000000000000000     
   1.1650552192614962E-006   2.1980715161470803E-006   0.0000000000000000     
   1.1802369651071845E-006   2.2580906141658601E-006   0.0000000000000000     
   1.1953385036146652E-006   2.3188312473646147E-006   0.0000000000000000     
   1.2103598356743523E-006   2.3802895018875722E-006   0.0000000000000000     
   1.2253009621766608E-006   2.4424614638789669E-006   0.0000000000000000     
   1.2401618840120048E-006   2.5053432194830283E-006   0.0000000000000000     
   1.2549426020707982E-006   2.5689308548439870E-006   0.0000000000000000     
   1.0792282685953714E-006   2.0757069129811203E-006   0.0000000000000000     
   1.0938402957787409E-006   2.1342948766878273E-006   0.0000000000000000     
   1.1083758476882024E-006   2.1936121762354317E-006   0.0000000000000000     
   1.1228349367290169E-006   2.2536549015277539E-006   0.0000000000000000     
   1.1372175753064474E-006   2.3144191424686163E-006   0.0000000000000000     
   1.1515237758257553E-006   2.3759009889618438E-006   0.0000000000000000     
   1.1657535506922023E-006   2.4380965309112574E-006   0.0000000000000000     
   1.1799069123110523E-006   2.5010018582206796E-006   0.0000000000000000     
   1.1939838730875648E-006   2.5646130607939341E-006   0.0000000000000000     
   1.0241811346618208E-006   2.0714193267650937E-006   0.0000000000000000     
   1.0380629927444796E-006   2.1300299878907326E-006   0.0000000000000000     
   1.0518721139870947E-006   2.1893699205814088E-006   0.0000000000000000     
   1.0656085217377603E-006   2.2494352236509715E-006   0.0000000000000000     
   1.0792722393445706E-006   2.3102219959132703E-006   0.0000000000000000     
   1.0928632901556209E-006   2.3717263361821552E-006   0.0000000000000000     
   1.1063816975190045E-006   2.4339443432714746E-006   0.0000000000000000     
   1.1198274847828164E-006   2.4968721159950786E-006   0.0000000000000000     
   1.1332006752951520E-006   2.5605057531668167E-006   0.0000000000000000     
   9.6930090961843654E-007   2.0673509057463178E-006   0.0000000000000000     
   9.8245255965887356E-007   2.1259832548579835E-006   0.0000000000000000     
   9.9553521893289170E-007   2.1853447824437086E-006   0.0000000000000000     
   1.0085489206163056E-006   2.2454316000480509E-006   0.0000000000000000     
   1.0214936978849307E-006   2.3062398192155713E-006   0.0000000000000000     
   1.0343695839145810E-006   2.3677655514908252E-006   0.0000000000000000     
   1.0471766118810708E-006   2.4300049084183704E-006   0.0000000000000000     
   1.0599148149602151E-006   2.4929540015427660E-006   0.0000000000000000     
   1.0725842263278293E-006   2.5566089424085696E-006   0.0000000000000000     
   9.1457880289047035E-007   2.0635017332466760E-006   0.0000000000000000     
   9.2700020009639453E-007   2.1221547316748053E-006   0.0000000000000000     
   9.3935636330031104E-007   2.1815367950810267E-006   0.0000000000000000     
   9.5164733384754539E-007   2.2416440502315324E-006   0.0000000000000000     
   9.6387315308342270E-007   2.3024726238925160E-006   0.0000000000000000     
   9.7603386235326787E-007   2.3640186428301734E-006   0.0000000000000000     
   9.8812950300240694E-007   2.4262782338106966E-006   0.0000000000000000     
   1.0001601163761647E-006   2.4892475236002820E-006   0.0000000000000000     
   1.0121257438198668E-006   2.5529226389651245E-006   0.0000000000000000     
   8.6000602390317287E-007   2.0598718925880480E-006   0.0000000000000000     
   8.7169711763151439E-007   2.1185444724264265E-006   0.0000000000000000     
   8.8332674786407050E-007   2.1779459917520594E-006   0.0000000000000000     
   8.9489496191436977E-007   2.2380725937139495E-006   0.0000000000000000     
   9.0640180709594110E-007   2.2989204214611002E-006   0.0000000000000000     
   9.1784733072231431E-007   2.3604856181425186E-006   0.0000000000000000     
   9.2923158010701820E-007   2.4227643269072069E-006   0.0000000000000000     
   9.4055460256358195E-007   2.4857526909041701E-006   0.0000000000000000     
   9.5181644540553511E-007   2.5494468532824119E-006   0.0000000000000000     
   1.4389597998227177E-006   2.5831470510724488E-006   0.0000000000000000     
   1.4557600425381378E-006   2.6473591533991149E-006   0.0000000000000000     
   1.4724686599814113E-006   2.7122694128181752E-006   0.0000000000000000     
   1.4890856620993702E-006   2.7778740163721345E-006   0.0000000000000000     
   1.5056110588388503E-006   2.8441691511034971E-006   0.0000000000000000     
   1.5220448601466844E-006   2.9111510040547699E-006   0.0000000000000000     
   1.5383870759697064E-006   2.9788157622684544E-006   0.0000000000000000     
   1.5546377162547512E-006   3.0471596127870607E-006   0.0000000000000000     
   1.5707967909486516E-006   3.1161787426530892E-006   0.0000000000000000     
   1.3774217830726446E-006   2.5781978604291768E-006   0.0000000000000000     
   1.3935221384707378E-006   2.6424369386362088E-006   0.0000000000000000     
   1.4095346760796685E-006   2.7073741707161090E-006   0.0000000000000000     
   1.4254594051380197E-006   2.7730057430976470E-006   0.0000000000000000     
   1.4412963348843735E-006   2.8393278422095958E-006   0.0000000000000000     
   1.4570454745573125E-006   2.9063366544807266E-006   0.0000000000000000     
   1.4727068333954198E-006   2.9740283663398131E-006   0.0000000000000000     
   1.4882804206372774E-006   3.0423991642156243E-006   0.0000000000000000     
   1.5037662455214684E-006   3.1114452345369350E-006   0.0000000000000000     
   1.3160856446105816E-006   2.5734591248710459E-006   0.0000000000000000     
   1.3314860900529514E-006   2.6377240411637925E-006   0.0000000000000000     
   1.3468025279487977E-006   2.7026871093222822E-006   0.0000000000000000     
   1.3620349667515091E-006   2.7683445148517019E-006   0.0000000000000000     
   1.3771834149144721E-006   2.8346924432572350E-006   0.0000000000000000     
   1.3922478808910759E-006   2.9017270800440682E-006   0.0000000000000000     
   1.4072283731347074E-006   2.9694446107173871E-006   0.0000000000000000     
   1.4221249000987550E-006   3.0378412207823755E-006   0.0000000000000000     
   1.4369374702366063E-006   3.1069130957442210E-006   0.0000000000000000     
   1.2549426020707982E-006   2.5689308548439870E-006   0.0000000000000000     
   1.2696431183717837E-006   2.6332204724837322E-006   0.0000000000000000     
   1.2842634394470131E-006   2.6982082404347817E-006   0.0000000000000000     
   1.2988035729568643E-006   2.7638903431073086E-006   0.0000000000000000     
   1.3132635265617180E-006   2.8302629649114881E-006   0.0000000000000000     
   1.3276433079219529E-006   2.8973222902574975E-006   0.0000000000000000     
   1.3419429246979480E-006   2.9650645035555091E-006   0.0000000000000000     
   1.3561623845500820E-006   3.0334857892156998E-006   0.0000000000000000     
   1.3703016951387355E-006   3.1025823316482421E-006   0.0000000000000000     
   1.1939838730875648E-006   2.5646130607939341E-006   0.0000000000000000     
   1.2079844445142411E-006   2.6289262440978999E-006   0.0000000000000000     
   1.2219086344325288E-006   2.6939375758516901E-006   0.0000000000000000     
   1.2357564497711144E-006   2.7596432393374753E-006   0.0000000000000000     
   1.2495278974586839E-006   2.8260394178374275E-006   0.0000000000000000     
   1.2632229844239243E-006   2.8931222946337154E-006   0.0000000000000000     
   1.2768417175955203E-006   2.9608880530085102E-006   0.0000000000000000     
   1.2903841039021593E-006   3.0293328762439808E-006   0.0000000000000000     
   1.3038501502725268E-006   3.0984529476223004E-006   0.0000000000000000     
   1.1332006752951520E-006   2.5605057531668167E-006   0.0000000000000000     
   1.1465012895673286E-006   2.6248413675081648E-006   0.0000000000000000     
   1.1597293367635606E-006   2.6898751273710974E-006   0.0000000000000000     
   1.1728848232112862E-006   2.7556032150152172E-006   0.0000000000000000     
   1.1859677552379432E-006   2.8220218127001263E-006   0.0000000000000000     
   1.1989781391709707E-006   2.8891271026854282E-006   0.0000000000000000     
   1.2119159813378048E-006   2.9569152672307212E-006   0.0000000000000000     
   1.2247812880658850E-006   3.0253824885956089E-006   0.0000000000000000     
   1.2375740656826498E-006   3.0945249490396953E-006   0.0000000000000000     
   1.0725842263278293E-006   2.5566089424085696E-006   0.0000000000000000     
   1.0851848746180518E-006   2.6209658542163957E-006   0.0000000000000000     
   1.0977167702983233E-006   2.6860209067910877E-006   0.0000000000000000     
   1.1101799192944067E-006   2.7517702816135413E-006   0.0000000000000000     
   1.1225743275320680E-006   2.8182101601646581E-006   0.0000000000000000     
   1.1349000009370708E-006   2.8853367239253365E-006   0.0000000000000000     
   1.1471569454351793E-006   2.9531461543764732E-006   0.0000000000000000     
   1.1593451669521595E-006   3.0216346329989710E-006   0.0000000000000000     
   1.1714646714137745E-006   3.0907983412737250E-006   0.0000000000000000     
   1.0121257438198668E-006   2.5529226389651245E-006   0.0000000000000000     
   1.0240264207534165E-006   2.6172997157244633E-006   0.0000000000000000     
   1.0358621588950301E-006   2.6823749259097442E-006   0.0000000000000000     
   1.0476329640375033E-006   2.7481444506054584E-006   0.0000000000000000     
   1.0593388419736298E-006   2.8146044708960931E-006   0.0000000000000000     
   1.0709797984962052E-006   2.8817511678661425E-006   0.0000000000000000     
   1.0825558393980244E-006   2.9495807226000990E-006   0.0000000000000000     
   1.0940669704718811E-006   3.0180893161824498E-006   0.0000000000000000     
   1.1055131975105711E-006   3.0872731296976903E-006   0.0000000000000000     
   9.5181644540553511E-007   2.5494468532824119E-006   0.0000000000000000     
   9.6301714906042816E-007   2.6138429635342393E-006   0.0000000000000000     
   9.7415672641189822E-007   2.6789371965251576E-006   0.0000000000000000     
   9.8523518345760356E-007   2.7447257334639774E-006   0.0000000000000000     
   9.9625252619520260E-007   2.8112047555595058E-006   0.0000000000000000     
   1.0072087606223546E-006   2.8783704440205526E-006   0.0000000000000000     
   1.0181038927367177E-006   2.9462189800559276E-006   0.0000000000000000     
   1.0289379285359497E-006   3.0147465448744361E-006   0.0000000000000000     
   1.0397108740177104E-006   3.0839493196848902E-006   0.0000000000000000     
   1.5707967909486516E-006   3.1161787426530892E-006   0.0000000000000000     
   1.5868643083619985E-006   3.1858693374539986E-006   0.0000000000000000     
   1.6028402702604092E-006   3.2562275769570485E-006   0.0000000000000000     
   1.6187246767732553E-006   3.3272496394744526E-006   0.0000000000000000     
   1.6345175280299124E-006   3.3989317033184231E-006   0.0000000000000000     
   1.6502188241597523E-006   3.4712699468011718E-006   0.0000000000000000     
   1.6658285652921488E-006   3.5442605482349107E-006   0.0000000000000000     
   1.6813467515564758E-006   3.6178996859318537E-006   0.0000000000000000     
   1.6967733830821053E-006   3.6921835382042122E-006   0.0000000000000000     
   1.5037662455214684E-006   3.1114452345369350E-006   0.0000000000000000     
   1.5191643160450638E-006   3.1811627625220653E-006   0.0000000000000000     
   1.5344746352390885E-006   3.2515479285475241E-006   0.0000000000000000     
   1.5496972048930579E-006   3.3225969117793733E-006   0.0000000000000000     
   1.5648320267964856E-006   3.3943058913836730E-006   0.0000000000000000     
   1.5798791027388866E-006   3.4666710465264814E-006   0.0000000000000000     
   1.5948384345097750E-006   3.5396885563738602E-006   0.0000000000000000     
   1.6097100238986652E-006   3.6133546000918684E-006   0.0000000000000000     
   1.6244938726950713E-006   3.6876653568465662E-006   0.0000000000000000     
   1.4369374702366063E-006   3.1069130957442210E-006   0.0000000000000000     
   1.4516660911080701E-006   3.1766564202022985E-006   0.0000000000000000     
   1.4663107666986365E-006   3.2470673751327518E-006   0.0000000000000000     
   1.4808715001002159E-006   3.3181421406059216E-006   0.0000000000000000     
   1.4953482944047201E-006   3.3898768966921419E-006   0.0000000000000000     
   1.5097411527040590E-006   3.4622678234617496E-006   0.0000000000000000     
   1.5240500780901448E-006   3.5353111009850818E-006   0.0000000000000000     
   1.5382750736548876E-006   3.6090029093324756E-006   0.0000000000000000     
   1.5524161424901984E-006   3.6833394285742674E-006   0.0000000000000000     
   1.3703016951387355E-006   3.1025823316482421E-006   0.0000000000000000     
   1.3843608635265384E-006   3.1723503146961110E-006   0.0000000000000000     
   1.3983398943851263E-006   3.2427859199334726E-006   0.0000000000000000     
   1.4122387917883852E-006   3.3138853283672911E-006   0.0000000000000000     
   1.4260575598102034E-006   3.3856447210045322E-006   0.0000000000000000     
   1.4397962025244671E-006   3.4580602788521593E-006   0.0000000000000000     
   1.4534547240050634E-006   3.5311281829171371E-006   0.0000000000000000     
   1.4670331283258788E-006   3.6048446142064326E-006   0.0000000000000000     
   1.4805314195608008E-006   3.6792057537270074E-006   0.0000000000000000     
   1.3038501502725268E-006   3.0984529476223004E-006   0.0000000000000000     
   1.3172398632759887E-006   3.1682444502049190E-006   0.0000000000000000     
   1.3305532480446319E-006   3.2387035661704226E-006   0.0000000000000000     
   1.3437903093512221E-006   3.3098264774766748E-006   0.0000000000000000     
   1.3569510519685251E-006   3.3816093660815428E-006   0.0000000000000000     
   1.3700354806693076E-006   3.4540484139428921E-006   0.0000000000000000     
   1.3830436002263360E-006   3.5271398030185896E-006   0.0000000000000000     
   1.3959754154123762E-006   3.6008797152664993E-006   0.0000000000000000     
   1.4088309310001944E-006   3.6752643326444875E-006   0.0000000000000000     
   1.2375740656826498E-006   3.0945249490396953E-006   0.0000000000000000     
   1.2502943203319413E-006   3.1643388309301387E-006   0.0000000000000000     
   1.2629420574232274E-006   3.2348203170643421E-006   0.0000000000000000     
   1.2755172821823811E-006   3.3059655903472701E-006   0.0000000000000000     
   1.2880199998352740E-006   3.3777708336838792E-006   0.0000000000000000     
   1.3004502156077792E-006   3.4502322299791353E-006   0.0000000000000000     
   1.3128079347257689E-006   3.5233459621380006E-006   0.0000000000000000     
   1.3250931624151160E-006   3.5971082130654349E-006   0.0000000000000000     
   1.3373059039016933E-006   3.6715151656664012E-006   0.0000000000000000     
   1.1714646714137745E-006   3.0907983412737250E-006   0.0000000000000000     
   1.1835154646699164E-006   3.1606334610731824E-006   0.0000000000000000     
   1.1954975522669880E-006   3.2311361758359702E-006   0.0000000000000000     
   1.2074109396755181E-006   3.3023026693922639E-006   0.0000000000000000     
   1.2192556323660388E-006   3.3741291255722390E-006   0.0000000000000000     
   1.2310316358090785E-006   3.4466117282060716E-006   0.0000000000000000     
   1.2427389554751672E-006   3.5197466611239321E-006   0.0000000000000000     
   1.2543775968348351E-006   3.5935301081559988E-006   0.0000000000000000     
   1.2659475653586120E-006   3.6679582531324462E-006   0.0000000000000000     
   1.1055131975105711E-006   3.0872731296976903E-006   0.0000000000000000     
   1.1168945262654335E-006   3.1571283448354647E-006   0.0000000000000000     
   1.1282109623219856E-006   3.2276511457060436E-006   0.0000000000000000     
   1.1394625112242894E-006   3.2988377170248545E-006   0.0000000000000000     
   1.1506491785164084E-006   3.3706842435073256E-006   0.0000000000000000     
   1.1617709697424026E-006   3.4431869098688794E-006   0.0000000000000000     
   1.1728278904463355E-006   3.5163419008249454E-006   0.0000000000000000     
   1.1838199461722697E-006   3.5901454010909502E-006   0.0000000000000000     
   1.1947471424642654E-006   3.6645935953823174E-006   0.0000000000000000     
   1.0397108740177104E-006   3.0839493196848902E-006   0.0000000000000000     
   1.0504227350940132E-006   3.1538234864184017E-006   0.0000000000000000     
   1.0610735173342956E-006   3.2243652298953032E-006   0.0000000000000000     
   1.0716632262223507E-006   3.2955707356582357E-006   0.0000000000000000     
   1.0821918672419713E-006   3.3674361892498387E-006   0.0000000000000000     
   1.0926594458769502E-006   3.4399577762127487E-006   0.0000000000000000     
   1.1030659676110813E-006   3.5131316820896049E-006   0.0000000000000000     
   1.1134114379281559E-006   3.5869540924230473E-006   0.0000000000000000     
   1.1236958623119690E-006   3.6614211927557131E-006   0.0000000000000000     
   1.6967733830821053E-006   3.6921835382042122E-006   0.0000000000000000     
   1.7121084600442050E-006   3.7671082842634796E-006   0.0000000000000000     
   1.7273519828011124E-006   3.8426701069182814E-006   0.0000000000000000     
   1.7425039517569574E-006   3.9188651898765212E-006   0.0000000000000000     
   1.7575643673158729E-006   3.9956897168461055E-006   0.0000000000000000     
   1.7725332298819882E-006   4.0731398715349398E-006   0.0000000000000000     
   1.7874105398594357E-006   4.1512118376509277E-006   0.0000000000000000     
   1.8021962976523453E-006   4.2299017989019773E-006   0.0000000000000000     
   1.8168905036648485E-006   4.3092059389959916E-006   0.0000000000000000     
   1.6244938726950713E-006   3.6876653568465662E-006   0.0000000000000000     
   1.6391899824166826E-006   3.7626170065504556E-006   0.0000000000000000     
   1.6537983534938837E-006   3.8382057321018074E-006   0.0000000000000000     
   1.6683189860852376E-006   3.9144277171453354E-006   0.0000000000000000     
   1.6827518803493032E-006   3.9912791453257531E-006   0.0000000000000000     
   1.6970970364446413E-006   4.0687562002877721E-006   0.0000000000000000     
   1.7113544545298132E-006   4.1468550656761076E-006   0.0000000000000000     
   1.7255241347633790E-006   4.2255719251354723E-006   0.0000000000000000     
   1.7396060773039003E-006   4.3049029623105795E-006   0.0000000000000000     
   1.5524161424901984E-006   3.6833394285742674E-006   0.0000000000000000     
   1.5664732871756193E-006   3.7583168393801262E-006   0.0000000000000000     
   1.5804465082412181E-006   3.8339313248170577E-006   0.0000000000000000     
   1.5943358057046932E-006   3.9101790685514000E-006   0.0000000000000000     
   1.6081411795837432E-006   3.9870562542494921E-006   0.0000000000000000     
   1.6218626298960672E-006   4.0645590655776706E-006   0.0000000000000000     
   1.6355001566593643E-006   4.1426836862022745E-006   0.0000000000000000     
   1.6490537598913318E-006   4.2214262997896428E-006   0.0000000000000000     
   1.6625234396096701E-006   4.3007830900061120E-006   0.0000000000000000     
   1.4805314195608008E-006   3.6792057537270074E-006   0.0000000000000000     
   1.4939496010990961E-006   3.7542077829448852E-006   0.0000000000000000     
   1.5072876735915509E-006   3.8298468851623041E-006   0.0000000000000000     
   1.5205456370043312E-006   3.9061192441405623E-006   0.0000000000000000     
   1.5337234913036046E-006   3.9830210436409575E-006   0.0000000000000000     
   1.5468212364555355E-006   4.0605484674247863E-006   0.0000000000000000     
   1.5598388724262914E-006   4.1386976992533443E-006   0.0000000000000000     
   1.5727763991820384E-006   4.2174649228879297E-006   0.0000000000000000     
   1.5856338166889425E-006   4.2968463220898399E-006   0.0000000000000000     
   1.4088309310001944E-006   3.6752643326444875E-006   0.0000000000000000     
   1.4216101509651928E-006   3.7502898374371272E-006   0.0000000000000000     
   1.4343130760933199E-006   3.8259524132358177E-006   0.0000000000000000     
   1.4469397063731596E-006   3.9022482439586671E-006   0.0000000000000000     
   1.4594900417932967E-006   3.9791735135237797E-006   0.0000000000000000     
   1.4719640823423152E-006   4.0567244058492648E-006   0.0000000000000000     
   1.4843618280087996E-006   4.1348971048532295E-006   0.0000000000000000     
   1.4966832787813342E-006   4.2136877944537788E-006   0.0000000000000000     
   1.5089284346485033E-006   4.2930926585690214E-006   0.0000000000000000     
   1.3373059039016933E-006   3.6715151656664012E-006   0.0000000000000000     
   1.3494461635519894E-006   3.7465630030492490E-006   0.0000000000000000     
   1.3615139422949618E-006   3.8222479091358730E-006   0.0000000000000000     
   1.3735092402001847E-006   3.8985660680515627E-006   0.0000000000000000     
   1.3854320573372318E-006   3.9755136639215985E-006   0.0000000000000000     
   1.3972823937756763E-006   4.0530868808712649E-006   0.0000000000000000     
   1.4090602495850930E-006   4.1312819030258496E-006   0.0000000000000000     
   1.4207656248350549E-006   4.2100949145106335E-006   0.0000000000000000     
   1.4323985195951364E-006   4.2895220994509036E-006   0.0000000000000000     
   1.2659475653586120E-006   3.6679582531324462E-006   0.0000000000000000     
   1.2774488656375657E-006   3.7430272799736440E-006   0.0000000000000000     
   1.2888814987449145E-006   3.8187333729607453E-006   0.0000000000000000     
   1.3002454648744131E-006   3.8950727164650938E-006   0.0000000000000000     
   1.3115407642198194E-006   3.9720414948580404E-006   0.0000000000000000     
   1.3227673969748881E-006   4.0496358925109348E-006   0.0000000000000000     
   1.3339253633333746E-006   4.1278520937951163E-006   0.0000000000000000     
   1.3450146634890361E-006   4.2066862830819396E-006   0.0000000000000000     
   1.3560352976356271E-006   4.2861346447427507E-006   0.0000000000000000     
   1.1947471424642654E-006   3.6645935953823174E-006   0.0000000000000000     
   1.2056094840000013E-006   3.7396826684027076E-006   0.0000000000000000     
   1.2164069719916129E-006   3.8154088048086997E-006   0.0000000000000000     
   1.2271396067848522E-006   3.8917681892451079E-006   0.0000000000000000     
   1.2378073887254712E-006   3.9687570063567441E-006   0.0000000000000000     
   1.2484103181592193E-006   4.0463714407884179E-006   0.0000000000000000     
   1.2589483954318492E-006   4.1246076771849455E-006   0.0000000000000000     
   1.2694216208891126E-006   4.2034619001911380E-006   0.0000000000000000     
   1.2798299948767595E-006   4.2829302944518066E-006   0.0000000000000000     
   1.1236958623119690E-006   3.6614211927557131E-006   0.0000000000000000     
   1.1339192454173766E-006   3.7365291685288345E-006   0.0000000000000000     
   1.1440815885834965E-006   3.8122742047780166E-006   0.0000000000000000     
   1.1541828923205091E-006   3.8886524864374522E-006   0.0000000000000000     
   1.1642231571385969E-006   3.9656601984413404E-006   0.0000000000000000     
   1.1742023835479403E-006   4.0432935257238761E-006   0.0000000000000000     
   1.1841205720587209E-006   4.1215486532192566E-006   0.0000000000000000     
   1.1939777231811203E-006   4.2004217658616745E-006   0.0000000000000000     
   1.2037738374253197E-006   4.2799090485853295E-006   0.0000000000000000     
   1.8168905036648485E-006   4.3092059389959916E-006   0.0000000000000000     
   1.8314931582139060E-006   4.3891204417263561E-006   0.0000000000000000     
   1.8460042612678014E-006   4.4696414912283705E-006   0.0000000000000000     
   1.8604238127076454E-006   4.5507652717228118E-006   0.0000000000000000     
   1.8747518124145529E-006   4.6324879674304590E-006   0.0000000000000000     
   1.8889882602696356E-006   4.7148057625720908E-006   0.0000000000000000     
   1.9031331561540067E-006   4.7977148413684862E-006   0.0000000000000000     
   1.9171864999487784E-006   4.8812113880404223E-006   0.0000000000000000     
   1.9311482915350648E-006   4.9652915868086771E-006   0.0000000000000000     
   1.7396060773039003E-006   4.3049029623105795E-006   0.0000000000000000     
   1.7536002822985869E-006   4.3848443609743334E-006   0.0000000000000000     
   1.7675067498492537E-006   4.4653923054123898E-006   0.0000000000000000     
   1.7813254800463669E-006   4.5465429800386036E-006   0.0000000000000000     
   1.7950564729803905E-006   4.6282925692668245E-006   0.0000000000000000     
   1.8086997287417893E-006   4.7106372575108991E-006   0.0000000000000000     
   1.8222552474210295E-006   4.7935732291846806E-006   0.0000000000000000     
   1.8357230291085753E-006   4.8770966687020205E-006   0.0000000000000000     
   1.8491030738948929E-006   4.9612037604767653E-006   0.0000000000000000     
   1.6625234396096701E-006   4.3007830900061120E-006   0.0000000000000000     
   1.6759091958702102E-006   4.3807502406679121E-006   0.0000000000000000     
   1.6892110288813175E-006   4.4613239361908378E-006   0.0000000000000000     
   1.7024289388894906E-006   4.5425003611405787E-006   0.0000000000000000     
   1.7155629261412289E-006   4.6242757000828181E-006   0.0000000000000000     
   1.7286129908830293E-006   4.7066461375832456E-006   0.0000000000000000     
   1.7415791333613921E-006   4.7896078582075478E-006   0.0000000000000000     
   1.7544613538228154E-006   4.8731570465214102E-006   0.0000000000000000     
   1.7672596525137974E-006   4.9572898870905218E-006   0.0000000000000000     
   1.5856338166889425E-006   4.2968463220898399E-006   0.0000000000000000     
   1.5984111249781112E-006   4.3768380807741452E-006   0.0000000000000000     
   1.6111083243404150E-006   4.4574363834710132E-006   0.0000000000000000     
   1.6237254151316622E-006   4.5386374148643798E-006   0.0000000000000000     
   1.6362623977076651E-006   4.6204373596381889E-006   0.0000000000000000     
   1.6487192724242337E-006   4.7028324024763803E-006   0.0000000000000000     
   1.6610960396371790E-006   4.7858187280628907E-006   0.0000000000000000     
   1.6733926997023119E-006   4.8693925210816631E-006   0.0000000000000000     
   1.6856092529754420E-006   4.9535499662166391E-006   0.0000000000000000     
   1.5089284346485033E-006   4.2930926585690214E-006   0.0000000000000000     
   1.5210972956716270E-006   4.3731078812600855E-006   0.0000000000000000     
   1.5331898622029678E-006   4.4537296471602077E-006   0.0000000000000000     
   1.5452061346675245E-006   4.5349541410456527E-006   0.0000000000000000     
   1.5571461134902959E-006   4.6167775476926802E-006   0.0000000000000000     
   1.5690097990962799E-006   4.6991960518775482E-006   0.0000000000000000     
   1.5807971919104751E-006   4.7822058383765196E-006   0.0000000000000000     
   1.5925082923578799E-006   4.8658030919658543E-006   0.0000000000000000     
   1.6041431008634930E-006   4.9499839974218151E-006   0.0000000000000000     
   1.4323985195951364E-006   4.2895220994509036E-006   0.0000000000000000     
   1.4439589340000925E-006   4.3695596420927827E-006   0.0000000000000000     
   1.4554468684454015E-006   4.4502037271657286E-006   0.0000000000000000     
   1.4668623233917236E-006   4.5314505395200494E-006   0.0000000000000000     
   1.4782052992997177E-006   4.6132962640060406E-006   0.0000000000000000     
   1.4894757966300447E-006   4.6957370854740042E-006   0.0000000000000000     
   1.5006738158433637E-006   4.7787691887742418E-006   0.0000000000000000     
   1.5117993574003346E-006   4.8623887587570572E-006   0.0000000000000000     
   1.5228524217616166E-006   4.9465919802727441E-006   0.0000000000000000     
   1.3560352976356271E-006   4.2861346447427507E-006   0.0000000000000000     
   1.3669872660128440E-006   4.3661933632392872E-006   0.0000000000000000     
   1.3778705690441383E-006   4.4468586233948708E-006   0.0000000000000000     
   1.3886852071989021E-006   4.5281266101232074E-006   0.0000000000000000     
   1.3994311809465273E-006   4.6099935083380132E-006   0.0000000000000000     
   1.4101084907564061E-006   4.6924555029529977E-006   0.0000000000000000     
   1.4207171370979295E-006   4.7755087788818694E-006   0.0000000000000000     
   1.4312571204404898E-006   4.8591495210383411E-006   0.0000000000000000     
   1.4417284412534789E-006   4.9433739143361238E-006   0.0000000000000000     
   1.2798299948767595E-006   4.2829302944518066E-006   0.0000000000000000     
   1.2901735177592167E-006   4.3630090446666511E-006   0.0000000000000000     
   1.3004521899756007E-006   4.4436943357549255E-006   0.0000000000000000     
   1.3106660119837043E-006   4.5249823526907768E-006   0.0000000000000000     
   1.3208149842413210E-006   4.6068692804483467E-006   0.0000000000000000     
   1.3308991072062403E-006   4.6893513040017711E-006   0.0000000000000000     
   1.3409183813362566E-006   4.7724246083252036E-006   0.0000000000000000     
   1.3508728070891604E-006   4.8560853783927820E-006   0.0000000000000000     
   1.3607623849227440E-006   4.9403297991786462E-006   0.0000000000000000     
   1.2037738374253197E-006   4.2799090485853295E-006   0.0000000000000000     
   1.2135089152885466E-006   4.3600066863419257E-006   0.0000000000000000     
   1.2231829572162125E-006   4.4407108641532013E-006   0.0000000000000000     
   1.2327959636407759E-006   4.5220177670584036E-006   0.0000000000000000     
   1.2423479349946945E-006   4.6039235800967842E-006   0.0000000000000000     
   1.2518388717104261E-006   4.6864244883075861E-006   0.0000000000000000     
   1.2612687742204292E-006   4.7695166767300591E-006   0.0000000000000000     
   1.2706376429571607E-006   4.8531963304034524E-006   0.0000000000000000     
   1.2799454783530796E-006   4.9374596343670105E-006   0.0000000000000000     
   1.9311482915350648E-006   4.9652915868086771E-006   0.0000000000000000     
   1.9450185308000680E-006   5.0499516220318789E-006   0.0000000000000000     
   1.9587972176553585E-006   5.1351876786200450E-006   0.0000000000000000     
   1.9724843520185951E-006   5.2209959416210404E-006   0.0000000000000000     
   1.9860799338074400E-006   5.3073725960827343E-006   0.0000000000000000     
   1.9995839629395530E-006   5.3943138270529925E-006   0.0000000000000000     
   2.0129964393325938E-006   5.4818158195796819E-006   0.0000000000000000     
   2.0263173629042243E-006   5.5698747587106674E-006   0.0000000000000000     
   2.0395467335721027E-006   5.6584868294938173E-006   0.0000000000000000     
   1.8491030738948929E-006   4.9612037604767653E-006   0.0000000000000000     
   1.8623953818247090E-006   5.0458906890161341E-006   0.0000000000000000     
   1.8755999527597967E-006   5.1311536392007961E-006   0.0000000000000000     
   1.8887167865161930E-006   5.2169887960047999E-006   0.0000000000000000     
   1.9017458829099331E-006   5.3033923444021815E-006   0.0000000000000000     
   1.9146872417570533E-006   5.3903604693669827E-006   0.0000000000000000     
   1.9275408628735895E-006   5.4778893558732445E-006   0.0000000000000000     
   1.9403067460755782E-006   5.5659751888950097E-006   0.0000000000000000     
   1.9529848911790544E-006   5.6546141534063166E-006   0.0000000000000000     
   1.7672596525137974E-006   4.9572898870905218E-006   0.0000000000000000     
   1.7799740295985474E-006   5.0420025645433739E-006   0.0000000000000000     
   1.7926044849121168E-006   5.1272912637596786E-006   0.0000000000000000     
   1.8051510182072686E-006   5.2131521696819623E-006   0.0000000000000000     
   1.8176136292367654E-006   5.2995814672527443E-006   0.0000000000000000     
   1.8299923177533687E-006   5.3865753414145452E-006   0.0000000000000000     
   1.8422870835098416E-006   5.4741299771098835E-006   0.0000000000000000     
   1.8544979262589455E-006   5.5622415592812831E-006   0.0000000000000000     
   1.8666248457534439E-006   5.6509062728712651E-006   0.0000000000000000     
   1.6856092529754420E-006   4.9535499662166391E-006   0.0000000000000000     
   1.6977456997067096E-006   5.0382872481953783E-006   0.0000000000000000     
   1.7098020397235741E-006   5.1236005519199324E-006   0.0000000000000000     
   1.7217782727478218E-006   5.2094860623359734E-006   0.0000000000000000     
   1.7336743985012424E-006   5.2959399643891770E-006   0.0000000000000000     
   1.7454904167056238E-006   5.3829584430252180E-006   0.0000000000000000     
   1.7572263270827528E-006   5.4705376831897650E-006   0.0000000000000000     
   1.7688821293544195E-006   5.5586738698284963E-006   0.0000000000000000     
   1.7804578232424095E-006   5.6473631878870814E-006   0.0000000000000000     
   1.6041431008634930E-006   4.9499839974218151E-006   0.0000000000000000     
   1.6157016177343234E-006   5.0347447395539265E-006   0.0000000000000000     
   1.6271838428054219E-006   5.1200815033047919E-006   0.0000000000000000     
   1.6385897757938502E-006   5.2059904736502717E-006   0.0000000000000000     
   1.6499194164166697E-006   5.2924678355662339E-006   0.0000000000000000     
   1.6611727643909423E-006   5.3795097740285408E-006   0.0000000000000000     
   1.6723498194337296E-006   5.4671124740130620E-006   0.0000000000000000     
   1.6834505812620922E-006   5.5552721204956588E-006   0.0000000000000000     
   1.6944750495930923E-006   5.6439848984521984E-006   0.0000000000000000     
   1.5228524217616166E-006   4.9465919802727441E-006   0.0000000000000000     
   1.5338330092665160E-006   5.0313750382008028E-006   0.0000000000000000     
   1.5447411197689174E-006   5.1167341175375013E-006   0.0000000000000000     
   1.5555767530013525E-006   5.2026654033083015E-006   0.0000000000000000     
   1.5663399086963533E-006   5.2891650805386669E-006   0.0000000000000000     
   1.5770305865864506E-006   5.3762293342540601E-006   0.0000000000000000     
   1.5876487864041749E-006   5.4638543494799456E-006   0.0000000000000000     
   1.5981945078820587E-006   5.5520363112417835E-006   0.0000000000000000     
   1.6086677507526329E-006   5.6407714045650416E-006   0.0000000000000000     
   1.4417284412534789E-006   4.9433739143361238E-006   0.0000000000000000     
   1.4521310998884136E-006   5.0281781437177821E-006   0.0000000000000000     
   1.4624650962253152E-006   5.1135583942412978E-006   0.0000000000000000     
   1.4727304300263272E-006   5.1995108509934995E-006   0.0000000000000000     
   1.4829271010535979E-006   5.2860316990612250E-006   0.0000000000000000     
   1.4930551090692719E-006   5.3731171235313105E-006   0.0000000000000000     
   1.5031144538354945E-006   5.4607633094905838E-006   0.0000000000000000     
   1.5131051351144120E-006   5.5489664420258817E-006   0.0000000000000000     
   1.5230271526681702E-006   5.6377227062240371E-006   0.0000000000000000     
   1.3607623849227440E-006   4.9403297991786462E-006   0.0000000000000000     
   1.3705871151851438E-006   5.0251540556866435E-006   0.0000000000000000     
   1.3803469977858685E-006   5.1105543330394168E-006   0.0000000000000000     
   1.3900420325247725E-006   5.1965268163893082E-006   0.0000000000000000     
   1.3996722192017095E-006   5.2830676908886669E-006   0.0000000000000000     
   1.4092375576165307E-006   5.3701731416898301E-006   0.0000000000000000     
   1.4187380475690915E-006   5.4578393539451460E-006   0.0000000000000000     
   1.4281736888592450E-006   5.5460625128069595E-006   0.0000000000000000     
   1.4375444812868442E-006   5.6348388034276120E-006   0.0000000000000000     
   1.2799454783530796E-006   4.9374596343670105E-006   0.0000000000000000     
   1.2891922807418338E-006   5.0223027736891688E-006   0.0000000000000000     
   1.2983780500618354E-006   5.1077219335551031E-006   0.0000000000000000     
   1.3075027861526871E-006   5.1937132991791737E-006   0.0000000000000000     
   1.3165664888539922E-006   5.2802730557757385E-006   0.0000000000000000     
   1.3255691580053528E-006   5.3673973885591636E-006   0.0000000000000000     
   1.3345107934463719E-006   5.4550824827438070E-006   0.0000000000000000     
   1.3433913950166524E-006   5.5433245235440298E-006   0.0000000000000000     
   1.3522109625557960E-006   5.6321196961741950E-006   0.0000000000000000     
   2.0395467335721027E-006   5.6584868294938173E-006   0.0000000000000000     
   2.0526845512783238E-006   5.7476482170191732E-006   0.0000000000000000     
   2.0657308160627088E-006   5.8373551065454831E-006   0.0000000000000000     
   2.0786855279895126E-006   5.9276036833736607E-006   0.0000000000000000     
   2.0915486871229899E-006   6.0183901328046365E-006   0.0000000000000000     
   2.1043202935273946E-006   6.1097106401393257E-006   0.0000000000000000     
   2.1170003472669830E-006   6.2015613906786529E-006   0.0000000000000000     
   2.1295888484060088E-006   6.2939385697235402E-006   0.0000000000000000     
   2.1420857970087277E-006   6.3868383625749071E-006   0.0000000000000000     
   1.9529848911790544E-006   5.6546141534063166E-006   0.0000000000000000     
   1.9655752980452992E-006   5.7438024344440072E-006   0.0000000000000000     
   1.9780779667165616E-006   5.8335362172961080E-006   0.0000000000000000     
   1.9904928972803414E-006   5.9238116873134501E-006   0.0000000000000000     
   2.0028200898241318E-006   6.0146250298468593E-006   0.0000000000000000     
   2.0150595444354298E-006   6.1059724302471682E-006   0.0000000000000000     
   2.0272112612017314E-006   6.1978500738651993E-006   0.0000000000000000     
   2.0392752402105318E-006   6.2902541460517868E-006   0.0000000000000000     
   2.0512514815493282E-006   6.3831808321577557E-006   0.0000000000000000     
   1.8666248457534439E-006   5.6509062728712651E-006   0.0000000000000000     
   1.8786678418028820E-006   5.7401203028938024E-006   0.0000000000000000     
   1.8906269144439405E-006   5.8298798346486961E-006   0.0000000000000000     
   1.9025020637700838E-006   5.9201810535072011E-006   0.0000000000000000     
   1.9142932898747772E-006   6.0110201448405717E-006   0.0000000000000000     
   1.9260005928514836E-006   6.1023932940200567E-006   0.0000000000000000     
   1.9376239727936690E-006   6.1942966864169174E-006   0.0000000000000000     
   1.9491634297947974E-006   6.2867265074024059E-006   0.0000000000000000     
   1.9606189639483311E-006   6.3796789423477715E-006   0.0000000000000000     
   1.7804578232424095E-006   5.6473631878870814E-006   0.0000000000000000     
   1.7919534085291560E-006   5.7366018223816361E-006   0.0000000000000000     
   1.8033688852396606E-006   5.8263859586100305E-006   0.0000000000000000     
   1.8147042534595707E-006   5.9167117819405741E-006   0.0000000000000000     
   1.8259595132745324E-006   6.0075754777415762E-006   0.0000000000000000     
   1.8371346647701905E-006   6.0989732313813490E-006   0.0000000000000000     
   1.8482297080321927E-006   6.1909012282282026E-006   0.0000000000000000     
   1.8592446431461856E-006   6.2833556536504491E-006   0.0000000000000000     
   1.8701794701978135E-006   6.3763326930163953E-006   0.0000000000000000     
   1.6944750495930923E-006   5.6439848984521984E-006   0.0000000000000000     
   1.7054232242022033E-006   5.7332469929205874E-006   0.0000000000000000     
   1.7162951050985397E-006   5.8230545891868916E-006   0.0000000000000000     
   1.7270906923496303E-006   5.9134038725992179E-006   0.0000000000000000     
   1.7378099860230026E-006   6.0042910285056841E-006   0.0000000000000000     
   1.7484529861861838E-006   6.0957122422543912E-006   0.0000000000000000     
   1.7590196929067004E-006   6.1876636991934528E-006   0.0000000000000000     
   1.7695101062520823E-006   6.2801415846709758E-006   0.0000000000000000     
   1.7799242262898539E-006   6.3731420840350703E-006   0.0000000000000000     
   1.6086677507526329E-006   5.6407714045650416E-006   0.0000000000000000     
   1.6190685148001054E-006   5.7300558145237294E-006   0.0000000000000000     
   1.6293968000153938E-006   5.8198857263860607E-006   0.0000000000000000     
   1.6396526064410920E-006   5.9102573254687972E-006   0.0000000000000000     
   1.6498359341197944E-006   6.0011667970887013E-006   0.0000000000000000     
   1.6599467830940954E-006   6.0926103265625335E-006   0.0000000000000000     
   1.6699851534065889E-006   6.1845840992070598E-006   0.0000000000000000     
   1.6799510450998692E-006   6.2770843003390391E-006   0.0000000000000000     
   1.6898444582165304E-006   6.3701071152752365E-006   0.0000000000000000     
   1.5230271526681702E-006   5.6377227062240371E-006   0.0000000000000000     
   1.5328805063009455E-006   5.7270282872041453E-006   0.0000000000000000     
   1.5426651959850395E-006   5.8168793702143236E-006   0.0000000000000000     
   1.5523812217347851E-006   5.9072721405349609E-006   0.0000000000000000     
   1.5620285835645143E-006   5.9982027834464339E-006   0.0000000000000000     
   1.5716072814885605E-006   6.0896674842291255E-006   0.0000000000000000     
   1.5811173155212554E-006   6.1816624281634190E-006   0.0000000000000000     
   1.5905586856769320E-006   6.2741838005296943E-006   0.0000000000000000     
   1.5999313919699224E-006   6.3672277866083361E-006   0.0000000000000000     
   1.4375444812868442E-006   5.6348388034276120E-006   0.0000000000000000     
   1.4468504246828049E-006   5.7241644109749074E-006   0.0000000000000000     
   1.4560915190022937E-006   5.8140355206784639E-006   0.0000000000000000     
   1.4652677642315383E-006   5.9044483177833653E-006   0.0000000000000000     
   1.4743791603567684E-006   5.9953989875346896E-006   0.0000000000000000     
   1.4834257073642119E-006   6.0868837151775174E-006   0.0000000000000000     
   1.4924074052400967E-006   6.1788986859569258E-006   0.0000000000000000     
   1.5013242539706527E-006   6.2714400851179979E-006   0.0000000000000000     
   1.5101762535421073E-006   6.3645040979058117E-006   0.0000000000000000     
   1.3522109625557960E-006   5.6321196961741950E-006   0.0000000000000000     
   1.3609694959237673E-006   5.7214641858490940E-006   0.0000000000000000     
   1.3696669950619730E-006   5.8113541777852623E-006   0.0000000000000000     
   1.3783034599321815E-006   5.9017858571996675E-006   0.0000000000000000     
   1.3868788904961619E-006   5.9927554093092771E-006   0.0000000000000000     
   1.3953932867156823E-006   6.0842590193310586E-006   0.0000000000000000     
   1.4038466485525107E-006   6.1762928724819787E-006   0.0000000000000000     
   1.4122389759684156E-006   6.2688531539790075E-006   0.0000000000000000     
   1.4205702689251647E-006   6.3619360490391090E-006   0.0000000000000000     
   2.1420857970087277E-006   6.3868383625749071E-006   0.0000000000000000     
   2.1544911931123835E-006   6.4802569545155516E-006   0.0000000000000000     
   2.1668050366461906E-006   6.5741905307557853E-006   0.0000000000000000     
   2.1790273275123524E-006   6.6686352764877957E-006   0.0000000000000000     
   2.1911580656130724E-006   6.7635873769037713E-006   0.0000000000000000     
   2.2031972508505552E-006   6.8590430171959005E-006   0.0000000000000000     
   2.2151448831270046E-006   6.9549983825563716E-006   0.0000000000000000     
   2.2270009623446237E-006   7.0514496581773715E-006   0.0000000000000000     
   2.2387654884056168E-006   7.1483930292510860E-006   0.0000000000000000     
   2.0512514815493282E-006   6.3831808321577557E-006   0.0000000000000000     
   2.0631399852709462E-006   6.4766263175003894E-006   0.0000000000000000     
   2.0749407512895294E-006   6.5705867872627749E-006   0.0000000000000000     
   2.0866537794845541E-006   6.6650584265944610E-006   0.0000000000000000     
   2.0982790697354962E-006   6.7600374206449930E-006   0.0000000000000000     
   2.1098166219218299E-006   6.8555199545639113E-006   0.0000000000000000     
   2.1212664359230311E-006   6.9515022135007648E-006   0.0000000000000000     
   2.1326285116185745E-006   7.0479803826050935E-006   0.0000000000000000     
   2.1439028488879363E-006   7.1449506470264439E-006   0.0000000000000000     
   1.9606189639483311E-006   6.3796789423477715E-006   0.0000000000000000     
   1.9719905753109116E-006   6.4731501765856409E-006   0.0000000000000000     
   1.9832782637918731E-006   6.5671363952941019E-006   0.0000000000000000     
   1.9944820292637250E-006   6.6616337836126082E-006   0.0000000000000000     
   2.0056018715989785E-006   6.7566385266806198E-006   0.0000000000000000     
   2.0166377906701424E-006   6.8521468096375878E-006   0.0000000000000000     
   2.0275897863497266E-006   6.9481548176229747E-006   0.0000000000000000     
   2.0384578585102419E-006   7.0446587357762358E-006   0.0000000000000000     
   2.0492420070241962E-006   7.1416547492368243E-006   0.0000000000000000     
   1.8701794701978135E-006   6.3763326930163953E-006   0.0000000000000000     
   1.8810341892381112E-006   6.4698285316587457E-006   0.0000000000000000     
   1.8918088001796574E-006   6.5638393547677828E-006   0.0000000000000000     
   1.9025033029004199E-006   6.6583613474981766E-006   0.0000000000000000     
   1.9131176972783648E-006   6.7533906950045988E-006   0.0000000000000000     
   1.9236519831914598E-006   6.8489235824417234E-006   0.0000000000000000     
   1.9341061605176720E-006   6.9449561949642213E-006   0.0000000000000000     
   1.9444802291349662E-006   7.0414847177267676E-006   0.0000000000000000     
   1.9547741889213117E-006   7.1385053358840363E-006   0.0000000000000000     
   1.7799242262898539E-006   6.3731420840350703E-006   0.0000000000000000     
   1.7902620530583747E-006   6.4666613826071491E-006   0.0000000000000000     
   1.8005235864793190E-006   6.5606956656018529E-006   0.0000000000000000     
   1.8107088264451930E-006   6.6552411182071179E-006   0.0000000000000000     
   1.8208177728485016E-006   6.7502939256108906E-006   0.0000000000000000     
   1.8308504255817507E-006   6.8458502730011082E-006   0.0000000000000000     
   1.8408067845374446E-006   6.9419063455657206E-006   0.0000000000000000     
   1.8506868496080906E-006   7.0384583284926658E-006   0.0000000000000000     
   1.8604906206861921E-006   7.1355024069698817E-006   0.0000000000000000     
   1.6898444582165304E-006   6.3701071152752365E-006   0.0000000000000000     
   1.6996653927775325E-006   6.4636487293182882E-006   0.0000000000000000     
   1.7094138487172935E-006   6.5577053277143303E-006   0.0000000000000000     
   1.7190898259485988E-006   6.6522730956953778E-006   0.0000000000000000     
   1.7286933243842334E-006   6.7473482184934449E-006   0.0000000000000000     
   1.7382243439369817E-006   6.8429268813405468E-006   0.0000000000000000     
   1.7476828845196280E-006   6.9390052694686908E-006   0.0000000000000000     
   1.7570689460449568E-006   7.0355795681098970E-006   0.0000000000000000     
   1.7663825284257531E-006   7.1326459624961747E-006   0.0000000000000000     
   1.5999313919699224E-006   6.3672277866083361E-006   0.0000000000000000     
   1.6092354344014146E-006   6.4607905716795981E-006   0.0000000000000000     
   1.6184708129200170E-006   6.5548683410232425E-006   0.0000000000000000     
   1.6276375274611937E-006   6.6494572799189056E-006   0.0000000000000000     
   1.6367355779604076E-006   6.7445535736462233E-006   0.0000000000000000     
   1.6457649643531214E-006   6.8401534074848233E-006   0.0000000000000000     
   1.6547256865748000E-006   6.9362529667143518E-006   0.0000000000000000     
   1.6636177445609074E-006   7.0328484366144349E-006   0.0000000000000000     
   1.6724411382469050E-006   7.1299360024647128E-006   0.0000000000000000     
   1.5101762535421073E-006   6.3645040979058117E-006   0.0000000000000000     
   1.5189634039358521E-006   6.4580869095785268E-006   0.0000000000000000     
   1.5276857051139261E-006   6.5521847054466197E-006   0.0000000000000000     
   1.5363431570335304E-006   6.6467936708336487E-006   0.0000000000000000     
   1.5449357596518675E-006   6.7419099910631676E-006   0.0000000000000000     
   1.5534635129261372E-006   6.8375298514587379E-006   0.0000000000000000     
   1.5619264168135425E-006   6.9336494373439145E-006   0.0000000000000000     
   1.5703244712712837E-006   7.0302649340422529E-006   0.0000000000000000     
   1.5786576762565623E-006   7.1273725268773095E-006   0.0000000000000000     
   1.4205702689251647E-006   6.3619360490391090E-006   0.0000000000000000     
   1.4288405273866753E-006   6.4555377429025121E-006   0.0000000000000000     
   1.4370497513254567E-006   6.5496544209024844E-006   0.0000000000000000     
   1.4451979407161656E-006   6.6442822683955531E-006   0.0000000000000000     
   1.4532850955334598E-006   6.7394174707382445E-006   0.0000000000000000     
   1.4613112157519967E-006   6.8350562132870843E-006   0.0000000000000000     
   1.4692763013464335E-006   6.9311946813986005E-006   0.0000000000000000     
   1.4771803522914275E-006   7.0278290604293210E-006   0.0000000000000000     
   1.4850233685616367E-006   7.1249555357357715E-006   0.0000000000000000     
   8.6000602390317287E-007   2.0598718925880480E-006   0.0000000000000000     
   8.7169711763151439E-007   2.1185444724264265E-006   0.0000000000000000     
   8.8332674786407050E-007   2.1779459917520594E-006   0.0000000000000000     
   8.9489496191436977E-007   2.2380725937139495E-006   0.0000000000000000     
   9.0640180709594110E-007   2.2989204214611002E-006   0.0000000000000000     
   9.1784733072231431E-007   2.3604856181425186E-006   0.0000000000000000     
   9.2923158010701820E-007   2.4227643269072069E-006   0.0000000000000000     
   9.4055460256358195E-007   2.4857526909041701E-006   0.0000000000000000     
   9.5181644540553511E-007   2.5494468532824119E-006   0.0000000000000000     
   8.0557378917201912E-007   2.0564614707546173E-006   0.0000000000000000     
   8.1653452417322503E-007   2.1151525363023038E-006   0.0000000000000000     
   8.2743758215631661E-007   2.1745724114403524E-006   0.0000000000000000     
   8.3828301381414995E-007   2.2347172556905639E-006   0.0000000000000000     
   8.4907086983958143E-007   2.2955832285747422E-006   0.0000000000000000     
   8.5980120092546642E-007   2.3571664896146863E-006   0.0000000000000000     
   8.7047405776466046E-007   2.4194631983321974E-006   0.0000000000000000     
   8.8108949105002007E-007   2.4824695142490799E-006   0.0000000000000000     
   8.9164755147440111E-007   2.5461815968871311E-006   0.0000000000000000     
   7.5127334357338432E-007   2.0532705693797754E-006   0.0000000000000000     
   7.6150366496859264E-007   2.1119790029088216E-006   0.0000000000000000     
   7.7168011073890921E-007   2.1714161160288530E-006   0.0000000000000000     
   7.8180273260217609E-007   2.2315780840875384E-006   0.0000000000000000     
   7.9187158227623473E-007   2.2924610824325409E-006   0.0000000000000000     
   8.0188671147892669E-007   2.3540612864115259E-006   0.0000000000000000     
   8.1184817192809362E-007   2.4163748713721599E-006   0.0000000000000000     
   8.2175601534157707E-007   2.4793980126621074E-006   0.0000000000000000     
   8.3161029343721890E-007   2.5431268856290328E-006   0.0000000000000000     
   6.9709593907386779E-007   2.0502992937592163E-006   0.0000000000000000     
   7.0659579359920331E-007   2.1090239569565930E-006   0.0000000000000000     
   7.1604558693113632E-007   2.1684771731253577E-006   0.0000000000000000     
   7.2544536984821573E-007   2.2286551325137511E-006   0.0000000000000000     
   7.3479519312899112E-007   2.2895540253700162E-006   0.0000000000000000     
   7.4409510755201204E-007   2.3511700419423950E-006   0.0000000000000000     
   7.5334516389582753E-007   2.4134993724791298E-006   0.0000000000000000     
   7.6254541293898673E-007   2.4765382072284623E-006   0.0000000000000000     
   7.7169590546003940E-007   2.5402827364386365E-006   0.0000000000000000     
   6.4303282764006880E-007   2.0475477491886315E-006   0.0000000000000000     
   6.5180216364664386E-007   2.1062874831562370E-006   0.0000000000000000     
   6.6052526405228652E-007   2.1657556503376628E-006   0.0000000000000000     
   6.6920217712203854E-007   2.2259484545780868E-006   0.0000000000000000     
   6.7783295112094221E-007   2.2868620997226893E-006   0.0000000000000000     
   6.8641763431403929E-007   2.3484927896166485E-006   0.0000000000000000     
   6.9495627496637227E-007   2.4108367281051436E-006   0.0000000000000000     
   7.0344892134298314E-007   2.4738901190333553E-006   0.0000000000000000     
   7.1189562170891365E-007   2.5376491662464598E-006   0.0000000000000000     
   5.8907526123858657E-007   2.0450160409637143E-006   0.0000000000000000     
   5.9711402869249997E-007   2.1037696662183663E-006   0.0000000000000000     
   6.0511039542164797E-007   2.1632516152735633E-006   0.0000000000000000     
   6.1306440599341290E-007   2.2234581038894271E-006   0.0000000000000000     
   6.2097610497517770E-007   2.2843853478260790E-006   0.0000000000000000     
   6.2884553693432544E-007   2.3460295628436426E-006   0.0000000000000000     
   6.3667274643823886E-007   2.4083869647022397E-006   0.0000000000000000     
   6.4445777805430019E-007   2.4714537691619903E-006   0.0000000000000000     
   6.5220067634989289E-007   2.5352261919830191E-006   0.0000000000000000     
   5.3521449183602070E-007   2.0427042743801585E-006   0.0000000000000000     
   5.4252264231835772E-007   2.1014705908535974E-006   0.0000000000000000     
   5.4979223435850850E-007   2.1609651355408568E-006   0.0000000000000000     
   5.5702330803210761E-007   2.2211841340566541E-006   0.0000000000000000     
   5.6421590341478888E-007   2.2821238120157079E-006   0.0000000000000000     
   5.7137006058218731E-007   2.3437803950327345E-006   0.0000000000000000     
   5.7848581960993695E-007   2.4061501087224520E-006   0.0000000000000000     
   5.8556322057367238E-007   2.4692291786995795E-006   0.0000000000000000     
   5.9260230354902763E-007   2.5330138305788336E-006   0.0000000000000000     
   4.8144177139897049E-007   2.0406125547336563E-006   0.0000000000000000     
   4.8801925810580332E-007   2.0993903417725451E-006   0.0000000000000000     
   4.9456203418215689E-007   2.1588962787473385E-006   0.0000000000000000     
   5.0107013480789117E-007   2.2191265986886511E-006   0.0000000000000000     
   5.0754359516286598E-007   2.2800775346270941E-006   0.0000000000000000     
   5.1398245042694139E-007   2.3417453195932794E-006   0.0000000000000000     
   5.2038673577997714E-007   2.4041261866178215E-006   0.0000000000000000     
   5.2675648640183306E-007   2.4672163687313303E-006   0.0000000000000000     
   5.3309173747236912E-007   2.5310120989644191E-006   0.0000000000000000     
   4.2774835189403555E-007   2.0387409873199017E-006   0.0000000000000000     
   4.3359512963642284E-007   2.0975290036858240E-006   0.0000000000000000     
   4.3941104821188125E-007   2.1570451125008065E-006   0.0000000000000000     
   4.4519613789053281E-007   2.2172855513943012E-006   0.0000000000000000     
   4.5095042894249993E-007   2.2782465579957591E-006   0.0000000000000000     
   4.5667395163790471E-007   2.3399243699346348E-006   0.0000000000000000     
   4.6236673624686950E-007   2.4023152248403808E-006   0.0000000000000000     
   4.6802881303951655E-007   2.4654153603424490E-006   0.0000000000000000     
   4.7366021228596848E-007   2.5292210140702949E-006   0.0000000000000000     
   9.5181644540553511E-007   2.5494468532824119E-006   0.0000000000000000     
   9.6301714906042816E-007   2.6138429635342393E-006   0.0000000000000000     
   9.7415672641189822E-007   2.6789371965251576E-006   0.0000000000000000     
   9.8523518345760356E-007   2.7447257334639774E-006   0.0000000000000000     
   9.9625252619520260E-007   2.8112047555595058E-006   0.0000000000000000     
   1.0072087606223546E-006   2.8783704440205526E-006   0.0000000000000000     
   1.0181038927367177E-006   2.9462189800559276E-006   0.0000000000000000     
   1.0289379285359497E-006   3.0147465448744361E-006   0.0000000000000000     
   1.0397108740177104E-006   3.0839493196848902E-006   0.0000000000000000     
   8.9164755147440111E-007   2.5461815968871311E-006   0.0000000000000000     
   9.0214828237825000E-007   2.6105956095064195E-006   0.0000000000000000     
   9.1259169769237660E-007   2.6757077303200640E-006   0.0000000000000000     
   9.2297780399518139E-007   2.7415141412794483E-006   0.0000000000000000     
   9.3330660786506550E-007   2.8080110243359581E-006   0.0000000000000000     
   9.4357811588042963E-007   2.8751945614409756E-006   0.0000000000000000     
   9.5379233461967386E-007   2.9430609345458871E-006   0.0000000000000000     
   9.6394927066119942E-007   3.0116063256020753E-006   0.0000000000000000     
   9.7404893058340660E-007   3.0808269165609243E-006   0.0000000000000000     
   8.3161029343721890E-007   2.5431268856290328E-006   0.0000000000000000     
   8.4141105055467493E-007   2.6075576669370202E-006   0.0000000000000000     
   8.5115830152085923E-007   2.6726865385158129E-006   0.0000000000000000     
   8.6085205378450044E-007   2.7385096836115749E-006   0.0000000000000000     
   8.7049231479432636E-007   2.8050232854704678E-006   0.0000000000000000     
   8.8007909199906595E-007   2.8722235273386541E-006   0.0000000000000000     
   8.8961239284744744E-007   2.9401065924622977E-006   0.0000000000000000     
   8.9909222478819937E-007   3.0086686640875581E-006   0.0000000000000000     
   9.0851859527005027E-007   3.0779059254605996E-006   0.0000000000000000     
   7.7169590546003940E-007   2.5402827364386365E-006   0.0000000000000000     
   7.8079668518965390E-007   2.6047291494808852E-006   0.0000000000000000     
   7.8984776766697608E-007   2.6698736322184093E-006   0.0000000000000000     
   7.9884916138326993E-007   2.7357123696373989E-006   0.0000000000000000     
   8.0780087482979976E-007   2.8022415467240444E-006   0.0000000000000000     
   8.1670291649783106E-007   2.8694573484645379E-006   0.0000000000000000     
   8.2555529487862782E-007   2.9373559598450713E-006   0.0000000000000000     
   8.3435801846345490E-007   3.0059335658518339E-006   0.0000000000000000     
   8.4311109574357659E-007   3.0751863514710193E-006   0.0000000000000000     
   7.1189562170891365E-007   2.5376491662464598E-006   0.0000000000000000     
   7.2029641788313808E-007   2.6021100707928622E-006   0.0000000000000000     
   7.2865132590035615E-007   2.6672690225338560E-006   0.0000000000000000     
   7.3696035534920010E-007   2.7331222085339605E-006   0.0000000000000000     
   7.4522351581830163E-007   2.7996658158576944E-006   0.0000000000000000     
   7.5344081689629257E-007   2.8668960315695769E-006   0.0000000000000000     
   7.6161226817180493E-007   2.9348090427341237E-006   0.0000000000000000     
   7.6973787923347044E-007   3.0034010364158566E-006   0.0000000000000000     
   7.7781765966992142E-007   3.0726681996792931E-006   0.0000000000000000     
   6.5220067634989289E-007   2.5352261919830191E-006   0.0000000000000000     
   6.5990148023507758E-007   2.5997004445277924E-006   0.0000000000000000     
   6.6756020599062931E-007   2.6648727205681565E-006   0.0000000000000000     
   6.7517686424000112E-007   2.7307392094783040E-006   0.0000000000000000     
   6.8275146560664570E-007   2.7972961006324271E-006   0.0000000000000000     
   6.9028402071401694E-007   2.8645395834047195E-006   0.0000000000000000     
   6.9777454018556765E-007   2.9324658471693699E-006   0.0000000000000000     
   7.0522303464475010E-007   3.0010710813005747E-006   0.0000000000000000     
   7.1262951471501882E-007   3.0703514751725238E-006   0.0000000000000000     
   5.9260230354902763E-007   2.5330138305788336E-006   0.0000000000000000     
   5.9960310384542367E-007   2.5975002843405219E-006   0.0000000000000000     
   6.0656563770742499E-007   2.6626847374273137E-006   0.0000000000000000     
   6.1348991661338291E-007   2.7285633816474699E-006   0.0000000000000000     
   6.2037595204164811E-007   2.7951324088092502E-006   0.0000000000000000     
   6.2722375547057211E-007   2.8623880107209155E-006   0.0000000000000000     
   6.3403333837850525E-007   2.9303263791907262E-006   0.0000000000000000     
   6.4080471224379907E-007   2.9989437060269392E-006   0.0000000000000000     
   6.4753788854480423E-007   3.0682361830378177E-006   0.0000000000000000     
   5.3309173747236912E-007   2.5310120989644191E-006   0.0000000000000000     
   5.3939252031412677E-007   2.5955096038858933E-006   0.0000000000000000     
   5.4565885082037284E-007   2.6607050842173309E-006   0.0000000000000000     
   5.5189074102705554E-007   2.7265947342185002E-006   0.0000000000000000     
   5.5808820297012354E-007   2.7931747481491728E-006   0.0000000000000000     
   5.6425124868552474E-007   2.8604413202691161E-006   0.0000000000000000     
   5.7037989020920801E-007   2.9283906448381037E-006   0.0000000000000000     
   5.7647413957712146E-007   2.9970189161159023E-006   0.0000000000000000     
   5.8253400882521311E-007   3.0663223283622831E-006   0.0000000000000000     
   4.7366021228596848E-007   2.5292210140702949E-006   0.0000000000000000     
   4.7926096124113785E-007   2.5937284168187539E-006   0.0000000000000000     
   4.8483107509910208E-007   2.6589337720442115E-006   0.0000000000000000     
   4.9037056603872895E-007   2.7248332763684366E-006   0.0000000000000000     
   4.9587944623888645E-007   2.7914231264131999E-006   0.0000000000000000     
   5.0135772787844246E-007   2.8586995188002708E-006   0.0000000000000000     
   5.0680542313626499E-007   2.9266586501514190E-006   0.0000000000000000     
   5.1222254419122137E-007   2.9952967170884122E-006   0.0000000000000000     
   5.1760910322218057E-007   3.0646099162330241E-006   0.0000000000000000     
   1.0397108740177104E-006   3.0839493196848902E-006   0.0000000000000000     
   1.0504227350940132E-006   3.1538234864184017E-006   0.0000000000000000     
   1.0610735173342956E-006   3.2243652298953032E-006   0.0000000000000000     
   1.0716632262223507E-006   3.2955707356582357E-006   0.0000000000000000     
   1.0821918672419713E-006   3.3674361892498387E-006   0.0000000000000000     
   1.0926594458769502E-006   3.4399577762127487E-006   0.0000000000000000     
   1.1030659676110813E-006   3.5131316820896049E-006   0.0000000000000000     
   1.1134114379281559E-006   3.5869540924230473E-006   0.0000000000000000     
   1.1236958623119690E-006   3.6614211927557131E-006   0.0000000000000000     
   9.7404893058340660E-007   3.0808269165609243E-006   0.0000000000000000     
   9.8409132075551643E-007   3.1507188900982798E-006   0.0000000000000000     
   9.9407644671003219E-007   3.2212784317878298E-006   0.0000000000000000     
   1.0040043137702764E-006   3.2925017279277254E-006   0.0000000000000000     
   1.0138749272595723E-006   3.3643849648161180E-006   0.0000000000000000     
   1.0236882925012431E-006   3.4369243287511550E-006   0.0000000000000000     
   1.0334444148186117E-006   3.5101160060309890E-006   0.0000000000000000     
   1.0431432995350017E-006   3.5839561829537701E-006   0.0000000000000000     
   1.0527849519737356E-006   3.6584410458176461E-006   0.0000000000000000     
   9.0851859527005027E-007   3.0779059254605996E-006   0.0000000000000000     
   9.1789151134716699E-007   3.1478145604508842E-006   0.0000000000000000     
   9.2721097849547055E-007   3.2183907554210774E-006   0.0000000000000000     
   9.3647700179632125E-007   3.2896306973571448E-006   0.0000000000000000     
   9.4568958633107874E-007   3.3615305732450532E-006   0.0000000000000000     
   9.5484873718110330E-007   3.4340865700707676E-006   0.0000000000000000     
   9.6395445942775447E-007   3.5072948748202537E-006   0.0000000000000000     
   9.7300675815239244E-007   3.5811516744794773E-006   0.0000000000000000     
   9.8200563843637676E-007   3.6556531560344047E-006   0.0000000000000000     
   8.4311109574357659E-007   3.0751863514710193E-006   0.0000000000000000     
   8.5181453459052822E-007   3.1451105021268707E-006   0.0000000000000000     
   8.6046834039692662E-007   3.2157022049958413E-006   0.0000000000000000     
   8.6907251793565939E-007   3.2869576476924387E-006   0.0000000000000000     
   8.7762707197961427E-007   3.3588730178311727E-006   0.0000000000000000     
   8.8613200730167834E-007   3.4314445030265461E-006   0.0000000000000000     
   8.9458732867473889E-007   3.5046682908930684E-006   0.0000000000000000     
   9.0299304087168460E-007   3.5785405690452487E-006   0.0000000000000000     
   9.1134914866540182E-007   3.6530575250975903E-006   0.0000000000000000     
   7.7781765966992142E-007   3.0726681996792931E-006   0.0000000000000000     
   7.8585161820716542E-007   3.1426067197768970E-006   0.0000000000000000     
   7.9383976012071675E-007   3.2132127847129195E-006   0.0000000000000000     
   8.0178208982346535E-007   3.2844825826795557E-006   0.0000000000000000     
   8.0967861172830124E-007   3.3564123018690027E-006   0.0000000000000000     
   8.1752933024811479E-007   3.4289981304734557E-006   0.0000000000000000     
   8.2533424979579571E-007   3.5022362566851094E-006   0.0000000000000000     
   8.3309337478423489E-007   3.5761228686961636E-006   0.0000000000000000     
   8.4080670962632173E-007   3.6506541546988106E-006   0.0000000000000000     
   7.1262951471501882E-007   3.0703514751725238E-006   0.0000000000000000     
   7.1999398991864206E-007   3.1403032180516193E-006   0.0000000000000000     
   7.2731646537315625E-007   3.2109224987731070E-006   0.0000000000000000     
   7.3459694509491243E-007   3.2822055060644401E-006   0.0000000000000000     
   7.4183543310026311E-007   3.3541484286530714E-006   0.0000000000000000     
   7.4903193340555996E-007   3.4267474552664550E-006   0.0000000000000000     
   7.5618645002715475E-007   3.4999987746320470E-006   0.0000000000000000     
   7.6329898698139957E-007   3.5738985754772999E-006   0.0000000000000000     
   7.7036954828464599E-007   3.6484430465296689E-006   0.0000000000000000     
   6.4753788854480423E-007   3.0682361830378177E-006   0.0000000000000000     
   6.5423287744652322E-007   3.1382000016016951E-006   0.0000000000000000     
   6.6088968386056117E-007   3.2088313513772007E-006   0.0000000000000000     
   6.6750831138517536E-007   3.2801264215930355E-006   0.0000000000000000     
   6.7408876361862314E-007   3.3520814014779047E-006   0.0000000000000000     
   6.8063104415916104E-007   3.4246924802605086E-006   0.0000000000000000     
   6.8713515660504591E-007   3.4979558471695525E-006   0.0000000000000000     
   6.9360110455453489E-007   3.5718676914337387E-006   0.0000000000000000     
   7.0002889160588484E-007   3.6464242022817675E-006   0.0000000000000000     
   5.8253400882521311E-007   3.0663223283622831E-006   0.0000000000000000     
   5.8855950851237228E-007   3.1362970750777826E-006   0.0000000000000000     
   5.9455064328924755E-007   3.2069393467259978E-006   0.0000000000000000     
   6.0050741632942828E-007   3.2782453330112916E-006   0.0000000000000000     
   6.0642983080650457E-007   3.3502112236380325E-006   0.0000000000000000     
   6.1231788989406502E-007   3.4228332083105806E-006   0.0000000000000000     
   6.1817159676569942E-007   3.4961074767333000E-006   0.0000000000000000     
   6.2399095459499764E-007   3.5700302186105581E-006   0.0000000000000000     
   6.2977596655554800E-007   3.6445976236467149E-006   0.0000000000000000     
   5.1760910322218057E-007   3.0646099162330241E-006   0.0000000000000000     
   5.2296511083775389E-007   3.1345944431305357E-006   0.0000000000000000     
   5.2829057136553091E-007   3.2052464890202930E-006   0.0000000000000000     
   5.3358548756284507E-007   3.2765622440651546E-006   0.0000000000000000     
   5.3884986218703002E-007   3.3485378984279802E-006   0.0000000000000000     
   5.4408369799541899E-007   3.4211696422716301E-006   0.0000000000000000     
   5.4928699774534561E-007   3.4944536657589624E-006   0.0000000000000000     
   5.5445976419414355E-007   3.5683861590528365E-006   0.0000000000000000     
   5.5960200009914612E-007   3.6429633123161131E-006   0.0000000000000000     
   1.1236958623119690E-006   3.6614211927557131E-006   0.0000000000000000     
   1.1339192454173766E-006   3.7365291685288345E-006   0.0000000000000000     
   1.1440815885834965E-006   3.8122742047780166E-006   0.0000000000000000     
   1.1541828923205091E-006   3.8886524864374522E-006   0.0000000000000000     
   1.1642231571385969E-006   3.9656601984413404E-006   0.0000000000000000     
   1.1742023835479403E-006   4.0432935257238761E-006   0.0000000000000000     
   1.1841205720587209E-006   4.1215486532192566E-006   0.0000000000000000     
   1.1939777231811203E-006   4.2004217658616745E-006   0.0000000000000000     
   1.2037738374253197E-006   4.2799090485853295E-006   0.0000000000000000     
   1.0527849519737356E-006   3.6584410458176461E-006   0.0000000000000000     
   1.0623693766831351E-006   3.7335667807426377E-006   0.0000000000000000     
   1.0718965751115164E-006   3.8093295731362250E-006   0.0000000000000000     
   1.0813665479321935E-006   3.8857256082277651E-006   0.0000000000000000     
   1.0907792958184805E-006   3.9627510712466057E-006   0.0000000000000000     
   1.1001348194436920E-006   4.0404021474220991E-006   0.0000000000000000     
   1.1094331194811425E-006   4.1186750219835992E-006   0.0000000000000000     
   1.1186741966041460E-006   4.1975658801604545E-006   0.0000000000000000     
   1.1278580514860171E-006   4.2770709071820203E-006   0.0000000000000000     
   9.8200563843637676E-007   3.6556531560344047E-006   0.0000000000000000     
   9.9095110465217534E-007   3.7307955062275858E-006   0.0000000000000000     
   9.9984315833668861E-007   3.8065749108279086E-006   0.0000000000000000     
   1.0086818003179258E-006   3.8829875553608477E-006   0.0000000000000000     
   1.0174670314238950E-006   3.9600296253518765E-006   0.0000000000000000     
   1.0261988524826052E-006   4.0376973063264707E-006   0.0000000000000000     
   1.0348772643220641E-006   4.1159867838100999E-006   0.0000000000000000     
   1.0435022677702811E-006   4.1948942433282395E-006   0.0000000000000000     
   1.0520738636552643E-006   4.2744158704063618E-006   0.0000000000000000     
   9.1134914866540182E-007   3.6530575250975903E-006   0.0000000000000000     
   9.1965565619475917E-007   3.7282153463653682E-006   0.0000000000000000     
   9.2791256506254585E-007   3.8040102189669067E-006   0.0000000000000000     
   9.3611987623753135E-007   3.8804383287212988E-006   0.0000000000000000     
   9.4427759068848704E-007   3.9574958614476391E-006   0.0000000000000000     
   9.5238570938418145E-007   4.0351790029650134E-006   0.0000000000000000     
   9.6044423329338468E-007   4.1134839390925180E-006   0.0000000000000000     
   9.6845316338486801E-007   4.1924068556492455E-006   0.0000000000000000     
   9.7641250062739975E-007   4.2719439384542837E-006   0.0000000000000000     
   8.4080670962632173E-007   3.6506541546988106E-006   0.0000000000000000     
   8.4847425818114913E-007   3.7258263025376739E-006   0.0000000000000000     
   8.5609602209261862E-007   3.8016354986670609E-006   0.0000000000000000     
   8.6367200245083462E-007   3.8780779291937140E-006   0.0000000000000000     
   8.7120220034590153E-007   3.9551497802243682E-006   0.0000000000000000     
   8.7868661686792353E-007   4.0328472378657582E-006   0.0000000000000000     
   8.8612525310700418E-007   4.1111664882246222E-006   0.0000000000000000     
   8.9351811015324885E-007   4.1901037174076970E-006   0.0000000000000000     
   9.0086518909676108E-007   4.2696551115217201E-006   0.0000000000000000     
   7.7036954828464599E-007   3.6484430465296689E-006   0.0000000000000000     
   7.7739813748160724E-007   3.7236283761261874E-006   0.0000000000000000     
   7.8438475623043916E-007   3.7994507510422140E-006   0.0000000000000000     
   7.9132940571765946E-007   3.8759063576626886E-006   0.0000000000000000     
   7.9823208712978490E-007   3.9529913823725458E-006   0.0000000000000000     
   8.0509280165333310E-007   4.0307020115567268E-006   0.0000000000000000     
   8.1191155047482135E-007   4.1090344316001712E-006   0.0000000000000000     
   8.1868833478076673E-007   4.1879848288878150E-006   0.0000000000000000     
   8.2542315575768622E-007   4.2675493898045963E-006   0.0000000000000000     
   7.0002889160588484E-007   3.6464242022817675E-006   0.0000000000000000     
   7.0641852096639564E-007   3.7216215685126002E-006   0.0000000000000000     
   7.1276999427953916E-007   3.7974559772062071E-006   0.0000000000000000     
   7.1908331279782970E-007   3.8739236150128149E-006   0.0000000000000000     
   7.2535847777378293E-007   3.9510206685826536E-006   0.0000000000000000     
   7.3159549045991301E-007   4.0287433245659477E-006   0.0000000000000000     
   7.3779435210873489E-007   4.1070877696129258E-006   0.0000000000000000     
   7.4395506397276370E-007   4.1860501903738172E-006   0.0000000000000000     
   7.5007762730451329E-007   4.2656267734988464E-006   0.0000000000000000     
   6.2977596655554800E-007   3.6445976236467149E-006   0.0000000000000000     
   6.3552663550577666E-007   3.7198058810785996E-006   0.0000000000000000     
   6.4124296304344992E-007   3.7956511782728802E-006   0.0000000000000000     
   6.4692495045117070E-007   3.8721297021286924E-006   0.0000000000000000     
   6.5257259901154181E-007   3.9492376395451725E-006   0.0000000000000000     
   6.5818591000716551E-007   4.0269711774214468E-006   0.0000000000000000     
   6.6376488472064472E-007   4.1053265026566548E-006   0.0000000000000000     
   6.6930952443458266E-007   4.1842998021499289E-006   0.0000000000000000     
   6.7481983043158057E-007   4.2638872628003992E-006   0.0000000000000000     
   5.5960200009914612E-007   3.6429633123161131E-006   0.0000000000000000     
   5.6471370797001232E-007   3.7181813152058708E-006   0.0000000000000000     
   5.6979488932570335E-007   3.7940363553560773E-006   0.0000000000000000     
   5.7484554543750589E-007   3.8705246198949184E-006   0.0000000000000000     
   5.7986567757670678E-007   3.9476422959505809E-006   0.0000000000000000     
   5.8485528701459249E-007   4.0253855706512502E-006   0.0000000000000000     
   5.8981437502244987E-007   4.1037506311251175E-006   0.0000000000000000     
   5.9474294287156558E-007   4.1827336645003677E-006   0.0000000000000000     
   5.9964099183322608E-007   4.2623308579051854E-006   0.0000000000000000     
   1.2037738374253197E-006   4.2799090485853295E-006   0.0000000000000000     
   1.2135089152885466E-006   4.3600066863419257E-006   0.0000000000000000     
   1.2231829572162125E-006   4.4407108641532013E-006   0.0000000000000000     
   1.2327959636407759E-006   4.5220177670584036E-006   0.0000000000000000     
   1.2423479349946945E-006   4.6039235800967842E-006   0.0000000000000000     
   1.2518388717104261E-006   4.6864244883075861E-006   0.0000000000000000     
   1.2612687742204292E-006   4.7695166767300591E-006   0.0000000000000000     
   1.2706376429571607E-006   4.8531963304034524E-006   0.0000000000000000     
   1.2799454783530796E-006   4.9374596343670105E-006   0.0000000000000000     
   1.1278580514860171E-006   4.2770709071820203E-006   0.0000000000000000     
   1.1369846847543798E-006   4.3571862882585828E-006   0.0000000000000000     
   1.1460540968541000E-006   4.4379082085241868E-006   0.0000000000000000     
   1.1550662881843523E-006   4.5192328530938092E-006   0.0000000000000000     
   1.1640212591443127E-006   4.6011564070824324E-006   0.0000000000000000     
   1.1729190101331567E-006   4.6836750556050360E-006   0.0000000000000000     
   1.1817595415500587E-006   4.7667849837766023E-006   0.0000000000000000     
   1.1905428537941952E-006   4.8504823767121065E-006   0.0000000000000000     
   1.1992689472647408E-006   4.9347634195265311E-006   0.0000000000000000     
   1.0520738636552643E-006   4.2744158704063618E-006   0.0000000000000000     
   1.0605920527271020E-006   4.3545478505157797E-006   0.0000000000000000     
   1.0690568354241988E-006   4.4352863689111620E-006   0.0000000000000000     
   1.0774682121070393E-006   4.5166276107930118E-006   0.0000000000000000     
   1.0858261831361077E-006   4.5985677613618370E-006   0.0000000000000000     
   1.0941307488718889E-006   4.6811030058181438E-006   0.0000000000000000     
   1.1023819096748662E-006   4.7642295293624377E-006   0.0000000000000000     
   1.1105796659055248E-006   4.8479435171952233E-006   0.0000000000000000     
   1.1187240179243494E-006   4.9322411545170086E-006   0.0000000000000000     
   9.7641250062739975E-007   4.2719439384542837E-006   0.0000000000000000     
   9.8432224588130788E-007   4.3520913732390947E-006   0.0000000000000000     
   9.9218239957314823E-007   4.4328453453846044E-006   0.0000000000000000     
   9.9999296202103420E-007   4.5142020401841074E-006   0.0000000000000000     
   1.0077539335430794E-006   4.5961576429309024E-006   0.0000000000000000     
   1.0154653144573968E-006   4.6787083389182804E-006   0.0000000000000000     
   1.0231271050820995E-006   4.7618503134395370E-006   0.0000000000000000     
   1.0307393057353018E-006   4.8455797517879682E-006   0.0000000000000000     
   1.0383019167351158E-006   4.9298928392568670E-006   0.0000000000000000     
   9.0086518909676108E-007   4.2696551115217201E-006   0.0000000000000000     
   9.0816649089159274E-007   4.3498168565541057E-006   0.0000000000000000     
   9.1542201594758738E-007   4.4305851380149921E-006   0.0000000000000000     
   9.2263176453853528E-007   4.5119561412951954E-006   0.0000000000000000     
   9.2979573693822723E-007   4.5939260517855307E-006   0.0000000000000000     
   9.3691393342045436E-007   4.6764910548768155E-006   0.0000000000000000     
   9.4398635425900704E-007   4.7596473359598658E-006   0.0000000000000000     
   9.5101299972767660E-007   4.8433910804255010E-006   0.0000000000000000     
   9.5799387010025331E-007   4.9277184736645311E-006   0.0000000000000000     
   8.2542315575768622E-007   4.2675493898045963E-006   0.0000000000000000     
   8.3211601443255221E-007   4.3477243005863903E-006   0.0000000000000000     
   8.3876691119415494E-007   4.4285057468727983E-006   0.0000000000000000     
   8.4537584627173953E-007   4.5098899141543661E-006   0.0000000000000000     
   8.5194281989455134E-007   4.5918729879216282E-006   0.0000000000000000     
   8.5846783229183504E-007   4.6744511536651250E-006   0.0000000000000000     
   8.6495088369283642E-007   4.7576205968753956E-006   0.0000000000000000     
   8.7139197432680038E-007   4.8413775030429820E-006   0.0000000000000000     
   8.7779110442297184E-007   4.9257180576584223E-006   0.0000000000000000     
   7.5007762730451329E-007   4.2656267734988464E-006   0.0000000000000000     
   7.5616204317878146E-007   4.3458137054615254E-006   0.0000000000000000     
   7.6220831195948997E-007   4.4266071720285046E-006   0.0000000000000000     
   7.6821643383284494E-007   4.5080033587897163E-006   0.0000000000000000     
   7.7418640898505100E-007   4.5899984513350969E-006   0.0000000000000000     
   7.8011823760231278E-007   4.6725886352545761E-006   0.0000000000000000     
   7.8601191987083564E-007   4.7557700961380912E-006   0.0000000000000000     
   7.9186745597682464E-007   4.8395390195755769E-006   0.0000000000000000     
   7.9768484610648399E-007   4.9238915911569612E-006   0.0000000000000000     
   6.7481983043158057E-007   4.2638872628003992E-006   0.0000000000000000     
   6.8029580380487547E-007   4.3440850713050913E-006   0.0000000000000000     
   6.8573744489023199E-007   4.4248894135525808E-006   0.0000000000000000     
   6.9114475383404938E-007   4.5062964752293422E-006   0.0000000000000000     
   6.9651773078272659E-007   4.5883024420218415E-006   0.0000000000000000     
   7.0185637588266132E-007   4.6709034996165440E-006   0.0000000000000000     
   7.0716068928025313E-007   4.7540958336999215E-006   0.0000000000000000     
   7.1243067112190025E-007   4.8378756299584443E-006   0.0000000000000000     
   7.1766632155400109E-007   4.9222390740785743E-006   0.0000000000000000     
   5.9964099183322608E-007   4.2623308579051854E-006   0.0000000000000000     
   6.0450852298542954E-007   4.3425383982426632E-006   0.0000000000000000     
   6.0934553663301953E-007   4.4233524715155110E-006   0.0000000000000000     
   6.1415203288755039E-007   4.5047692635013406E-006   0.0000000000000000     
   6.1892801186057720E-007   4.5867849599777666E-006   0.0000000000000000     
   6.2367347366365420E-007   4.6693957467223998E-006   0.0000000000000000     
   6.2838841840833638E-007   4.7525978095128565E-006   0.0000000000000000     
   6.3307284620617840E-007   4.8363873341267458E-006   0.0000000000000000     
   6.3772675716873481E-007   4.9207605063416855E-006   0.0000000000000000     
   1.2799454783530796E-006   4.9374596343670105E-006   0.0000000000000000     
   1.2891922807418338E-006   5.0223027736891688E-006   0.0000000000000000     
   1.2983780500618354E-006   5.1077219335551031E-006   0.0000000000000000     
   1.3075027861526871E-006   5.1937132991791737E-006   0.0000000000000000     
   1.3165664888539922E-006   5.2802730557757385E-006   0.0000000000000000     
   1.3255691580053528E-006   5.3673973885591636E-006   0.0000000000000000     
   1.3345107934463719E-006   5.4550824827438070E-006   0.0000000000000000     
   1.3433913950166524E-006   5.5433245235440298E-006   0.0000000000000000     
   1.3522109625557960E-006   5.6321196961741950E-006   0.0000000000000000     
   1.1992689472647408E-006   4.9347634195265311E-006   0.0000000000000000     
   1.2079378222737345E-006   5.0196242973601513E-006   0.0000000000000000     
   1.2165494787846672E-006   5.1050611954544209E-006   0.0000000000000000     
   1.2251039166738932E-006   5.1910702990760857E-006   0.0000000000000000     
   1.2336011358177668E-006   5.2776477934919010E-006   0.0000000000000000     
   1.2420411360926418E-006   5.3647898639686102E-006   0.0000000000000000     
   1.2504239173748739E-006   5.4524926957729652E-006   0.0000000000000000     
   1.2587494795408156E-006   5.5407524741717128E-006   0.0000000000000000     
   1.2670178224668225E-006   5.6295653844316040E-006   0.0000000000000000     
   1.1187240179243494E-006   4.9322411545170086E-006   0.0000000000000000     
   1.1268149660165953E-006   5.0171186265464424E-006   0.0000000000000000     
   1.1348525101666080E-006   5.1025721185747431E-006   0.0000000000000000     
   1.1428366502835052E-006   5.1885978159112795E-006   0.0000000000000000     
   1.1507673862764031E-006   5.2751919038654151E-006   0.0000000000000000     
   1.1586447180544200E-006   5.3623505677465126E-006   0.0000000000000000     
   1.1664686455266718E-006   5.4500699928639398E-006   0.0000000000000000     
   1.1742391686022765E-006   5.5383463645270629E-006   0.0000000000000000     
   1.1819562871903508E-006   5.6271758680452411E-006   0.0000000000000000     
   1.0383019167351158E-006   4.9298928392568670E-006   0.0000000000000000     
   1.0458149383362894E-006   5.0147857611479099E-006   0.0000000000000000     
   1.0532783705401004E-006   5.1002547027962791E-006   0.0000000000000000     
   1.0606922132844617E-006   5.1862958495455386E-006   0.0000000000000000     
   1.0680564665072870E-006   5.2729053867392537E-006   0.0000000000000000     
   1.0753711301464878E-006   5.3600794997209826E-006   0.0000000000000000     
   1.0826362041399759E-006   5.4478143738342920E-006   0.0000000000000000     
   1.0898516884256648E-006   5.5361061944227461E-006   0.0000000000000000     
   1.0970175829414666E-006   5.6249511468299042E-006   0.0000000000000000     
   9.5799387010025331E-007   4.9277184736645311E-006   0.0000000000000000     
   9.6492896559868967E-007   5.0126257010644254E-006   0.0000000000000000     
   9.7181828623758534E-007   5.0981089479992311E-006   0.0000000000000000     
   9.7866183197970242E-007   5.1841643998396515E-006   0.0000000000000000     
   9.8545960278780197E-007   5.2707882419563828E-006   0.0000000000000000     
   9.9221159862464565E-007   5.3579766597201232E-006   0.0000000000000000     
   9.9891781945299473E-007   5.4457258385015715E-006   0.0000000000000000     
   1.0055782652356107E-006   5.5340319636714285E-006   0.0000000000000000     
   1.0121929359352556E-006   5.6228912206003921E-006   0.0000000000000000     
   8.7779110442297184E-007   4.9257180576584223E-006   0.0000000000000000     
   8.8414827416966962E-007   5.0106384461958542E-006   0.0000000000000000     
   8.9046348359150553E-007   5.0961348540638043E-006   0.0000000000000000     
   8.9673673267216509E-007   5.1822034666544013E-006   0.0000000000000000     
   9.0296802139533337E-007   5.2688404693597701E-006   0.0000000000000000     
   9.0915734974469558E-007   5.3560420475720393E-006   0.0000000000000000     
   9.1530471770393786E-007   5.4438043866833310E-006   0.0000000000000000     
   9.2141012525674455E-007   5.5321236720857767E-006   0.0000000000000000     
   9.2747357238680148E-007   5.6209960891714977E-006   0.0000000000000000     
   7.9768484610648399E-007   4.9238915911569612E-006   0.0000000000000000     
   8.0346409041510277E-007   5.0088239964420644E-006   0.0000000000000000     
   8.0920518893430243E-007   5.0943324208702001E-006   0.0000000000000000     
   8.1490814166478800E-007   5.1804130498505733E-006   0.0000000000000000     
   8.2057294860726518E-007   5.2670620687923866E-006   0.0000000000000000     
   8.2619960976243890E-007   5.3542756631048373E-006   0.0000000000000000     
   8.3178812513101380E-007   5.4420500181971237E-006   0.0000000000000000     
   8.3733849471369630E-007   5.5303813194784526E-006   0.0000000000000000     
   8.4285071851118985E-007   5.6192657523580180E-006   0.0000000000000000     
   7.1766632155400109E-007   4.9222390740785743E-006   0.0000000000000000     
   7.2286764070086230E-007   5.0071823517029248E-006   0.0000000000000000     
   7.2803462859841797E-007   5.0927016482986253E-006   0.0000000000000000     
   7.3316728526051043E-007   5.1787931492889576E-006   0.0000000000000000     
   7.3826561070098283E-007   5.2654530400972010E-006   0.0000000000000000     
   7.4332960493367591E-007   5.3526775061466230E-006   0.0000000000000000     
   7.4835926797243284E-007   5.4404627328605056E-006   0.0000000000000000     
   7.5335459983109572E-007   5.5288049056621255E-006   0.0000000000000000     
   7.5831560052350633E-007   5.6177002099747509E-006   0.0000000000000000     
   6.3772675716873481E-007   4.9207605063416855E-006   0.0000000000000000     
   6.4235015139282105E-007   5.0057135118783001E-006   0.0000000000000000     
   6.4694302891629390E-007   5.0912425362292823E-006   0.0000000000000000     
   6.5150538976227088E-007   5.1773437648303374E-006   0.0000000000000000     
   6.5603723395386997E-007   5.2640133831171776E-006   0.0000000000000000     
   6.6053856151420827E-007   5.3512475765255046E-006   0.0000000000000000     
   6.6500937246640365E-007   5.4390425304910299E-006   0.0000000000000000     
   6.6944966683357344E-007   5.5273944304494561E-006   0.0000000000000000     
   6.7385944463883550E-007   5.6162994618364937E-006   0.0000000000000000     
   1.3522109625557960E-006   5.6321196961741950E-006   0.0000000000000000     
   1.3609694959237673E-006   5.7214641858490940E-006   0.0000000000000000     
   1.3696669950619730E-006   5.8113541777852623E-006   0.0000000000000000     
   1.3783034599321815E-006   5.9017858571996675E-006   0.0000000000000000     
   1.3868788904961619E-006   5.9927554093092771E-006   0.0000000000000000     
   1.3953932867156823E-006   6.0842590193310586E-006   0.0000000000000000     
   1.4038466485525107E-006   6.1762928724819787E-006   0.0000000000000000     
   1.4122389759684156E-006   6.2688531539790075E-006   0.0000000000000000     
   1.4205702689251647E-006   6.3619360490391090E-006   0.0000000000000000     
   1.2670178224668225E-006   5.6295653844316040E-006   0.0000000000000000     
   1.2752289460404734E-006   5.7189276118083903E-006   0.0000000000000000     
   1.2833828501942525E-006   5.8088353415138538E-006   0.0000000000000000     
   1.2914795348718677E-006   5.8992847587487741E-006   0.0000000000000000     
   1.2995190000170293E-006   5.9902720487139373E-006   0.0000000000000000     
   1.3075012455734448E-006   6.0817933966101281E-006   0.0000000000000000     
   1.3154262714848246E-006   6.1738449876381291E-006   0.0000000000000000     
   1.3232940776948759E-006   6.2664230069987243E-006   0.0000000000000000     
   1.3311046641473086E-006   6.3595236398926971E-006   0.0000000000000000     
   1.1819562871903508E-006   5.6271758680452411E-006   0.0000000000000000     
   1.1896200012038078E-006   5.7165546887089102E-006   0.0000000000000000     
   1.1972303105707427E-006   5.8064790117327729E-006   0.0000000000000000     
   1.2047872152230468E-006   5.8969450223125995E-006   0.0000000000000000     
   1.2122907150926113E-006   5.9879489056441615E-006   0.0000000000000000     
   1.2197408101113278E-006   6.0794868469232303E-006   0.0000000000000000     
   1.2271375002110869E-006   6.1715550313455763E-006   0.0000000000000000     
   1.2344807853237807E-006   6.2641496441069726E-006   0.0000000000000000     
   1.2417706653812990E-006   6.3572668704031864E-006   0.0000000000000000     
   1.0970175829414666E-006   5.6249511468299042E-006   0.0000000000000000     
   1.1041338876232135E-006   5.7143454163753729E-006   0.0000000000000000     
   1.1112006023984129E-006   5.8042851882829062E-006   0.0000000000000000     
   1.1182177271924916E-006   5.8947666477523056E-006   0.0000000000000000     
   1.1251852619308776E-006   5.9857859799833701E-006   0.0000000000000000     
   1.1321032065389973E-006   6.0773393701758954E-006   0.0000000000000000     
   1.1389715609422784E-006   6.1694230035296788E-006   0.0000000000000000     
   1.1457903250661478E-006   6.2620330652445227E-006   0.0000000000000000     
   1.1525594988360323E-006   6.3551657405202192E-006   0.0000000000000000     
   1.0121929359352556E-006   5.6228912206003921E-006   0.0000000000000000     
   1.0187618315081347E-006   5.7122997946324992E-006   0.0000000000000000     
   1.0252849518842320E-006   5.8022538710051461E-006   0.0000000000000000     
   1.0317622969869770E-006   5.8927496349290653E-006   0.0000000000000000     
   1.0381938667397976E-006   5.9837832716149910E-006   0.0000000000000000     
   1.0445796610661217E-006   6.0753509662736565E-006   0.0000000000000000     
   1.0509196798893783E-006   6.1674489041157961E-006   0.0000000000000000     
   1.0572139231329969E-006   6.2600732703521440E-006   0.0000000000000000     
   1.0634623907204043E-006   6.3532202501934344E-006   0.0000000000000000     
   9.2747357238680148E-007   5.6209960891714977E-006   0.0000000000000000     
   9.3349505906801432E-007   5.7104178233050102E-006   0.0000000000000000     
   9.3947458523517001E-007   5.8003850597403742E-006   0.0000000000000000     
   9.4541215081327552E-007   5.8908939837040374E-006   0.0000000000000000     
   9.5130775572733890E-007   5.9819407804224445E-006   0.0000000000000000     
   9.5716139990236683E-007   6.0735216351220441E-006   0.0000000000000000     
   9.6297308326336648E-007   6.1656327330292853E-006   0.0000000000000000     
   9.6874280573534603E-007   6.2582702593706121E-006   0.0000000000000000     
   9.7447056724331192E-007   6.3514303993724740E-006   0.0000000000000000     
   8.4285071851118985E-007   5.6192657523580180E-006   0.0000000000000000     
   8.4832479651229606E-007   5.7086995022176250E-006   0.0000000000000000     
   8.5376072865819514E-007   5.7986787543294787E-006   0.0000000000000000     
   8.5915851487816155E-007   5.8891996939383854E-006   0.0000000000000000     
   8.6451815510147142E-007   5.9802585062891544E-006   0.0000000000000000     
   8.6983964925740014E-007   6.0718513766265927E-006   0.0000000000000000     
   8.7512299727522248E-007   6.1639744901955013E-006   0.0000000000000000     
   8.8036819908421405E-007   6.2566240322406949E-006   0.0000000000000000     
   8.8557525461365044E-007   6.3497961880069786E-006   0.0000000000000000     
   7.5831560052350633E-007   5.6177002099747509E-006   0.0000000000000000     
   7.6324227005042427E-007   5.7071448311950671E-006   0.0000000000000000     
   7.6813460836027686E-007   5.7971349546133496E-006   0.0000000000000000     
   7.7299261538840881E-007   5.8876667654932807E-006   0.0000000000000000     
   7.7781629107016472E-007   5.9787364490985485E-006   0.0000000000000000     
   7.8260563534088866E-007   6.0703401906928294E-006   0.0000000000000000     
   7.8736064813592565E-007   6.1624741755398089E-006   0.0000000000000000     
   7.9208132939062029E-007   6.2551345889031694E-006   0.0000000000000000     
   7.9676767904031687E-007   6.3483176160465896E-006   0.0000000000000000     
   6.7385944463883550E-007   5.6162994618364937E-006   0.0000000000000000     
   6.7823870589184187E-007   5.7057538100620524E-006   0.0000000000000000     
   6.8258745054838463E-007   5.7957536604328699E-006   0.0000000000000000     
   6.8690567855079058E-007   5.8862951982298877E-006   0.0000000000000000     
   6.9119338984138683E-007   5.9773746087340472E-006   0.0000000000000000     
   6.9545058436249955E-007   6.0689880772262913E-006   0.0000000000000000     
   6.9967726205645596E-007   6.1611317889875624E-006   0.0000000000000000     
   7.0387342286558296E-007   6.2538019292988000E-006   0.0000000000000000     
   7.0803906673220681E-007   6.3469946834409466E-006   0.0000000000000000     
   1.4205702689251647E-006   6.3619360490391090E-006   0.0000000000000000     
   1.4288405273866753E-006   6.4555377429025121E-006   0.0000000000000000     
   1.4370497513254567E-006   6.5496544209024844E-006   0.0000000000000000     
   1.4451979407161656E-006   6.6442822683955531E-006   0.0000000000000000     
   1.4532850955334598E-006   6.7394174707382445E-006   0.0000000000000000     
   1.4613112157519967E-006   6.8350562132870843E-006   0.0000000000000000     
   1.4692763013464335E-006   6.9311946813986005E-006   0.0000000000000000     
   1.4771803522914275E-006   7.0278290604293210E-006   0.0000000000000000     
   1.4850233685616367E-006   7.1249555357357715E-006   0.0000000000000000     
   1.3311046641473086E-006   6.3595236398926971E-006   0.0000000000000000     
   1.3388580307927587E-006   6.4531430715495450E-006   0.0000000000000000     
   1.3465541776095720E-006   6.5472774873136200E-006   0.0000000000000000     
   1.3541931045830207E-006   6.6419230725579835E-006   0.0000000000000000     
   1.3617748116983781E-006   6.7370760126557078E-006   0.0000000000000000     
   1.3692992989409159E-006   6.8327324929798498E-006   0.0000000000000000     
   1.3767665662959077E-006   6.9288886989034785E-006   0.0000000000000000     
   1.3841766137486263E-006   7.0255408157996578E-006   0.0000000000000000     
   1.3915294412843436E-006   7.1226850290414523E-006   0.0000000000000000     
   1.2417706653812990E-006   6.3572668704031864E-006   0.0000000000000000     
   1.2490071403251551E-006   6.4509028954598266E-006   0.0000000000000000     
   1.2561902101353457E-006   6.5450539046218296E-006   0.0000000000000000     
   1.2633198748014888E-006   6.6397160832639763E-006   0.0000000000000000     
   1.2703961343132024E-006   6.7348856167610362E-006   0.0000000000000000     
   1.2774189886601028E-006   6.8305586904877870E-006   0.0000000000000000     
   1.2843884378318095E-006   6.9267314898190015E-006   0.0000000000000000     
   1.2913044818179398E-006   7.0234002001294557E-006   0.0000000000000000     
   1.2981671206081113E-006   7.1205610067939251E-006   0.0000000000000000     
   1.1525594988360323E-006   6.3551657405202192E-006   0.0000000000000000     
   1.1592790821879621E-006   6.4488172145841096E-006   0.0000000000000000     
   1.1659490751003801E-006   6.5429836727736841E-006   0.0000000000000000     
   1.1725694775623311E-006   6.6376613004539756E-006   0.0000000000000000     
   1.1791402895628610E-006   6.7328462829900190E-006   0.0000000000000000     
   1.1856615110910137E-006   6.8285348057468415E-006   0.0000000000000000     
   1.1921331421358367E-006   6.9247230540894771E-006   0.0000000000000000     
   1.1985551826863733E-006   7.0214072133829529E-006   0.0000000000000000     
   1.2049276327316706E-006   7.1185834689923106E-006   0.0000000000000000     
   1.0634623907204043E-006   6.3532202501934344E-006   0.0000000000000000     
   1.0696650825852772E-006   6.4468860288731476E-006   0.0000000000000000     
   1.0758219987022755E-006   6.5410667917157440E-006   0.0000000000000000     
   1.0819331390563078E-006   6.6357587240684376E-006   0.0000000000000000     
   1.0879985036322823E-006   6.7309580112784399E-006   0.0000000000000000     
   1.0940180924151054E-006   6.8266608386929600E-006   0.0000000000000000     
   1.0999919053896866E-006   6.9228633916592060E-006   0.0000000000000000     
   1.1059199425409328E-006   7.0195618555243921E-006   0.0000000000000000     
   1.1118022038537518E-006   7.1167524156357288E-006   0.0000000000000000     
   9.7447056724331192E-007   6.3514303993724740E-006   0.0000000000000000     
   9.8015636772119706E-007   6.4451093382776906E-006   0.0000000000000000     
   9.8580020713863384E-007   6.5393032613945743E-006   0.0000000000000000     
   9.9140208547418047E-007   6.6340083540478116E-006   0.0000000000000000     
   9.9696200270639452E-007   6.7292208015620879E-006   0.0000000000000000     
   1.0024799588138342E-006   6.8249367892620881E-006   0.0000000000000000     
   1.0079559537750573E-006   6.9211525024724993E-006   0.0000000000000000     
   1.0133899875686218E-006   7.0178641265180062E-006   0.0000000000000000     
   1.0187820601730857E-006   7.1150678467233004E-006   0.0000000000000000     
   8.8557525461365044E-007   6.3497961880069786E-006   0.0000000000000000     
   8.9074416379981913E-007   6.4434871427484938E-006   0.0000000000000000     
   8.9587492660705588E-007   6.5376930817567383E-006   0.0000000000000000     
   9.0096754300670875E-007   6.6324101903325461E-006   0.0000000000000000     
   9.0602201297012642E-007   6.7276346537767487E-006   0.0000000000000000     
   9.1103833646865611E-007   6.8233626573901740E-006   0.0000000000000000     
   9.1601651347364682E-007   6.9195903864736619E-006   0.0000000000000000     
   9.2095654395644638E-007   7.0163140263280414E-006   0.0000000000000000     
   9.2585842788840274E-007   7.1135297622541445E-006   0.0000000000000000     
   7.9676767904031687E-007   6.3483176160465896E-006   0.0000000000000000     
   8.0141969702524100E-007   6.4420194422363115E-006   0.0000000000000000     
   8.0603738330514316E-007   6.5362362527488034E-006   0.0000000000000000     
   8.1062073784465391E-007   6.6309642328630897E-006   0.0000000000000000     
   8.1516976060840560E-007   6.7261995678582069E-006   0.0000000000000000     
   8.1968445156102771E-007   6.8219384430131625E-006   0.0000000000000000     
   8.2416481066715260E-007   6.9181770436069948E-006   0.0000000000000000     
   8.2861083789141104E-007   7.0149115549187272E-006   0.0000000000000000     
   8.3302253319843420E-007   7.1121381622273837E-006   0.0000000000000000     
   7.0803906673220681E-007   6.3469946834409466E-006   0.0000000000000000     
   7.1217419360156007E-007   6.4407062366918931E-006   0.0000000000000000     
   7.1627880343049719E-007   6.5349327743173337E-006   0.0000000000000000     
   7.2035289617877725E-007   6.6296704815799018E-006   0.0000000000000000     
   7.2439647180615970E-007   6.7249155437422447E-006   0.0000000000000000     
   7.2840953027240520E-007   6.8206641460670002E-006   0.0000000000000000     
   7.3239207153727226E-007   6.9169124738168062E-006   0.0000000000000000     
   7.3634409556052090E-007   7.0136567122543081E-006   0.0000000000000000     
   7.4026560230191079E-007   7.1108930466421437E-006   0.0000000000000000     
   4.2774835189403555E-007   2.0387409873199017E-006   0.0000000000000000     
   4.3359512963642284E-007   2.0975290036858240E-006   0.0000000000000000     
   4.3941104821188125E-007   2.1570451125008065E-006   0.0000000000000000     
   4.4519613789053281E-007   2.2172855513943012E-006   0.0000000000000000     
   4.5095042894249993E-007   2.2782465579957591E-006   0.0000000000000000     
   4.5667395163790471E-007   2.3399243699346348E-006   0.0000000000000000     
   4.6236673624686950E-007   2.4023152248403808E-006   0.0000000000000000     
   4.6802881303951655E-007   2.4654153603424490E-006   0.0000000000000000     
   4.7366021228596848E-007   2.5292210140702949E-006   0.0000000000000000     
   3.7412547344132520E-007   2.0370896567393214E-006   0.0000000000000000     
   3.7924149928393898E-007   2.0958866466059968E-006   0.0000000000000000     
   3.8433051947364317E-007   2.1554116943556679E-006   0.0000000000000000     
   3.8939255967407648E-007   2.2156610392014609E-006   0.0000000000000000     
   3.9442764554887735E-007   2.2766309203565033E-006   0.0000000000000000     
   3.9943580276168432E-007   2.3383175770339214E-006   0.0000000000000000     
   4.0441705697613605E-007   2.4007172484468425E-006   0.0000000000000000     
   4.0937143385587113E-007   2.4638261738083943E-006   0.0000000000000000     
   4.1429895906452806E-007   2.5276405923317032E-006   0.0000000000000000     
   3.2056432877498997E-007   2.0356585648112846E-006   0.0000000000000000     
   3.2494956459062005E-007   2.0944632817534012E-006   0.0000000000000000     
   3.2931164982009876E-007   2.1539960416527748E-006   0.0000000000000000     
   3.3365060584966838E-007   2.2142530828138940E-006   0.0000000000000000     
   3.3796645406557115E-007   2.2752306435412478E-006   0.0000000000000000     
   3.4225921585404930E-007   2.3369249621393261E-006   0.0000000000000000     
   3.4652891260134494E-007   2.3993322769126168E-006   0.0000000000000000     
   3.5077556569370037E-007   2.4624488261656104E-006   0.0000000000000000     
   3.5499919651735770E-007   2.5262708482027941E-006   0.0000000000000000     
   2.6705609878269046E-007   2.0344476926598947E-006   0.0000000000000000     
   2.7071051189087100E-007   2.0932589056503221E-006   0.0000000000000000     
   2.7434563081057728E-007   2.1527981616795914E-006   0.0000000000000000     
   2.7796147293273026E-007   2.2130616963543384E-006   0.0000000000000000     
   2.8155805564825049E-007   2.2740457452811963E-006   0.0000000000000000     
   2.8513539634805875E-007   2.3357465440668006E-006   0.0000000000000000     
   2.8869351242307576E-007   2.3981603283177867E-006   0.0000000000000000     
   2.9223242126422215E-007   2.4612833336407894E-006   0.0000000000000000     
   2.9575214026241893E-007   2.5251117956424443E-006   0.0000000000000000     
   2.1359196435208708E-007   2.0334570214092536E-006   0.0000000000000000     
   2.1651552751909685E-007   2.0922735148190437E-006   0.0000000000000000     
   2.1942365400440847E-007   2.1518180617235830E-006   0.0000000000000000     
   2.2231635743868380E-007   2.2120868939455316E-006   0.0000000000000000     
   2.2519365145258434E-007   2.2730762433075490E-006   0.0000000000000000     
   2.2805554967677188E-007   2.3347823416322973E-006   0.0000000000000000     
   2.3090206574190804E-007   2.3972014207424356E-006   0.0000000000000000     
   2.3373321327865454E-007   2.4603297124606269E-006   0.0000000000000000     
   2.3654900591767296E-007   2.5241634486095286E-006   0.0000000000000000     
   1.6016310637084060E-007   2.0326865321834643E-006   0.0000000000000000     
   1.6235579780970244E-007   2.0915071057818513E-006   0.0000000000000000     
   1.6453691096092156E-007   2.1510557490722133E-006   0.0000000000000000     
   1.6670645588295047E-007   2.2113286897102118E-006   0.0000000000000000     
   1.6886444263424179E-007   2.2723221553515092E-006   0.0000000000000000     
   1.7101088127324797E-007   2.3340323736517669E-006   0.0000000000000000     
   1.7314578185842166E-007   2.3964555722666481E-006   0.0000000000000000     
   1.7526915444821517E-007   2.4595879788518110E-006   0.0000000000000000     
   1.7738100910108126E-007   2.5234258210629216E-006   0.0000000000000000     
   1.0676070572661149E-007   2.0321362061066311E-006   0.0000000000000000     
   1.0822250909709275E-007   2.0909596750610291E-006   0.0000000000000000     
   1.0967659323944599E-007   2.1505112310129458E-006   0.0000000000000000     
   1.1112296478095205E-007   2.2107870977711182E-006   0.0000000000000000     
   1.1256163034889187E-007   2.2717834991442781E-006   0.0000000000000000     
   1.1399259657054621E-007   2.3334966589411634E-006   0.0000000000000000     
   1.1541587007319597E-007   2.3959228009705049E-006   0.0000000000000000     
   1.1683145748412202E-007   2.4590581490410392E-006   0.0000000000000000     
   1.1823936543060523E-007   2.5228989269614999E-006   0.0000000000000000     
   5.3375943307060375E-008   2.0318060243028566E-006   0.0000000000000000     
   5.4106847715672679E-008   2.0906312191788605E-006   0.0000000000000000     
   5.4833892399311229E-008   2.1501845148332468E-006   0.0000000000000000     
   5.5557080648110183E-008   2.2104621322509874E-006   0.0000000000000000     
   5.6276415752203682E-008   2.2714602924170597E-006   0.0000000000000000     
   5.6991901001725886E-008   2.3331752163164361E-006   0.0000000000000000     
   5.7703539686810961E-008   2.3956031249340921E-006   0.0000000000000000     
   5.8411335097593049E-008   2.4587402392550016E-006   0.0000000000000000     
   5.9115290524206261E-008   2.5225827802641392E-006   0.0000000000000000     
  -1.5218799781995624E-019   2.0316959678962437E-006   0.0000000000000000     
  -1.5283650742019782E-019   2.0905217346576317E-006   0.0000000000000000     
  -1.5326002389382497E-019   2.1500756078205772E-006   0.0000000000000000     
  -1.5354457402454321E-019   2.2103538072725590E-006   0.0000000000000000     
  -1.5370835578582871E-019   2.2713525529010531E-006   0.0000000000000000     
  -1.5377783895728316E-019   2.3330680645935388E-006   0.0000000000000000     
  -1.5388599282237447E-019   2.3954965622374926E-006   0.0000000000000000     
  -1.5404550943362649E-019   2.4586342657203915E-006   0.0000000000000000     
  -1.5429896274319157E-019   2.5224773949297156E-006   0.0000000000000000     
   4.7366021228596848E-007   2.5292210140702949E-006   0.0000000000000000     
   4.7926096124113785E-007   2.5937284168187539E-006   0.0000000000000000     
   4.8483107509910208E-007   2.6589337720442115E-006   0.0000000000000000     
   4.9037056603872895E-007   2.7248332763684366E-006   0.0000000000000000     
   4.9587944623888645E-007   2.7914231264131999E-006   0.0000000000000000     
   5.0135772787844246E-007   2.8586995188002708E-006   0.0000000000000000     
   5.0680542313626499E-007   2.9266586501514190E-006   0.0000000000000000     
   5.1222254419122137E-007   2.9952967170884122E-006   0.0000000000000000     
   5.1760910322218057E-007   3.0646099162330241E-006   0.0000000000000000     
   4.1429895906452806E-007   2.5276405923317032E-006   0.0000000000000000     
   4.1919965595853548E-007   2.5921567364946136E-006   0.0000000000000000     
   4.2407353866548322E-007   2.6573708118338428E-006   0.0000000000000000     
   4.2892061900575090E-007   2.7232790171508255E-006   0.0000000000000000     
   4.3374090879971856E-007   2.7898775512469984E-006   0.0000000000000000     
   4.3853441986776565E-007   2.8571626129237951E-006   0.0000000000000000     
   4.4330116403027242E-007   2.9251304009826513E-006   0.0000000000000000     
   4.4804115310761843E-007   2.9937771142250023E-006   0.0000000000000000     
   4.5275439892018339E-007   3.0630989514522818E-006   0.0000000000000000     
   3.5499919651735770E-007   2.5262708482027941E-006   0.0000000000000000     
   3.5919982472690958E-007   2.5907945750716528E-006   0.0000000000000000     
   3.6337746305034904E-007   2.6560162137916449E-006   0.0000000000000000     
   3.6753212248401986E-007   2.7219319651252257E-006   0.0000000000000000     
   3.7166381402426553E-007   2.7885380298348478E-006   0.0000000000000000     
   3.7577254866742963E-007   2.8558306086829664E-006   0.0000000000000000     
   3.7985833740985570E-007   2.9238059024320354E-006   0.0000000000000000     
   3.8392119124788731E-007   2.9924601118445083E-006   0.0000000000000000     
   3.8796112117786806E-007   3.0617894376828392E-006   0.0000000000000000     
   2.9575214026241893E-007   2.5251117956424443E-006   0.0000000000000000     
   2.9925268553897748E-007   2.5896419444087199E-006   0.0000000000000000     
   3.0273406813677316E-007   2.6548699879429245E-006   0.0000000000000000     
   3.0619629782907187E-007   2.7207921287276997E-006   0.0000000000000000     
   3.0963938438913964E-007   2.7874045692456876E-006   0.0000000000000000     
   3.1306333759024258E-007   2.8547035119795310E-006   0.0000000000000000     
   3.1646816720564678E-007   2.9226851594118711E-006   0.0000000000000000     
   3.1985388300861808E-007   2.9913457140253509E-006   0.0000000000000000     
   3.2322049477242279E-007   3.0606813783026133E-006   0.0000000000000000     
   2.3654900591767296E-007   2.5241634486095286E-006   0.0000000000000000     
   2.3934945638745724E-007   2.5886988563646620E-006   0.0000000000000000     
   2.4213457380782922E-007   2.6539321443129849E-006   0.0000000000000000     
   2.4490436639644311E-007   2.7198595163943100E-006   0.0000000000000000     
   2.4765884237095312E-007   2.7864771765484544E-006   0.0000000000000000     
   2.5039800994901333E-007   2.8537813287152326E-006   0.0000000000000000     
   2.5312187734827778E-007   2.9217681768344599E-006   0.0000000000000000     
   2.5583045278640077E-007   2.9904339248459513E-006   0.0000000000000000     
   2.5852374448103625E-007   3.0597747766895228E-006   0.0000000000000000     
   1.7738100910108126E-007   2.5234258210629216E-006   0.0000000000000000     
   1.7948135526506616E-007   2.5879653227983284E-006   0.0000000000000000     
   1.8157019994659078E-007   2.6532026929271312E-006   0.0000000000000000     
   1.8364754954166982E-007   2.7191341365611209E-006   0.0000000000000000     
   1.8571341044631804E-007   2.7857558588120855E-006   0.0000000000000000     
   1.8776778905655014E-007   2.8530640647918161E-006   0.0000000000000000     
   1.8981069176838085E-007   2.9210549596120995E-006   0.0000000000000000     
   1.9184212497782463E-007   2.9897247483847257E-006   0.0000000000000000     
   1.9386209508089648E-007   3.0590696362214852E-006   0.0000000000000000     
   1.1823936543060523E-007   2.5228989269614999E-006   0.0000000000000000     
   1.1963960016452208E-007   2.5874413555685643E-006   0.0000000000000000     
   1.2103216643613148E-007   2.6526816438106686E-006   0.0000000000000000     
   1.2241706862028819E-007   2.7186159976641945E-006   0.0000000000000000     
   1.2379431109184671E-007   2.7852406231055192E-006   0.0000000000000000     
   1.2516389822566178E-007   2.8525517261110253E-006   0.0000000000000000     
   1.2652583439658793E-007   2.9205455126570906E-006   0.0000000000000000     
   1.2788012397947976E-007   2.9892181887200941E-006   0.0000000000000000     
   1.2922677134919199E-007   3.0585659602764178E-006   0.0000000000000000     
   5.9115290524206261E-008   2.5225827802641392E-006   0.0000000000000000     
   5.9815409078542584E-008   2.5871269665342190E-006   0.0000000000000000     
   6.0511693159525001E-008   2.6523690069889023E-006   0.0000000000000000     
   6.1204144987834271E-008   2.7183051081395929E-006   0.0000000000000000     
   6.1892766784151215E-008   2.7849314764976937E-006   0.0000000000000000     
   6.2577560769156578E-008   2.8522443185746064E-006   0.0000000000000000     
   6.3258529163531195E-008   2.9202398408817330E-006   0.0000000000000000     
   6.3935674187955757E-008   2.9889142499304773E-006   0.0000000000000000     
   6.4608998063111087E-008   3.0582637522322376E-006   0.0000000000000000     
  -1.5429896274319157E-019   2.5224773949297156E-006   0.0000000000000000     
  -1.5466126785148980E-019   2.5870221675541387E-006   0.0000000000000000     
  -1.5516253930269693E-019   2.6522647924871352E-006   0.0000000000000000     
  -1.5573660264780873E-019   2.7182014764233796E-006   0.0000000000000000     
  -1.5630198059648873E-019   2.7848284260575440E-006   0.0000000000000000     
  -1.5684461107832351E-019   2.8521418480843026E-006   0.0000000000000000     
  -1.5731786178628041E-019   2.9201379491983265E-006   0.0000000000000000     
  -1.5764756434621669E-019   2.9888129360942892E-006   0.0000000000000000     
  -1.5780289981796620E-019   3.0581630154668651E-006   0.0000000000000000     
   5.1760910322218057E-007   3.0646099162330241E-006   0.0000000000000000     
   5.2296511083775389E-007   3.1345944431305357E-006   0.0000000000000000     
   5.2829057136553091E-007   3.2052464890202930E-006   0.0000000000000000     
   5.3358548756284507E-007   3.2765622440651546E-006   0.0000000000000000     
   5.3884986218703002E-007   3.3485378984279802E-006   0.0000000000000000     
   5.4408369799541899E-007   3.4211696422716301E-006   0.0000000000000000     
   5.4928699774534561E-007   3.4944536657589624E-006   0.0000000000000000     
   5.5445976419414355E-007   3.5683861590528365E-006   0.0000000000000000     
   5.5960200009914612E-007   3.6429633123161131E-006   0.0000000000000000     
   4.5275439892018339E-007   3.0630989514522818E-006   0.0000000000000000     
   4.5744091171186546E-007   3.1330921101005569E-006   0.0000000000000000     
   4.6210069542063489E-007   3.2037527821444091E-006   0.0000000000000000     
   4.6673375240798046E-007   3.2750771581930521E-006   0.0000000000000000     
   4.7134008503539060E-007   3.3470614288557006E-006   0.0000000000000000     
   4.7591969566435388E-007   3.4197017847415657E-006   0.0000000000000000     
   4.8047258665635903E-007   3.4929944164598626E-006   0.0000000000000000     
   4.8499876037289415E-007   3.5669355146198028E-006   0.0000000000000000     
   4.8949821917544851E-007   3.6415212698306015E-006   0.0000000000000000     
   3.8796112117786806E-007   3.0617894376828392E-006   0.0000000000000000     
   3.9197813669443669E-007   3.1317900790882163E-006   0.0000000000000000     
   3.9597224128541293E-007   3.2024582287167685E-006   0.0000000000000000     
   3.9994343693691155E-007   3.2737900776033541E-006   0.0000000000000000     
   4.0389172563504766E-007   3.3457818167828362E-006   0.0000000000000000     
   4.0781710936593613E-007   3.4184296372900762E-006   0.0000000000000000     
   4.1171959011569192E-007   3.4917297301599359E-006   0.0000000000000000     
   4.1559916987042979E-007   3.5656782864272767E-006   0.0000000000000000     
   4.1945585061626470E-007   3.6402714971269592E-006   0.0000000000000000     
   3.2322049477242279E-007   3.0606813783026133E-006   0.0000000000000000     
   3.2656801091283055E-007   3.1306883528838323E-006   0.0000000000000000     
   3.2989643441562561E-007   3.2013628310393175E-006   0.0000000000000000     
   3.3320576690909611E-007   3.2727010041969113E-006   0.0000000000000000     
   3.3649601002153037E-007   3.3446990637844580E-006   0.0000000000000000     
   3.3976716538121619E-007   3.4173532012297967E-006   0.0000000000000000     
   3.4301923461644166E-007   3.4906596079607713E-006   0.0000000000000000     
   3.4625221935549520E-007   3.5646144754052259E-006   0.0000000000000000     
   3.4946612122666440E-007   3.6392139949910006E-006   0.0000000000000000     
   2.5852374448103625E-007   3.0597747766895228E-006   0.0000000000000000     
   2.6120175949441002E-007   3.1297869342777208E-006   0.0000000000000000     
   2.6386450026703407E-007   3.2004665914140070E-006   0.0000000000000000     
   2.6651196808399212E-007   3.2718099398745792E-006   0.0000000000000000     
   2.6914416423036761E-007   3.3438131714356317E-006   0.0000000000000000     
   2.7176108999124420E-007   3.4164724778733590E-006   0.0000000000000000     
   2.7436274665170555E-007   3.4897840509639561E-006   0.0000000000000000     
   2.7694913549683532E-007   3.5637440824836193E-006   0.0000000000000000     
   2.7952025781171690E-007   3.6383487642085436E-006   0.0000000000000000     
   1.9386209508089648E-007   3.0590696362214852E-006   0.0000000000000000     
   1.9587060756653796E-007   3.1290858260601943E-006   0.0000000000000000     
   1.9786766429539912E-007   3.1997695121427816E-006   0.0000000000000000     
   1.9985326622105691E-007   3.2711168865372069E-006   0.0000000000000000     
   2.0182741429708841E-007   3.3431241413114261E-006   0.0000000000000000     
   2.0379010947707055E-007   3.4157874685333960E-006   0.0000000000000000     
   2.0574135271458044E-007   3.4891030602710767E-006   0.0000000000000000     
   2.0768114496319503E-007   3.5630671085924249E-006   0.0000000000000000     
   2.0960948717649136E-007   3.6376758055653984E-006   0.0000000000000000     
   1.2922677134919199E-007   3.0585659602764178E-006   0.0000000000000000     
   1.3056578025657740E-007   3.1285850310215706E-006   0.0000000000000000     
   1.3189715195648159E-007   3.1992715955275906E-006   0.0000000000000000     
   1.3322088707974846E-007   3.2706218460856464E-006   0.0000000000000000     
   1.3453698625722184E-007   3.3426319749869079E-006   0.0000000000000000     
   1.3584545011974555E-007   3.4152981745225432E-006   0.0000000000000000     
   1.3714627929816344E-007   3.4886166369837209E-006   0.0000000000000000     
   1.3843947442331944E-007   3.5625835546616118E-006   0.0000000000000000     
   1.3972503612605726E-007   3.6371951198473818E-006   0.0000000000000000     
   6.4608998063111087E-008   3.0582637522322376E-006   0.0000000000000000     
   6.5278502691891192E-008   3.1282845519521673E-006   0.0000000000000000     
   6.5944188706042412E-008   3.1989728438703819E-006   0.0000000000000000     
   6.6606056419524459E-008   3.2703248204207531E-006   0.0000000000000000     
   6.7264106146297003E-008   3.3423366740371496E-006   0.0000000000000000     
   6.7918338200319515E-008   3.4150045971534345E-006   0.0000000000000000     
   6.8568752895551799E-008   3.4883247822034768E-006   0.0000000000000000     
   6.9215350545953445E-008   3.5622934216211478E-006   0.0000000000000000     
   6.9858131465483980E-008   3.6369067078403077E-006   0.0000000000000000     
  -1.5780289981796620E-019   3.0581630154668651E-006   0.0000000000000000     
  -1.5776815823223897E-019   3.1281843916422955E-006   0.0000000000000000     
  -1.5758286977502709E-019   3.1988732594731023E-006   0.0000000000000000     
  -1.5736201255147543E-019   3.2702258114433779E-006   0.0000000000000000     
  -1.5718540949069536E-019   3.3422382400372137E-006   0.0000000000000000     
  -1.5719182014044265E-019   3.4149067377387011E-006   0.0000000000000000     
  -1.5744819443154580E-019   3.4882274970319332E-006   0.0000000000000000     
  -1.5805758743610157E-019   3.5621967104009995E-006   0.0000000000000000     
  -1.5905525126537148E-019   3.6368105703299923E-006   0.0000000000000000     
   5.5960200009914612E-007   3.6429633123161131E-006   0.0000000000000000     
   5.6471370797001232E-007   3.7181813152058708E-006   0.0000000000000000     
   5.6979488932570335E-007   3.7940363553560773E-006   0.0000000000000000     
   5.7484554543750589E-007   3.8705246198949184E-006   0.0000000000000000     
   5.7986567757670678E-007   3.9476422959505809E-006   0.0000000000000000     
   5.8485528701459249E-007   4.0253855706512502E-006   0.0000000000000000     
   5.8981437502244987E-007   4.1037506311251175E-006   0.0000000000000000     
   5.9474294287156558E-007   4.1827336645003677E-006   0.0000000000000000     
   5.9964099183322608E-007   4.2623308579051854E-006   0.0000000000000000     
   4.8949821917544851E-007   3.6415212698306015E-006   0.0000000000000000     
   4.9397096523442291E-007   3.7167478721556558E-006   0.0000000000000000     
   4.9841699995587012E-007   3.7926115094751140E-006   0.0000000000000000     
   5.0283632455475557E-007   3.8691083691233078E-006   0.0000000000000000     
   5.0722894024604480E-007   3.9462346384345729E-006   0.0000000000000000     
   5.1159484824470279E-007   4.0239865047432376E-006   0.0000000000000000     
   5.1593404976569530E-007   4.1023601553836376E-006   0.0000000000000000     
   5.2024654602398774E-007   4.1813517776901050E-006   0.0000000000000000     
   5.2453233823454523E-007   4.2609575589969738E-006   0.0000000000000000     
   4.1945585061626470E-007   3.6402714971269592E-006   0.0000000000000000     
   4.2328963419456063E-007   3.7155055527073971E-006   0.0000000000000000     
   4.2710052186767688E-007   3.7913766412712129E-006   0.0000000000000000     
   4.3088851475322164E-007   3.8678809503345844E-006   0.0000000000000000     
   4.3465361396880332E-007   3.9450146674136836E-006   0.0000000000000000     
   4.3839582063203045E-007   4.0227739800246901E-006   0.0000000000000000     
   4.4211513586051096E-007   4.1011550756837771E-006   0.0000000000000000     
   4.4581156077185347E-007   4.1801541419071196E-006   0.0000000000000000     
   4.4948509648366607E-007   4.2597673662108950E-006   0.0000000000000000     
   3.4946612122666440E-007   3.6392139949910006E-006   0.0000000000000000     
   3.5266094175103601E-007   3.7144543575200885E-006   0.0000000000000000     
   3.5583668202088928E-007   3.7903317512910744E-006   0.0000000000000000     
   3.5899334302130194E-007   3.8668423639766887E-006   0.0000000000000000     
   3.6213092573735160E-007   3.9439823832496706E-006   0.0000000000000000     
   3.6524943115411597E-007   4.0217479967827482E-006   0.0000000000000000     
   3.6834886025667267E-007   4.1001353922486605E-006   0.0000000000000000     
   3.7142921403009973E-007   4.1791407573201385E-006   0.0000000000000000     
   3.7449049345947424E-007   4.2587602796699135E-006   0.0000000000000000     
   2.7952025781171690E-007   3.6383487642085436E-006   0.0000000000000000     
   2.8207611480445941E-007   3.7135942872527271E-006   0.0000000000000000     
   2.8461670737527322E-007   3.7894768400813937E-006   0.0000000000000000     
   2.8714203634739409E-007   3.8659926104975683E-006   0.0000000000000000     
   2.8965210254405784E-007   3.9431377863042789E-006   0.0000000000000000     
   2.9214690678850004E-007   4.0209085553045504E-006   0.0000000000000000     
   2.9462644990395649E-007   4.0993011053014116E-006   0.0000000000000000     
   2.9709073271366325E-007   4.1783116240978875E-006   0.0000000000000000     
   2.9953975604085558E-007   4.2579362994970042E-006   0.0000000000000000     
   2.0960948717649136E-007   3.6376758055653984E-006   0.0000000000000000     
   2.1152638025544104E-007   3.7129253425643068E-006   0.0000000000000000     
   2.1343182489059426E-007   3.7888119081888714E-006   0.0000000000000000     
   2.1532582171989583E-007   3.8653316903451647E-006   0.0000000000000000     
   2.1720837138129052E-007   3.9424808769392609E-006   0.0000000000000000     
   2.1907947451272304E-007   4.0202556558772314E-006   0.0000000000000000     
   2.2093913175213819E-007   4.0986522150651515E-006   0.0000000000000000     
   2.2278734373748080E-007   4.1776667424090929E-006   0.0000000000000000     
   2.2462411110669557E-007   4.2572954258151283E-006   0.0000000000000000     
   1.3972503612605726E-007   3.6371951198473818E-006   0.0000000000000000     
   1.4100296500459136E-007   3.7124475241138233E-006   0.0000000000000000     
   1.4227326152661821E-007   3.7883369561602057E-006   0.0000000000000000     
   1.4353592612720478E-007   3.8648596039674219E-006   0.0000000000000000     
   1.4479095924141818E-007   3.9420116555163667E-006   0.0000000000000000     
   1.4603836130432542E-007   4.0197892987879295E-006   0.0000000000000000     
   1.4727813275099339E-007   4.0981887217630031E-006   0.0000000000000000     
   1.4851027401648931E-007   4.1772061124224837E-006   0.0000000000000000     
   1.4973478553587994E-007   4.2568376587472580E-006   0.0000000000000000     
   6.9858131465483980E-008   3.6369067078403077E-006   0.0000000000000000     
   7.0497095952520710E-008   3.7121608325602700E-006   0.0000000000000000     
   7.1132244243110701E-008   3.7880519845420940E-006   0.0000000000000000     
   7.1763576557718723E-008   3.8645763518122856E-006   0.0000000000000000     
   7.2391093116809545E-008   3.9417301223973479E-006   0.0000000000000000     
   7.3014794140847778E-008   4.0195094843237821E-006   0.0000000000000000     
   7.3634679850298230E-008   4.0979106256180927E-006   0.0000000000000000     
   7.4250750465625606E-008   4.1769297343067854E-006   0.0000000000000000     
   7.4863006207294541E-008   4.2565629984163589E-006   0.0000000000000000     
  -1.5905525126537148E-019   3.6368105703299923E-006   0.0000000000000000     
  -1.6061035081697117E-019   3.7120652685626431E-006   0.0000000000000000     
  -1.6251865649013101E-019   3.7879569938812363E-006   0.0000000000000000     
  -1.6473591412207940E-019   3.8644819343276975E-006   0.0000000000000000     
  -1.6701913940787889E-019   3.9416362779439537E-006   0.0000000000000000     
  -1.6935871637290856E-019   4.0194162127719256E-006   0.0000000000000000     
  -1.7160045338110969E-019   4.0978179268535432E-006   0.0000000000000000     
  -1.7351645894254966E-019   4.1768376082307254E-006   0.0000000000000000     
  -1.7509428334277469E-019   4.2564714449454031E-006   0.0000000000000000     
   5.9964099183322608E-007   4.2623308579051854E-006   0.0000000000000000     
   6.0450852298542954E-007   4.3425383982426632E-006   0.0000000000000000     
   6.0934553663301953E-007   4.4233524715155110E-006   0.0000000000000000     
   6.1415203288755039E-007   4.5047692635013406E-006   0.0000000000000000     
   6.1892801186057720E-007   4.5867849599777666E-006   0.0000000000000000     
   6.2367347366365420E-007   4.6693957467223998E-006   0.0000000000000000     
   6.2838841840833638E-007   4.7525978095128565E-006   0.0000000000000000     
   6.3307284620617840E-007   4.8363873341267458E-006   0.0000000000000000     
   6.3772675716873481E-007   4.9207605063416855E-006   0.0000000000000000     
   5.2453233823454523E-007   4.2609575589969738E-006   0.0000000000000000     
   5.2879142742366815E-007   4.3411736863930416E-006   0.0000000000000000     
   5.3302381386299592E-007   4.4219963459849764E-006   0.0000000000000000     
   5.3722949763550243E-007   4.5034217236339077E-006   0.0000000000000000     
   5.4140847882416164E-007   4.5854460052009714E-006   0.0000000000000000     
   5.4556075751194816E-007   4.6680653765472960E-006   0.0000000000000000     
   5.4968633378183574E-007   4.7512760235340167E-006   0.0000000000000000     
   5.5378520771679868E-007   4.8350741320222637E-006   0.0000000000000000     
   5.5785737939981074E-007   4.9194558878731722E-006   0.0000000000000000     
   4.4948509648366607E-007   4.2597673662108950E-006   0.0000000000000000     
   4.5313574393733059E-007   4.3399909358479086E-006   0.0000000000000000     
   4.5676350336932132E-007   4.4208210370175023E-006   0.0000000000000000     
   4.6036837483988671E-007   4.5022538556556510E-006   0.0000000000000000     
   4.6395035840927456E-007   4.5842855776983270E-006   0.0000000000000000     
   4.6750945413773297E-007   4.6669123890815025E-006   0.0000000000000000     
   4.7104566208550989E-007   4.7501304757411523E-006   0.0000000000000000     
   4.7455898231285320E-007   4.8339360236132488E-006   0.0000000000000000     
   4.7804941488001113E-007   4.9183252186337651E-006   0.0000000000000000     
   3.7449049345947424E-007   4.2587602796699135E-006   0.0000000000000000     
   3.7753269937278467E-007   4.3389901466921673E-006   0.0000000000000000     
   3.8055583196966053E-007   4.4198265446668285E-006   0.0000000000000000     
   3.8355989129264200E-007   4.5012656595952800E-006   0.0000000000000000     
   3.8654487738426897E-007   4.5833036774789043E-006   0.0000000000000000     
   3.8951079028708144E-007   4.6659367843190723E-006   0.0000000000000000     
   3.9245763004361927E-007   4.7491611661171668E-006   0.0000000000000000     
   3.9538539669642305E-007   4.8329730088745662E-006   0.0000000000000000     
   3.9829409028803225E-007   4.9173684985926499E-006   0.0000000000000000     
   2.9953975604085558E-007   4.2579362994970042E-006   0.0000000000000000     
   3.0197352057639915E-007   4.3381713190107184E-006   0.0000000000000000     
   3.0439202648167813E-007   4.4190128689866876E-006   0.0000000000000000     
   3.0679527378570646E-007   4.5004571354815090E-006   0.0000000000000000     
   3.0918326251749784E-007   4.5825003045517674E-006   0.0000000000000000     
   3.1155599270606606E-007   4.6651385622540594E-006   0.0000000000000000     
   3.1391346438042505E-007   4.7483680946449697E-006   0.0000000000000000     
   3.1625567756958878E-007   4.8321850877810913E-006   0.0000000000000000     
   3.1858263230257076E-007   4.9165857277190142E-006   0.0000000000000000     
   2.2462411110669557E-007   4.2572954258151283E-006   0.0000000000000000     
   2.2644943439454210E-007   4.3375344528884618E-006   0.0000000000000000     
   2.2826331372303871E-007   4.4183800100308151E-006   0.0000000000000000     
   2.3006574911101847E-007   4.4998282833430423E-006   0.0000000000000000     
   2.3185674057731454E-007   4.5818754589259915E-006   0.0000000000000000     
   2.3363628814075986E-007   4.6645177228805125E-006   0.0000000000000000     
   2.3540439182018764E-007   4.7477512613074617E-006   0.0000000000000000     
   2.3716105163443100E-007   4.8315722603076892E-006   0.0000000000000000     
   2.3890626760232288E-007   4.9159769059820462E-006   0.0000000000000000     
   1.4973478553587994E-007   4.2568376587472580E-006   0.0000000000000000     
   1.5095166767358172E-007   4.3370795484103081E-006   0.0000000000000000     
   1.5216092051140663E-007   4.4179279678529512E-006   0.0000000000000000     
   1.5336254406051625E-007   4.4993791032085901E-006   0.0000000000000000     
   1.5455653833207216E-007   4.5814291406106355E-006   0.0000000000000000     
   1.5574290333723549E-007   4.6640742661924870E-006   0.0000000000000000     
   1.5692163908716776E-007   4.7473106660875500E-006   0.0000000000000000     
   1.5809274559303049E-007   4.8311345264292309E-006   0.0000000000000000     
   1.5925622286598496E-007   4.9155420333509309E-006   0.0000000000000000     
   7.4863006207294541E-008   4.2565629984163589E-006   0.0000000000000000     
   7.5471447259886194E-008   4.3368066056611540E-006   0.0000000000000000     
   7.6076073664446643E-008   4.4176567425068256E-006   0.0000000000000000     
   7.6676885426138370E-008   4.4991095951068668E-006   0.0000000000000000     
   7.7273882550123947E-008   4.5811613496147746E-006   0.0000000000000000     
   7.7867065041565696E-008   4.6638081921840342E-006   0.0000000000000000     
   7.8456432905626203E-008   4.7470463089681378E-006   0.0000000000000000     
   7.9041986147468029E-008   4.8308718861205850E-006   0.0000000000000000     
   7.9623724772253454E-008   4.9152811097948584E-006   0.0000000000000000     
  -1.7509428334277469E-019   4.2564714449454031E-006   0.0000000000000000     
  -1.7617954430644426E-019   4.3367156247259033E-006   0.0000000000000000     
  -1.7678752205667073E-019   4.4175663340461768E-006   0.0000000000000000     
  -1.7705304703330026E-019   4.4990197590665808E-006   0.0000000000000000     
  -1.7700962005114122E-019   4.5810720859474702E-006   0.0000000000000000     
  -1.7675143630244811E-019   4.6637195008492038E-006   0.0000000000000000     
  -1.7633417538220339E-019   4.7469581899321355E-006   0.0000000000000000     
  -1.7583284576985944E-019   4.8307843393566191E-006   0.0000000000000000     
  -1.7534243752654059E-019   4.9151941352830153E-006   0.0000000000000000     
   6.3772675716873481E-007   4.9207605063416855E-006   0.0000000000000000     
   6.4235015139282105E-007   5.0057135118783001E-006   0.0000000000000000     
   6.4694302891629390E-007   5.0912425362292823E-006   0.0000000000000000     
   6.5150538976227088E-007   5.1773437648303374E-006   0.0000000000000000     
   6.5603723395386997E-007   5.2640133831171776E-006   0.0000000000000000     
   6.6053856151420827E-007   5.3512475765255046E-006   0.0000000000000000     
   6.6500937246640365E-007   5.4390425304910299E-006   0.0000000000000000     
   6.6944966683357344E-007   5.5273944304494561E-006   0.0000000000000000     
   6.7385944463883550E-007   5.6162994618364937E-006   0.0000000000000000     
   5.5785737939981074E-007   4.9194558878731722E-006   0.0000000000000000     
   5.6190284890478877E-007   5.0044174768789451E-006   0.0000000000000000     
   5.6592161626941917E-007   5.0899550845560827E-006   0.0000000000000000     
   5.6991368152233082E-007   5.1760648963521565E-006   0.0000000000000000     
   5.7387904469215279E-007   5.2627430977147420E-006   0.0000000000000000     
   5.7781770580751373E-007   5.3499858740914040E-006   0.0000000000000000     
   5.8172966489704294E-007   5.4377894109297247E-006   0.0000000000000000     
   5.8561492198936897E-007   5.5261498936772680E-006   0.0000000000000000     
   5.8947347711312100E-007   5.6150635077816104E-006   0.0000000000000000     
   4.7804941488001113E-007   4.9183252186337651E-006   0.0000000000000000     
   4.8151695984232002E-007   5.0032942466591540E-006   0.0000000000000000     
   4.8496161723547136E-007   5.0888392932277786E-006   0.0000000000000000     
   4.8838338709024494E-007   5.1749565437984836E-006   0.0000000000000000     
   4.9178226943742068E-007   5.2616421838301151E-006   0.0000000000000000     
   4.9515826430777847E-007   5.3488923987815144E-006   0.0000000000000000     
   4.9851137173209791E-007   5.4367033741115226E-006   0.0000000000000000     
   5.0184159174115923E-007   5.5250712952789894E-006   0.0000000000000000     
   5.0514892436574211E-007   5.6139923477427516E-006   0.0000000000000000     
   3.9829409028803225E-007   4.9173684985926499E-006   0.0000000000000000     
   4.0118371085890560E-007   5.0023438211841001E-006   0.0000000000000000     
   4.0405425844117511E-007   5.0878951622068269E-006   0.0000000000000000     
   4.0690573306489110E-007   5.1740187071300468E-006   0.0000000000000000     
   4.0973813476010420E-007   5.2607106414229814E-006   0.0000000000000000     
   4.1255146355686486E-007   5.3479671505548404E-006   0.0000000000000000     
   4.1534571948522336E-007   5.4357844199948394E-006   0.0000000000000000     
   4.1812090257523048E-007   5.5241586352122033E-006   0.0000000000000000     
   4.2087701285693636E-007   5.6130859816761393E-006   0.0000000000000000     
   3.1858263230257076E-007   4.9165857277190142E-006   0.0000000000000000     
   3.2089432860803634E-007   5.0015662004189627E-006   0.0000000000000000     
   3.2319076651325479E-007   5.0871226914556870E-006   0.0000000000000000     
   3.2547194604514715E-007   5.1732513863075769E-006   0.0000000000000000     
   3.2773786723063404E-007   5.2599484704530162E-006   0.0000000000000000     
   3.2998853009663621E-007   5.3472101293703914E-006   0.0000000000000000     
   3.3222393467007423E-007   5.4350325485380882E-006   0.0000000000000000     
   3.3444408097786931E-007   5.5234119134344930E-006   0.0000000000000000     
   3.3664896904694183E-007   5.6123444095379939E-006   0.0000000000000000     
   2.3890626760232288E-007   4.9159769059820462E-006   0.0000000000000000     
   2.4064003974320275E-007   5.0009613843289170E-006   0.0000000000000000     
   2.4236236807843511E-007   5.0865218809368185E-006   0.0000000000000000     
   2.4407325262989079E-007   5.1726545812917960E-006   0.0000000000000000     
   2.4577269341944054E-007   5.2593556708799007E-006   0.0000000000000000     
   2.4746069046895506E-007   5.3466213351871771E-006   0.0000000000000000     
   2.4913724380030529E-007   5.4344477596996765E-006   0.0000000000000000     
   2.5080235343536197E-007   5.5228311299034450E-006   0.0000000000000000     
   2.5245601939599588E-007   5.6117676312845330E-006   0.0000000000000000     
   1.5925622286598496E-007   4.9155420333509309E-006   0.0000000000000000     
   1.6041207091789587E-007   5.0005293728791423E-006   0.0000000000000000     
   1.6156028976344074E-007   5.0860927306126759E-006   0.0000000000000000     
   1.6270087941799991E-007   5.1722282920434307E-006   0.0000000000000000     
   1.6383383989695440E-007   5.2589322426633094E-006   0.0000000000000000     
   1.6495917121568458E-007   5.3462007679642035E-006   0.0000000000000000     
   1.6607687338957121E-007   5.4340300534380156E-006   0.0000000000000000     
   1.6718694643399498E-007   5.5224162845766414E-006   0.0000000000000000     
   1.6828939036433639E-007   5.6113556468719793E-006   0.0000000000000000     
   7.9623724772253454E-008   4.9152811097948584E-006   0.0000000000000000     
   8.0201648785606461E-008   5.0002701660348145E-006   0.0000000000000000     
   8.0775758194995935E-008   5.0858352404457219E-006   0.0000000000000000     
   8.1346053008352327E-008   5.1719725185232133E-006   0.0000000000000000     
   8.1912533233606089E-008   5.2586781857629252E-006   0.0000000000000000     
   8.2475198878687448E-008   5.3459484276604811E-006   0.0000000000000000     
   8.3034049951526829E-008   5.4337794297115163E-006   0.0000000000000000     
   8.3589086460054645E-008   5.5221673774116673E-006   0.0000000000000000     
   8.4140308412201189E-008   5.6111084562565541E-006   0.0000000000000000     
  -1.7534243752654059E-019   4.9151941352830153E-006   0.0000000000000000     
  -1.7491230360801302E-019   5.0001837637611079E-006   0.0000000000000000     
  -1.7453841797113905E-019   5.0857494103984110E-006   0.0000000000000000     
  -1.7419927391999231E-019   5.1718872606918679E-006   0.0000000000000000     
  -1.7384110471475685E-019   5.2585935001384226E-006   0.0000000000000000     
  -1.7347094139063937E-019   5.3458643142350159E-006   0.0000000000000000     
  -1.7309757274164825E-019   5.4336958884785953E-006   0.0000000000000000     
  -1.7261585635710975E-019   5.5220844083661006E-006   0.0000000000000000     
  -1.7206680230083060E-019   5.6110260593944767E-006   0.0000000000000000     
   6.7385944463883550E-007   5.6162994618364937E-006   0.0000000000000000     
   6.7823870589184187E-007   5.7057538100620524E-006   0.0000000000000000     
   6.8258745054838463E-007   5.7957536604328699E-006   0.0000000000000000     
   6.8690567855079058E-007   5.8862951982298877E-006   0.0000000000000000     
   6.9119338984138683E-007   5.9773746087340472E-006   0.0000000000000000     
   6.9545058436249955E-007   6.0689880772262913E-006   0.0000000000000000     
   6.9967726205645596E-007   6.1611317889875624E-006   0.0000000000000000     
   7.0387342286558296E-007   6.2538019292988000E-006   0.0000000000000000     
   7.0803906673220681E-007   6.3469946834409466E-006   0.0000000000000000     
   5.8947347711312100E-007   5.6150635077816104E-006   0.0000000000000000     
   5.9330533028373662E-007   5.7045264386648740E-006   0.0000000000000000     
   5.9711048146388858E-007   5.7945348716473925E-006   0.0000000000000000     
   6.0088893060305814E-007   5.8850849920240477E-006   0.0000000000000000     
   6.0464067765072699E-007   5.9761729850897256E-006   0.0000000000000000     
   6.0836572255637638E-007   6.0677950361393081E-006   0.0000000000000000     
   6.1206406526948789E-007   6.1599473304676795E-006   0.0000000000000000     
   6.1573570573954311E-007   6.2526260533697236E-006   0.0000000000000000     
   6.1938064391602307E-007   6.3458273901403228E-006   0.0000000000000000     
   5.0514892436574211E-007   5.6139923477427516E-006   0.0000000000000000     
   5.0843336962427292E-007   5.7034627169361048E-006   0.0000000000000000     
   5.1169492748576294E-007   5.7934785881901211E-006   0.0000000000000000     
   5.1493359790687036E-007   5.8840361468103271E-006   0.0000000000000000     
   5.1814938084425303E-007   5.9751315781022476E-006   0.0000000000000000     
   5.2134227625456880E-007   6.0667610673714007E-006   0.0000000000000000     
   5.2451228409447583E-007   6.1589207999233178E-006   0.0000000000000000     
   5.2765940432063157E-007   6.2516069610635162E-006   0.0000000000000000     
   5.3078363688969419E-007   6.3448157360975224E-006   0.0000000000000000     
   4.2087701285693636E-007   5.6130859816761393E-006   0.0000000000000000     
   4.2361405034935889E-007   5.7025626448298838E-006   0.0000000000000000     
   4.2633201502738371E-007   5.7925848100127267E-006   0.0000000000000000     
   4.2903090685486390E-007   5.8831486625379694E-006   0.0000000000000000     
   4.3171072579565296E-007   5.9742503877189262E-006   0.0000000000000000     
   4.3437147181360345E-007   6.0658861708689002E-006   0.0000000000000000     
   4.3701314487256860E-007   6.1580521973011944E-006   0.0000000000000000     
   4.3963574493640170E-007   6.2507446523291222E-006   0.0000000000000000     
   4.4223927196895537E-007   6.3439597212659824E-006   0.0000000000000000     
   3.3664896904694183E-007   5.6123444095379939E-006   0.0000000000000000     
   3.3883859889490315E-007   5.7018262223003552E-006   0.0000000000000000     
   3.4101297050212641E-007   5.7918535370668723E-006   0.0000000000000000     
   3.4317208383967563E-007   5.8824225391562220E-006   0.0000000000000000     
   3.4531593887861447E-007   5.9735294138870836E-006   0.0000000000000000     
   3.4744453559000676E-007   6.0651703465781269E-006   0.0000000000000000     
   3.4955787394491610E-007   6.1573415225480337E-006   0.0000000000000000     
   3.5165595391440658E-007   6.2500391271154807E-006   0.0000000000000000     
   3.5373877546954164E-007   6.3432593455991370E-006   0.0000000000000000     
   2.5245601939599588E-007   5.6117676312845330E-006   0.0000000000000000     
   2.5409824169681378E-007   5.7012534493016606E-006   0.0000000000000000     
   2.5572902032336676E-007   5.7912847693042306E-006   0.0000000000000000     
   2.5734835525394151E-007   5.8818577766143273E-006   0.0000000000000000     
   2.5895624646682529E-007   5.9729686565540248E-006   0.0000000000000000     
   2.6055269394030484E-007   6.0646135944454050E-006   0.0000000000000000     
   2.6213769765266710E-007   6.1567887756105461E-006   0.0000000000000000     
   2.6371125758219944E-007   6.2494903853715267E-006   0.0000000000000000     
   2.6527337370718823E-007   6.3427146090504258E-006   0.0000000000000000     
   1.6828939036433639E-007   5.6113556468719793E-006   0.0000000000000000     
   1.6938420519099934E-007   5.7008443257879400E-006   0.0000000000000000     
   1.7047139090448021E-007   5.7908785066764715E-006   0.0000000000000000     
   1.7155094749029826E-007   5.8814543748615242E-006   0.0000000000000000     
   1.7262287493397319E-007   5.9725681156670688E-006   0.0000000000000000     
   1.7368717322102441E-007   6.0642159144170606E-006   0.0000000000000000     
   1.7474384233697123E-007   6.1563939564354500E-006   0.0000000000000000     
   1.7579288226733327E-007   6.2490984270462035E-006   0.0000000000000000     
   1.7683429299763009E-007   6.3423255115732780E-006   0.0000000000000000     
   8.4140308412201189E-008   5.6111084562565541E-006   0.0000000000000000     
   8.4687715813368214E-008   5.7005988517133401E-006   0.0000000000000000     
   8.5231308658842565E-008   5.7906347491352557E-006   0.0000000000000000     
   8.5771086941382440E-008   5.8812123338470654E-006   0.0000000000000000     
   8.6307050653746093E-008   5.9723277911735326E-006   0.0000000000000000     
   8.6839199788691735E-008   6.0639773064394131E-006   0.0000000000000000     
   8.7367534338977499E-008   6.1561570649694645E-006   0.0000000000000000     
   8.7892054297361651E-008   6.2488632520884553E-006   0.0000000000000000     
   8.8412759656602310E-008   6.3420920531211389E-006   0.0000000000000000     
  -1.7206680230083060E-019   5.6110260593944767E-006   0.0000000000000000     
  -1.7140009472711286E-019   5.7005170270319966E-006   0.0000000000000000     
  -1.7058449464313558E-019   5.7905534966322584E-006   0.0000000000000000     
  -1.6956044504479493E-019   5.8811316535201924E-006   0.0000000000000000     
  -1.6829816743003901E-019   5.9722476830207265E-006   0.0000000000000000     
  -1.6676788329681591E-019   6.0638977704587910E-006   0.0000000000000000     
  -1.6485502813028703E-019   6.1560781011593103E-006   0.0000000000000000     
  -1.6261972762122733E-019   6.2487848604472172E-006   0.0000000000000000     
  -1.5993702579835301E-019   6.3420142336474363E-006   0.0000000000000000     
   7.0803906673220681E-007   6.3469946834409466E-006   0.0000000000000000     
   7.1217419360156007E-007   6.4407062366918931E-006   0.0000000000000000     
   7.1627880343049719E-007   6.5349327743173337E-006   0.0000000000000000     
   7.2035289617877725E-007   6.6296704815799018E-006   0.0000000000000000     
   7.2439647180615970E-007   6.7249155437422447E-006   0.0000000000000000     
   7.2840953027240520E-007   6.8206641460670002E-006   0.0000000000000000     
   7.3239207153727226E-007   6.9169124738168062E-006   0.0000000000000000     
   7.3634409556052090E-007   7.0136567122543081E-006   0.0000000000000000     
   7.4026560230191079E-007   7.1108930466421437E-006   0.0000000000000000     
   6.1938064391602307E-007   6.3458273901403228E-006   0.0000000000000000     
   6.2299887974979480E-007   6.4395475260675794E-006   0.0000000000000000     
   6.2659041319726690E-007   6.5337826464124627E-006   0.0000000000000000     
   6.3015524421623373E-007   6.6285289364291637E-006   0.0000000000000000     
   6.3369337276448891E-007   6.7237825813718637E-006   0.0000000000000000     
   6.3720479879982584E-007   6.8195397664947529E-006   0.0000000000000000     
   6.4068952228003922E-007   6.9157966770520201E-006   0.0000000000000000     
   6.4414754316292296E-007   7.0125494982978515E-006   0.0000000000000000     
   6.4757886140627070E-007   7.1097944154864314E-006   0.0000000000000000     
   5.3078363688969419E-007   6.3448157360975224E-006   0.0000000000000000     
   5.3388498175864985E-007   6.4385433103220598E-006   0.0000000000000000     
   5.3696343888579661E-007   6.5327858689986480E-006   0.0000000000000000     
   5.4001900822976154E-007   6.6275395973800171E-006   0.0000000000000000     
   5.4305168974917091E-007   6.7228006807188889E-006   0.0000000000000000     
   5.4606148340265118E-007   6.8185653042679806E-006   0.0000000000000000     
   5.4904838914882913E-007   6.9148296532800250E-006   0.0000000000000000     
   5.5201240694633144E-007   7.0115899130077377E-006   0.0000000000000000     
   5.5495353675378435E-007   7.1088422687038480E-006   0.0000000000000000     
   4.4223927196895537E-007   6.3439597212659824E-006   0.0000000000000000     
   4.4482372593375043E-007   6.4376935894156058E-006   0.0000000000000000     
   4.4738910679297697E-007   6.5319424420439158E-006   0.0000000000000000     
   4.4993541450849289E-007   6.6267024644073484E-006   0.0000000000000000     
   4.5246264904215555E-007   6.7219698417623495E-006   0.0000000000000000     
   4.5497081035582295E-007   6.8177407593653618E-006   0.0000000000000000     
   4.5745989841135263E-007   6.9140114024728272E-006   0.0000000000000000     
   4.5992991317060219E-007   7.0107779563411848E-006   0.0000000000000000     
   4.6238085459542971E-007   7.1080366062268850E-006   0.0000000000000000     
   3.5373877546954164E-007   6.3432593455991370E-006   0.0000000000000000     
   3.5580633858072278E-007   6.4369983633084983E-006   0.0000000000000000     
   3.5785864321569986E-007   6.5312523655162856E-006   0.0000000000000000     
   3.5989568934156065E-007   6.6260175374860344E-006   0.0000000000000000     
   3.6191747692539276E-007   6.7212900644812874E-006   0.0000000000000000     
   3.6392400593428355E-007   6.8170661317655767E-006   0.0000000000000000     
   3.6591527633532076E-007   6.9133419246024382E-006   0.0000000000000000     
   3.6789128809559202E-007   7.0101136282554074E-006   0.0000000000000000     
   3.6985204118218476E-007   7.1073774279880253E-006   0.0000000000000000     
   2.6527337370718823E-007   6.3427146090504258E-006   0.0000000000000000     
   2.6682404600519249E-007   6.4364576319610083E-006   0.0000000000000000     
   2.6836327445085660E-007   6.5307156393837861E-006   0.0000000000000000     
   2.6989105901809757E-007   6.6254848165909617E-006   0.0000000000000000     
   2.7140739968083154E-007   6.7207613488547325E-006   0.0000000000000000     
   2.7291229641297503E-007   6.8165414214473004E-006   0.0000000000000000     
   2.7440574918844457E-007   6.9128212196408602E-006   0.0000000000000000     
   2.7588775798115652E-007   7.0095969287076152E-006   0.0000000000000000     
   2.7735832276502755E-007   7.1068647339197647E-006   0.0000000000000000     
   1.7683429299763009E-007   6.3423255115732780E-006   0.0000000000000000     
   1.7786807451278516E-007   6.4360713953334106E-006   0.0000000000000000     
   1.7889422679533904E-007   6.5303322636144460E-006   0.0000000000000000     
   1.7991274982723633E-007   6.6251043016970096E-006   0.0000000000000000     
   1.8092364359042168E-007   6.7203836948617243E-006   0.0000000000000000     
   1.8192690806683960E-007   6.8161666283892130E-006   0.0000000000000000     
   1.8292254323843492E-007   6.9124492875601055E-006   0.0000000000000000     
   1.8391054908715214E-007   7.0092278576550194E-006   0.0000000000000000     
   1.8489092559493607E-007   7.1064985239545904E-006   0.0000000000000000     
   8.8412759656602310E-008   6.3420920531211389E-006   0.0000000000000000     
   8.8929650409126844E-008   6.4358396533859828E-006   0.0000000000000000     
   8.9442726546038454E-008   6.5301022381762864E-006   0.0000000000000000     
   8.9951988058109524E-008   6.6248759927790518E-006   0.0000000000000000     
   9.0457434936112438E-008   6.7201571024812935E-006   0.0000000000000000     
   9.0959067170819353E-008   6.8159417525699965E-006   0.0000000000000000     
   9.1456884753002787E-008   6.9122261283321788E-006   0.0000000000000000     
   9.1950887673434988E-008   7.0090064150548439E-006   0.0000000000000000     
   9.2441075922888316E-008   7.1062787980249904E-006   0.0000000000000000     
  -1.5993702579835301E-019   6.3420142336474363E-006   0.0000000000000000     
  -1.5686653136455617E-019   6.4357624060789990E-006   0.0000000000000000     
  -1.5351479552249130E-019   6.5300255630373396E-006   0.0000000000000000     
  -1.5008282316100879E-019   6.6247998898119857E-006   0.0000000000000000     
  -1.4665167798013883E-019   6.7200815716924710E-006   0.0000000000000000     
  -1.4355347299582146E-019   6.8158667939683301E-006   0.0000000000000000     
  -1.4088571212276138E-019   6.9121517419290916E-006   0.0000000000000000     
  -1.3882018397207965E-019   7.0089326008642900E-006   0.0000000000000000     
  -1.3761638414922211E-019   7.1062055560634615E-006   0.0000000000000000     
  -1.5218799781995624E-019   2.0316959678962437E-006   0.0000000000000000     
  -1.5283650742019782E-019   2.0905217346576317E-006   0.0000000000000000     
  -1.5326002389382497E-019   2.1500756078205772E-006   0.0000000000000000     
  -1.5354457402454321E-019   2.2103538072725590E-006   0.0000000000000000     
  -1.5370835578582871E-019   2.2713525529010531E-006   0.0000000000000000     
  -1.5377783895728316E-019   2.3330680645935388E-006   0.0000000000000000     
  -1.5388599282237447E-019   2.3954965622374926E-006   0.0000000000000000     
  -1.5404550943362649E-019   2.4586342657203915E-006   0.0000000000000000     
  -1.5429896274319157E-019   2.5224773949297156E-006   0.0000000000000000     
  -5.3375943307365499E-008   2.0318060243028609E-006   0.0000000000000000     
  -5.4106847715978802E-008   2.0906312191788643E-006   0.0000000000000000     
  -5.4833892399618040E-008   2.1501845148332489E-006   0.0000000000000000     
  -5.5557080648417417E-008   2.2104621322509904E-006   0.0000000000000000     
  -5.6276415752511168E-008   2.2714602924170618E-006   0.0000000000000000     
  -5.6991901002033604E-008   2.3331752163164386E-006   0.0000000000000000     
  -5.7703539687118851E-008   2.3956031249340951E-006   0.0000000000000000     
  -5.8411335097901236E-008   2.4587402392550050E-006   0.0000000000000000     
  -5.9115290524514965E-008   2.5225827802641438E-006   0.0000000000000000     
  -1.0676070572691865E-007   2.0321362061066396E-006   0.0000000000000000     
  -1.0822250909740014E-007   2.0909596750610358E-006   0.0000000000000000     
  -1.0967659323975345E-007   2.1505112310129517E-006   0.0000000000000000     
  -1.1112296478125967E-007   2.2107870977711233E-006   0.0000000000000000     
  -1.1256163034919960E-007   2.2717834991442844E-006   0.0000000000000000     
  -1.1399259657085417E-007   2.3334966589411694E-006   0.0000000000000000     
  -1.1541587007350417E-007   2.3959228009705112E-006   0.0000000000000000     
  -1.1683145748443058E-007   2.4590581490410468E-006   0.0000000000000000     
  -1.1823936543091427E-007   2.5228989269615083E-006   0.0000000000000000     
  -1.6016310637115058E-007   2.0326865321834778E-006   0.0000000000000000     
  -1.6235579781001142E-007   2.0915071057818619E-006   0.0000000000000000     
  -1.6453691096122993E-007   2.1510557490722226E-006   0.0000000000000000     
  -1.6670645588325858E-007   2.2113286897102207E-006   0.0000000000000000     
  -1.6886444263454982E-007   2.2723221553515177E-006   0.0000000000000000     
  -1.7101088127355613E-007   2.3340323736517762E-006   0.0000000000000000     
  -1.7314578185873016E-007   2.3964555722666570E-006   0.0000000000000000     
  -1.7526915444852415E-007   2.4595879788518224E-006   0.0000000000000000     
  -1.7738100910139072E-007   2.5234258210629339E-006   0.0000000000000000     
  -2.1359196435240025E-007   2.0334570214092710E-006   0.0000000000000000     
  -2.1651552751940765E-007   2.0922735148190581E-006   0.0000000000000000     
  -2.1942365400471788E-007   2.1518180617235958E-006   0.0000000000000000     
  -2.2231635743899231E-007   2.2120868939455426E-006   0.0000000000000000     
  -2.2519365145289266E-007   2.2730762433075608E-006   0.0000000000000000     
  -2.2805554967708033E-007   2.3347823416323095E-006   0.0000000000000000     
  -2.3090206574221681E-007   2.3972014207424487E-006   0.0000000000000000     
  -2.3373321327896387E-007   2.4603297124606417E-006   0.0000000000000000     
  -2.3654900591798278E-007   2.5241634486095443E-006   0.0000000000000000     
  -2.6705609878300667E-007   2.0344476926599168E-006   0.0000000000000000     
  -2.7071051189118355E-007   2.0932589056503403E-006   0.0000000000000000     
  -2.7434563081088751E-007   2.1527981616796071E-006   0.0000000000000000     
  -2.7796147293303922E-007   2.2130616963543524E-006   0.0000000000000000     
  -2.8155805564855886E-007   2.2740457452812103E-006   0.0000000000000000     
  -2.8513539634836729E-007   2.3357465440668163E-006   0.0000000000000000     
  -2.8869351242338477E-007   2.3981603283178045E-006   0.0000000000000000     
  -2.9223242126453168E-007   2.4612833336408088E-006   0.0000000000000000     
  -2.9575214026272883E-007   2.5251117956424646E-006   0.0000000000000000     
  -3.2056432877530856E-007   2.0356585648113122E-006   0.0000000000000000     
  -3.2494956459093382E-007   2.0944632817534228E-006   0.0000000000000000     
  -3.2931164982040946E-007   2.1539960416527930E-006   0.0000000000000000     
  -3.3365060584997728E-007   2.2142530828139110E-006   0.0000000000000000     
  -3.3796645406587931E-007   2.2752306435412656E-006   0.0000000000000000     
  -3.4225921585435757E-007   2.3369249621393451E-006   0.0000000000000000     
  -3.4652891260165369E-007   2.3993322769126367E-006   0.0000000000000000     
  -3.5077556569400954E-007   2.4624488261656320E-006   0.0000000000000000     
  -3.5499919651766745E-007   2.5262708482028174E-006   0.0000000000000000     
  -3.7412547344164517E-007   2.0370896567393532E-006   0.0000000000000000     
  -3.7924149928425323E-007   2.0958866466060226E-006   0.0000000000000000     
  -3.8433051947395382E-007   2.1554116943556899E-006   0.0000000000000000     
  -3.8939255967438501E-007   2.2156610392014816E-006   0.0000000000000000     
  -3.9442764554918498E-007   2.2766309203565237E-006   0.0000000000000000     
  -3.9943580276199185E-007   2.3383175770339426E-006   0.0000000000000000     
  -4.0441705697644410E-007   2.4007172484468667E-006   0.0000000000000000     
  -4.0937143385617998E-007   2.4638261738084201E-006   0.0000000000000000     
  -4.1429895906483718E-007   2.5276405923317295E-006   0.0000000000000000     
  -4.2774835189435541E-007   2.0387409873199394E-006   0.0000000000000000     
  -4.3359512963673667E-007   2.0975290036858550E-006   0.0000000000000000     
  -4.3941104821219110E-007   2.1570451125008328E-006   0.0000000000000000     
  -4.4519613789084039E-007   2.2172855513943249E-006   0.0000000000000000     
  -4.5095042894280634E-007   2.2782465579957828E-006   0.0000000000000000     
  -4.5667395163821117E-007   2.3399243699346594E-006   0.0000000000000000     
  -4.6236673624717649E-007   2.4023152248404071E-006   0.0000000000000000     
  -4.6802881303982407E-007   2.4654153603424770E-006   0.0000000000000000     
  -4.7366021228627627E-007   2.5292210140703233E-006   0.0000000000000000     
  -1.5429896274319157E-019   2.5224773949297156E-006   0.0000000000000000     
  -1.5466126785148980E-019   2.5870221675541387E-006   0.0000000000000000     
  -1.5516253930269693E-019   2.6522647924871352E-006   0.0000000000000000     
  -1.5573660264780873E-019   2.7182014764233796E-006   0.0000000000000000     
  -1.5630198059648873E-019   2.7848284260575440E-006   0.0000000000000000     
  -1.5684461107832351E-019   2.8521418480843026E-006   0.0000000000000000     
  -1.5731786178628041E-019   2.9201379491983265E-006   0.0000000000000000     
  -1.5764756434621669E-019   2.9888129360942892E-006   0.0000000000000000     
  -1.5780289981796620E-019   3.0581630154668651E-006   0.0000000000000000     
  -5.9115290524514965E-008   2.5225827802641438E-006   0.0000000000000000     
  -5.9815409078851989E-008   2.5871269665342228E-006   0.0000000000000000     
  -6.0511693159835346E-008   2.6523690069889061E-006   0.0000000000000000     
  -6.1204144988145661E-008   2.7183051081395972E-006   0.0000000000000000     
  -6.1892766784463651E-008   2.7849314764976984E-006   0.0000000000000000     
  -6.2577560769470033E-008   2.8522443185746098E-006   0.0000000000000000     
  -6.3258529163845444E-008   2.9202398408817368E-006   0.0000000000000000     
  -6.3935674188270681E-008   2.9889142499304799E-006   0.0000000000000000     
  -6.4608998063426395E-008   3.0582637522322414E-006   0.0000000000000000     
  -1.1823936543091427E-007   2.5228989269615083E-006   0.0000000000000000     
  -1.1963960016483172E-007   2.5874413555685728E-006   0.0000000000000000     
  -1.2103216643644189E-007   2.6526816438106775E-006   0.0000000000000000     
  -1.2241706862059932E-007   2.7186159976642034E-006   0.0000000000000000     
  -1.2379431109215869E-007   2.7852406231055290E-006   0.0000000000000000     
  -1.2516389822597454E-007   2.8525517261110333E-006   0.0000000000000000     
  -1.2652583439690133E-007   2.9205455126570983E-006   0.0000000000000000     
  -1.2788012397979385E-007   2.9892181887201017E-006   0.0000000000000000     
  -1.2922677134950645E-007   3.0585659602764237E-006   0.0000000000000000     
  -1.7738100910139072E-007   2.5234258210629339E-006   0.0000000000000000     
  -1.7948135526537601E-007   2.5879653227983402E-006   0.0000000000000000     
  -1.8157019994690108E-007   2.6532026929271444E-006   0.0000000000000000     
  -1.8364754954198071E-007   2.7191341365611344E-006   0.0000000000000000     
  -1.8571341044662935E-007   2.7857558588120978E-006   0.0000000000000000     
  -1.8776778905686184E-007   2.8530640647918279E-006   0.0000000000000000     
  -1.8981069176869304E-007   2.9210549596121101E-006   0.0000000000000000     
  -1.9184212497813740E-007   2.9897247483847354E-006   0.0000000000000000     
  -1.9386209508120965E-007   3.0590696362214936E-006   0.0000000000000000     
  -2.3654900591798278E-007   2.5241634486095443E-006   0.0000000000000000     
  -2.3934945638776726E-007   2.5886988563646794E-006   0.0000000000000000     
  -2.4213457380813934E-007   2.6539321443130018E-006   0.0000000000000000     
  -2.4490436639675345E-007   2.7198595163943270E-006   0.0000000000000000     
  -2.4765884237126345E-007   2.7864771765484705E-006   0.0000000000000000     
  -2.5039800994932382E-007   2.8537813287152479E-006   0.0000000000000000     
  -2.5312187734858859E-007   2.9217681768344739E-006   0.0000000000000000     
  -2.5583045278671185E-007   2.9904339248459649E-006   0.0000000000000000     
  -2.5852374448134801E-007   3.0597747766895351E-006   0.0000000000000000     
  -2.9575214026272883E-007   2.5251117956424646E-006   0.0000000000000000     
  -2.9925268553928754E-007   2.5896419444087407E-006   0.0000000000000000     
  -3.0273406813708307E-007   2.6548699879429453E-006   0.0000000000000000     
  -3.0619629782938141E-007   2.7207921287277196E-006   0.0000000000000000     
  -3.0963938438944897E-007   2.7874045692457070E-006   0.0000000000000000     
  -3.1306333759055170E-007   2.8547035119795492E-006   0.0000000000000000     
  -3.1646816720595590E-007   2.9226851594118889E-006   0.0000000000000000     
  -3.1985388300892767E-007   2.9913457140253658E-006   0.0000000000000000     
  -3.2322049477273312E-007   3.0606813783026268E-006   0.0000000000000000     
  -3.5499919651766745E-007   2.5262708482028174E-006   0.0000000000000000     
  -3.5919982472721917E-007   2.5907945750716769E-006   0.0000000000000000     
  -3.6337746305065836E-007   2.6560162137916695E-006   0.0000000000000000     
  -3.6753212248432871E-007   2.7219319651252490E-006   0.0000000000000000     
  -3.7166381402457370E-007   2.7885380298348702E-006   0.0000000000000000     
  -3.7577254866773732E-007   2.8558306086829876E-006   0.0000000000000000     
  -3.7985833741016323E-007   2.9238059024320553E-006   0.0000000000000000     
  -3.8392119124819505E-007   2.9924601118445249E-006   0.0000000000000000     
  -3.8796112117817669E-007   3.0617894376828544E-006   0.0000000000000000     
  -4.1429895906483718E-007   2.5276405923317295E-006   0.0000000000000000     
  -4.1919965595884454E-007   2.5921567364946398E-006   0.0000000000000000     
  -4.2407353866579170E-007   2.6573708118338695E-006   0.0000000000000000     
  -4.2892061900605870E-007   2.7232790171508513E-006   0.0000000000000000     
  -4.3374090880002551E-007   2.7898775512470225E-006   0.0000000000000000     
  -4.3853441986807207E-007   2.8571626129238172E-006   0.0000000000000000     
  -4.4330116403057857E-007   2.9251304009826720E-006   0.0000000000000000     
  -4.4804115310792484E-007   2.9937771142250205E-006   0.0000000000000000     
  -4.5275439892049071E-007   3.0630989514522983E-006   0.0000000000000000     
  -4.7366021228627627E-007   2.5292210140703233E-006   0.0000000000000000     
  -4.7926096124144564E-007   2.5937284168187835E-006   0.0000000000000000     
  -4.8483107509940944E-007   2.6589337720442407E-006   0.0000000000000000     
  -4.9037056603903568E-007   2.7248332763684646E-006   0.0000000000000000     
  -4.9587944623919233E-007   2.7914231264132266E-006   0.0000000000000000     
  -5.0135772787874792E-007   2.8586995188002954E-006   0.0000000000000000     
  -5.0680542313657002E-007   2.9266586501514414E-006   0.0000000000000000     
  -5.1222254419152705E-007   2.9952967170884326E-006   0.0000000000000000     
  -5.1760910322248698E-007   3.0646099162330423E-006   0.0000000000000000     
  -1.5780289981796620E-019   3.0581630154668651E-006   0.0000000000000000     
  -1.5776815823223897E-019   3.1281843916422955E-006   0.0000000000000000     
  -1.5758286977502709E-019   3.1988732594731023E-006   0.0000000000000000     
  -1.5736201255147543E-019   3.2702258114433779E-006   0.0000000000000000     
  -1.5718540949069536E-019   3.3422382400372137E-006   0.0000000000000000     
  -1.5719182014044265E-019   3.4149067377387011E-006   0.0000000000000000     
  -1.5744819443154580E-019   3.4882274970319332E-006   0.0000000000000000     
  -1.5805758743610157E-019   3.5621967104009995E-006   0.0000000000000000     
  -1.5905525126537148E-019   3.6368105703299923E-006   0.0000000000000000     
  -6.4608998063426395E-008   3.0582637522322414E-006   0.0000000000000000     
  -6.5278502692206434E-008   3.1282845519521689E-006   0.0000000000000000     
  -6.5944188706357509E-008   3.1989728438703844E-006   0.0000000000000000     
  -6.6606056419839251E-008   3.2703248204207548E-006   0.0000000000000000     
  -6.7264106146611623E-008   3.3423366740371496E-006   0.0000000000000000     
  -6.7918338200634307E-008   3.4150045971534349E-006   0.0000000000000000     
  -6.8568752895867186E-008   3.4883247822034785E-006   0.0000000000000000     
  -6.9215350546270011E-008   3.5622934216211487E-006   0.0000000000000000     
  -6.9858131465802530E-008   3.6369067078403098E-006   0.0000000000000000     
  -1.2922677134950645E-007   3.0585659602764237E-006   0.0000000000000000     
  -1.3056578025689210E-007   3.1285850310215756E-006   0.0000000000000000     
  -1.3189715195679640E-007   3.1992715955275948E-006   0.0000000000000000     
  -1.3322088708006339E-007   3.2706218460856506E-006   0.0000000000000000     
  -1.3453698625753699E-007   3.3426319749869108E-006   0.0000000000000000     
  -1.3584545012006126E-007   3.4152981745225453E-006   0.0000000000000000     
  -1.3714627929847997E-007   3.4886166369837243E-006   0.0000000000000000     
  -1.3843947442363724E-007   3.5625835546616135E-006   0.0000000000000000     
  -1.3972503612637683E-007   3.6371951198473847E-006   0.0000000000000000     
  -1.9386209508120965E-007   3.0590696362214936E-006   0.0000000000000000     
  -1.9587060756685176E-007   3.1290858260602010E-006   0.0000000000000000     
  -1.9786766429571353E-007   3.1997695121427875E-006   0.0000000000000000     
  -1.9985326622137195E-007   3.2711168865372099E-006   0.0000000000000000     
  -2.0182741429740435E-007   3.3431241413114291E-006   0.0000000000000000     
  -2.0379010947738748E-007   3.4157874685333993E-006   0.0000000000000000     
  -2.0574135271489848E-007   3.4891030602710792E-006   0.0000000000000000     
  -2.0768114496351439E-007   3.5630671085924288E-006   0.0000000000000000     
  -2.0960948717681228E-007   3.6376758055654023E-006   0.0000000000000000     
  -2.5852374448134801E-007   3.0597747766895351E-006   0.0000000000000000     
  -2.6120175949472279E-007   3.1297869342777297E-006   0.0000000000000000     
  -2.6386450026734795E-007   3.2004665914140142E-006   0.0000000000000000     
  -2.6651196808430727E-007   3.2718099398745856E-006   0.0000000000000000     
  -2.6914416423068424E-007   3.3438131714356368E-006   0.0000000000000000     
  -2.7176108999156242E-007   3.4164724778733632E-006   0.0000000000000000     
  -2.7436274665202520E-007   3.4897840509639607E-006   0.0000000000000000     
  -2.7694913549715645E-007   3.5637440824836244E-006   0.0000000000000000     
  -2.7952025781203925E-007   3.6383487642085487E-006   0.0000000000000000     
  -3.2322049477273312E-007   3.0606813783026268E-006   0.0000000000000000     
  -3.2656801091314209E-007   3.1306883528838438E-006   0.0000000000000000     
  -3.2989643441593885E-007   3.2013628310393281E-006   0.0000000000000000     
  -3.3320576690941136E-007   3.2727010041969202E-006   0.0000000000000000     
  -3.3649601002184774E-007   3.3446990637844639E-006   0.0000000000000000     
  -3.3976716538153558E-007   3.4173532012298026E-006   0.0000000000000000     
  -3.4301923461676290E-007   3.4906596079607785E-006   0.0000000000000000     
  -3.4625221935581771E-007   3.5646144754052322E-006   0.0000000000000000     
  -3.4946612122698802E-007   3.6392139949910090E-006   0.0000000000000000     
  -3.8796112117817669E-007   3.0617894376828544E-006   0.0000000000000000     
  -3.9197813669474702E-007   3.1317900790882303E-006   0.0000000000000000     
  -3.9597224128572538E-007   3.2024582287167795E-006   0.0000000000000000     
  -3.9994343693722643E-007   3.2737900776033642E-006   0.0000000000000000     
  -4.0389172563536525E-007   3.3457818167828455E-006   0.0000000000000000     
  -4.0781710936625615E-007   3.4184296372900855E-006   0.0000000000000000     
  -4.1171959011601385E-007   3.4917297301599436E-006   0.0000000000000000     
  -4.1559916987075336E-007   3.5656782864272856E-006   0.0000000000000000     
  -4.1945585061658896E-007   3.6402714971269681E-006   0.0000000000000000     
  -4.5275439892049071E-007   3.0630989514522983E-006   0.0000000000000000     
  -4.5744091171217468E-007   3.1330921101005721E-006   0.0000000000000000     
  -4.6210069542094649E-007   3.2037527821444227E-006   0.0000000000000000     
  -4.6673375240829471E-007   3.2750771581930644E-006   0.0000000000000000     
  -4.7134008503570797E-007   3.3470614288557124E-006   0.0000000000000000     
  -4.7591969566467390E-007   3.4197017847415767E-006   0.0000000000000000     
  -4.8047258665668122E-007   3.4929944164598723E-006   0.0000000000000000     
  -4.8499876037321793E-007   3.5669355146198146E-006   0.0000000000000000     
  -4.8949821917577239E-007   3.6415212698306138E-006   0.0000000000000000     
  -5.1760910322248698E-007   3.0646099162330423E-006   0.0000000000000000     
  -5.2296511083806231E-007   3.1345944431305514E-006   0.0000000000000000     
  -5.2829057136584177E-007   3.2052464890203074E-006   0.0000000000000000     
  -5.3358548756315858E-007   3.2765622440651685E-006   0.0000000000000000     
  -5.3884986218734639E-007   3.3485378984279941E-006   0.0000000000000000     
  -5.4408369799573800E-007   3.4211696422716436E-006   0.0000000000000000     
  -5.4928699774566696E-007   3.4944536657589772E-006   0.0000000000000000     
  -5.5445976419446616E-007   3.5683861590528526E-006   0.0000000000000000     
  -5.5960200009946894E-007   3.6429633123161305E-006   0.0000000000000000     
  -1.5905525126537148E-019   3.6368105703299923E-006   0.0000000000000000     
  -1.6061035081697117E-019   3.7120652685626431E-006   0.0000000000000000     
  -1.6251865649013101E-019   3.7879569938812363E-006   0.0000000000000000     
  -1.6473591412207940E-019   3.8644819343276975E-006   0.0000000000000000     
  -1.6701913940787889E-019   3.9416362779439537E-006   0.0000000000000000     
  -1.6935871637290856E-019   4.0194162127719256E-006   0.0000000000000000     
  -1.7160045338110969E-019   4.0978179268535432E-006   0.0000000000000000     
  -1.7351645894254966E-019   4.1768376082307254E-006   0.0000000000000000     
  -1.7509428334277469E-019   4.2564714449454031E-006   0.0000000000000000     
  -6.9858131465802530E-008   3.6369067078403098E-006   0.0000000000000000     
  -7.0497095952842093E-008   3.7121608325602712E-006   0.0000000000000000     
  -7.1132244243435750E-008   3.7880519845420969E-006   0.0000000000000000     
  -7.1763576558047862E-008   3.8645763518122890E-006   0.0000000000000000     
  -7.2391093117142998E-008   3.9417301223973513E-006   0.0000000000000000     
  -7.3014794141185651E-008   4.0195094843237871E-006   0.0000000000000000     
  -7.3634679850640299E-008   4.0979106256180995E-006   0.0000000000000000     
  -7.4250750465971327E-008   4.1769297343067914E-006   0.0000000000000000     
  -7.4863006207643386E-008   4.2565629984163657E-006   0.0000000000000000     
  -1.3972503612637683E-007   3.6371951198473847E-006   0.0000000000000000     
  -1.4100296500491341E-007   3.7124475241138258E-006   0.0000000000000000     
  -1.4227326152694318E-007   3.7883369561602108E-006   0.0000000000000000     
  -1.4353592612753314E-007   3.8648596039674295E-006   0.0000000000000000     
  -1.4479095924175003E-007   3.9420116555163743E-006   0.0000000000000000     
  -1.4603836130466085E-007   4.0197892987879388E-006   0.0000000000000000     
  -1.4727813275133239E-007   4.0981887217630150E-006   0.0000000000000000     
  -1.4851027401683159E-007   4.1772061124224938E-006   0.0000000000000000     
  -1.4973478553622532E-007   4.2568376587472682E-006   0.0000000000000000     
  -2.0960948717681228E-007   3.6376758055654023E-006   0.0000000000000000     
  -2.1152638025576383E-007   3.7129253425643119E-006   0.0000000000000000     
  -2.1343182489091907E-007   3.7888119081888782E-006   0.0000000000000000     
  -2.1532582172022279E-007   3.8653316903451740E-006   0.0000000000000000     
  -2.1720837138161983E-007   3.9424808769392727E-006   0.0000000000000000     
  -2.1907947451305497E-007   4.0202556558772458E-006   0.0000000000000000     
  -2.2093913175247272E-007   4.0986522150651667E-006   0.0000000000000000     
  -2.2278734373781813E-007   4.1776667424091081E-006   0.0000000000000000     
  -2.2462411110703563E-007   4.2572954258151435E-006   0.0000000000000000     
  -2.7952025781203925E-007   3.6383487642085487E-006   0.0000000000000000     
  -2.8207611480478292E-007   3.7135942872527352E-006   0.0000000000000000     
  -2.8461670737559774E-007   3.7894768400814047E-006   0.0000000000000000     
  -2.8714203634771951E-007   3.8659926104975819E-006   0.0000000000000000     
  -2.8965210254438432E-007   3.9431377863042949E-006   0.0000000000000000     
  -2.9214690678882795E-007   4.0209085553045699E-006   0.0000000000000000     
  -2.9462644990428604E-007   4.0993011053014319E-006   0.0000000000000000     
  -2.9709073271399470E-007   4.1783116240979078E-006   0.0000000000000000     
  -2.9953975604118974E-007   4.2579362994970245E-006   0.0000000000000000     
  -3.4946612122698802E-007   3.6392139949910090E-006   0.0000000000000000     
  -3.5266094175136005E-007   3.7144543575200982E-006   0.0000000000000000     
  -3.5583668202121322E-007   3.7903317512910863E-006   0.0000000000000000     
  -3.5899334302162572E-007   3.8668423639767065E-006   0.0000000000000000     
  -3.6213092573767522E-007   3.9439823832496901E-006   0.0000000000000000     
  -3.6524943115443975E-007   4.0217479967827728E-006   0.0000000000000000     
  -3.6834886025699698E-007   4.1001353922486859E-006   0.0000000000000000     
  -3.7142921403042536E-007   4.1791407573201639E-006   0.0000000000000000     
  -3.7449049345980241E-007   4.2587602796699398E-006   0.0000000000000000     
  -4.1945585061658896E-007   3.6402714971269681E-006   0.0000000000000000     
  -4.2328963419488462E-007   3.7155055527074090E-006   0.0000000000000000     
  -4.2710052186799991E-007   3.7913766412712289E-006   0.0000000000000000     
  -4.3088851475354340E-007   3.8678809503346021E-006   0.0000000000000000     
  -4.3465361396912398E-007   3.9450146674137064E-006   0.0000000000000000     
  -4.3839582063235010E-007   4.0227739800247163E-006   0.0000000000000000     
  -4.4211513586083045E-007   4.1011550756838042E-006   0.0000000000000000     
  -4.4581156077217386E-007   4.1801541419071501E-006   0.0000000000000000     
  -4.4948509648398873E-007   4.2597673662109221E-006   0.0000000000000000     
  -4.8949821917577239E-007   3.6415212698306138E-006   0.0000000000000000     
  -4.9397096523474647E-007   3.7167478721556719E-006   0.0000000000000000     
  -4.9841699995619210E-007   3.7926115094751322E-006   0.0000000000000000     
  -5.0283632455507554E-007   3.8691083691233298E-006   0.0000000000000000     
  -5.0722894024636286E-007   3.9462346384345983E-006   0.0000000000000000     
  -5.1159484824501926E-007   4.0239865047432647E-006   0.0000000000000000     
  -5.1593404976601103E-007   4.1023601553836673E-006   0.0000000000000000     
  -5.2024654602430421E-007   4.1813517776901372E-006   0.0000000000000000     
  -5.2453233823486382E-007   4.2609575589970043E-006   0.0000000000000000     
  -5.5960200009946894E-007   3.6429633123161305E-006   0.0000000000000000     
  -5.6471370797033440E-007   3.7181813152058903E-006   0.0000000000000000     
  -5.6979488932602364E-007   3.7940363553560993E-006   0.0000000000000000     
  -5.7484554543782405E-007   3.8705246198949421E-006   0.0000000000000000     
  -5.7986567757702294E-007   3.9476422959506080E-006   0.0000000000000000     
  -5.8485528701490673E-007   4.0253855706512807E-006   0.0000000000000000     
  -5.8981437502276359E-007   4.1037506311251489E-006   0.0000000000000000     
  -5.9474294287187962E-007   4.1827336645003999E-006   0.0000000000000000     
  -5.9964099183354255E-007   4.2623308579052185E-006   0.0000000000000000     
  -1.7509428334277469E-019   4.2564714449454031E-006   0.0000000000000000     
  -1.7617954430644426E-019   4.3367156247259033E-006   0.0000000000000000     
  -1.7678752205667073E-019   4.4175663340461768E-006   0.0000000000000000     
  -1.7705304703330026E-019   4.4990197590665808E-006   0.0000000000000000     
  -1.7700962005114122E-019   4.5810720859474702E-006   0.0000000000000000     
  -1.7675143630244811E-019   4.6637195008492038E-006   0.0000000000000000     
  -1.7633417538220339E-019   4.7469581899321355E-006   0.0000000000000000     
  -1.7583284576985944E-019   4.8307843393566191E-006   0.0000000000000000     
  -1.7534243752654059E-019   4.9151941352830153E-006   0.0000000000000000     
  -7.4863006207643386E-008   4.2565629984163657E-006   0.0000000000000000     
  -7.5471447260237276E-008   4.3368066056611599E-006   0.0000000000000000     
  -7.6076073664799194E-008   4.4176567425068299E-006   0.0000000000000000     
  -7.6676885426491729E-008   4.4991095951068710E-006   0.0000000000000000     
  -7.7273882550477517E-008   4.5811613496147737E-006   0.0000000000000000     
  -7.7867065041919107E-008   4.6638081921840317E-006   0.0000000000000000     
  -7.8456432905979164E-008   4.7470463089681369E-006   0.0000000000000000     
  -7.9041986147820236E-008   4.8308718861205816E-006   0.0000000000000000     
  -7.9623724772604933E-008   4.9152811097948576E-006   0.0000000000000000     
  -1.4973478553622532E-007   4.2568376587472682E-006   0.0000000000000000     
  -1.5095166767392940E-007   4.3370795484103166E-006   0.0000000000000000     
  -1.5216092051175633E-007   4.4179279678529571E-006   0.0000000000000000     
  -1.5336254406086750E-007   4.4993791032085969E-006   0.0000000000000000     
  -1.5455653833242448E-007   4.5814291406106363E-006   0.0000000000000000     
  -1.5574290333758862E-007   4.6640742661924861E-006   0.0000000000000000     
  -1.5692163908752142E-007   4.7473106660875483E-006   0.0000000000000000     
  -1.5809274559338423E-007   4.8311345264292266E-006   0.0000000000000000     
  -1.5925622286633867E-007   4.9155420333509267E-006   0.0000000000000000     
  -2.2462411110703563E-007   4.2572954258151435E-006   0.0000000000000000     
  -2.2644943439488504E-007   4.3375344528884762E-006   0.0000000000000000     
  -2.2826331372338433E-007   4.4183800100308278E-006   0.0000000000000000     
  -2.3006574911136665E-007   4.4998282833430474E-006   0.0000000000000000     
  -2.3185674057766513E-007   4.5818754589259923E-006   0.0000000000000000     
  -2.3363628814111265E-007   4.6645177228805125E-006   0.0000000000000000     
  -2.3540439182054215E-007   4.7477512613074567E-006   0.0000000000000000     
  -2.3716105163478675E-007   4.8315722603076832E-006   0.0000000000000000     
  -2.3890626760267974E-007   4.9159769059820386E-006   0.0000000000000000     
  -2.9953975604118974E-007   4.2579362994970245E-006   0.0000000000000000     
  -3.0197352057673654E-007   4.3381713190107354E-006   0.0000000000000000     
  -3.0439202648201927E-007   4.4190128689867028E-006   0.0000000000000000     
  -3.0679527378605126E-007   4.5004571354815183E-006   0.0000000000000000     
  -3.0918326251784645E-007   4.5825003045517751E-006   0.0000000000000000     
  -3.1155599270641842E-007   4.6651385622540603E-006   0.0000000000000000     
  -3.1391346438078075E-007   4.7483680946449663E-006   0.0000000000000000     
  -3.1625567756994697E-007   4.8321850877810845E-006   0.0000000000000000     
  -3.1858263230293112E-007   4.9165857277190057E-006   0.0000000000000000     
  -3.7449049345980241E-007   4.2587602796699398E-006   0.0000000000000000     
  -3.7753269937311639E-007   4.3389901466921876E-006   0.0000000000000000     
  -3.8055583196999675E-007   4.4198265446668463E-006   0.0000000000000000     
  -3.8355989129298330E-007   4.5012656595952961E-006   0.0000000000000000     
  -3.8654487738461556E-007   4.5833036774789128E-006   0.0000000000000000     
  -3.8951079028743317E-007   4.6659367843190766E-006   0.0000000000000000     
  -3.9245763004397614E-007   4.7491611661171677E-006   0.0000000000000000     
  -3.9538539669678388E-007   4.8329730088745620E-006   0.0000000000000000     
  -3.9829409028839620E-007   4.9173684985926431E-006   0.0000000000000000     
  -4.4948509648398873E-007   4.2597673662109221E-006   0.0000000000000000     
  -4.5313574393765712E-007   4.3399909358479348E-006   0.0000000000000000     
  -4.5676350336965330E-007   4.4208210370175260E-006   0.0000000000000000     
  -4.6036837484022478E-007   4.5022538556556680E-006   0.0000000000000000     
  -4.6395035840961931E-007   4.5842855776983397E-006   0.0000000000000000     
  -4.6750945413808428E-007   4.6669123890815092E-006   0.0000000000000000     
  -4.7104566208586724E-007   4.7501304757411540E-006   0.0000000000000000     
  -4.7455898231321605E-007   4.8339360236132480E-006   0.0000000000000000     
  -4.7804941488037800E-007   4.9183252186337608E-006   0.0000000000000000     
  -5.2453233823486382E-007   4.2609575589970043E-006   0.0000000000000000     
  -5.2879142742399108E-007   4.3411736863930712E-006   0.0000000000000000     
  -5.3302381386332457E-007   4.4219963459850036E-006   0.0000000000000000     
  -5.3722949763583775E-007   4.5034217236339297E-006   0.0000000000000000     
  -5.4140847882450522E-007   4.5854460052009900E-006   0.0000000000000000     
  -5.4556075751229915E-007   4.6680653765473095E-006   0.0000000000000000     
  -5.4968633378219372E-007   4.7512760235340251E-006   0.0000000000000000     
  -5.5378520771716312E-007   4.8350741320222705E-006   0.0000000000000000     
  -5.5785737940017983E-007   4.9194558878731739E-006   0.0000000000000000     
  -5.9964099183354255E-007   4.2623308579052185E-006   0.0000000000000000     
  -6.0450852298575068E-007   4.3425383982426954E-006   0.0000000000000000     
  -6.0934553663334670E-007   4.4233524715155415E-006   0.0000000000000000     
  -6.1415203288788475E-007   4.5047692635013703E-006   0.0000000000000000     
  -6.1892801186091940E-007   4.5867849599777920E-006   0.0000000000000000     
  -6.2367347366400456E-007   4.6693957467224219E-006   0.0000000000000000     
  -6.2838841840869447E-007   4.7525978095128751E-006   0.0000000000000000     
  -6.3307284620654336E-007   4.8363873341267610E-006   0.0000000000000000     
  -6.3772675716910496E-007   4.9207605063416965E-006   0.0000000000000000     
  -1.7534243752654059E-019   4.9151941352830153E-006   0.0000000000000000     
  -1.7491230360801302E-019   5.0001837637611079E-006   0.0000000000000000     
  -1.7453841797113905E-019   5.0857494103984110E-006   0.0000000000000000     
  -1.7419927391999231E-019   5.1718872606918679E-006   0.0000000000000000     
  -1.7384110471475685E-019   5.2585935001384226E-006   0.0000000000000000     
  -1.7347094139063937E-019   5.3458643142350159E-006   0.0000000000000000     
  -1.7309757274164825E-019   5.4336958884785953E-006   0.0000000000000000     
  -1.7261585635710975E-019   5.5220844083661006E-006   0.0000000000000000     
  -1.7206680230083060E-019   5.6110260593944767E-006   0.0000000000000000     
  -7.9623724772604933E-008   4.9152811097948576E-006   0.0000000000000000     
  -8.0201648785957186E-008   5.0002701660348103E-006   0.0000000000000000     
  -8.0775758195346064E-008   5.0858352404457193E-006   0.0000000000000000     
  -8.1346053008701781E-008   5.1719725185232133E-006   0.0000000000000000     
  -8.1912533233954736E-008   5.2586781857629235E-006   0.0000000000000000     
  -8.2475198879035287E-008   5.3459484276604819E-006   0.0000000000000000     
  -8.3034049951873716E-008   5.4337794297115189E-006   0.0000000000000000     
  -8.3589086460400407E-008   5.5221673774116681E-006   0.0000000000000000     
  -8.4140308412545666E-008   5.6111084562565575E-006   0.0000000000000000     
  -1.5925622286633867E-007   4.9155420333509267E-006   0.0000000000000000     
  -1.6041207091824937E-007   5.0005293728791372E-006   0.0000000000000000     
  -1.6156028976379363E-007   5.0860927306126733E-006   0.0000000000000000     
  -1.6270087941835217E-007   5.1722282920434299E-006   0.0000000000000000     
  -1.6383383989730563E-007   5.2589322426633077E-006   0.0000000000000000     
  -1.6495917121603472E-007   5.3462007679642061E-006   0.0000000000000000     
  -1.6607687338992005E-007   5.4340300534380198E-006   0.0000000000000000     
  -1.6718694643434213E-007   5.5224162845766448E-006   0.0000000000000000     
  -1.6828939036468171E-007   5.6113556468719853E-006   0.0000000000000000     
  -2.3890626760267974E-007   4.9159769059820386E-006   0.0000000000000000     
  -2.4064003974355988E-007   5.0009613843289094E-006   0.0000000000000000     
  -2.4236236807879214E-007   5.0865218809368118E-006   0.0000000000000000     
  -2.4407325263024697E-007   5.1726545812917918E-006   0.0000000000000000     
  -2.4577269341979565E-007   5.2593556708799007E-006   0.0000000000000000     
  -2.4746069046930859E-007   5.3466213351871796E-006   0.0000000000000000     
  -2.4913724380065681E-007   5.4344477596996790E-006   0.0000000000000000     
  -2.5080235343571122E-007   5.5228311299034509E-006   0.0000000000000000     
  -2.5245601939634253E-007   5.6117676312845389E-006   0.0000000000000000     
  -3.1858263230293112E-007   4.9165857277190057E-006   0.0000000000000000     
  -3.2089432860839771E-007   5.0015662004189542E-006   0.0000000000000000     
  -3.2319076651361632E-007   5.0871226914556811E-006   0.0000000000000000     
  -3.2547194604550794E-007   5.1732513863075743E-006   0.0000000000000000     
  -3.2773786723099339E-007   5.2599484704530179E-006   0.0000000000000000     
  -3.2998853009699355E-007   5.3472101293703957E-006   0.0000000000000000     
  -3.3222393467042925E-007   5.4350325485380950E-006   0.0000000000000000     
  -3.3444408097822114E-007   5.5234119134345023E-006   0.0000000000000000     
  -3.3664896904729023E-007   5.6123444095379998E-006   0.0000000000000000     
  -3.9829409028839620E-007   4.9173684985926431E-006   0.0000000000000000     
  -4.0118371085927131E-007   5.0023438211840924E-006   0.0000000000000000     
  -4.0405425844154124E-007   5.0878951622068218E-006   0.0000000000000000     
  -4.0690573306525670E-007   5.1740187071300468E-006   0.0000000000000000     
  -4.0973813476046827E-007   5.2607106414229831E-006   0.0000000000000000     
  -4.1255146355722649E-007   5.3479671505548429E-006   0.0000000000000000     
  -4.1534571948558187E-007   5.4357844199948478E-006   0.0000000000000000     
  -4.1812090257558523E-007   5.5241586352122084E-006   0.0000000000000000     
  -4.2087701285728692E-007   5.6130859816761453E-006   0.0000000000000000     
  -4.7804941488037800E-007   4.9183252186337608E-006   0.0000000000000000     
  -4.8151695984268954E-007   5.0032942466591489E-006   0.0000000000000000     
  -4.8496161723584194E-007   5.0888392932277769E-006   0.0000000000000000     
  -4.8838338709061488E-007   5.1749565437984827E-006   0.0000000000000000     
  -4.9178226943778892E-007   5.2616421838301151E-006   0.0000000000000000     
  -4.9515826430814397E-007   5.3488923987815170E-006   0.0000000000000000     
  -4.9851137173245991E-007   5.4367033741115277E-006   0.0000000000000000     
  -5.0184159174151699E-007   5.5250712952789936E-006   0.0000000000000000     
  -5.0514892436609490E-007   5.6139923477427524E-006   0.0000000000000000     
  -5.5785737940017983E-007   4.9194558878731739E-006   0.0000000000000000     
  -5.6190284890516125E-007   5.0044174768789468E-006   0.0000000000000000     
  -5.6592161626979292E-007   5.0899550845560836E-006   0.0000000000000000     
  -5.6991368152270404E-007   5.1760648963521565E-006   0.0000000000000000     
  -5.7387904469252485E-007   5.2627430977147420E-006   0.0000000000000000     
  -5.7781770580788304E-007   5.3499858740914057E-006   0.0000000000000000     
  -5.8172966489740823E-007   5.4377894109297230E-006   0.0000000000000000     
  -5.8561492198972970E-007   5.5261498936772672E-006   0.0000000000000000     
  -5.8947347711347643E-007   5.6150635077816053E-006   0.0000000000000000     
  -6.3772675716910496E-007   4.9207605063416965E-006   0.0000000000000000     
  -6.4235015139319470E-007   5.0057135118783077E-006   0.0000000000000000     
  -6.4694302891666935E-007   5.0912425362292874E-006   0.0000000000000000     
  -6.5150538976264643E-007   5.1773437648303408E-006   0.0000000000000000     
  -6.5603723395424414E-007   5.2640133831171776E-006   0.0000000000000000     
  -6.6053856151457991E-007   5.3512475765255038E-006   0.0000000000000000     
  -6.6500937246677169E-007   5.4390425304910257E-006   0.0000000000000000     
  -6.6944966683393703E-007   5.5273944304494494E-006   0.0000000000000000     
  -6.7385944463919390E-007   5.6162994618364835E-006   0.0000000000000000     
  -1.7206680230083060E-019   5.6110260593944767E-006   0.0000000000000000     
  -1.7140009472711286E-019   5.7005170270319966E-006   0.0000000000000000     
  -1.7058449464313558E-019   5.7905534966322584E-006   0.0000000000000000     
  -1.6956044504479493E-019   5.8811316535201924E-006   0.0000000000000000     
  -1.6829816743003901E-019   5.9722476830207265E-006   0.0000000000000000     
  -1.6676788329681591E-019   6.0638977704587910E-006   0.0000000000000000     
  -1.6485502813028703E-019   6.1560781011593103E-006   0.0000000000000000     
  -1.6261972762122733E-019   6.2487848604472172E-006   0.0000000000000000     
  -1.5993702579835301E-019   6.3420142336474363E-006   0.0000000000000000     
  -8.4140308412545666E-008   5.6111084562565575E-006   0.0000000000000000     
  -8.4687715813711130E-008   5.7005988517133401E-006   0.0000000000000000     
  -8.5231308659183641E-008   5.7906347491352574E-006   0.0000000000000000     
  -8.5771086941721293E-008   5.8812123338470663E-006   0.0000000000000000     
  -8.6307050654082246E-008   5.9723277911735309E-006   0.0000000000000000     
  -8.6839199789024672E-008   6.0639773064394089E-006   0.0000000000000000     
  -8.7367534339306651E-008   6.1561570649694628E-006   0.0000000000000000     
  -8.7892054297686223E-008   6.2488632520884494E-006   0.0000000000000000     
  -8.8412759656921761E-008   6.3420920531211339E-006   0.0000000000000000     
  -1.6828939036468171E-007   5.6113556468719853E-006   0.0000000000000000     
  -1.6938420519134258E-007   5.7008443257879442E-006   0.0000000000000000     
  -1.7047139090482098E-007   5.7908785066764707E-006   0.0000000000000000     
  -1.7155094749063644E-007   5.8814543748615259E-006   0.0000000000000000     
  -1.7262287493430827E-007   5.9725681156670646E-006   0.0000000000000000     
  -1.7368717322135589E-007   6.0642159144170513E-006   0.0000000000000000     
  -1.7474384233729887E-007   6.1563939564354416E-006   0.0000000000000000     
  -1.7579288226765647E-007   6.2490984270461941E-006   0.0000000000000000     
  -1.7683429299794821E-007   6.3423255115732670E-006   0.0000000000000000     
  -2.5245601939634253E-007   5.6117676312845389E-006   0.0000000000000000     
  -2.5409824169715757E-007   5.7012534493016640E-006   0.0000000000000000     
  -2.5572902032370732E-007   5.7912847693042331E-006   0.0000000000000000     
  -2.5734835525427868E-007   5.8818577766143239E-006   0.0000000000000000     
  -2.5895624646715887E-007   5.9729686565540172E-006   0.0000000000000000     
  -2.6055269394063455E-007   6.0646135944453940E-006   0.0000000000000000     
  -2.6213769765299279E-007   6.1567887756105309E-006   0.0000000000000000     
  -2.6371125758252063E-007   6.2494903853715097E-006   0.0000000000000000     
  -2.6527337370750481E-007   6.3427146090504072E-006   0.0000000000000000     
  -3.3664896904729023E-007   5.6123444095379998E-006   0.0000000000000000     
  -3.3883859889524774E-007   5.7018262223003594E-006   0.0000000000000000     
  -3.4101297050246707E-007   5.7918535370668731E-006   0.0000000000000000     
  -3.4317208384001222E-007   5.8824225391562186E-006   0.0000000000000000     
  -3.4531593887894677E-007   5.9735294138870742E-006   0.0000000000000000     
  -3.4744453559033462E-007   6.0651703465781133E-006   0.0000000000000000     
  -3.4955787394523967E-007   6.1573415225480150E-006   0.0000000000000000     
  -3.5165595391472575E-007   6.2500391271154587E-006   0.0000000000000000     
  -3.5373877546985663E-007   6.3432593455991158E-006   0.0000000000000000     
  -4.2087701285728692E-007   5.6130859816761453E-006   0.0000000000000000     
  -4.2361405034970480E-007   5.7025626448298872E-006   0.0000000000000000     
  -4.2633201502772491E-007   5.7925848100127241E-006   0.0000000000000000     
  -4.2903090685520033E-007   5.8831486625379644E-006   0.0000000000000000     
  -4.3171072579598436E-007   5.9742503877189152E-006   0.0000000000000000     
  -4.3437147181393003E-007   6.0658861708688824E-006   0.0000000000000000     
  -4.3701314487289052E-007   6.1580521973011741E-006   0.0000000000000000     
  -4.3963574493671918E-007   6.2507446523290985E-006   0.0000000000000000     
  -4.4223927196926914E-007   6.3439597212659544E-006   0.0000000000000000     
  -5.0514892436609490E-007   5.6139923477427524E-006   0.0000000000000000     
  -5.0843336962462052E-007   5.7034627169361031E-006   0.0000000000000000     
  -5.1169492748610493E-007   5.7934785881901169E-006   0.0000000000000000     
  -5.1493359790720674E-007   5.8840361468103161E-006   0.0000000000000000     
  -5.1814938084458411E-007   5.9751315781022299E-006   0.0000000000000000     
  -5.2134227625489490E-007   6.0667610673713829E-006   0.0000000000000000     
  -5.2451228409479686E-007   6.1589207999232907E-006   0.0000000000000000     
  -5.2765940432094815E-007   6.2516069610634865E-006   0.0000000000000000     
  -5.3078363689000748E-007   6.3448157360974928E-006   0.0000000000000000     
  -5.8947347711347643E-007   5.6150635077816053E-006   0.0000000000000000     
  -5.9330533028408644E-007   5.7045264386648672E-006   0.0000000000000000     
  -5.9711048146423248E-007   5.7945348716473815E-006   0.0000000000000000     
  -6.0088893060339600E-007   5.8850849920240316E-006   0.0000000000000000     
  -6.0464067765105892E-007   5.9761729850897035E-006   0.0000000000000000     
  -6.0836572255670270E-007   6.0677950361392818E-006   0.0000000000000000     
  -6.1206406526980945E-007   6.1599473304676491E-006   0.0000000000000000     
  -6.1573570573986032E-007   6.2526260533696905E-006   0.0000000000000000     
  -6.1938064391633690E-007   6.3458273901402914E-006   0.0000000000000000     
  -6.7385944463919390E-007   5.6162994618364835E-006   0.0000000000000000     
  -6.7823870589219445E-007   5.7057538100620380E-006   0.0000000000000000     
  -6.8258745054873128E-007   5.7957536604328513E-006   0.0000000000000000     
  -6.8690567855113098E-007   5.8862951982298649E-006   0.0000000000000000     
  -6.9119338984172109E-007   5.9773746087340226E-006   0.0000000000000000     
  -6.9545058436282820E-007   6.0689880772262617E-006   0.0000000000000000     
  -6.9967726205677963E-007   6.1611317889875310E-006   0.0000000000000000     
  -7.0387342286590218E-007   6.2538019292987679E-006   0.0000000000000000     
  -7.0803906673252297E-007   6.3469946834409135E-006   0.0000000000000000     
  -1.5993702579835301E-019   6.3420142336474363E-006   0.0000000000000000     
  -1.5686653136455617E-019   6.4357624060789990E-006   0.0000000000000000     
  -1.5351479552249130E-019   6.5300255630373396E-006   0.0000000000000000     
  -1.5008282316100879E-019   6.6247998898119857E-006   0.0000000000000000     
  -1.4665167798013883E-019   6.7200815716924710E-006   0.0000000000000000     
  -1.4355347299582146E-019   6.8158667939683301E-006   0.0000000000000000     
  -1.4088571212276138E-019   6.9121517419290916E-006   0.0000000000000000     
  -1.3882018397207965E-019   7.0089326008642900E-006   0.0000000000000000     
  -1.3761638414922211E-019   7.1062055560634615E-006   0.0000000000000000     
  -8.8412759656921761E-008   6.3420920531211339E-006   0.0000000000000000     
  -8.8929650409440299E-008   6.4358396533859777E-006   0.0000000000000000     
  -8.9442726546345371E-008   6.5301022381762839E-006   0.0000000000000000     
  -8.9951988058409810E-008   6.6248759927790510E-006   0.0000000000000000     
  -9.0457434936406107E-008   6.7201571024812893E-006   0.0000000000000000     
  -9.0959067171106987E-008   6.8159417525699965E-006   0.0000000000000000     
  -9.1456884753285126E-008   6.9122261283321796E-006   0.0000000000000000     
  -9.1950887673713172E-008   7.0090064150548431E-006   0.0000000000000000     
  -9.2441075923163734E-008   7.1062787980249887E-006   0.0000000000000000     
  -1.7683429299794821E-007   6.3423255115732670E-006   0.0000000000000000     
  -1.7786807451309780E-007   6.4360713953333996E-006   0.0000000000000000     
  -1.7889422679564575E-007   6.5303322636144366E-006   0.0000000000000000     
  -1.7991274982753702E-007   6.6251043016970020E-006   0.0000000000000000     
  -1.8092364359071642E-007   6.7203836948617192E-006   0.0000000000000000     
  -1.8192690806712865E-007   6.8161666283892122E-006   0.0000000000000000     
  -1.8292254323871883E-007   6.9124492875601038E-006   0.0000000000000000     
  -1.8391054908743176E-007   7.0092278576550219E-006   0.0000000000000000     
  -1.8489092559521215E-007   7.1064985239545853E-006   0.0000000000000000     
  -2.6527337370750481E-007   6.3427146090504072E-006   0.0000000000000000     
  -2.6682404600550393E-007   6.4364576319609905E-006   0.0000000000000000     
  -2.6836327445116317E-007   6.5307156393837733E-006   0.0000000000000000     
  -2.6989105901839911E-007   6.6254848165909515E-006   0.0000000000000000     
  -2.7140739968112795E-007   6.7207613488547300E-006   0.0000000000000000     
  -2.7291229641326636E-007   6.8165414214472953E-006   0.0000000000000000     
  -2.7440574918873108E-007   6.9128212196408610E-006   0.0000000000000000     
  -2.7588775798143832E-007   7.0095969287076127E-006   0.0000000000000000     
  -2.7735832276530495E-007   7.1068647339197604E-006   0.0000000000000000     
  -3.5373877546985663E-007   6.3432593455991158E-006   0.0000000000000000     
  -3.5580633858103359E-007   6.4369983633084780E-006   0.0000000000000000     
  -3.5785864321600659E-007   6.5312523655162669E-006   0.0000000000000000     
  -3.5989568934186326E-007   6.6260175374860226E-006   0.0000000000000000     
  -3.6191747692569124E-007   6.7212900644812798E-006   0.0000000000000000     
  -3.6392400593457763E-007   6.8170661317655700E-006   0.0000000000000000     
  -3.6591527633561034E-007   6.9133419246024348E-006   0.0000000000000000     
  -3.6789128809587662E-007   7.0101136282554057E-006   0.0000000000000000     
  -3.6985204118246401E-007   7.1073774279880210E-006   0.0000000000000000     
  -4.4223927196926914E-007   6.3439597212659544E-006   0.0000000000000000     
  -4.4482372593406087E-007   6.4376935894155829E-006   0.0000000000000000     
  -4.4738910679328439E-007   6.5319424420438946E-006   0.0000000000000000     
  -4.4993541450879713E-007   6.6267024644073314E-006   0.0000000000000000     
  -4.5246264904245662E-007   6.7219698417623368E-006   0.0000000000000000     
  -4.5497081035612047E-007   6.8177407593653559E-006   0.0000000000000000     
  -4.5745989841164591E-007   6.9140114024728247E-006   0.0000000000000000     
  -4.5992991317089045E-007   7.0107779563411848E-006   0.0000000000000000     
  -4.6238085459571162E-007   7.1080366062268799E-006   0.0000000000000000     
  -5.3078363689000748E-007   6.3448157360974928E-006   0.0000000000000000     
  -5.3388498175896019E-007   6.4385433103220301E-006   0.0000000000000000     
  -5.3696343888610503E-007   6.5327858689986268E-006   0.0000000000000000     
  -5.4001900823006764E-007   6.6275395973799985E-006   0.0000000000000000     
  -5.4305168974947489E-007   6.7228006807188745E-006   0.0000000000000000     
  -5.4606148340295219E-007   6.8185653042679722E-006   0.0000000000000000     
  -5.4904838914912644E-007   6.9148296532800182E-006   0.0000000000000000     
  -5.5201240694662366E-007   7.0115899130077369E-006   0.0000000000000000     
  -5.5495353675406959E-007   7.1088422687038455E-006   0.0000000000000000     
  -6.1938064391633690E-007   6.3458273901402914E-006   0.0000000000000000     
  -6.2299887975010651E-007   6.4395475260675498E-006   0.0000000000000000     
  -6.2659041319757733E-007   6.5337826464124372E-006   0.0000000000000000     
  -6.3015524421654247E-007   6.6285289364291392E-006   0.0000000000000000     
  -6.3369337276479627E-007   6.7237825813718501E-006   0.0000000000000000     
  -6.3720479880013078E-007   6.8195397664947428E-006   0.0000000000000000     
  -6.4068952228034076E-007   6.9157966770520142E-006   0.0000000000000000     
  -6.4414754316321953E-007   7.0125494982978439E-006   0.0000000000000000     
  -6.4757886140656028E-007   7.1097944154864263E-006   0.0000000000000000     
  -7.0803906673252297E-007   6.3469946834409135E-006   0.0000000000000000     
  -7.1217419360187421E-007   6.4407062366918626E-006   0.0000000000000000     
  -7.1627880343081007E-007   6.5349327743173049E-006   0.0000000000000000     
  -7.2035289617908917E-007   6.6296704815798790E-006   0.0000000000000000     
  -7.2439647180647099E-007   6.7249155437422244E-006   0.0000000000000000     
  -7.2840953027271415E-007   6.8206641460669850E-006   0.0000000000000000     
  -7.3239207153757846E-007   6.9169124738167960E-006   0.0000000000000000     
  -7.3634409556082233E-007   7.0136567122542996E-006   0.0000000000000000     
  -7.4026560230220566E-007   7.1108930466421386E-006   0.0000000000000000     
  -4.2774835189435541E-007   2.0387409873199394E-006   0.0000000000000000     
  -4.3359512963673667E-007   2.0975290036858550E-006   0.0000000000000000     
  -4.3941104821219110E-007   2.1570451125008328E-006   0.0000000000000000     
  -4.4519613789084039E-007   2.2172855513943249E-006   0.0000000000000000     
  -4.5095042894280634E-007   2.2782465579957828E-006   0.0000000000000000     
  -4.5667395163821117E-007   2.3399243699346594E-006   0.0000000000000000     
  -4.6236673624717649E-007   2.4023152248404071E-006   0.0000000000000000     
  -4.6802881303982407E-007   2.4654153603424770E-006   0.0000000000000000     
  -4.7366021228627627E-007   2.5292210140703233E-006   0.0000000000000000     
  -4.8144177139928844E-007   2.0406125547336991E-006   0.0000000000000000     
  -4.8801925810611555E-007   2.0993903417725798E-006   0.0000000000000000     
  -4.9456203418246532E-007   2.1588962787473690E-006   0.0000000000000000     
  -5.0107013480819748E-007   2.2191265986886786E-006   0.0000000000000000     
  -5.0754359516317113E-007   2.2800775346271216E-006   0.0000000000000000     
  -5.1398245042724611E-007   2.3417453195933073E-006   0.0000000000000000     
  -5.2038673578028218E-007   2.4041261866178494E-006   0.0000000000000000     
  -5.2675648640213852E-007   2.4672163687313600E-006   0.0000000000000000     
  -5.3309173747267511E-007   2.5310120989644504E-006   0.0000000000000000     
  -5.3521449183633495E-007   2.0427042743802072E-006   0.0000000000000000     
  -5.4252264231866731E-007   2.1014705908536368E-006   0.0000000000000000     
  -5.4979223435881470E-007   2.1609651355408907E-006   0.0000000000000000     
  -5.5702330803241169E-007   2.2211841340566854E-006   0.0000000000000000     
  -5.6421590341509180E-007   2.2821238120157376E-006   0.0000000000000000     
  -5.7137006058249002E-007   2.3437803950327654E-006   0.0000000000000000     
  -5.7848581961023966E-007   2.4061501087224846E-006   0.0000000000000000     
  -5.8556322057397540E-007   2.4692291786996126E-006   0.0000000000000000     
  -5.9260230354933119E-007   2.5330138305788667E-006   0.0000000000000000     
  -5.8907526123889616E-007   2.0450160409637698E-006   0.0000000000000000     
  -5.9711402869280585E-007   2.1037696662184108E-006   0.0000000000000000     
  -6.0511039542195110E-007   2.1632516152736018E-006   0.0000000000000000     
  -6.1306440599371455E-007   2.2234581038894618E-006   0.0000000000000000     
  -6.2097610497547850E-007   2.2843853478261129E-006   0.0000000000000000     
  -6.2884553693462582E-007   2.3460295628436761E-006   0.0000000000000000     
  -6.3667274643853914E-007   2.4083869647022736E-006   0.0000000000000000     
  -6.4445777805460057E-007   2.4714537691620258E-006   0.0000000000000000     
  -6.5220067635019370E-007   2.5352261919830543E-006   0.0000000000000000     
  -6.4303282764037268E-007   2.0475477491886920E-006   0.0000000000000000     
  -6.5180216364694583E-007   2.1062874831562866E-006   0.0000000000000000     
  -6.6052526405258669E-007   2.1657556503377048E-006   0.0000000000000000     
  -6.6920217712233744E-007   2.2259484545781253E-006   0.0000000000000000     
  -6.7783295112124026E-007   2.2868620997227261E-006   0.0000000000000000     
  -6.8641763431433670E-007   2.3484927896166849E-006   0.0000000000000000     
  -6.9495627496666958E-007   2.4108367281051804E-006   0.0000000000000000     
  -7.0344892134328077E-007   2.4738901190333926E-006   0.0000000000000000     
  -7.1189562170921191E-007   2.5376491662464971E-006   0.0000000000000000     
  -6.9709593907416584E-007   2.0502992937592820E-006   0.0000000000000000     
  -7.0659579359950094E-007   2.1090239569566480E-006   0.0000000000000000     
  -7.1604558693143320E-007   2.1684771731254051E-006   0.0000000000000000     
  -7.2544536984851188E-007   2.2286551325137931E-006   0.0000000000000000     
  -7.3479519312928631E-007   2.2895540253700565E-006   0.0000000000000000     
  -7.4409510755230681E-007   2.3511700419424344E-006   0.0000000000000000     
  -7.5334516389612198E-007   2.4134993724791696E-006   0.0000000000000000     
  -7.6254541293928107E-007   2.4765382072285021E-006   0.0000000000000000     
  -7.7169590546033427E-007   2.5402827364386764E-006   0.0000000000000000     
  -7.5127334357367634E-007   2.0532705693798466E-006   0.0000000000000000     
  -7.6150366496888540E-007   2.1119790029088805E-006   0.0000000000000000     
  -7.7168011073920228E-007   2.1714161160289042E-006   0.0000000000000000     
  -7.8180273260246884E-007   2.2315780840875837E-006   0.0000000000000000     
  -7.9187158227652696E-007   2.2924610824325833E-006   0.0000000000000000     
  -8.0188671147921849E-007   2.3540612864115674E-006   0.0000000000000000     
  -8.1184817192838521E-007   2.4163748713722014E-006   0.0000000000000000     
  -8.2175601534186844E-007   2.4793980126621476E-006   0.0000000000000000     
  -8.3161029343751102E-007   2.5431268856290730E-006   0.0000000000000000     
  -8.0557378917230510E-007   2.0564614707546923E-006   0.0000000000000000     
  -8.1653452417351334E-007   2.1151525363023673E-006   0.0000000000000000     
  -8.2743758215660609E-007   2.1745724114404079E-006   0.0000000000000000     
  -8.3828301381444027E-007   2.2347172556906147E-006   0.0000000000000000     
  -8.4907086983987133E-007   2.2955832285747892E-006   0.0000000000000000     
  -8.5980120092575536E-007   2.3571664896147294E-006   0.0000000000000000     
  -8.7047405776494972E-007   2.4194631983322410E-006   0.0000000000000000     
  -8.8108949105030933E-007   2.4824695142491218E-006   0.0000000000000000     
  -8.9164755147469079E-007   2.5461815968871726E-006   0.0000000000000000     
  -8.6000602390345377E-007   2.0598718925881268E-006   0.0000000000000000     
  -8.7169711763179910E-007   2.1185444724264939E-006   0.0000000000000000     
  -8.8332674786435680E-007   2.1779459917521178E-006   0.0000000000000000     
  -8.9489496191465703E-007   2.2380725937140020E-006   0.0000000000000000     
  -9.0640180709622846E-007   2.2989204214611497E-006   0.0000000000000000     
  -9.1784733072260146E-007   2.3604856181425652E-006   0.0000000000000000     
  -9.2923158010730502E-007   2.4227643269072518E-006   0.0000000000000000     
  -9.4055460256386899E-007   2.4857526909042137E-006   0.0000000000000000     
  -9.5181644540582289E-007   2.5494468532824555E-006   0.0000000000000000     
  -4.7366021228627627E-007   2.5292210140703233E-006   0.0000000000000000     
  -4.7926096124144564E-007   2.5937284168187835E-006   0.0000000000000000     
  -4.8483107509940944E-007   2.6589337720442407E-006   0.0000000000000000     
  -4.9037056603903568E-007   2.7248332763684646E-006   0.0000000000000000     
  -4.9587944623919233E-007   2.7914231264132266E-006   0.0000000000000000     
  -5.0135772787874792E-007   2.8586995188002954E-006   0.0000000000000000     
  -5.0680542313657002E-007   2.9266586501514414E-006   0.0000000000000000     
  -5.1222254419152705E-007   2.9952967170884326E-006   0.0000000000000000     
  -5.1760910322248698E-007   3.0646099162330423E-006   0.0000000000000000     
  -5.3309173747267511E-007   2.5310120989644504E-006   0.0000000000000000     
  -5.3939252031443287E-007   2.5955096038859255E-006   0.0000000000000000     
  -5.4565885082067840E-007   2.6607050842173614E-006   0.0000000000000000     
  -5.5189074102736079E-007   2.7265947342185295E-006   0.0000000000000000     
  -5.5808820297042837E-007   2.7931747481491999E-006   0.0000000000000000     
  -5.6425124868582936E-007   2.8604413202691415E-006   0.0000000000000000     
  -5.7037989020951262E-007   2.9283906448381261E-006   0.0000000000000000     
  -5.7647413957742639E-007   2.9970189161159227E-006   0.0000000000000000     
  -5.8253400882551942E-007   3.0663223283623017E-006   0.0000000000000000     
  -5.9260230354933119E-007   2.5330138305788667E-006   0.0000000000000000     
  -5.9960310384572733E-007   2.5975002843405546E-006   0.0000000000000000     
  -6.0656563770772886E-007   2.6626847374273454E-006   0.0000000000000000     
  -6.1348991661368679E-007   2.7285633816475004E-006   0.0000000000000000     
  -6.2037595204195220E-007   2.7951324088092785E-006   0.0000000000000000     
  -6.2722375547087598E-007   2.8623880107209405E-006   0.0000000000000000     
  -6.3403333837880955E-007   2.9303263791907482E-006   0.0000000000000000     
  -6.4080471224410422E-007   2.9989437060269604E-006   0.0000000000000000     
  -6.4753788854511023E-007   3.0682361830378376E-006   0.0000000000000000     
  -6.5220067635019370E-007   2.5352261919830543E-006   0.0000000000000000     
  -6.5990148023537891E-007   2.5997004445278267E-006   0.0000000000000000     
  -6.6756020599093117E-007   2.6648727205681895E-006   0.0000000000000000     
  -6.7517686424030351E-007   2.7307392094783345E-006   0.0000000000000000     
  -6.8275146560694883E-007   2.7972961006324542E-006   0.0000000000000000     
  -6.9028402071432071E-007   2.8645395834047437E-006   0.0000000000000000     
  -6.9777454018587173E-007   2.9324658471693928E-006   0.0000000000000000     
  -7.0522303464505525E-007   3.0010710813005942E-006   0.0000000000000000     
  -7.1262951471532449E-007   3.0703514751725424E-006   0.0000000000000000     
  -7.1189562170921191E-007   2.5376491662464971E-006   0.0000000000000000     
  -7.2029641788343666E-007   2.6021100707928982E-006   0.0000000000000000     
  -7.2865132590065568E-007   2.6672690225338903E-006   0.0000000000000000     
  -7.3696035534950069E-007   2.7331222085339914E-006   0.0000000000000000     
  -7.4522351581860360E-007   2.7996658158577228E-006   0.0000000000000000     
  -7.5344081689659570E-007   2.8668960315696010E-006   0.0000000000000000     
  -7.6161226817210902E-007   2.9348090427341457E-006   0.0000000000000000     
  -7.6973787923377590E-007   3.0034010364158774E-006   0.0000000000000000     
  -7.7781765967022741E-007   3.0726681996793121E-006   0.0000000000000000     
  -7.7169590546033427E-007   2.5402827364386764E-006   0.0000000000000000     
  -7.8079668518995005E-007   2.6047291494809228E-006   0.0000000000000000     
  -7.8984776766727339E-007   2.6698736322184436E-006   0.0000000000000000     
  -7.9884916138356903E-007   2.7357123696374293E-006   0.0000000000000000     
  -8.0780087483010077E-007   2.8022415467240715E-006   0.0000000000000000     
  -8.1670291649813398E-007   2.8694573484645621E-006   0.0000000000000000     
  -8.2555529487893223E-007   2.9373559598450929E-006   0.0000000000000000     
  -8.3435801846376036E-007   3.0059335658518538E-006   0.0000000000000000     
  -8.4311109574388311E-007   3.0751863514710388E-006   0.0000000000000000     
  -8.3161029343751102E-007   2.5431268856290730E-006   0.0000000000000000     
  -8.4141105055496843E-007   2.6075576669370583E-006   0.0000000000000000     
  -8.5115830152115442E-007   2.6726865385158485E-006   0.0000000000000000     
  -8.6085205378479786E-007   2.7385096836116075E-006   0.0000000000000000     
  -8.7049231479462621E-007   2.8050232854704954E-006   0.0000000000000000     
  -8.8007909199936792E-007   2.8722235273386799E-006   0.0000000000000000     
  -8.8961239284775153E-007   2.9401065924623193E-006   0.0000000000000000     
  -8.9909222478850483E-007   3.0086686640875785E-006   0.0000000000000000     
  -9.0851859527035637E-007   3.0779059254606195E-006   0.0000000000000000     
  -8.9164755147469079E-007   2.5461815968871726E-006   0.0000000000000000     
  -9.0214828237854096E-007   2.6105956095064580E-006   0.0000000000000000     
  -9.1259169769266946E-007   2.6757077303201000E-006   0.0000000000000000     
  -9.2297780399547721E-007   2.7415141412794809E-006   0.0000000000000000     
  -9.3330660786536418E-007   2.8080110243359877E-006   0.0000000000000000     
  -9.4357811588073075E-007   2.8751945614410031E-006   0.0000000000000000     
  -9.5379233461997731E-007   2.9430609345459112E-006   0.0000000000000000     
  -9.6394927066150457E-007   3.0116063256020978E-006   0.0000000000000000     
  -9.7404893058371237E-007   3.0808269165609455E-006   0.0000000000000000     
  -9.5181644540582289E-007   2.5494468532824555E-006   0.0000000000000000     
  -9.6301714906071742E-007   2.6138429635342795E-006   0.0000000000000000     
  -9.7415672641218960E-007   2.6789371965251957E-006   0.0000000000000000     
  -9.8523518345789770E-007   2.7447257334640117E-006   0.0000000000000000     
  -9.9625252619550012E-007   2.8112047555595367E-006   0.0000000000000000     
  -1.0072087606226549E-006   2.8783704440205810E-006   0.0000000000000000     
  -1.0181038927370203E-006   2.9462189800559534E-006   0.0000000000000000     
  -1.0289379285362542E-006   3.0147465448744603E-006   0.0000000000000000     
  -1.0397108740180160E-006   3.0839493196849139E-006   0.0000000000000000     
  -5.1760910322248698E-007   3.0646099162330423E-006   0.0000000000000000     
  -5.2296511083806231E-007   3.1345944431305514E-006   0.0000000000000000     
  -5.2829057136584177E-007   3.2052464890203074E-006   0.0000000000000000     
  -5.3358548756315858E-007   3.2765622440651685E-006   0.0000000000000000     
  -5.3884986218734639E-007   3.3485378984279941E-006   0.0000000000000000     
  -5.4408369799573800E-007   3.4211696422716436E-006   0.0000000000000000     
  -5.4928699774566696E-007   3.4944536657589772E-006   0.0000000000000000     
  -5.5445976419446616E-007   3.5683861590528526E-006   0.0000000000000000     
  -5.5960200009946894E-007   3.6429633123161305E-006   0.0000000000000000     
  -5.8253400882551942E-007   3.0663223283623017E-006   0.0000000000000000     
  -5.8855950851267997E-007   3.1362970750777996E-006   0.0000000000000000     
  -5.9455064328955736E-007   3.2069393467260139E-006   0.0000000000000000     
  -6.0050741632974052E-007   3.2782453330113090E-006   0.0000000000000000     
  -6.0642983080681914E-007   3.3502112236380495E-006   0.0000000000000000     
  -6.1231788989438192E-007   3.4228332083105979E-006   0.0000000000000000     
  -6.1817159676601843E-007   3.4961074767333191E-006   0.0000000000000000     
  -6.2399095459531750E-007   3.5700302186105776E-006   0.0000000000000000     
  -6.2977596655586860E-007   3.6445976236467369E-006   0.0000000000000000     
  -6.4753788854511023E-007   3.0682361830378376E-006   0.0000000000000000     
  -6.5423287744683038E-007   3.1382000016017138E-006   0.0000000000000000     
  -6.6088968386086992E-007   3.2088313513772193E-006   0.0000000000000000     
  -6.6750831138548611E-007   3.2801264215930554E-006   0.0000000000000000     
  -6.7408876361893569E-007   3.3520814014779246E-006   0.0000000000000000     
  -6.8063104415947508E-007   3.4246924802605307E-006   0.0000000000000000     
  -6.8713515660536153E-007   3.4979558471695762E-006   0.0000000000000000     
  -6.9360110455485137E-007   3.5718676914337637E-006   0.0000000000000000     
  -7.0002889160620195E-007   3.6464242022817954E-006   0.0000000000000000     
  -7.1262951471532449E-007   3.0703514751725424E-006   0.0000000000000000     
  -7.1999398991894890E-007   3.1403032180516388E-006   0.0000000000000000     
  -7.2731646537346373E-007   3.2109224987731265E-006   0.0000000000000000     
  -7.3459694509522139E-007   3.2822055060644600E-006   0.0000000000000000     
  -7.4183543310057323E-007   3.3541484286530934E-006   0.0000000000000000     
  -7.4903193340587082E-007   3.4267474552664813E-006   0.0000000000000000     
  -7.5618645002746635E-007   3.4999987746320746E-006   0.0000000000000000     
  -7.6329898698171181E-007   3.5738985754773300E-006   0.0000000000000000     
  -7.7036954828495897E-007   3.6484430465296990E-006   0.0000000000000000     
  -7.7781765967022741E-007   3.0726681996793121E-006   0.0000000000000000     
  -7.8585161820747183E-007   3.1426067197769169E-006   0.0000000000000000     
  -7.9383976012102359E-007   3.2132127847129402E-006   0.0000000000000000     
  -8.0178208982377250E-007   3.2844825826795798E-006   0.0000000000000000     
  -8.0967861172860861E-007   3.3564123018690289E-006   0.0000000000000000     
  -8.1752933024842205E-007   3.4289981304734850E-006   0.0000000000000000     
  -8.2533424979610350E-007   3.5022362566851416E-006   0.0000000000000000     
  -8.3309337478454300E-007   3.5761228686961974E-006   0.0000000000000000     
  -8.4080670962663047E-007   3.6506541546988466E-006   0.0000000000000000     
  -8.4311109574388311E-007   3.0751863514710388E-006   0.0000000000000000     
  -8.5181453459083495E-007   3.1451105021268910E-006   0.0000000000000000     
  -8.6046834039723282E-007   3.2157022049958642E-006   0.0000000000000000     
  -8.6907251793596485E-007   3.2869576476924658E-006   0.0000000000000000     
  -8.7762707197991888E-007   3.3588730178312019E-006   0.0000000000000000     
  -8.8613200730198253E-007   3.4314445030265795E-006   0.0000000000000000     
  -8.9458732867504297E-007   3.5046682908931048E-006   0.0000000000000000     
  -9.0299304087198847E-007   3.5785405690452864E-006   0.0000000000000000     
  -9.1134914866570654E-007   3.6530575250976301E-006   0.0000000000000000     
  -9.0851859527035637E-007   3.0779059254606195E-006   0.0000000000000000     
  -9.1789151134747319E-007   3.1478145604509053E-006   0.0000000000000000     
  -9.2721097849577580E-007   3.2183907554211016E-006   0.0000000000000000     
  -9.3647700179662512E-007   3.2896306973571719E-006   0.0000000000000000     
  -9.4568958633138176E-007   3.3615305732450837E-006   0.0000000000000000     
  -9.5484873718140484E-007   3.4340865700708019E-006   0.0000000000000000     
  -9.6395445942805517E-007   3.5072948748202914E-006   0.0000000000000000     
  -9.7300675815269272E-007   3.5811516744795176E-006   0.0000000000000000     
  -9.8200563843667746E-007   3.6556531560344449E-006   0.0000000000000000     
  -9.7404893058371237E-007   3.0808269165609455E-006   0.0000000000000000     
  -9.8409132075582242E-007   3.1507188900983027E-006   0.0000000000000000     
  -9.9407644671033670E-007   3.2212784317878548E-006   0.0000000000000000     
  -1.0040043137705792E-006   3.2925017279277533E-006   0.0000000000000000     
  -1.0138749272598739E-006   3.3643849648161501E-006   0.0000000000000000     
  -1.0236882925015432E-006   3.4369243287511910E-006   0.0000000000000000     
  -1.0334444148189103E-006   3.5101160060310276E-006   0.0000000000000000     
  -1.0431432995352999E-006   3.5839561829538120E-006   0.0000000000000000     
  -1.0527849519740344E-006   3.6584410458176889E-006   0.0000000000000000     
  -1.0397108740180160E-006   3.0839493196849139E-006   0.0000000000000000     
  -1.0504227350943187E-006   3.1538234864184254E-006   0.0000000000000000     
  -1.0610735173345999E-006   3.2243652298953295E-006   0.0000000000000000     
  -1.0716632262226535E-006   3.2955707356582645E-006   0.0000000000000000     
  -1.0821918672422724E-006   3.3674361892498692E-006   0.0000000000000000     
  -1.0926594458772497E-006   3.4399577762127834E-006   0.0000000000000000     
  -1.1030659676113790E-006   3.5131316820896430E-006   0.0000000000000000     
  -1.1134114379284534E-006   3.5869540924230875E-006   0.0000000000000000     
  -1.1236958623122671E-006   3.6614211927557558E-006   0.0000000000000000     
  -5.5960200009946894E-007   3.6429633123161305E-006   0.0000000000000000     
  -5.6471370797033440E-007   3.7181813152058903E-006   0.0000000000000000     
  -5.6979488932602364E-007   3.7940363553560993E-006   0.0000000000000000     
  -5.7484554543782405E-007   3.8705246198949421E-006   0.0000000000000000     
  -5.7986567757702294E-007   3.9476422959506080E-006   0.0000000000000000     
  -5.8485528701490673E-007   4.0253855706512807E-006   0.0000000000000000     
  -5.8981437502276359E-007   4.1037506311251489E-006   0.0000000000000000     
  -5.9474294287187962E-007   4.1827336645003999E-006   0.0000000000000000     
  -5.9964099183354255E-007   4.2623308579052185E-006   0.0000000000000000     
  -6.2977596655586860E-007   3.6445976236467369E-006   0.0000000000000000     
  -6.3552663550609631E-007   3.7198058810786216E-006   0.0000000000000000     
  -6.4124296304376820E-007   3.7956511782729052E-006   0.0000000000000000     
  -6.4692495045148718E-007   3.8721297021287203E-006   0.0000000000000000     
  -6.5257259901185659E-007   3.9492376395452005E-006   0.0000000000000000     
  -6.5818591000747944E-007   4.0269711774214773E-006   0.0000000000000000     
  -6.6376488472095823E-007   4.1053265026566878E-006   0.0000000000000000     
  -6.6930952443489691E-007   4.1842998021499611E-006   0.0000000000000000     
  -6.7481983043189789E-007   4.2638872628004340E-006   0.0000000000000000     
  -7.0002889160620195E-007   3.6464242022817954E-006   0.0000000000000000     
  -7.0641852096671232E-007   3.7216215685126273E-006   0.0000000000000000     
  -7.1276999427985521E-007   3.7974559772062342E-006   0.0000000000000000     
  -7.1908331279814512E-007   3.8739236150128437E-006   0.0000000000000000     
  -7.2535847777409760E-007   3.9510206685826832E-006   0.0000000000000000     
  -7.3159549046022758E-007   4.0287433245659790E-006   0.0000000000000000     
  -7.3779435210904999E-007   4.1070877696129597E-006   0.0000000000000000     
  -7.4395506397308017E-007   4.1860501903738503E-006   0.0000000000000000     
  -7.5007762730483305E-007   4.2656267734988803E-006   0.0000000000000000     
  -7.7036954828495897E-007   3.6484430465296990E-006   0.0000000000000000     
  -7.7739813748192022E-007   3.7236283761262192E-006   0.0000000000000000     
  -7.8438475623075277E-007   3.7994507510422457E-006   0.0000000000000000     
  -7.9132940571797339E-007   3.8759063576627174E-006   0.0000000000000000     
  -7.9823208713009946E-007   3.9529913823725763E-006   0.0000000000000000     
  -8.0509280165364893E-007   4.0307020115567564E-006   0.0000000000000000     
  -8.1191155047513856E-007   4.1090344316002000E-006   0.0000000000000000     
  -8.1868833478108648E-007   4.1879848288878472E-006   0.0000000000000000     
  -8.2542315575800936E-007   4.2675493898046310E-006   0.0000000000000000     
  -8.4080670962663047E-007   3.6506541546988466E-006   0.0000000000000000     
  -8.4847425818145882E-007   3.7258263025377083E-006   0.0000000000000000     
  -8.5609602209292959E-007   3.8016354986670960E-006   0.0000000000000000     
  -8.6367200245114739E-007   3.8780779291937461E-006   0.0000000000000000     
  -8.7120220034621662E-007   3.9551497802243987E-006   0.0000000000000000     
  -8.7868661686824074E-007   4.0328472378657895E-006   0.0000000000000000     
  -8.8612525310732447E-007   4.1111664882246536E-006   0.0000000000000000     
  -8.9351811015357242E-007   4.1901037174077309E-006   0.0000000000000000     
  -9.0086518909708825E-007   4.2696551115217573E-006   0.0000000000000000     
  -9.1134914866570654E-007   3.6530575250976301E-006   0.0000000000000000     
  -9.1965565619506558E-007   3.7282153463654072E-006   0.0000000000000000     
  -9.2791256506285439E-007   3.8040102189669431E-006   0.0000000000000000     
  -9.3611987623784327E-007   3.8804383287213352E-006   0.0000000000000000     
  -9.4427759068880182E-007   3.9574958614476721E-006   0.0000000000000000     
  -9.5238570938450014E-007   4.0351790029650473E-006   0.0000000000000000     
  -9.6044423329370761E-007   4.1134839390925527E-006   0.0000000000000000     
  -9.6845316338519475E-007   4.1924068556492820E-006   0.0000000000000000     
  -9.7641250062773073E-007   4.2719439384543252E-006   0.0000000000000000     
  -9.8200563843667746E-007   3.6556531560344449E-006   0.0000000000000000     
  -9.9095110465247858E-007   3.7307955062276265E-006   0.0000000000000000     
  -9.9984315833699503E-007   3.8065749108279492E-006   0.0000000000000000     
  -1.0086818003182358E-006   3.8829875553608866E-006   0.0000000000000000     
  -1.0174670314242097E-006   3.9600296253519146E-006   0.0000000000000000     
  -1.0261988524829243E-006   4.0376973063265063E-006   0.0000000000000000     
  -1.0348772643223883E-006   4.1159867838101337E-006   0.0000000000000000     
  -1.0435022677706104E-006   4.1948942433282785E-006   0.0000000000000000     
  -1.0520738636555980E-006   4.2744158704064058E-006   0.0000000000000000     
  -1.0527849519740344E-006   3.6584410458176889E-006   0.0000000000000000     
  -1.0623693766834362E-006   3.7335667807426805E-006   0.0000000000000000     
  -1.0718965751118207E-006   3.8093295731362682E-006   0.0000000000000000     
  -1.0813665479325016E-006   3.8857256082278066E-006   0.0000000000000000     
  -1.0907792958187941E-006   3.9627510712466463E-006   0.0000000000000000     
  -1.1001348194440107E-006   4.0404021474221406E-006   0.0000000000000000     
  -1.1094331194814665E-006   4.1186750219836424E-006   0.0000000000000000     
  -1.1186741966044761E-006   4.1975658801605027E-006   0.0000000000000000     
  -1.1278580514863515E-006   4.2770709071820720E-006   0.0000000000000000     
  -1.1236958623122671E-006   3.6614211927557558E-006   0.0000000000000000     
  -1.1339192454176765E-006   3.7365291685288794E-006   0.0000000000000000     
  -1.1440815885837994E-006   3.8122742047780615E-006   0.0000000000000000     
  -1.1541828923208161E-006   3.8886524864374988E-006   0.0000000000000000     
  -1.1642231571389084E-006   3.9656601984413878E-006   0.0000000000000000     
  -1.1742023835482569E-006   4.0432935257239252E-006   0.0000000000000000     
  -1.1841205720590428E-006   4.1215486532193075E-006   0.0000000000000000     
  -1.1939777231814483E-006   4.2004217658617312E-006   0.0000000000000000     
  -1.2037738374256532E-006   4.2799090485853930E-006   0.0000000000000000     
  -5.9964099183354255E-007   4.2623308579052185E-006   0.0000000000000000     
  -6.0450852298575068E-007   4.3425383982426954E-006   0.0000000000000000     
  -6.0934553663334670E-007   4.4233524715155415E-006   0.0000000000000000     
  -6.1415203288788475E-007   4.5047692635013703E-006   0.0000000000000000     
  -6.1892801186091940E-007   4.5867849599777920E-006   0.0000000000000000     
  -6.2367347366400456E-007   4.6693957467224219E-006   0.0000000000000000     
  -6.2838841840869447E-007   4.7525978095128751E-006   0.0000000000000000     
  -6.3307284620654336E-007   4.8363873341267610E-006   0.0000000000000000     
  -6.3772675716910496E-007   4.9207605063416965E-006   0.0000000000000000     
  -6.7481983043189789E-007   4.2638872628004340E-006   0.0000000000000000     
  -6.8029580380519682E-007   4.3440850713051243E-006   0.0000000000000000     
  -6.8573744489055958E-007   4.4248894135526181E-006   0.0000000000000000     
  -6.9114475383438417E-007   4.5062964752293778E-006   0.0000000000000000     
  -6.9651773078306869E-007   4.5883024420218754E-006   0.0000000000000000     
  -7.0185637588301156E-007   4.6709034996165779E-006   0.0000000000000000     
  -7.0716068928061079E-007   4.7540958336999545E-006   0.0000000000000000     
  -7.1243067112226437E-007   4.8378756299584723E-006   0.0000000000000000     
  -7.1766632155437072E-007   4.9222390740785997E-006   0.0000000000000000     
  -7.5007762730483305E-007   4.2656267734988803E-006   0.0000000000000000     
  -7.5616204317910524E-007   4.3458137054615618E-006   0.0000000000000000     
  -7.6220831195981957E-007   4.4266071720285445E-006   0.0000000000000000     
  -7.6821643383318111E-007   4.5080033587897587E-006   0.0000000000000000     
  -7.7418640898539395E-007   4.5899984513351401E-006   0.0000000000000000     
  -7.8011823760266313E-007   4.6725886352546218E-006   0.0000000000000000     
  -7.8601191987119256E-007   4.7557700961381377E-006   0.0000000000000000     
  -7.9186745597718738E-007   4.8395390195756192E-006   0.0000000000000000     
  -7.9768484610685192E-007   4.9238915911570002E-006   0.0000000000000000     
  -8.2542315575800936E-007   4.2675493898046310E-006   0.0000000000000000     
  -8.3211601443287969E-007   4.3477243005864301E-006   0.0000000000000000     
  -8.3876691119448729E-007   4.4285057468728441E-006   0.0000000000000000     
  -8.4537584627207761E-007   4.5098899141544144E-006   0.0000000000000000     
  -8.5194281989489523E-007   4.5918729879216824E-006   0.0000000000000000     
  -8.5846783229218540E-007   4.6744511536651835E-006   0.0000000000000000     
  -8.6495088369319218E-007   4.7576205968754540E-006   0.0000000000000000     
  -8.7139197432716132E-007   4.8413775030430405E-006   0.0000000000000000     
  -8.7779110442333723E-007   4.9257180576584740E-006   0.0000000000000000     
  -9.0086518909708825E-007   4.2696551115217573E-006   0.0000000000000000     
  -9.0816649089192457E-007   4.3498168565541489E-006   0.0000000000000000     
  -9.1542201594792323E-007   4.4305851380150430E-006   0.0000000000000000     
  -9.2263176453887589E-007   4.5119561412952539E-006   0.0000000000000000     
  -9.2979573693857314E-007   4.5939260517855976E-006   0.0000000000000000     
  -9.3691393342080471E-007   4.6764910548768875E-006   0.0000000000000000     
  -9.4398635425936205E-007   4.7596473359599403E-006   0.0000000000000000     
  -9.5101299972803595E-007   4.8433910804255738E-006   0.0000000000000000     
  -9.5799387010061648E-007   4.9277184736645980E-006   0.0000000000000000     
  -9.7641250062773073E-007   4.2719439384543252E-006   0.0000000000000000     
  -9.8432224588164309E-007   4.3520913732391438E-006   0.0000000000000000     
  -9.9218239957348768E-007   4.4328453453846612E-006   0.0000000000000000     
  -9.9999296202137768E-007   4.5142020401841751E-006   0.0000000000000000     
  -1.0077539335434265E-006   4.5961576429309794E-006   0.0000000000000000     
  -1.0154653144577481E-006   4.6787083389183626E-006   0.0000000000000000     
  -1.0231271050824544E-006   4.7618503134396251E-006   0.0000000000000000     
  -1.0307393057356601E-006   4.8455797517880538E-006   0.0000000000000000     
  -1.0383019167354777E-006   4.9298928392569483E-006   0.0000000000000000     
  -1.0520738636555980E-006   4.2744158704064058E-006   0.0000000000000000     
  -1.0605920527274400E-006   4.3545478505158339E-006   0.0000000000000000     
  -1.0690568354245410E-006   4.4352863689112256E-006   0.0000000000000000     
  -1.0774682121073849E-006   4.5166276107930863E-006   0.0000000000000000     
  -1.0858261831364568E-006   4.5985677613619234E-006   0.0000000000000000     
  -1.0941307488722408E-006   4.6811030058182395E-006   0.0000000000000000     
  -1.1023819096752211E-006   4.7642295293625351E-006   0.0000000000000000     
  -1.1105796659058834E-006   4.8479435171953199E-006   0.0000000000000000     
  -1.1187240179247101E-006   4.9322411545170966E-006   0.0000000000000000     
  -1.1278580514863515E-006   4.2770709071820720E-006   0.0000000000000000     
  -1.1369846847547197E-006   4.3571862882586447E-006   0.0000000000000000     
  -1.1460540968544433E-006   4.4379082085242596E-006   0.0000000000000000     
  -1.1550662881846992E-006   4.5192328530938914E-006   0.0000000000000000     
  -1.1640212591446634E-006   4.6011564070825273E-006   0.0000000000000000     
  -1.1729190101335101E-006   4.6836750556051377E-006   0.0000000000000000     
  -1.1817595415504153E-006   4.7667849837767039E-006   0.0000000000000000     
  -1.1905428537945554E-006   4.8504823767122099E-006   0.0000000000000000     
  -1.1992689472651037E-006   4.9347634195266242E-006   0.0000000000000000     
  -1.2037738374256532E-006   4.2799090485853930E-006   0.0000000000000000     
  -1.2135089152888848E-006   4.3600066863419977E-006   0.0000000000000000     
  -1.2231829572165555E-006   4.4407108641532826E-006   0.0000000000000000     
  -1.2327959636411232E-006   4.5220177670584951E-006   0.0000000000000000     
  -1.2423479349950462E-006   4.6039235800968824E-006   0.0000000000000000     
  -1.2518388717107821E-006   4.6864244883076911E-006   0.0000000000000000     
  -1.2612687742207890E-006   4.7695166767301667E-006   0.0000000000000000     
  -1.2706376429575243E-006   4.8531963304035549E-006   0.0000000000000000     
  -1.2799454783534468E-006   4.9374596343671063E-006   0.0000000000000000     
  -6.3772675716910496E-007   4.9207605063416965E-006   0.0000000000000000     
  -6.4235015139319470E-007   5.0057135118783077E-006   0.0000000000000000     
  -6.4694302891666935E-007   5.0912425362292874E-006   0.0000000000000000     
  -6.5150538976264643E-007   5.1773437648303408E-006   0.0000000000000000     
  -6.5603723395424414E-007   5.2640133831171776E-006   0.0000000000000000     
  -6.6053856151457991E-007   5.3512475765255038E-006   0.0000000000000000     
  -6.6500937246677169E-007   5.4390425304910257E-006   0.0000000000000000     
  -6.6944966683393703E-007   5.5273944304494494E-006   0.0000000000000000     
  -6.7385944463919390E-007   5.6162994618364835E-006   0.0000000000000000     
  -7.1766632155437072E-007   4.9222390740785997E-006   0.0000000000000000     
  -7.2286764070123531E-007   5.0071823517029418E-006   0.0000000000000000     
  -7.2803462859879321E-007   5.0927016482986388E-006   0.0000000000000000     
  -7.3316728526088640E-007   5.1787931492889669E-006   0.0000000000000000     
  -7.3826561070135754E-007   5.2654530400972018E-006   0.0000000000000000     
  -7.4332960493404893E-007   5.3526775061466188E-006   0.0000000000000000     
  -7.4835926797280289E-007   5.4404627328604954E-006   0.0000000000000000     
  -7.5335459983146153E-007   5.5288049056621068E-006   0.0000000000000000     
  -7.5831560052386749E-007   5.6177002099747298E-006   0.0000000000000000     
  -7.9768484610685192E-007   4.9238915911570002E-006   0.0000000000000000     
  -8.0346409041547420E-007   5.0088239964420949E-006   0.0000000000000000     
  -8.0920518893467607E-007   5.0943324208702230E-006   0.0000000000000000     
  -8.1490814166516292E-007   5.1804130498505869E-006   0.0000000000000000     
  -8.2057294860763989E-007   5.2670620687923883E-006   0.0000000000000000     
  -8.2619960976281192E-007   5.3542756631048263E-006   0.0000000000000000     
  -8.3178812513138523E-007   5.4420500181971060E-006   0.0000000000000000     
  -8.3733849471406423E-007   5.5303813194784247E-006   0.0000000000000000     
  -8.4285071851155418E-007   5.6192657523579824E-006   0.0000000000000000     
  -8.7779110442333723E-007   4.9257180576584740E-006   0.0000000000000000     
  -8.8414827417003850E-007   5.0106384461958974E-006   0.0000000000000000     
  -8.9046348359187717E-007   5.0961348540638364E-006   0.0000000000000000     
  -8.9673673267253767E-007   5.1822034666544174E-006   0.0000000000000000     
  -9.0296802139570681E-007   5.2688404693597709E-006   0.0000000000000000     
  -9.0915734974506902E-007   5.3560420475720249E-006   0.0000000000000000     
  -9.1530471770430949E-007   5.4438043866833022E-006   0.0000000000000000     
  -9.2141012525711449E-007   5.5321236720857352E-006   0.0000000000000000     
  -9.2747357238716846E-007   5.6209960891714477E-006   0.0000000000000000     
  -9.5799387010061648E-007   4.9277184736645980E-006   0.0000000000000000     
  -9.6492896559905601E-007   5.0126257010644813E-006   0.0000000000000000     
  -9.7181828623795443E-007   5.0981089479992735E-006   0.0000000000000000     
  -9.7866183198007385E-007   5.1841643998396726E-006   0.0000000000000000     
  -9.8545960278817445E-007   5.2707882419563845E-006   0.0000000000000000     
  -9.9221159862501877E-007   5.3579766597201054E-006   0.0000000000000000     
  -9.9891781945336764E-007   5.4457258385015360E-006   0.0000000000000000     
  -1.0055782652359832E-006   5.5340319636713777E-006   0.0000000000000000     
  -1.0121929359356257E-006   5.6228912206003311E-006   0.0000000000000000     
  -1.0383019167354777E-006   4.9298928392569483E-006   0.0000000000000000     
  -1.0458149383366541E-006   5.0147857611479777E-006   0.0000000000000000     
  -1.0532783705404680E-006   5.1002547027963282E-006   0.0000000000000000     
  -1.0606922132848325E-006   5.1862958495455658E-006   0.0000000000000000     
  -1.0680564665076591E-006   5.2729053867392563E-006   0.0000000000000000     
  -1.0753711301468611E-006   5.3600794997209614E-006   0.0000000000000000     
  -1.0826362041403505E-006   5.4478143738342513E-006   0.0000000000000000     
  -1.0898516884260398E-006   5.5361061944226860E-006   0.0000000000000000     
  -1.0970175829418408E-006   5.6249511468298339E-006   0.0000000000000000     
  -1.1187240179247101E-006   4.9322411545170966E-006   0.0000000000000000     
  -1.1268149660169597E-006   5.0171186265465160E-006   0.0000000000000000     
  -1.1348525101669761E-006   5.1025721185747990E-006   0.0000000000000000     
  -1.1428366502838755E-006   5.1885978159113100E-006   0.0000000000000000     
  -1.1507673862767766E-006   5.2751919038654202E-006   0.0000000000000000     
  -1.1586447180547952E-006   5.3623505677464914E-006   0.0000000000000000     
  -1.1664686455270487E-006   5.4500699928638933E-006   0.0000000000000000     
  -1.1742391686026541E-006   5.5383463645269977E-006   0.0000000000000000     
  -1.1819562871907279E-006   5.6271758680451606E-006   0.0000000000000000     
  -1.1992689472651037E-006   4.9347634195266242E-006   0.0000000000000000     
  -1.2079378222741010E-006   5.0196242973602310E-006   0.0000000000000000     
  -1.2165494787850369E-006   5.1050611954544776E-006   0.0000000000000000     
  -1.2251039166742657E-006   5.1910702990761179E-006   0.0000000000000000     
  -1.2336011358181433E-006   5.2776477934919052E-006   0.0000000000000000     
  -1.2420411360930210E-006   5.3647898639685881E-006   0.0000000000000000     
  -1.2504239173752540E-006   5.4524926957729169E-006   0.0000000000000000     
  -1.2587494795411977E-006   5.5407524741716442E-006   0.0000000000000000     
  -1.2670178224672036E-006   5.6295653844315193E-006   0.0000000000000000     
  -1.2799454783534468E-006   4.9374596343671063E-006   0.0000000000000000     
  -1.2891922807422050E-006   5.0223027736892468E-006   0.0000000000000000     
  -1.2983780500622107E-006   5.1077219335551599E-006   0.0000000000000000     
  -1.3075027861530662E-006   5.1937132991792059E-006   0.0000000000000000     
  -1.3165664888543738E-006   5.2802730557757452E-006   0.0000000000000000     
  -1.3255691580057367E-006   5.3673973885591441E-006   0.0000000000000000     
  -1.3345107934467578E-006   5.4550824827437630E-006   0.0000000000000000     
  -1.3433913950170386E-006   5.5433245235439663E-006   0.0000000000000000     
  -1.3522109625561825E-006   5.6321196961741137E-006   0.0000000000000000     
  -6.7385944463919390E-007   5.6162994618364835E-006   0.0000000000000000     
  -6.7823870589219445E-007   5.7057538100620380E-006   0.0000000000000000     
  -6.8258745054873128E-007   5.7957536604328513E-006   0.0000000000000000     
  -6.8690567855113098E-007   5.8862951982298649E-006   0.0000000000000000     
  -6.9119338984172109E-007   5.9773746087340226E-006   0.0000000000000000     
  -6.9545058436282820E-007   6.0689880772262617E-006   0.0000000000000000     
  -6.9967726205677963E-007   6.1611317889875310E-006   0.0000000000000000     
  -7.0387342286590218E-007   6.2538019292987679E-006   0.0000000000000000     
  -7.0803906673252297E-007   6.3469946834409135E-006   0.0000000000000000     
  -7.5831560052386749E-007   5.6177002099747298E-006   0.0000000000000000     
  -7.6324227005077992E-007   5.7071448311950391E-006   0.0000000000000000     
  -7.6813460836062700E-007   5.7971349546133208E-006   0.0000000000000000     
  -7.7299261538875323E-007   5.8876667654932502E-006   0.0000000000000000     
  -7.7781629107050279E-007   5.9787364490985154E-006   0.0000000000000000     
  -7.8260563534122133E-007   6.0703401906927963E-006   0.0000000000000000     
  -7.8736064813625345E-007   6.1624741755397784E-006   0.0000000000000000     
  -7.9208132939094376E-007   6.2551345889031346E-006   0.0000000000000000     
  -7.9676767904063715E-007   6.3483176160465574E-006   0.0000000000000000     
  -8.4285071851155418E-007   5.6192657523579824E-006   0.0000000000000000     
  -8.4832479651265573E-007   5.7086995022175877E-006   0.0000000000000000     
  -8.5376072865854931E-007   5.7986787543294389E-006   0.0000000000000000     
  -8.5915851487851074E-007   5.8891996939383456E-006   0.0000000000000000     
  -8.6451815510181521E-007   5.9802585062891163E-006   0.0000000000000000     
  -8.6983964925773842E-007   6.0718513766265529E-006   0.0000000000000000     
  -8.7512299727555589E-007   6.1639744901954683E-006   0.0000000000000000     
  -8.8036819908454344E-007   6.2566240322406652E-006   0.0000000000000000     
  -8.8557525461397634E-007   6.3497961880069473E-006   0.0000000000000000     
  -9.2747357238716846E-007   5.6209960891714477E-006   0.0000000000000000     
  -9.3349505906837791E-007   5.7104178233049568E-006   0.0000000000000000     
  -9.3947458523552904E-007   5.8003850597403200E-006   0.0000000000000000     
  -9.4541215081363000E-007   5.8908939837039832E-006   0.0000000000000000     
  -9.5130775572768830E-007   5.9819407804223962E-006   0.0000000000000000     
  -9.5716139990271136E-007   6.0735216351220009E-006   0.0000000000000000     
  -9.6297308326370636E-007   6.1656327330292463E-006   0.0000000000000000     
  -9.6874280573568167E-007   6.2582702593705800E-006   0.0000000000000000     
  -9.7447056724364353E-007   6.3514303993724452E-006   0.0000000000000000     
  -1.0121929359356257E-006   5.6228912206003311E-006   0.0000000000000000     
  -1.0187618315085021E-006   5.7122997946324340E-006   0.0000000000000000     
  -1.0252849518845966E-006   5.8022538710050809E-006   0.0000000000000000     
  -1.0317622969873372E-006   5.8927496349290035E-006   0.0000000000000000     
  -1.0381938667401531E-006   5.9837832716149359E-006   0.0000000000000000     
  -1.0445796610664732E-006   6.0753509662736074E-006   0.0000000000000000     
  -1.0509196798897252E-006   6.1674489041157572E-006   0.0000000000000000     
  -1.0572139231333393E-006   6.2600732703521118E-006   0.0000000000000000     
  -1.0634623907207427E-006   6.3532202501934064E-006   0.0000000000000000     
  -1.0970175829418408E-006   5.6249511468298339E-006   0.0000000000000000     
  -1.1041338876235860E-006   5.7143454163752950E-006   0.0000000000000000     
  -1.1112006023987822E-006   5.8042851882828308E-006   0.0000000000000000     
  -1.1182177271928582E-006   5.8947666477522369E-006   0.0000000000000000     
  -1.1251852619312399E-006   5.9857859799833083E-006   0.0000000000000000     
  -1.1321032065393558E-006   6.0773393701758412E-006   0.0000000000000000     
  -1.1389715609426320E-006   6.1694230035296356E-006   0.0000000000000000     
  -1.1457903250664970E-006   6.2620330652444879E-006   0.0000000000000000     
  -1.1525594988363767E-006   6.3551657405201887E-006   0.0000000000000000     
  -1.1819562871907279E-006   5.6271758680451606E-006   0.0000000000000000     
  -1.1896200012041837E-006   5.7165546887088230E-006   0.0000000000000000     
  -1.1972303105711168E-006   5.8064790117326873E-006   0.0000000000000000     
  -1.2047872152234178E-006   5.8969450223125173E-006   0.0000000000000000     
  -1.2122907150929789E-006   5.9879489056440904E-006   0.0000000000000000     
  -1.2197408101116918E-006   6.0794868469231727E-006   0.0000000000000000     
  -1.2271375002114461E-006   6.1715550313455271E-006   0.0000000000000000     
  -1.2344807853241346E-006   6.2641496441069319E-006   0.0000000000000000     
  -1.2417706653816484E-006   6.3572668704031542E-006   0.0000000000000000     
  -1.2670178224672036E-006   5.6295653844315193E-006   0.0000000000000000     
  -1.2752289460408542E-006   5.7189276118082997E-006   0.0000000000000000     
  -1.2833828501946311E-006   5.8088353415137631E-006   0.0000000000000000     
  -1.2914795348722433E-006   5.8992847587486886E-006   0.0000000000000000     
  -1.2995190000174016E-006   5.9902720487138593E-006   0.0000000000000000     
  -1.3075012455738131E-006   6.0817933966100621E-006   0.0000000000000000     
  -1.3154262714851875E-006   6.1738449876380724E-006   0.0000000000000000     
  -1.3232940776952346E-006   6.2664230069986778E-006   0.0000000000000000     
  -1.3311046641476622E-006   6.3595236398926573E-006   0.0000000000000000     
  -1.3522109625561825E-006   5.6321196961741137E-006   0.0000000000000000     
  -1.3609694959241519E-006   5.7214641858490059E-006   0.0000000000000000     
  -1.3696669950623550E-006   5.8113541777851717E-006   0.0000000000000000     
  -1.3783034599325610E-006   5.9017858571995794E-006   0.0000000000000000     
  -1.3868788904965376E-006   5.9927554093091958E-006   0.0000000000000000     
  -1.3953932867160531E-006   6.0842590193309832E-006   0.0000000000000000     
  -1.4038466485528764E-006   6.1762928724819127E-006   0.0000000000000000     
  -1.4122389759687764E-006   6.2688531539789499E-006   0.0000000000000000     
  -1.4205702689255204E-006   6.3619360490390590E-006   0.0000000000000000     
  -7.0803906673252297E-007   6.3469946834409135E-006   0.0000000000000000     
  -7.1217419360187421E-007   6.4407062366918626E-006   0.0000000000000000     
  -7.1627880343081007E-007   6.5349327743173049E-006   0.0000000000000000     
  -7.2035289617908917E-007   6.6296704815798790E-006   0.0000000000000000     
  -7.2439647180647099E-007   6.7249155437422244E-006   0.0000000000000000     
  -7.2840953027271415E-007   6.8206641460669850E-006   0.0000000000000000     
  -7.3239207153757846E-007   6.9169124738167960E-006   0.0000000000000000     
  -7.3634409556082233E-007   7.0136567122542996E-006   0.0000000000000000     
  -7.4026560230220566E-007   7.1108930466421386E-006   0.0000000000000000     
  -7.9676767904063715E-007   6.3483176160465574E-006   0.0000000000000000     
  -8.0141969702555927E-007   6.4420194422362819E-006   0.0000000000000000     
  -8.0603738330545985E-007   6.5362362527487746E-006   0.0000000000000000     
  -8.1062073784496985E-007   6.6309642328630677E-006   0.0000000000000000     
  -8.1516976060872006E-007   6.7261995678581832E-006   0.0000000000000000     
  -8.1968445156134090E-007   6.8219384430131439E-006   0.0000000000000000     
  -8.2416481066746294E-007   6.9181770436069812E-006   0.0000000000000000     
  -8.2861083789171767E-007   7.0149115549187179E-006   0.0000000000000000     
  -8.3302253319873532E-007   7.1121381622273803E-006   0.0000000000000000     
  -8.8557525461397634E-007   6.3497961880069473E-006   0.0000000000000000     
  -8.9074416380014238E-007   6.4434871427484666E-006   0.0000000000000000     
  -8.9587492660737690E-007   6.5376930817567120E-006   0.0000000000000000     
  -9.0096754300702871E-007   6.6324101903325190E-006   0.0000000000000000     
  -9.0602201297044491E-007   6.7276346537767233E-006   0.0000000000000000     
  -9.1103833646897311E-007   6.8233626573901511E-006   0.0000000000000000     
  -9.1601651347396181E-007   6.9195903864736433E-006   0.0000000000000000     
  -9.2095654395675862E-007   7.0163140263280295E-006   0.0000000000000000     
  -9.2585842788871075E-007   7.1135297622541394E-006   0.0000000000000000     
  -9.7447056724364353E-007   6.3514303993724452E-006   0.0000000000000000     
  -9.8015636772152592E-007   6.4451093382776626E-006   0.0000000000000000     
  -9.8580020713895973E-007   6.5393032613945480E-006   0.0000000000000000     
  -9.9140208547450425E-007   6.6340083540477828E-006   0.0000000000000000     
  -9.9696200270671682E-007   6.7292208015620583E-006   0.0000000000000000     
  -1.0024799588141550E-006   6.8249367892620610E-006   0.0000000000000000     
  -1.0079559537753766E-006   6.9211525024724781E-006   0.0000000000000000     
  -1.0133899875689390E-006   7.0178641265179918E-006   0.0000000000000000     
  -1.0187820601734012E-006   7.1150678467232970E-006   0.0000000000000000     
  -1.0634623907207427E-006   6.3532202501934064E-006   0.0000000000000000     
  -1.0696650825856118E-006   6.4468860288731196E-006   0.0000000000000000     
  -1.0758219987026070E-006   6.5410667917157160E-006   0.0000000000000000     
  -1.0819331390566364E-006   6.6357587240684088E-006   0.0000000000000000     
  -1.0879985036326086E-006   6.7309580112784086E-006   0.0000000000000000     
  -1.0940180924154301E-006   6.8266608386929278E-006   0.0000000000000000     
  -1.0999919053900100E-006   6.9228633916591798E-006   0.0000000000000000     
  -1.1059199425412553E-006   7.0195618555243751E-006   0.0000000000000000     
  -1.1118022038540749E-006   7.1167524156357262E-006   0.0000000000000000     
  -1.1525594988363767E-006   6.3551657405201887E-006   0.0000000000000000     
  -1.1592790821883026E-006   6.4488172145840817E-006   0.0000000000000000     
  -1.1659490751007160E-006   6.5429836727736544E-006   0.0000000000000000     
  -1.1725694775626638E-006   6.6376613004539442E-006   0.0000000000000000     
  -1.1791402895631905E-006   6.7328462829899834E-006   0.0000000000000000     
  -1.1856615110913421E-006   6.8285348057468068E-006   0.0000000000000000     
  -1.1921331421361643E-006   6.9247230540894466E-006   0.0000000000000000     
  -1.1985551826867020E-006   7.0214072133829352E-006   0.0000000000000000     
  -1.2049276327320016E-006   7.1185834689923098E-006   0.0000000000000000     
  -1.2417706653816484E-006   6.3572668704031542E-006   0.0000000000000000     
  -1.2490071403255000E-006   6.4509028954597953E-006   0.0000000000000000     
  -1.2561902101356866E-006   6.5450539046217983E-006   0.0000000000000000     
  -1.2633198748018257E-006   6.6397160832639407E-006   0.0000000000000000     
  -1.2703961343135359E-006   6.7348856167610007E-006   0.0000000000000000     
  -1.2774189886604344E-006   6.8305586904877505E-006   0.0000000000000000     
  -1.2843884378321417E-006   6.9267314898189694E-006   0.0000000000000000     
  -1.2913044818182733E-006   7.0234002001294337E-006   0.0000000000000000     
  -1.2981671206084499E-006   7.1205610067939243E-006   0.0000000000000000     
  -1.3311046641476622E-006   6.3595236398926573E-006   0.0000000000000000     
  -1.3388580307931070E-006   6.4531430715495069E-006   0.0000000000000000     
  -1.3465541776099152E-006   6.5472774873135819E-006   0.0000000000000000     
  -1.3541931045833599E-006   6.6419230725579420E-006   0.0000000000000000     
  -1.3617748116987148E-006   6.7370760126556696E-006   0.0000000000000000     
  -1.3692992989412507E-006   6.8327324929798125E-006   0.0000000000000000     
  -1.3767665662962438E-006   6.9288886989034446E-006   0.0000000000000000     
  -1.3841766137489649E-006   7.0255408157996375E-006   0.0000000000000000     
  -1.3915294412846881E-006   7.1226850290414515E-006   0.0000000000000000     
  -1.4205702689255204E-006   6.3619360490390590E-006   0.0000000000000000     
  -1.4288405273870256E-006   6.4555377429024664E-006   0.0000000000000000     
  -1.4370497513258025E-006   6.5496544209024420E-006   0.0000000000000000     
  -1.4451979407165076E-006   6.6442822683955116E-006   0.0000000000000000     
  -1.4532850955337995E-006   6.7394174707382047E-006   0.0000000000000000     
  -1.4613112157523357E-006   6.8350562132870496E-006   0.0000000000000000     
  -1.4692763013467736E-006   6.9311946813985717E-006   0.0000000000000000     
  -1.4771803522917712E-006   7.0278290604293024E-006   0.0000000000000000     
  -1.4850233685619869E-006   7.1249555357357681E-006   0.0000000000000000     
  -8.6000602390345377E-007   2.0598718925881268E-006   0.0000000000000000     
  -8.7169711763179910E-007   2.1185444724264939E-006   0.0000000000000000     
  -8.8332674786435680E-007   2.1779459917521178E-006   0.0000000000000000     
  -8.9489496191465703E-007   2.2380725937140020E-006   0.0000000000000000     
  -9.0640180709622846E-007   2.2989204214611497E-006   0.0000000000000000     
  -9.1784733072260146E-007   2.3604856181425652E-006   0.0000000000000000     
  -9.2923158010730502E-007   2.4227643269072518E-006   0.0000000000000000     
  -9.4055460256386899E-007   2.4857526909042137E-006   0.0000000000000000     
  -9.5181644540582289E-007   2.5494468532824555E-006   0.0000000000000000     
  -9.1457880289074712E-007   2.0635017332467569E-006   0.0000000000000000     
  -9.2700020009667543E-007   2.1221547316748765E-006   0.0000000000000000     
  -9.3935636330059426E-007   2.1815367950810890E-006   0.0000000000000000     
  -9.5164733384782968E-007   2.2416440502315879E-006   0.0000000000000000     
  -9.6387315308370752E-007   2.3024726238925680E-006   0.0000000000000000     
  -9.7603386235355311E-007   2.3640186428302221E-006   0.0000000000000000     
  -9.8812950300269197E-007   2.4262782338107440E-006   0.0000000000000000     
  -1.0001601163764500E-006   2.4892475236003282E-006   0.0000000000000000     
  -1.0121257438201529E-006   2.5529226389651681E-006   0.0000000000000000     
  -9.6930090961871013E-007   2.0673509057464016E-006   0.0000000000000000     
  -9.8245255965915138E-007   2.1259832548580559E-006   0.0000000000000000     
  -9.9553521893317270E-007   2.1853447824437738E-006   0.0000000000000000     
  -1.0085489206165883E-006   2.2454316000481106E-006   0.0000000000000000     
  -1.0214936978852140E-006   2.3062398192156260E-006   0.0000000000000000     
  -1.0343695839148645E-006   2.3677655514908769E-006   0.0000000000000000     
  -1.0471766118813552E-006   2.4300049084184191E-006   0.0000000000000000     
  -1.0599148149604997E-006   2.4929540015428130E-006   0.0000000000000000     
  -1.0725842263281146E-006   2.5566089424086149E-006   0.0000000000000000     
  -1.0241811346620920E-006   2.0714193267651789E-006   0.0000000000000000     
  -1.0380629927447549E-006   2.1300299878908084E-006   0.0000000000000000     
  -1.0518721139873730E-006   2.1893699205814770E-006   0.0000000000000000     
  -1.0656085217380405E-006   2.2494352236510333E-006   0.0000000000000000     
  -1.0792722393448523E-006   2.3102219959133274E-006   0.0000000000000000     
  -1.0928632901559030E-006   2.3717263361822090E-006   0.0000000000000000     
  -1.1063816975192874E-006   2.4339443432715250E-006   0.0000000000000000     
  -1.1198274847831008E-006   2.4968721159951269E-006   0.0000000000000000     
  -1.1332006752954366E-006   2.5605057531668633E-006   0.0000000000000000     
  -1.0792282685956406E-006   2.0757069129812072E-006   0.0000000000000000     
  -1.0938402957790138E-006   2.1342948766879069E-006   0.0000000000000000     
  -1.1083758476884775E-006   2.1936121762355024E-006   0.0000000000000000     
  -1.1228349367292945E-006   2.2536549015278179E-006   0.0000000000000000     
  -1.1372175753067274E-006   2.3144191424686777E-006   0.0000000000000000     
  -1.1515237758260363E-006   2.3759009889618993E-006   0.0000000000000000     
  -1.1657535506924852E-006   2.4380965309113091E-006   0.0000000000000000     
  -1.1799069123113359E-006   2.5010018582207292E-006   0.0000000000000000     
  -1.1939838730878496E-006   2.5646130607939811E-006   0.0000000000000000     
  -1.1344511019941061E-006   2.0802135810726064E-006   0.0000000000000000     
  -1.1497932651874558E-006   2.1387778671641241E-006   0.0000000000000000     
  -1.1650552192617689E-006   2.1980715161471540E-006   0.0000000000000000     
  -1.1802369651074600E-006   2.2580906141659283E-006   0.0000000000000000     
  -1.1953385036149430E-006   2.3188312473646770E-006   0.0000000000000000     
  -1.2103598356746323E-006   2.3802895018876306E-006   0.0000000000000000     
  -1.2253009621769429E-006   2.4424614638790216E-006   0.0000000000000000     
  -1.2401618840122879E-006   2.5053432194830791E-006   0.0000000000000000     
  -1.2549426020710834E-006   2.5689308548440361E-006   0.0000000000000000     
  -1.1898584254322370E-006   2.0849392477174944E-006   0.0000000000000000     
  -1.2059306973956093E-006   2.1434789052342354E-006   0.0000000000000000     
  -1.2219190279325288E-006   2.2027479070577358E-006   0.0000000000000000     
  -1.2378234063896445E-006   2.2627423420528248E-006   0.0000000000000000     
  -1.2536438221136048E-006   2.3234582990843313E-006   0.0000000000000000     
  -1.2693802644510587E-006   2.3848918670170834E-006   0.0000000000000000     
  -1.2850327227486546E-006   2.4470391347159079E-006   0.0000000000000000     
  -1.3006011863530412E-006   2.5098961910456370E-006   0.0000000000000000     
  -1.3160856446108668E-006   2.5734591248710963E-006   0.0000000000000000     
  -1.2454590294847818E-006   2.0898838295939897E-006   0.0000000000000000     
  -1.2622613888290014E-006   2.1483979368130137E-006   0.0000000000000000     
  -1.2789760729260391E-006   2.2076413157085518E-006   0.0000000000000000     
  -1.2956030600929568E-006   2.2676100656759726E-006   0.0000000000000000     
  -1.3121423286468176E-006   2.3283002861106452E-006   0.0000000000000000     
  -1.3285938569046827E-006   2.3897080764079372E-006   0.0000000000000000     
  -1.3449576231836155E-006   2.4518295359632197E-006   0.0000000000000000     
  -1.3612336058006772E-006   2.5146607641718615E-006   0.0000000000000000     
  -1.3774217830729300E-006   2.5781978604292280E-006   0.0000000000000000     
  -1.3012617047264906E-006   2.0950472433802130E-006   0.0000000000000000     
  -1.3187941359131604E-006   2.1535349078152335E-006   0.0000000000000000     
  -1.3362351534675814E-006   2.2127517088409046E-006   0.0000000000000000     
  -1.3535847257345057E-006   2.2726937655228324E-006   0.0000000000000000     
  -1.3708428210586851E-006   2.3333571969266199E-006   0.0000000000000000     
  -1.3880094077848726E-006   2.3947381221178762E-006   0.0000000000000000     
  -1.4050844542578197E-006   2.4568326601622041E-006   0.0000000000000000     
  -1.4220679288222793E-006   2.5196369301252104E-006   0.0000000000000000     
  -1.4389597998230036E-006   2.5831470510725026E-006   0.0000000000000000     
  -9.5181644540582289E-007   2.5494468532824555E-006   0.0000000000000000     
  -9.6301714906071742E-007   2.6138429635342795E-006   0.0000000000000000     
  -9.7415672641218960E-007   2.6789371965251957E-006   0.0000000000000000     
  -9.8523518345789770E-007   2.7447257334640117E-006   0.0000000000000000     
  -9.9625252619550012E-007   2.8112047555595367E-006   0.0000000000000000     
  -1.0072087606226549E-006   2.8783704440205810E-006   0.0000000000000000     
  -1.0181038927370203E-006   2.9462189800559534E-006   0.0000000000000000     
  -1.0289379285362542E-006   3.0147465448744603E-006   0.0000000000000000     
  -1.0397108740180160E-006   3.0839493196849139E-006   0.0000000000000000     
  -1.0121257438201529E-006   2.5529226389651681E-006   0.0000000000000000     
  -1.0240264207537043E-006   2.6172997157245061E-006   0.0000000000000000     
  -1.0358621588953204E-006   2.6823749259097845E-006   0.0000000000000000     
  -1.0476329640377962E-006   2.7481444506054944E-006   0.0000000000000000     
  -1.0593388419739258E-006   2.8146044708961274E-006   0.0000000000000000     
  -1.0709797984965040E-006   2.8817511678661751E-006   0.0000000000000000     
  -1.0825558393983255E-006   2.9495807226001282E-006   0.0000000000000000     
  -1.0940669704721847E-006   3.0180893161824786E-006   0.0000000000000000     
  -1.1055131975108754E-006   3.0872731296977162E-006   0.0000000000000000     
  -1.0725842263281146E-006   2.5566089424086149E-006   0.0000000000000000     
  -1.0851848746183389E-006   2.6209658542164394E-006   0.0000000000000000     
  -1.0977167702986115E-006   2.6860209067911275E-006   0.0000000000000000     
  -1.1101799192946985E-006   2.7517702816135811E-006   0.0000000000000000     
  -1.1225743275323619E-006   2.8182101601646958E-006   0.0000000000000000     
  -1.1349000009373672E-006   2.8853367239253717E-006   0.0000000000000000     
  -1.1471569454354789E-006   2.9531461543765083E-006   0.0000000000000000     
  -1.1593451669524610E-006   3.0216346329990028E-006   0.0000000000000000     
  -1.1714646714140771E-006   3.0907983412737555E-006   0.0000000000000000     
  -1.1332006752954366E-006   2.5605057531668633E-006   0.0000000000000000     
  -1.1465012895676146E-006   2.6248413675082088E-006   0.0000000000000000     
  -1.1597293367638484E-006   2.6898751273711410E-006   0.0000000000000000     
  -1.1728848232115765E-006   2.7556032150152596E-006   0.0000000000000000     
  -1.1859677552382352E-006   2.8220218127001674E-006   0.0000000000000000     
  -1.1989781391712651E-006   2.8891271026854680E-006   0.0000000000000000     
  -1.2119159813381017E-006   2.9569152672307602E-006   0.0000000000000000     
  -1.2247812880661842E-006   3.0253824885956457E-006   0.0000000000000000     
  -1.2375740656829502E-006   3.0945249490397279E-006   0.0000000000000000     
  -1.1939838730878496E-006   2.5646130607939811E-006   0.0000000000000000     
  -1.2079844445145274E-006   2.6289262440979461E-006   0.0000000000000000     
  -1.2219086344328161E-006   2.6939375758517367E-006   0.0000000000000000     
  -1.2357564497714030E-006   2.7596432393375215E-006   0.0000000000000000     
  -1.2495278974589747E-006   2.8260394178374728E-006   0.0000000000000000     
  -1.2632229844242163E-006   2.8931222946337603E-006   0.0000000000000000     
  -1.2768417175958146E-006   2.9608880530085526E-006   0.0000000000000000     
  -1.2903841039024556E-006   3.0293328762440228E-006   0.0000000000000000     
  -1.3038501502728252E-006   3.0984529476223373E-006   0.0000000000000000     
  -1.2549426020710834E-006   2.5689308548440361E-006   0.0000000000000000     
  -1.2696431183720698E-006   2.6332204724837801E-006   0.0000000000000000     
  -1.2842634394472994E-006   2.6982082404348278E-006   0.0000000000000000     
  -1.2988035729571519E-006   2.7638903431073552E-006   0.0000000000000000     
  -1.3132635265620062E-006   2.8302629649115355E-006   0.0000000000000000     
  -1.3276433079222421E-006   2.8973222902575433E-006   0.0000000000000000     
  -1.3419429246982386E-006   2.9650645035555548E-006   0.0000000000000000     
  -1.3561623845503753E-006   3.0334857892157421E-006   0.0000000000000000     
  -1.3703016951390315E-006   3.1025823316482827E-006   0.0000000000000000     
  -1.3160856446108668E-006   2.5734591248710963E-006   0.0000000000000000     
  -1.3314860900532373E-006   2.6377240411638420E-006   0.0000000000000000     
  -1.3468025279490838E-006   2.7026871093223313E-006   0.0000000000000000     
  -1.3620349667517947E-006   2.7683445148517502E-006   0.0000000000000000     
  -1.3771834149147578E-006   2.8346924432572832E-006   0.0000000000000000     
  -1.3922478808913618E-006   2.9017270800441174E-006   0.0000000000000000     
  -1.4072283731349952E-006   2.9694446107174362E-006   0.0000000000000000     
  -1.4221249000990442E-006   3.0378412207824204E-006   0.0000000000000000     
  -1.4369374702368990E-006   3.1069130957442625E-006   0.0000000000000000     
  -1.3774217830729300E-006   2.5781978604292280E-006   0.0000000000000000     
  -1.3935221384710246E-006   2.6424369386362597E-006   0.0000000000000000     
  -1.4095346760799540E-006   2.7073741707161577E-006   0.0000000000000000     
  -1.4254594051383052E-006   2.7730057430976957E-006   0.0000000000000000     
  -1.4412963348846581E-006   2.8393278422096445E-006   0.0000000000000000     
  -1.4570454745575961E-006   2.9063366544807740E-006   0.0000000000000000     
  -1.4727068333957039E-006   2.9740283663398601E-006   0.0000000000000000     
  -1.4882804206375635E-006   3.0423991642156705E-006   0.0000000000000000     
  -1.5037662455217579E-006   3.1114452345369790E-006   0.0000000000000000     
  -1.4389597998230036E-006   2.5831470510725026E-006   0.0000000000000000     
  -1.4557600425384239E-006   2.6473591533991658E-006   0.0000000000000000     
  -1.4724686599816962E-006   2.7122694128182239E-006   0.0000000000000000     
  -1.4890856620996540E-006   2.7778740163721811E-006   0.0000000000000000     
  -1.5056110588391324E-006   2.8441691511035432E-006   0.0000000000000000     
  -1.5220448601469652E-006   2.9111510040548144E-006   0.0000000000000000     
  -1.5383870759699872E-006   2.9788157622684988E-006   0.0000000000000000     
  -1.5546377162550331E-006   3.0471596127871035E-006   0.0000000000000000     
  -1.5707967909489379E-006   3.1161787426531307E-006   0.0000000000000000     
  -1.0397108740180160E-006   3.0839493196849139E-006   0.0000000000000000     
  -1.0504227350943187E-006   3.1538234864184254E-006   0.0000000000000000     
  -1.0610735173345999E-006   3.2243652298953295E-006   0.0000000000000000     
  -1.0716632262226535E-006   3.2955707356582645E-006   0.0000000000000000     
  -1.0821918672422724E-006   3.3674361892498692E-006   0.0000000000000000     
  -1.0926594458772497E-006   3.4399577762127834E-006   0.0000000000000000     
  -1.1030659676113790E-006   3.5131316820896430E-006   0.0000000000000000     
  -1.1134114379284534E-006   3.5869540924230875E-006   0.0000000000000000     
  -1.1236958623122671E-006   3.6614211927557558E-006   0.0000000000000000     
  -1.1055131975108754E-006   3.0872731296977162E-006   0.0000000000000000     
  -1.1168945262657383E-006   3.1571283448354910E-006   0.0000000000000000     
  -1.1282109623222899E-006   3.2276511457060712E-006   0.0000000000000000     
  -1.1394625112245930E-006   3.2988377170248829E-006   0.0000000000000000     
  -1.1506491785167099E-006   3.3706842435073548E-006   0.0000000000000000     
  -1.1617709697427033E-006   3.4431869098689116E-006   0.0000000000000000     
  -1.1728278904466354E-006   3.5163419008249801E-006   0.0000000000000000     
  -1.1838199461725683E-006   3.5901454010909866E-006   0.0000000000000000     
  -1.1947471424645644E-006   3.6645935953823572E-006   0.0000000000000000     
  -1.1714646714140771E-006   3.0907983412737555E-006   0.0000000000000000     
  -1.1835154646702199E-006   3.1606334610732108E-006   0.0000000000000000     
  -1.1954975522672912E-006   3.2311361758359969E-006   0.0000000000000000     
  -1.2074109396758227E-006   3.3023026693922914E-006   0.0000000000000000     
  -1.2192556323663423E-006   3.3741291255722666E-006   0.0000000000000000     
  -1.2310316358093813E-006   3.4466117282060975E-006   0.0000000000000000     
  -1.2427389554754692E-006   3.5197466611239613E-006   0.0000000000000000     
  -1.2543775968351366E-006   3.5935301081560314E-006   0.0000000000000000     
  -1.2659475653589136E-006   3.6679582531324831E-006   0.0000000000000000     
  -1.2375740656829502E-006   3.0945249490397279E-006   0.0000000000000000     
  -1.2502943203322439E-006   3.1643388309301705E-006   0.0000000000000000     
  -1.2629420574235317E-006   3.2348203170643705E-006   0.0000000000000000     
  -1.2755172821826861E-006   3.3059655903472946E-006   0.0000000000000000     
  -1.2880199998355800E-006   3.3777708336839046E-006   0.0000000000000000     
  -1.3004502156080854E-006   3.4502322299791594E-006   0.0000000000000000     
  -1.3128079347260749E-006   3.5233459621380252E-006   0.0000000000000000     
  -1.3250931624154220E-006   3.5971082130654624E-006   0.0000000000000000     
  -1.3373059039019980E-006   3.6715151656664330E-006   0.0000000000000000     
  -1.3038501502728252E-006   3.0984529476223373E-006   0.0000000000000000     
  -1.3172398632762902E-006   3.1682444502049541E-006   0.0000000000000000     
  -1.3305532480449360E-006   3.2387035661704527E-006   0.0000000000000000     
  -1.3437903093515285E-006   3.3098264774767015E-006   0.0000000000000000     
  -1.3569510519688340E-006   3.3816093660815670E-006   0.0000000000000000     
  -1.3700354806696187E-006   3.4540484139429137E-006   0.0000000000000000     
  -1.3830436002266475E-006   3.5271398030186107E-006   0.0000000000000000     
  -1.3959754154126875E-006   3.6008797152665231E-006   0.0000000000000000     
  -1.4088309310005042E-006   3.6752643326445158E-006   0.0000000000000000     
  -1.3703016951390315E-006   3.1025823316482827E-006   0.0000000000000000     
  -1.3843608635268380E-006   3.1723503146961466E-006   0.0000000000000000     
  -1.3983398943854300E-006   3.2427859199335035E-006   0.0000000000000000     
  -1.4122387917886933E-006   3.3138853283673166E-006   0.0000000000000000     
  -1.4260575598105149E-006   3.3856447210045530E-006   0.0000000000000000     
  -1.4397962025247822E-006   3.4580602788521783E-006   0.0000000000000000     
  -1.4534547240053804E-006   3.5311281829171549E-006   0.0000000000000000     
  -1.4670331283261964E-006   3.6048446142064520E-006   0.0000000000000000     
  -1.4805314195611168E-006   3.6792057537270337E-006   0.0000000000000000     
  -1.4369374702368990E-006   3.1069130957442625E-006   0.0000000000000000     
  -1.4516660911083674E-006   3.1766564202023357E-006   0.0000000000000000     
  -1.4663107666989391E-006   3.2470673751327853E-006   0.0000000000000000     
  -1.4808715001005251E-006   3.3181421406059500E-006   0.0000000000000000     
  -1.4953482944050344E-006   3.3898768966921648E-006   0.0000000000000000     
  -1.5097411527043790E-006   3.4622678234617699E-006   0.0000000000000000     
  -1.5240500780904673E-006   3.5353111009851000E-006   0.0000000000000000     
  -1.5382750736552114E-006   3.6090029093324951E-006   0.0000000000000000     
  -1.5524161424905196E-006   3.6833394285742907E-006   0.0000000000000000     
  -1.5037662455217579E-006   3.1114452345369790E-006   0.0000000000000000     
  -1.5191643160453588E-006   3.1811627625221051E-006   0.0000000000000000     
  -1.5344746352393907E-006   3.2515479285475593E-006   0.0000000000000000     
  -1.5496972048933675E-006   3.3225969117794034E-006   0.0000000000000000     
  -1.5648320267968036E-006   3.3943058913836997E-006   0.0000000000000000     
  -1.5798791027392106E-006   3.4666710465265047E-006   0.0000000000000000     
  -1.5948384345101036E-006   3.5396885563738826E-006   0.0000000000000000     
  -1.6097100238989953E-006   3.6133546000918921E-006   0.0000000000000000     
  -1.6244938726953997E-006   3.6876653568465933E-006   0.0000000000000000     
  -1.5707967909489379E-006   3.1161787426531307E-006   0.0000000000000000     
  -1.5868643083622909E-006   3.1858693374540384E-006   0.0000000000000000     
  -1.6028402702607094E-006   3.2562275769570857E-006   0.0000000000000000     
  -1.6187246767735660E-006   3.3272496394744891E-006   0.0000000000000000     
  -1.6345175280302317E-006   3.3989317033184570E-006   0.0000000000000000     
  -1.6502188241600799E-006   3.4712699468012040E-006   0.0000000000000000     
  -1.6658285652924823E-006   3.5442605482349417E-006   0.0000000000000000     
  -1.6813467515568123E-006   3.6178996859318850E-006   0.0000000000000000     
  -1.6967733830824406E-006   3.6921835382042440E-006   0.0000000000000000     
  -1.1236958623122671E-006   3.6614211927557558E-006   0.0000000000000000     
  -1.1339192454176765E-006   3.7365291685288794E-006   0.0000000000000000     
  -1.1440815885837994E-006   3.8122742047780615E-006   0.0000000000000000     
  -1.1541828923208161E-006   3.8886524864374988E-006   0.0000000000000000     
  -1.1642231571389084E-006   3.9656601984413878E-006   0.0000000000000000     
  -1.1742023835482569E-006   4.0432935257239252E-006   0.0000000000000000     
  -1.1841205720590428E-006   4.1215486532193075E-006   0.0000000000000000     
  -1.1939777231814483E-006   4.2004217658617312E-006   0.0000000000000000     
  -1.2037738374256532E-006   4.2799090485853930E-006   0.0000000000000000     
  -1.1947471424645644E-006   3.6645935953823572E-006   0.0000000000000000     
  -1.2056094840003014E-006   3.7396826684027508E-006   0.0000000000000000     
  -1.2164069719919157E-006   3.8154088048087472E-006   0.0000000000000000     
  -1.2271396067851576E-006   3.8917681892451587E-006   0.0000000000000000     
  -1.2378073887257795E-006   3.9687570063567992E-006   0.0000000000000000     
  -1.2484103181595322E-006   4.0463714407884798E-006   0.0000000000000000     
  -1.2589483954321670E-006   4.1246076771850107E-006   0.0000000000000000     
  -1.2694216208894351E-006   4.2034619001912083E-006   0.0000000000000000     
  -1.2798299948770882E-006   4.2829302944518829E-006   0.0000000000000000     
  -1.2659475653589136E-006   3.6679582531324831E-006   0.0000000000000000     
  -1.2774488656378668E-006   3.7430272799736859E-006   0.0000000000000000     
  -1.2888814987452158E-006   3.8187333729607911E-006   0.0000000000000000     
  -1.3002454648747165E-006   3.8950727164651497E-006   0.0000000000000000     
  -1.3115407642201243E-006   3.9720414948581039E-006   0.0000000000000000     
  -1.3227673969751953E-006   4.0496358925110043E-006   0.0000000000000000     
  -1.3339253633336855E-006   4.1278520937951967E-006   0.0000000000000000     
  -1.3450146634893512E-006   4.2066862830820269E-006   0.0000000000000000     
  -1.3560352976359477E-006   4.2861346447428422E-006   0.0000000000000000     
  -1.3373059039019980E-006   3.6715151656664330E-006   0.0000000000000000     
  -1.3494461635522932E-006   3.7465630030492884E-006   0.0000000000000000     
  -1.3615139422952644E-006   3.8222479091359230E-006   0.0000000000000000     
  -1.3735092402004858E-006   3.8985660680516220E-006   0.0000000000000000     
  -1.3854320573375327E-006   3.9755136639216688E-006   0.0000000000000000     
  -1.3972823937759778E-006   4.0530868808713479E-006   0.0000000000000000     
  -1.4090602495853958E-006   4.1312819030259419E-006   0.0000000000000000     
  -1.4207656248353615E-006   4.2100949145107368E-006   0.0000000000000000     
  -1.4323985195954483E-006   4.2895220994510128E-006   0.0000000000000000     
  -1.4088309310005042E-006   3.6752643326445158E-006   0.0000000000000000     
  -1.4216101509655005E-006   3.7502898374371658E-006   0.0000000000000000     
  -1.4343130760936242E-006   3.8259524132358677E-006   0.0000000000000000     
  -1.4469397063734601E-006   3.9022482439587298E-006   0.0000000000000000     
  -1.4594900417935938E-006   3.9791735135238601E-006   0.0000000000000000     
  -1.4719640823426106E-006   4.0567244058493589E-006   0.0000000000000000     
  -1.4843618280090950E-006   4.1348971048533345E-006   0.0000000000000000     
  -1.4966832787816320E-006   4.2136877944538949E-006   0.0000000000000000     
  -1.5089284346488053E-006   4.2930926585691416E-006   0.0000000000000000     
  -1.4805314195611168E-006   3.6792057537270337E-006   0.0000000000000000     
  -1.4939496010994080E-006   3.7542077829449195E-006   0.0000000000000000     
  -1.5072876735918569E-006   3.8298468851623515E-006   0.0000000000000000     
  -1.5205456370046315E-006   3.9061192441406249E-006   0.0000000000000000     
  -1.5337234913038985E-006   3.9830210436410362E-006   0.0000000000000000     
  -1.5468212364558258E-006   4.0605484674248820E-006   0.0000000000000000     
  -1.5598388724265790E-006   4.1386976992534535E-006   0.0000000000000000     
  -1.5727763991823264E-006   4.2174649228880525E-006   0.0000000000000000     
  -1.5856338166892355E-006   4.2968463220899720E-006   0.0000000000000000     
  -1.5524161424905196E-006   3.6833394285742907E-006   0.0000000000000000     
  -1.5664732871759359E-006   3.7583168393801597E-006   0.0000000000000000     
  -1.5804465082415275E-006   3.8339313248171043E-006   0.0000000000000000     
  -1.5943358057049941E-006   3.9101790685514618E-006   0.0000000000000000     
  -1.6081411795840361E-006   3.9870562542495700E-006   0.0000000000000000     
  -1.6218626298963531E-006   4.0645590655777646E-006   0.0000000000000000     
  -1.6355001566596453E-006   4.1426836862023846E-006   0.0000000000000000     
  -1.6490537598916122E-006   4.2214262997897682E-006   0.0000000000000000     
  -1.6625234396099539E-006   4.3007830900062475E-006   0.0000000000000000     
  -1.6244938726953997E-006   3.6876653568465933E-006   0.0000000000000000     
  -1.6391899824170051E-006   3.7626170065504899E-006   0.0000000000000000     
  -1.6537983534941976E-006   3.8382057321018506E-006   0.0000000000000000     
  -1.6683189860855410E-006   3.9144277171453905E-006   0.0000000000000000     
  -1.6827518803495965E-006   3.9912791453258225E-006   0.0000000000000000     
  -1.6970970364449251E-006   4.0687562002878559E-006   0.0000000000000000     
  -1.7113544545300899E-006   4.1468550656762084E-006   0.0000000000000000     
  -1.7255241347636539E-006   4.2255719251355892E-006   0.0000000000000000     
  -1.7396060773041771E-006   4.3049029623107116E-006   0.0000000000000000     
  -1.6967733830824406E-006   3.6921835382042440E-006   0.0000000000000000     
  -1.7121084600445343E-006   3.7671082842635139E-006   0.0000000000000000     
  -1.7273519828014315E-006   3.8426701069183204E-006   0.0000000000000000     
  -1.7425039517572651E-006   3.9188651898765653E-006   0.0000000000000000     
  -1.7575643673161683E-006   3.9956897168461598E-006   0.0000000000000000     
  -1.7725332298822726E-006   4.0731398715350041E-006   0.0000000000000000     
  -1.7874105398597114E-006   4.1512118376510065E-006   0.0000000000000000     
  -1.8021962976526165E-006   4.2299017989020747E-006   0.0000000000000000     
  -1.8168905036651213E-006   4.3092059389961119E-006   0.0000000000000000     
  -1.2037738374256532E-006   4.2799090485853930E-006   0.0000000000000000     
  -1.2135089152888848E-006   4.3600066863419977E-006   0.0000000000000000     
  -1.2231829572165555E-006   4.4407108641532826E-006   0.0000000000000000     
  -1.2327959636411232E-006   4.5220177670584951E-006   0.0000000000000000     
  -1.2423479349950462E-006   4.6039235800968824E-006   0.0000000000000000     
  -1.2518388717107821E-006   4.6864244883076911E-006   0.0000000000000000     
  -1.2612687742207890E-006   4.7695166767301667E-006   0.0000000000000000     
  -1.2706376429575243E-006   4.8531963304035549E-006   0.0000000000000000     
  -1.2799454783534468E-006   4.9374596343671063E-006   0.0000000000000000     
  -1.2798299948770882E-006   4.2829302944518829E-006   0.0000000000000000     
  -1.2901735177595507E-006   4.3630090446667350E-006   0.0000000000000000     
  -1.3004521899759410E-006   4.4436943357550179E-006   0.0000000000000000     
  -1.3106660119840510E-006   4.5249823526908750E-006   0.0000000000000000     
  -1.3208149842416730E-006   4.6068692804484483E-006   0.0000000000000000     
  -1.3308991072065988E-006   4.6893513040018786E-006   0.0000000000000000     
  -1.3409183813366204E-006   4.7724246083253087E-006   0.0000000000000000     
  -1.3508728070895301E-006   4.8560853783928802E-006   0.0000000000000000     
  -1.3607623849231188E-006   4.9403297991787343E-006   0.0000000000000000     
  -1.3560352976359477E-006   4.2861346447428422E-006   0.0000000000000000     
  -1.3669872660131713E-006   4.3661933632393846E-006   0.0000000000000000     
  -1.3778705690444729E-006   4.4468586233949707E-006   0.0000000000000000     
  -1.3886852071992454E-006   4.5281266101233124E-006   0.0000000000000000     
  -1.3994311809468798E-006   4.6099935083381183E-006   0.0000000000000000     
  -1.4101084907567667E-006   4.6924555029530994E-006   0.0000000000000000     
  -1.4207171370982986E-006   4.7755087788819685E-006   0.0000000000000000     
  -1.4312571204408667E-006   4.8591495210384326E-006   0.0000000000000000     
  -1.4417284412538626E-006   4.9433739143362043E-006   0.0000000000000000     
  -1.4323985195954483E-006   4.2895220994510128E-006   0.0000000000000000     
  -1.4439589340004120E-006   4.3695596420928954E-006   0.0000000000000000     
  -1.4554468684457308E-006   4.4502037271658421E-006   0.0000000000000000     
  -1.4668623233920635E-006   4.5314505395201612E-006   0.0000000000000000     
  -1.4782052993000696E-006   4.6132962640061490E-006   0.0000000000000000     
  -1.4894757966304087E-006   4.6957370854741076E-006   0.0000000000000000     
  -1.5006738158437387E-006   4.7787691887743375E-006   0.0000000000000000     
  -1.5117993574007196E-006   4.8623887587571427E-006   0.0000000000000000     
  -1.5228524217620109E-006   4.9465919802728186E-006   0.0000000000000000     
  -1.5089284346488053E-006   4.2930926585691416E-006   0.0000000000000000     
  -1.5210972956719379E-006   4.3731078812602117E-006   0.0000000000000000     
  -1.5331898622032905E-006   4.4537296471603348E-006   0.0000000000000000     
  -1.5452061346678606E-006   4.5349541410457789E-006   0.0000000000000000     
  -1.5571461134906466E-006   4.6167775476927980E-006   0.0000000000000000     
  -1.5690097990966450E-006   4.6991960518776574E-006   0.0000000000000000     
  -1.5807971919108550E-006   4.7822058383766196E-006   0.0000000000000000     
  -1.5925082923582733E-006   4.8658030919659415E-006   0.0000000000000000     
  -1.6041431008638979E-006   4.9499839974218888E-006   0.0000000000000000     
  -1.5856338166892355E-006   4.2968463220899720E-006   0.0000000000000000     
  -1.5984111249784132E-006   4.3768380807742832E-006   0.0000000000000000     
  -1.6111083243407290E-006   4.4574363834711496E-006   0.0000000000000000     
  -1.6237254151319929E-006   4.5386374148645162E-006   0.0000000000000000     
  -1.6362623977080128E-006   4.6204373596383185E-006   0.0000000000000000     
  -1.6487192724246003E-006   4.7028324024765015E-006   0.0000000000000000     
  -1.6610960396375632E-006   4.7858187280630016E-006   0.0000000000000000     
  -1.6733926997027123E-006   4.8693925210817630E-006   0.0000000000000000     
  -1.6856092529758558E-006   4.9535499662167238E-006   0.0000000000000000     
  -1.6625234396099539E-006   4.3007830900062475E-006   0.0000000000000000     
  -1.6759091958705037E-006   4.3807502406680578E-006   0.0000000000000000     
  -1.6892110288816245E-006   4.4613239361909894E-006   0.0000000000000000     
  -1.7024289388898159E-006   4.5425003611407304E-006   0.0000000000000000     
  -1.7155629261415732E-006   4.6242757000829697E-006   0.0000000000000000     
  -1.7286129908833950E-006   4.7066461375833939E-006   0.0000000000000000     
  -1.7415791333617781E-006   4.7896078582076850E-006   0.0000000000000000     
  -1.7544613538232203E-006   4.8731570465215390E-006   0.0000000000000000     
  -1.7672596525142178E-006   4.9572898870906311E-006   0.0000000000000000     
  -1.7396060773041771E-006   4.3049029623107116E-006   0.0000000000000000     
  -1.7536002822988732E-006   4.3848443609744800E-006   0.0000000000000000     
  -1.7675067498495544E-006   4.4653923054125533E-006   0.0000000000000000     
  -1.7813254800466858E-006   4.5465429800387781E-006   0.0000000000000000     
  -1.7950564729807314E-006   4.6282925692670058E-006   0.0000000000000000     
  -1.8086997287421523E-006   4.7106372575110846E-006   0.0000000000000000     
  -1.8222552474214151E-006   4.7935732291848644E-006   0.0000000000000000     
  -1.8357230291089833E-006   4.8770966687021950E-006   0.0000000000000000     
  -1.8491030738953179E-006   4.9612037604769220E-006   0.0000000000000000     
  -1.8168905036651213E-006   4.3092059389961119E-006   0.0000000000000000     
  -1.8314931582141870E-006   4.3891204417265018E-006   0.0000000000000000     
  -1.8460042612680958E-006   4.4696414912285441E-006   0.0000000000000000     
  -1.8604238127079594E-006   4.5507652717230125E-006   0.0000000000000000     
  -1.8747518124148887E-006   4.6324879674306843E-006   0.0000000000000000     
  -1.8889882602699943E-006   4.7148057625723322E-006   0.0000000000000000     
  -1.9031331561543892E-006   4.7977148413687352E-006   0.0000000000000000     
  -1.9171864999491842E-006   4.8812113880406662E-006   0.0000000000000000     
  -1.9311482915354891E-006   4.9652915868089032E-006   0.0000000000000000     
  -1.2799454783534468E-006   4.9374596343671063E-006   0.0000000000000000     
  -1.2891922807422050E-006   5.0223027736892468E-006   0.0000000000000000     
  -1.2983780500622107E-006   5.1077219335551599E-006   0.0000000000000000     
  -1.3075027861530662E-006   5.1937132991792059E-006   0.0000000000000000     
  -1.3165664888543738E-006   5.2802730557757452E-006   0.0000000000000000     
  -1.3255691580057367E-006   5.3673973885591441E-006   0.0000000000000000     
  -1.3345107934467578E-006   5.4550824827437630E-006   0.0000000000000000     
  -1.3433913950170386E-006   5.5433245235439663E-006   0.0000000000000000     
  -1.3522109625561825E-006   5.6321196961741137E-006   0.0000000000000000     
  -1.3607623849231188E-006   4.9403297991787343E-006   0.0000000000000000     
  -1.3705871151855233E-006   5.0251540556867181E-006   0.0000000000000000     
  -1.3803469977862525E-006   5.1105543330394710E-006   0.0000000000000000     
  -1.3900420325251596E-006   5.1965268163893421E-006   0.0000000000000000     
  -1.3996722192020985E-006   5.2830676908886754E-006   0.0000000000000000     
  -1.4092375576169226E-006   5.3701731416898157E-006   0.0000000000000000     
  -1.4187380475694843E-006   5.4578393539451096E-006   0.0000000000000000     
  -1.4281736888596374E-006   5.5460625128069036E-006   0.0000000000000000     
  -1.4375444812872351E-006   5.6348388034275417E-006   0.0000000000000000     
  -1.4417284412538626E-006   4.9433739143362043E-006   0.0000000000000000     
  -1.4521310998888034E-006   5.0281781437178490E-006   0.0000000000000000     
  -1.4624650962257082E-006   5.1135583942413452E-006   0.0000000000000000     
  -1.4727304300267251E-006   5.1995108509935300E-006   0.0000000000000000     
  -1.4829271010539979E-006   5.2860316990612377E-006   0.0000000000000000     
  -1.4930551090696723E-006   5.3731171235313021E-006   0.0000000000000000     
  -1.5031144538358950E-006   5.4607633094905567E-006   0.0000000000000000     
  -1.5131051351148114E-006   5.5489664420258368E-006   0.0000000000000000     
  -1.5230271526685662E-006   5.6377227062239778E-006   0.0000000000000000     
  -1.5228524217620109E-006   4.9465919802728186E-006   0.0000000000000000     
  -1.5338330092669173E-006   5.0313750382008638E-006   0.0000000000000000     
  -1.5447411197693240E-006   5.1167341175375462E-006   0.0000000000000000     
  -1.5555767530017625E-006   5.2026654033083303E-006   0.0000000000000000     
  -1.5663399086967651E-006   5.2891650805386787E-006   0.0000000000000000     
  -1.5770305865868620E-006   5.3762293342540576E-006   0.0000000000000000     
  -1.5876487864045844E-006   5.4638543494799253E-006   0.0000000000000000     
  -1.5981945078824653E-006   5.5520363112417496E-006   0.0000000000000000     
  -1.6086677507530344E-006   5.6407714045649899E-006   0.0000000000000000     
  -1.6041431008638979E-006   4.9499839974218888E-006   0.0000000000000000     
  -1.6157016177347372E-006   5.0347447395539892E-006   0.0000000000000000     
  -1.6271838428058414E-006   5.1200815033048385E-006   0.0000000000000000     
  -1.6385897757942735E-006   5.2059904736503056E-006   0.0000000000000000     
  -1.6499194164170947E-006   5.2924678355662517E-006   0.0000000000000000     
  -1.6611727643913656E-006   5.3795097740285450E-006   0.0000000000000000     
  -1.6723498194341495E-006   5.4671124740130484E-006   0.0000000000000000     
  -1.6834505812625072E-006   5.5552721204956291E-006   0.0000000000000000     
  -1.6944750495935006E-006   5.6439848984521510E-006   0.0000000000000000     
  -1.6856092529758558E-006   4.9535499662167238E-006   0.0000000000000000     
  -1.6977456997071344E-006   5.0382872481954478E-006   0.0000000000000000     
  -1.7098020397240048E-006   5.1236005519199857E-006   0.0000000000000000     
  -1.7217782727482576E-006   5.2094860623360098E-006   0.0000000000000000     
  -1.7336743985016787E-006   5.2959399643891973E-006   0.0000000000000000     
  -1.7454904167060581E-006   5.3829584430252188E-006   0.0000000000000000     
  -1.7572263270831835E-006   5.4705376831897481E-006   0.0000000000000000     
  -1.7688821293548428E-006   5.5586738698284598E-006   0.0000000000000000     
  -1.7804578232428244E-006   5.6473631878870280E-006   0.0000000000000000     
  -1.7672596525142178E-006   4.9572898870906311E-006   0.0000000000000000     
  -1.7799740295989806E-006   5.0420025645434645E-006   0.0000000000000000     
  -1.7926044849125587E-006   5.1272912637597489E-006   0.0000000000000000     
  -1.8051510182077152E-006   5.2131521696820105E-006   0.0000000000000000     
  -1.8176136292372128E-006   5.2995814672527646E-006   0.0000000000000000     
  -1.8299923177538145E-006   5.3865753414145401E-006   0.0000000000000000     
  -1.8422870835102816E-006   5.4741299771098555E-006   0.0000000000000000     
  -1.8544979262593783E-006   5.5622415592812297E-006   0.0000000000000000     
  -1.8666248457538651E-006   5.6509062728711872E-006   0.0000000000000000     
  -1.8491030738953179E-006   4.9612037604769220E-006   0.0000000000000000     
  -1.8623953818251482E-006   5.0458906890162637E-006   0.0000000000000000     
  -1.8755999527602459E-006   5.1311536392008944E-006   0.0000000000000000     
  -1.8887167865166472E-006   5.2169887960048609E-006   0.0000000000000000     
  -1.9017458829103905E-006   5.3033923444022027E-006   0.0000000000000000     
  -1.9146872417575082E-006   5.3903604693669632E-006   0.0000000000000000     
  -1.9275408628740401E-006   5.4778893558731903E-006   0.0000000000000000     
  -1.9403067460760204E-006   5.5659751888949207E-006   0.0000000000000000     
  -1.9529848911794843E-006   5.6546141534061989E-006   0.0000000000000000     
  -1.9311482915354891E-006   4.9652915868089032E-006   0.0000000000000000     
  -1.9450185308005081E-006   5.0499516220320703E-006   0.0000000000000000     
  -1.9587972176558103E-006   5.1351876786201856E-006   0.0000000000000000     
  -1.9724843520190554E-006   5.2209959416211268E-006   0.0000000000000000     
  -1.9860799338079041E-006   5.3073725960827597E-006   0.0000000000000000     
  -1.9995839629400163E-006   5.3943138270529553E-006   0.0000000000000000     
  -2.0129964393330529E-006   5.4818158195795862E-006   0.0000000000000000     
  -2.0263173629046740E-006   5.5698747587105225E-006   0.0000000000000000     
  -2.0395467335725410E-006   5.6584868294936352E-006   0.0000000000000000     
  -1.3522109625561825E-006   5.6321196961741137E-006   0.0000000000000000     
  -1.3609694959241519E-006   5.7214641858490059E-006   0.0000000000000000     
  -1.3696669950623550E-006   5.8113541777851717E-006   0.0000000000000000     
  -1.3783034599325610E-006   5.9017858571995794E-006   0.0000000000000000     
  -1.3868788904965376E-006   5.9927554093091958E-006   0.0000000000000000     
  -1.3953932867160531E-006   6.0842590193309832E-006   0.0000000000000000     
  -1.4038466485528764E-006   6.1762928724819127E-006   0.0000000000000000     
  -1.4122389759687764E-006   6.2688531539789499E-006   0.0000000000000000     
  -1.4205702689255204E-006   6.3619360490390590E-006   0.0000000000000000     
  -1.4375444812872351E-006   5.6348388034275417E-006   0.0000000000000000     
  -1.4468504246831937E-006   5.7241644109748253E-006   0.0000000000000000     
  -1.4560915190026796E-006   5.8140355206783775E-006   0.0000000000000000     
  -1.4652677642319195E-006   5.9044483177832764E-006   0.0000000000000000     
  -1.4743791603571447E-006   5.9953989875346040E-006   0.0000000000000000     
  -1.4834257073645825E-006   6.0868837151774344E-006   0.0000000000000000     
  -1.4924074052404629E-006   6.1788986859568495E-006   0.0000000000000000     
  -1.5013242539710131E-006   6.2714400851179293E-006   0.0000000000000000     
  -1.5101762535424629E-006   6.3645040979057490E-006   0.0000000000000000     
  -1.5230271526685662E-006   5.6377227062239778E-006   0.0000000000000000     
  -1.5328805063013379E-006   5.7270282872040733E-006   0.0000000000000000     
  -1.5426651959854264E-006   5.8168793702142414E-006   0.0000000000000000     
  -1.5523812217351667E-006   5.9072721405348720E-006   0.0000000000000000     
  -1.5620285835648902E-006   5.9982027834463432E-006   0.0000000000000000     
  -1.5716072814889298E-006   6.0896674842290332E-006   0.0000000000000000     
  -1.5811173155216188E-006   6.1816624281633292E-006   0.0000000000000000     
  -1.5905586856772897E-006   6.2741838005296087E-006   0.0000000000000000     
  -1.5999313919702752E-006   6.3672277866082556E-006   0.0000000000000000     
  -1.6086677507530344E-006   5.6407714045649899E-006   0.0000000000000000     
  -1.6190685148005014E-006   5.7300558145236658E-006   0.0000000000000000     
  -1.6293968000157826E-006   5.8198857263859845E-006   0.0000000000000000     
  -1.6396526064414733E-006   5.9102573254687083E-006   0.0000000000000000     
  -1.6498359341201679E-006   6.0011667970886030E-006   0.0000000000000000     
  -1.6599467830944619E-006   6.0926103265624319E-006   0.0000000000000000     
  -1.6699851534069482E-006   6.1845840992069531E-006   0.0000000000000000     
  -1.6799510451002228E-006   6.2770843003389383E-006   0.0000000000000000     
  -1.6898444582168798E-006   6.3701071152751399E-006   0.0000000000000000     
  -1.6944750495935006E-006   5.6439848984521510E-006   0.0000000000000000     
  -1.7054232242026031E-006   5.7332469929205239E-006   0.0000000000000000     
  -1.7162951050989306E-006   5.8230545891868111E-006   0.0000000000000000     
  -1.7270906923500112E-006   5.9134038725991264E-006   0.0000000000000000     
  -1.7378099860233738E-006   6.0042910285055799E-006   0.0000000000000000     
  -1.7484529861865452E-006   6.0957122422542785E-006   0.0000000000000000     
  -1.7590196929070548E-006   6.1876636991933359E-006   0.0000000000000000     
  -1.7695101062524302E-006   6.2801415846708606E-006   0.0000000000000000     
  -1.7799242262901982E-006   6.3731420840349611E-006   0.0000000000000000     
  -1.7804578232428244E-006   5.6473631878870280E-006   0.0000000000000000     
  -1.7919534085295598E-006   5.7366018223815649E-006   0.0000000000000000     
  -1.8033688852400530E-006   5.8263859586099399E-006   0.0000000000000000     
  -1.8147042534599514E-006   5.9167117819404690E-006   0.0000000000000000     
  -1.8259595132749003E-006   6.0075754777414594E-006   0.0000000000000000     
  -1.8371346647705477E-006   6.0989732313812245E-006   0.0000000000000000     
  -1.8482297080325414E-006   6.1909012282280747E-006   0.0000000000000000     
  -1.8592446431465274E-006   6.2833556536503229E-006   0.0000000000000000     
  -1.8701794701981523E-006   6.3763326930162784E-006   0.0000000000000000     
  -1.8666248457538651E-006   5.6509062728711872E-006   0.0000000000000000     
  -1.8786678418032903E-006   5.7401203028937049E-006   0.0000000000000000     
  -1.8906269144443357E-006   5.8298798346485860E-006   0.0000000000000000     
  -1.9025020637704643E-006   5.9201810535070774E-006   0.0000000000000000     
  -1.9142932898751427E-006   6.0110201448404362E-006   0.0000000000000000     
  -1.9260005928518372E-006   6.1023932940199203E-006   0.0000000000000000     
  -1.9376239727940125E-006   6.1942966864167802E-006   0.0000000000000000     
  -1.9491634297951320E-006   6.2867265074022712E-006   0.0000000000000000     
  -1.9606189639486661E-006   6.3796789423476530E-006   0.0000000000000000     
  -1.9529848911794843E-006   5.6546141534061989E-006   0.0000000000000000     
  -1.9655752980457134E-006   5.7438024344438708E-006   0.0000000000000000     
  -1.9780779667169601E-006   5.8335362172959572E-006   0.0000000000000000     
  -1.9904928972807218E-006   5.9238116873132900E-006   0.0000000000000000     
  -2.0028200898244960E-006   6.0146250298467026E-006   0.0000000000000000     
  -2.0150595444357792E-006   6.1059724302470124E-006   0.0000000000000000     
  -2.0272112612020694E-006   6.1978500738650553E-006   0.0000000000000000     
  -2.0392752402108630E-006   6.2902541460516564E-006   0.0000000000000000     
  -2.0512514815496594E-006   6.3831808321576456E-006   0.0000000000000000     
  -2.0395467335725410E-006   5.6584868294936352E-006   0.0000000000000000     
  -2.0526845512787452E-006   5.7476482170189707E-006   0.0000000000000000     
  -2.0657308160631107E-006   5.8373551065452713E-006   0.0000000000000000     
  -2.0786855279898946E-006   5.9276036833734574E-006   0.0000000000000000     
  -2.0915486871233525E-006   6.0183901328044450E-006   0.0000000000000000     
  -2.1043202935277411E-006   6.1097106401391571E-006   0.0000000000000000     
  -2.1170003472673163E-006   6.2015613906785098E-006   0.0000000000000000     
  -2.1295888484063354E-006   6.2939385697234217E-006   0.0000000000000000     
  -2.1420857970090529E-006   6.3868383625748114E-006   0.0000000000000000     
  -1.4205702689255204E-006   6.3619360490390590E-006   0.0000000000000000     
  -1.4288405273870256E-006   6.4555377429024664E-006   0.0000000000000000     
  -1.4370497513258025E-006   6.5496544209024420E-006   0.0000000000000000     
  -1.4451979407165076E-006   6.6442822683955116E-006   0.0000000000000000     
  -1.4532850955337995E-006   6.7394174707382047E-006   0.0000000000000000     
  -1.4613112157523357E-006   6.8350562132870496E-006   0.0000000000000000     
  -1.4692763013467736E-006   6.9311946813985717E-006   0.0000000000000000     
  -1.4771803522917712E-006   7.0278290604293024E-006   0.0000000000000000     
  -1.4850233685619869E-006   7.1249555357357681E-006   0.0000000000000000     
  -1.5101762535424629E-006   6.3645040979057490E-006   0.0000000000000000     
  -1.5189634039362028E-006   6.4580869095784700E-006   0.0000000000000000     
  -1.5276857051142727E-006   6.5521847054465681E-006   0.0000000000000000     
  -1.5363431570338745E-006   6.6467936708336030E-006   0.0000000000000000     
  -1.5449357596522097E-006   6.7419099910631303E-006   0.0000000000000000     
  -1.5534635129264796E-006   6.8375298514587058E-006   0.0000000000000000     
  -1.5619264168138866E-006   6.9336494373438874E-006   0.0000000000000000     
  -1.5703244712716318E-006   7.0302649340422359E-006   0.0000000000000000     
  -1.5786576762569170E-006   7.1273725268773044E-006   0.0000000000000000     
  -1.5999313919702752E-006   6.3672277866082556E-006   0.0000000000000000     
  -1.6092354344017638E-006   6.4607905716795278E-006   0.0000000000000000     
  -1.6184708129203634E-006   6.5548683410231807E-006   0.0000000000000000     
  -1.6276375274615383E-006   6.6494572799188556E-006   0.0000000000000000     
  -1.6367355779607523E-006   6.7445535736461835E-006   0.0000000000000000     
  -1.6457649643534676E-006   6.8401534074847911E-006   0.0000000000000000     
  -1.6547256865751487E-006   6.9362529667143290E-006   0.0000000000000000     
  -1.6636177445612600E-006   7.0328484366144214E-006   0.0000000000000000     
  -1.6724411382472638E-006   7.1299360024647052E-006   0.0000000000000000     
  -1.6898444582168798E-006   6.3701071152751399E-006   0.0000000000000000     
  -1.6996653927778789E-006   6.4636487293182009E-006   0.0000000000000000     
  -1.7094138487176393E-006   6.5577053277142591E-006   0.0000000000000000     
  -1.7190898259489452E-006   6.6522730956953227E-006   0.0000000000000000     
  -1.7286933243845817E-006   6.7473482184934051E-006   0.0000000000000000     
  -1.7382243439373322E-006   6.8429268813405197E-006   0.0000000000000000     
  -1.7476828845199816E-006   6.9390052694686764E-006   0.0000000000000000     
  -1.7570689460453144E-006   7.0355795681098860E-006   0.0000000000000000     
  -1.7663825284261153E-006   7.1326459624961654E-006   0.0000000000000000     
  -1.7799242262901982E-006   6.3731420840349611E-006   0.0000000000000000     
  -1.7902620530587182E-006   6.4666613826070551E-006   0.0000000000000000     
  -1.8005235864796637E-006   6.5606956656017733E-006   0.0000000000000000     
  -1.8107088264455405E-006   6.6552411182070586E-006   0.0000000000000000     
  -1.8208177728488537E-006   6.7502939256108516E-006   0.0000000000000000     
  -1.8308504255821066E-006   6.8458502730010879E-006   0.0000000000000000     
  -1.8408067845378054E-006   6.9419063455657096E-006   0.0000000000000000     
  -1.8506868496084546E-006   7.0384583284926581E-006   0.0000000000000000     
  -1.8604906206865580E-006   7.1355024069698707E-006   0.0000000000000000     
  -1.8701794701981523E-006   6.3763326930162784E-006   0.0000000000000000     
  -1.8810341892384513E-006   6.4698285316586458E-006   0.0000000000000000     
  -1.8918088001800015E-006   6.5638393547677015E-006   0.0000000000000000     
  -1.9025033029007703E-006   6.6583613474981157E-006   0.0000000000000000     
  -1.9131176972787218E-006   6.7533906950045607E-006   0.0000000000000000     
  -1.9236519831918228E-006   6.8489235824417022E-006   0.0000000000000000     
  -1.9341061605180396E-006   6.9449561949642129E-006   0.0000000000000000     
  -1.9444802291353372E-006   7.0414847177267642E-006   0.0000000000000000     
  -1.9547741889216818E-006   7.1385053358840228E-006   0.0000000000000000     
  -1.9606189639486661E-006   6.3796789423476530E-006   0.0000000000000000     
  -1.9719905753112488E-006   6.4731501765855376E-006   0.0000000000000000     
  -1.9832782637922178E-006   6.5671363952940206E-006   0.0000000000000000     
  -1.9944820292640791E-006   6.6616337836125498E-006   0.0000000000000000     
  -2.0056018715993423E-006   6.7566385266805842E-006   0.0000000000000000     
  -2.0166377906705151E-006   6.8521468096375734E-006   0.0000000000000000     
  -2.0275897863501053E-006   6.9481548176229696E-006   0.0000000000000000     
  -2.0384578585106214E-006   7.0446587357762333E-006   0.0000000000000000     
  -2.0492420070245727E-006   7.1416547492368133E-006   0.0000000000000000     
  -2.0512514815496594E-006   6.3831808321576456E-006   0.0000000000000000     
  -2.0631399852712808E-006   6.4766263175002954E-006   0.0000000000000000     
  -2.0749407512898754E-006   6.5705867872627054E-006   0.0000000000000000     
  -2.0866537794849128E-006   6.6650584265944093E-006   0.0000000000000000     
  -2.0982790697358697E-006   6.7600374206449625E-006   0.0000000000000000     
  -2.1098166219222141E-006   6.8555199545638936E-006   0.0000000000000000     
  -2.1212664359234220E-006   6.9515022135007554E-006   0.0000000000000000     
  -2.1326285116189675E-006   7.0479803826050885E-006   0.0000000000000000     
  -2.1439028488883187E-006   7.1449506470264329E-006   0.0000000000000000     
  -2.1420857970090529E-006   6.3868383625748114E-006   0.0000000000000000     
  -2.1544911931127185E-006   6.4802569545154788E-006   0.0000000000000000     
  -2.1668050366465405E-006   6.5741905307557311E-006   0.0000000000000000     
  -2.1790273275127196E-006   6.6686352764877551E-006   0.0000000000000000     
  -2.1911580656134561E-006   6.7635873769037391E-006   0.0000000000000000     
  -2.2031972508509542E-006   6.8590430171958802E-006   0.0000000000000000     
  -2.2151448831274112E-006   6.9549983825563572E-006   0.0000000000000000     
  -2.2270009623450286E-006   7.0514496581773614E-006   0.0000000000000000     
  -2.2387654884060085E-006   7.1483930292510793E-006   0.0000000000000000     
  -1.3012617047264906E-006   2.0950472433802130E-006   0.0000000000000000     
  -1.3187941359131604E-006   2.1535349078152335E-006   0.0000000000000000     
  -1.3362351534675814E-006   2.2127517088409046E-006   0.0000000000000000     
  -1.3535847257345057E-006   2.2726937655228324E-006   0.0000000000000000     
  -1.3708428210586851E-006   2.3333571969266199E-006   0.0000000000000000     
  -1.3880094077848726E-006   2.3947381221178762E-006   0.0000000000000000     
  -1.4050844542578197E-006   2.4568326601622041E-006   0.0000000000000000     
  -1.4220679288222793E-006   2.5196369301252104E-006   0.0000000000000000     
  -1.4389597998230036E-006   2.5831470510725026E-006   0.0000000000000000     
  -1.3572752306716415E-006   2.1004294545547004E-006   0.0000000000000000     
  -1.3755377216576954E-006   2.1588897953610068E-006   0.0000000000000000     
  -1.3937050536501396E-006   2.2180790715640676E-006   0.0000000000000000     
  -1.4117771865776350E-006   2.2779934316559542E-006   0.0000000000000000     
  -1.4297540803688442E-006   2.3386290241287420E-006   0.0000000000000000     
  -1.4476356949524286E-006   2.3999819974745033E-006   0.0000000000000000     
  -1.4654219902570499E-006   2.4620485001853101E-006   0.0000000000000000     
  -1.4831129262113715E-006   2.5248246807532390E-006   0.0000000000000000     
  -1.5007084627440529E-006   2.5883066876703602E-006   0.0000000000000000     
  -1.4135083425926324E-006   2.1060306237976633E-006   0.0000000000000000     
  -1.4325008754085407E-006   2.1644627013917954E-006   0.0000000000000000     
  -1.4513944970375018E-006   2.2236234624591799E-006   0.0000000000000000     
  -1.4701891608706332E-006   2.2835090924382440E-006   0.0000000000000000     
  -1.4888848202990548E-006   2.3441157767674167E-006   0.0000000000000000     
  -1.5074814287138835E-006   2.4054397008851260E-006   0.0000000000000000     
  -1.5259789395062379E-006   2.4674770502298009E-006   0.0000000000000000     
  -1.5443773060672362E-006   2.5302240102398691E-006   0.0000000000000000     
  -1.5626764817879965E-006   2.5936767663537600E-006   0.0000000000000000     
  -1.4699697647013915E-006   2.1118509605897323E-006   0.0000000000000000     
  -1.4896923130957099E-006   2.1702537590544010E-006   0.0000000000000000     
  -1.5093121920611569E-006   2.2293849584753511E-006   0.0000000000000000     
  -1.5288293506080253E-006   2.2892407858076926E-006   0.0000000000000000     
  -1.5482437377466100E-006   2.3498174680065317E-006   0.0000000000000000     
  -1.5675553024872041E-006   2.4111112320269773E-006   0.0000000000000000     
  -1.5867639938401022E-006   2.4731183048241364E-006   0.0000000000000000     
  -1.6058697608155997E-006   2.5358349133531198E-006   0.0000000000000000     
  -1.6248725524239888E-006   2.5992572845690332E-006   0.0000000000000000     
  -1.5266682212098458E-006   2.1178906744115364E-006   0.0000000000000000     
  -1.5471207506492199E-006   2.1762631014956228E-006   0.0000000000000000     
  -1.5674668471525953E-006   2.2353636365616913E-006   0.0000000000000000     
  -1.5877064577843348E-006   2.2951885497022915E-006   0.0000000000000000     
  -1.6078395296088005E-006   2.3557341110099737E-006   0.0000000000000000     
  -1.6278660096903557E-006   2.4169965905772869E-006   0.0000000000000000     
  -1.6477858450933631E-006   2.4789722584967813E-006   0.0000000000000000     
  -1.6675989828821853E-006   2.5416573848610070E-006   0.0000000000000000     
  -1.6873053701211843E-006   2.6050482397625128E-006   0.0000000000000000     
  -1.5836124363299238E-006   2.1241499747437063E-006   0.0000000000000000     
  -1.6047949039990846E-006   2.1824908618622614E-006   0.0000000000000000     
  -1.6258671707433062E-006   2.2415595736673074E-006   0.0000000000000000     
  -1.6468291843940855E-006   2.3013524220600331E-006   0.0000000000000000     
  -1.6676808927829198E-006   2.3618657189416310E-006   0.0000000000000000     
  -1.6884222437413045E-006   2.4230957762132885E-006   0.0000000000000000     
  -1.7090531851007382E-006   2.4850389057761976E-006   0.0000000000000000     
  -1.7295736646927170E-006   2.5476914195315484E-006   0.0000000000000000     
  -1.7499836303487375E-006   2.6110496293805334E-006   0.0000000000000000     
  -1.6408111342735524E-006   2.1306290710668725E-006   0.0000000000000000     
  -1.6627234890753192E-006   2.1889371733011189E-006   0.0000000000000000     
  -1.6845218712647793E-006   2.2479728467413091E-006   0.0000000000000000     
  -1.7062062324318028E-006   2.3077324408189096E-006   0.0000000000000000     
  -1.7277765241662594E-006   2.3682123049653891E-006   0.0000000000000000     
  -1.7492326980580173E-006   2.4294087886122126E-006   0.0000000000000000     
  -1.7705747056969475E-006   2.4913182411908486E-006   0.0000000000000000     
  -1.7918024986729208E-006   2.5539370121327642E-006   0.0000000000000000     
  -1.8129160285758043E-006   2.6172614508694260E-006   0.0000000000000000     
  -1.6982730392526600E-006   2.1373281728616633E-006   0.0000000000000000     
  -1.7209152218079392E-006   2.1956021689589942E-006   0.0000000000000000     
  -1.7434396571485049E-006   2.2546035327328060E-006   0.0000000000000000     
  -1.7658463038920106E-006   2.3143286439169130E-006   0.0000000000000000     
  -1.7881351206561113E-006   2.3747738822451369E-006   0.0000000000000000     
  -1.8103060660584595E-006   2.4359356274512915E-006   0.0000000000000000     
  -1.8323590987167111E-006   2.4978102592691956E-006   0.0000000000000000     
  -1.8542941772485188E-006   2.5603941574326678E-006   0.0000000000000000     
  -1.8761112602715371E-006   2.6236837016755241E-006   0.0000000000000000     
  -1.7560068754791744E-006   2.1442474896087104E-006   0.0000000000000000     
  -1.7793788181269593E-006   2.2024859819826895E-006   0.0000000000000000     
  -1.8026292368259709E-006   2.2614517085909054E-006   0.0000000000000000     
  -1.8257581007692330E-006   2.3211410692920365E-006   0.0000000000000000     
  -1.8487653791497671E-006   2.3815504639447604E-006   0.0000000000000000     
  -1.8716510411605974E-006   2.4426762924077569E-006   0.0000000000000000     
  -1.8944150559947465E-006   2.5045149545397033E-006   0.0000000000000000     
  -1.9170573928452371E-006   2.5670628501992790E-006   0.0000000000000000     
  -1.9395780209050923E-006   2.6303163792451613E-006   0.0000000000000000     
  -1.4389597998230036E-006   2.5831470510725026E-006   0.0000000000000000     
  -1.4557600425384239E-006   2.6473591533991658E-006   0.0000000000000000     
  -1.4724686599816962E-006   2.7122694128182239E-006   0.0000000000000000     
  -1.4890856620996540E-006   2.7778740163721811E-006   0.0000000000000000     
  -1.5056110588391324E-006   2.8441691511035432E-006   0.0000000000000000     
  -1.5220448601469652E-006   2.9111510040548144E-006   0.0000000000000000     
  -1.5383870759699872E-006   2.9788157622684988E-006   0.0000000000000000     
  -1.5546377162550331E-006   3.0471596127871035E-006   0.0000000000000000     
  -1.5707967909489379E-006   3.1161787426531307E-006   0.0000000000000000     
  -1.5007084627440529E-006   2.5883066876703602E-006   0.0000000000000000     
  -1.5182085681984802E-006   2.6524906758860199E-006   0.0000000000000000     
  -1.5356132445769249E-006   2.7173728261786485E-006   0.0000000000000000     
  -1.5529225022963824E-006   2.7829493257839495E-006   0.0000000000000000     
  -1.5701363517738477E-006   2.8492163619376245E-006   0.0000000000000000     
  -1.5872548034263145E-006   2.9161701218753773E-006   0.0000000000000000     
  -1.6042778676707797E-006   2.9838067928329089E-006   0.0000000000000000     
  -1.6212055549242369E-006   3.0521225620459226E-006   0.0000000000000000     
  -1.6380378756036803E-006   3.1211136167501209E-006   0.0000000000000000     
  -1.5626764817879965E-006   2.5936767663537600E-006   0.0000000000000000     
  -1.5808764295144242E-006   2.6578315042716076E-006   0.0000000000000000     
  -1.5989771499115757E-006   2.7226844107403811E-006   0.0000000000000000     
  -1.6169786530992931E-006   2.7882316727687527E-006   0.0000000000000000     
  -1.6348809491974199E-006   2.8544694773653948E-006   0.0000000000000000     
  -1.6526840483257985E-006   2.9213940115389824E-006   0.0000000000000000     
  -1.6703879606042728E-006   2.9890014622981909E-006   0.0000000000000000     
  -1.6879926961526848E-006   3.0572880166516907E-006   0.0000000000000000     
  -1.7054982650908779E-006   3.1262498616081580E-006   0.0000000000000000     
  -1.6248725524239888E-006   2.5992572845690332E-006   0.0000000000000000     
  -1.6437723275795392E-006   2.6633816386660477E-006   0.0000000000000000     
  -1.6625690848124152E-006   2.7282041687945756E-006   0.0000000000000000     
  -1.6812628325567573E-006   2.7937210613440933E-006   0.0000000000000000     
  -1.6998535792467039E-006   2.8599285027040756E-006   0.0000000000000000     
  -1.7183413333163961E-006   2.9268226792639976E-006   0.0000000000000000     
  -1.7367261031999726E-006   2.9943997774133351E-006   0.0000000000000000     
  -1.7550078973315724E-006   3.0626559835415628E-006   0.0000000000000000     
  -1.7731867241453358E-006   3.1315874840381560E-006   0.0000000000000000     
  -1.6873053701211843E-006   2.6050482397625128E-006   0.0000000000000000     
  -1.7069049634871041E-006   2.6691410791794520E-006   0.0000000000000000     
  -1.7263977581062095E-006   2.7339321026323855E-006   0.0000000000000000     
  -1.7457837587171449E-006   2.7994174955274765E-006   0.0000000000000000     
  -1.7650629700585560E-006   2.8655934432708894E-006   0.0000000000000000     
  -1.7842353968690872E-006   2.9324561312687869E-006   0.0000000000000000     
  -1.8033010438873846E-006   3.0000017449273326E-006   0.0000000000000000     
  -1.8222599158520930E-006   3.0682264696526909E-006   0.0000000000000000     
  -1.8411120175018574E-006   3.1371264908510260E-006   0.0000000000000000     
  -1.7499836303487375E-006   2.6110496293805334E-006   0.0000000000000000     
  -1.7702830383304008E-006   2.6751098259219411E-006   0.0000000000000000     
  -1.7904718786197237E-006   2.7398682145449678E-006   0.0000000000000000     
  -1.8105501496288262E-006   2.8053209793364081E-006   0.0000000000000000     
  -1.8305178497698284E-006   2.8714643043830580E-006   0.0000000000000000     
  -1.8503749774548513E-006   2.9382943737717153E-006   0.0000000000000000     
  -1.8701215310960152E-006   3.0058073715891735E-006   0.0000000000000000     
  -1.8897575091054404E-006   3.0739994819222290E-006   0.0000000000000000     
  -1.9092829098952471E-006   3.1428668888576782E-006   0.0000000000000000     
  -1.8129160285758043E-006   2.6172614508694260E-006   0.0000000000000000     
  -1.8339152532027110E-006   2.6812878790036285E-006   0.0000000000000000     
  -1.8548001551797254E-006   2.7460125068234747E-006   0.0000000000000000     
  -1.8755707233401723E-006   2.8114315167883919E-006   0.0000000000000000     
  -1.8962269465173782E-006   2.8775410913578063E-006   0.0000000000000000     
  -1.9167688135446691E-006   2.9443374129911498E-006   0.0000000000000000     
  -1.9371963132553706E-006   3.0118166641478475E-006   0.0000000000000000     
  -1.9575094344828088E-006   3.0799750272873300E-006   0.0000000000000000     
  -1.9777081660603095E-006   3.1488086848690257E-006   0.0000000000000000     
  -1.8761112602715371E-006   2.6236837016755241E-006   0.0000000000000000     
  -1.8978103091973143E-006   2.6876752385346331E-006   0.0000000000000000     
  -1.9193912966129791E-006   2.7523649817590622E-006   0.0000000000000000     
  -1.9408541978995529E-006   2.8177491119009306E-006   0.0000000000000000     
  -1.9621989884380589E-006   2.8838238095123559E-006   0.0000000000000000     
  -1.9834256436095193E-006   2.9505852551454539E-006   0.0000000000000000     
  -2.0045341387949565E-006   3.0180296293523466E-006   0.0000000000000000     
  -2.0255244493753923E-006   3.0861531126851496E-006   0.0000000000000000     
  -2.0463965507318492E-006   3.1549518856959808E-006   0.0000000000000000     
  -1.9395780209050923E-006   2.6303163792451613E-006   0.0000000000000000     
  -1.9619769074074929E-006   2.6942719046250700E-006   0.0000000000000000     
  -1.9842540117462516E-006   2.7589256416428858E-006   0.0000000000000000     
  -2.0064092913553391E-006   2.8242737686915316E-006   0.0000000000000000     
  -2.0284427036687248E-006   2.8903124641639275E-006   0.0000000000000000     
  -2.0503542061203812E-006   2.9570379064529961E-006   0.0000000000000000     
  -2.0721437561442763E-006   3.0244462739516587E-006   0.0000000000000000     
  -2.0938113111743831E-006   3.0925337450528383E-006   0.0000000000000000     
  -2.1153568286446711E-006   3.1612964981494559E-006   0.0000000000000000     
  -1.5707967909489379E-006   3.1161787426531307E-006   0.0000000000000000     
  -1.5868643083622909E-006   3.1858693374540384E-006   0.0000000000000000     
  -1.6028402702607094E-006   3.2562275769570857E-006   0.0000000000000000     
  -1.6187246767735660E-006   3.3272496394744891E-006   0.0000000000000000     
  -1.6345175280302317E-006   3.3989317033184570E-006   0.0000000000000000     
  -1.6502188241600799E-006   3.4712699468012040E-006   0.0000000000000000     
  -1.6658285652924823E-006   3.5442605482349417E-006   0.0000000000000000     
  -1.6813467515568123E-006   3.6178996859318850E-006   0.0000000000000000     
  -1.6967733830824406E-006   3.6921835382042440E-006   0.0000000000000000     
  -1.6380378756036803E-006   3.1211136167501209E-006   0.0000000000000000     
  -1.6547748380796444E-006   3.1907761425644090E-006   0.0000000000000000     
  -1.6714164425368104E-006   3.2611063186404974E-006   0.0000000000000000     
  -1.6879626871134010E-006   3.3321003225133019E-006   0.0000000000000000     
  -1.7044135699476369E-006   3.4037543317177359E-006   0.0000000000000000     
  -1.7207690891777398E-006   3.4760645237887154E-006   0.0000000000000000     
  -1.7370292429419301E-006   3.5490270762611515E-006   0.0000000000000000     
  -1.7531940293784294E-006   3.6226381666699611E-006   0.0000000000000000     
  -1.7692634466254581E-006   3.6968939725500571E-006   0.0000000000000000     
  -1.7054982650908779E-006   3.1262498616081580E-006   0.0000000000000000     
  -1.7229046752018932E-006   3.1958831824902296E-006   0.0000000000000000     
  -1.7402119249215599E-006   3.2661841578763977E-006   0.0000000000000000     
  -1.7574200103489056E-006   3.3371489646591157E-006   0.0000000000000000     
  -1.7745289275829591E-006   3.4087737797308401E-006   0.0000000000000000     
  -1.7915386727227455E-006   3.4810547799840240E-006   0.0000000000000000     
  -1.8084492418672945E-006   3.5539881423111226E-006   0.0000000000000000     
  -1.8252606311156324E-006   3.6275700436045910E-006   0.0000000000000000     
  -1.8419728365667866E-006   3.7017966607568854E-006   0.0000000000000000     
  -1.7731867241453358E-006   3.1315874840381560E-006   0.0000000000000000     
  -1.7912625897295150E-006   3.2011904636362054E-006   0.0000000000000000     
  -1.8092354907888142E-006   3.2714611004432628E-006   0.0000000000000000     
  -1.8271054216820505E-006   3.3423955709104941E-006   0.0000000000000000     
  -1.8448723767680419E-006   3.4139900514890648E-006   0.0000000000000000     
  -1.8625363504056046E-006   3.4862407186301458E-006   0.0000000000000000     
  -1.8800973369535559E-006   3.5591437487848982E-006   0.0000000000000000     
  -1.8975553307707134E-006   3.6326953184044931E-006   0.0000000000000000     
  -1.9149103262158939E-006   3.7068916039400945E-006   0.0000000000000000     
  -1.8411120175018574E-006   3.1371264908510260E-006   0.0000000000000000     
  -1.8598573516629849E-006   3.2066979924070358E-006   0.0000000000000000     
  -1.8784959135124282E-006   3.2769371521195663E-006   0.0000000000000000     
  -1.8970276963148058E-006   3.3478401462660006E-006   0.0000000000000000     
  -1.9154526933347321E-006   3.4194031511237171E-006   0.0000000000000000     
  -1.9337708978368230E-006   3.4916223429700976E-006   0.0000000000000000     
  -1.9519823030856943E-006   3.5644938980825256E-006   0.0000000000000000     
  -1.9700869023459631E-006   3.6380139927383812E-006   0.0000000000000000     
  -1.9880846888822437E-006   3.7121788032150435E-006   0.0000000000000000     
  -1.9092829098952471E-006   3.1428668888576782E-006   0.0000000000000000     
  -1.9286977310027763E-006   3.2124057752074208E-006   0.0000000000000000     
  -1.9480019664662590E-006   3.2826123186837853E-006   0.0000000000000000     
  -1.9671956094491410E-006   3.3534826957241989E-006   0.0000000000000000     
  -1.9862786531148745E-006   3.4250130827660939E-006   0.0000000000000000     
  -2.0052510906269072E-006   3.4971996562468989E-006   0.0000000000000000     
  -2.0241129151486900E-006   3.5700385926040479E-006   0.0000000000000000     
  -2.0428641198436714E-006   3.6435260682749690E-006   0.0000000000000000     
  -2.0615046978753023E-006   3.7176582596970961E-006   0.0000000000000000     
  -1.9777081660603095E-006   3.1488086848690257E-006   0.0000000000000000     
  -1.9977924977493687E-006   3.2183138184420653E-006   0.0000000000000000     
  -2.0177624230241601E-006   3.2884866059143919E-006   0.0000000000000000     
  -2.0376179362870286E-006   3.3593232242836541E-006   0.0000000000000000     
  -2.0573590319403147E-006   3.4308198505474959E-006   0.0000000000000000     
  -2.0769857043863656E-006   3.5029726617035659E-006   0.0000000000000000     
  -2.0964979480275226E-006   3.5757778347495115E-006   0.0000000000000000     
  -2.1158957572661324E-006   3.6492315466829788E-006   0.0000000000000000     
  -2.1351791265045354E-006   3.7233299745016147E-006   0.0000000000000000     
  -2.0463965507318492E-006   3.1549518856959808E-006   0.0000000000000000     
  -2.0671504219032352E-006   3.2244221285156688E-006   0.0000000000000000     
  -2.0877860565599887E-006   3.2945600195898620E-006   0.0000000000000000     
  -2.1083034520304348E-006   3.3653617369429269E-006   0.0000000000000000     
  -2.1287026056428994E-006   3.4368234585992254E-006   0.0000000000000000     
  -2.1489835147257029E-006   3.5089413625831139E-006   0.0000000000000000     
  -2.1691461766071735E-006   3.5817116269189608E-006   0.0000000000000000     
  -2.1891905886156336E-006   3.6551304296311235E-006   0.0000000000000000     
  -2.2091167480794067E-006   3.7291939487439633E-006   0.0000000000000000     
  -2.1153568286446711E-006   3.1612964981494559E-006   0.0000000000000000     
  -2.1367802734648508E-006   3.2307307118329294E-006   0.0000000000000000     
  -2.1580816404475989E-006   3.3008325654886712E-006   0.0000000000000000     
  -2.1792609318813338E-006   3.3715982387005867E-006   0.0000000000000000     
  -2.2003181500544709E-006   3.4430239110525816E-006   0.0000000000000000     
  -2.2212532972554271E-006   3.5151057621285639E-006   0.0000000000000000     
  -2.2420663757726205E-006   3.5878399715124406E-006   0.0000000000000000     
  -2.2627573878944675E-006   3.6612227187881182E-006   0.0000000000000000     
  -2.2833263359093862E-006   3.7352501835395048E-006   0.0000000000000000     
  -1.6967733830824406E-006   3.6921835382042440E-006   0.0000000000000000     
  -1.7121084600445343E-006   3.7671082842635139E-006   0.0000000000000000     
  -1.7273519828014315E-006   3.8426701069183204E-006   0.0000000000000000     
  -1.7425039517572651E-006   3.9188651898765653E-006   0.0000000000000000     
  -1.7575643673161683E-006   3.9956897168461598E-006   0.0000000000000000     
  -1.7725332298822726E-006   4.0731398715350041E-006   0.0000000000000000     
  -1.7874105398597114E-006   4.1512118376510065E-006   0.0000000000000000     
  -1.8021962976526165E-006   4.2299017989020747E-006   0.0000000000000000     
  -1.8168905036651213E-006   4.3092059389961119E-006   0.0000000000000000     
  -1.7692634466254581E-006   3.6968939725500571E-006   0.0000000000000000     
  -1.7852374932563827E-006   3.7717906724901281E-006   0.0000000000000000     
  -1.8011161695851434E-006   3.8473244492939548E-006   0.0000000000000000     
  -1.8168994763608266E-006   3.9234914868190957E-006   0.0000000000000000     
  -1.8325874143325186E-006   4.0002879689231042E-006   0.0000000000000000     
  -1.8481799842493038E-006   4.0777100794635360E-006   0.0000000000000000     
  -1.8636771868602692E-006   4.1557540022979513E-006   0.0000000000000000     
  -1.8790790229144994E-006   4.2344159212839010E-006   0.0000000000000000     
  -1.8943854931610805E-006   4.3136920202789434E-006   0.0000000000000000     
  -1.8419728365667866E-006   3.7017966607568854E-006   0.0000000000000000     
  -1.8585858551541610E-006   3.7766641718543733E-006   0.0000000000000000     
  -1.8750996871486558E-006   3.8521687597590711E-006   0.0000000000000000     
  -1.8915143336555487E-006   3.9283066085269074E-006   0.0000000000000000     
  -1.9078297957801160E-006   4.0050739022138135E-006   0.0000000000000000     
  -1.9240460746276351E-006   4.0824668248757205E-006   0.0000000000000000     
  -1.9401631713033822E-006   4.1604815605685550E-006   0.0000000000000000     
  -1.9561810869126333E-006   4.2391142933482498E-006   0.0000000000000000     
  -1.9720998225606661E-006   4.3183612072707325E-006   0.0000000000000000     
  -1.9149103262158939E-006   3.7068916039400945E-006   0.0000000000000000     
  -1.9321623188154210E-006   3.7817287831435840E-006   0.0000000000000000     
  -1.9493113087656454E-006   3.8572030389696972E-006   0.0000000000000000     
  -1.9663572974304214E-006   3.9333105556738879E-006   0.0000000000000000     
  -1.9833002861736076E-006   4.0100475175116045E-006   0.0000000000000000     
  -2.0001402763590591E-006   4.0874101087382975E-006   0.0000000000000000     
  -2.0168772693506315E-006   4.1653945136094206E-006   0.0000000000000000     
  -2.0335112665121831E-006   4.2439969163804234E-006   0.0000000000000000     
  -2.0500422692075677E-006   4.3232135013067556E-006   0.0000000000000000     
  -1.9880846888822437E-006   3.7121788032150435E-006   0.0000000000000000     
  -2.0059756573177128E-006   3.7869845071450893E-006   0.0000000000000000     
  -2.0237598077097844E-006   3.8624272875818660E-006   0.0000000000000000     
  -2.0414371414744350E-006   3.9385033289339198E-006   0.0000000000000000     
  -2.0590076600276382E-006   4.0152088156097905E-006   0.0000000000000000     
  -2.0764713647853692E-006   4.0925399320180196E-006   0.0000000000000000     
  -2.0938282571636011E-006   4.1704928625671528E-006   0.0000000000000000     
  -2.1110783385783126E-006   4.2490637916657282E-006   0.0000000000000000     
  -2.1282216104454754E-006   4.3282489037222925E-006   0.0000000000000000     
  -2.0615046978753023E-006   3.7176582596970961E-006   0.0000000000000000     
  -2.0800346437385848E-006   3.7924313446462210E-006   0.0000000000000000     
  -2.0984539572547490E-006   3.8678415062516095E-006   0.0000000000000000     
  -2.1167626395765778E-006   3.9438849289808904E-006   0.0000000000000000     
  -2.1349606918568531E-006   4.0205577973016862E-006   0.0000000000000000     
  -2.1530481152483565E-006   4.0978562956816300E-006   0.0000000000000000     
  -2.1710249109038739E-006   4.1757766085883497E-006   0.0000000000000000     
  -2.1888910799761850E-006   4.2543149204894707E-006   0.0000000000000000     
  -2.2066466236180774E-006   4.3334674158526218E-006   0.0000000000000000     
  -2.1351791265045354E-006   3.7233299745016147E-006   0.0000000000000000     
  -2.1543480511555908E-006   3.7980692964343137E-006   0.0000000000000000     
  -2.1734025306742148E-006   3.8734456956349582E-006   0.0000000000000000     
  -2.1923425655258409E-006   3.9494553564886807E-006   0.0000000000000000     
  -2.2111681561758972E-006   4.0260944633806111E-006   0.0000000000000000     
  -2.2298793030898164E-006   4.1033592006958780E-006   0.0000000000000000     
  -2.2484760067330301E-006   4.1812457528196152E-006   0.0000000000000000     
  -2.2669582675709688E-006   4.2597503041369529E-006   0.0000000000000000     
  -2.2853260860690628E-006   4.3388690390330208E-006   0.0000000000000000     
  -2.2091167480794067E-006   3.7291939487439633E-006   0.0000000000000000     
  -2.2289246526462781E-006   3.8038983632966972E-006   0.0000000000000000     
  -2.2486143012418559E-006   3.8792398563879426E-006   0.0000000000000000     
  -2.2681856931112136E-006   3.9552146121311791E-006   0.0000000000000000     
  -2.2876388274994185E-006   4.0318188146398774E-006   0.0000000000000000     
  -2.3069737036515412E-006   4.1090486480275093E-006   0.0000000000000000     
  -2.3261903208126547E-006   4.1869002964075532E-006   0.0000000000000000     
  -2.3452886782278248E-006   4.2653699438934815E-006   0.0000000000000000     
  -2.3642687751421231E-006   4.3444537745987700E-006   0.0000000000000000     
  -2.2833263359093862E-006   3.7352501835395048E-006   0.0000000000000000     
  -2.3037732212881971E-006   3.8099185460207014E-006   0.0000000000000000     
  -2.3240980422313465E-006   3.8852239891665955E-006   0.0000000000000000     
  -2.3443007961216848E-006   3.9611626965822679E-006   0.0000000000000000     
  -2.3643814803420602E-006   4.0377308518727985E-006   0.0000000000000000     
  -2.3843400922753246E-006   4.1149246386432707E-006   0.0000000000000000     
  -2.4041766293043267E-006   4.1927402404987652E-006   0.0000000000000000     
  -2.4238910888119171E-006   4.2711738410443618E-006   0.0000000000000000     
  -2.4434834681809467E-006   4.3502216238851465E-006   0.0000000000000000     
  -1.8168905036651213E-006   4.3092059389961119E-006   0.0000000000000000     
  -1.8314931582141870E-006   4.3891204417265018E-006   0.0000000000000000     
  -1.8460042612680958E-006   4.4696414912285441E-006   0.0000000000000000     
  -1.8604238127079594E-006   4.5507652717230125E-006   0.0000000000000000     
  -1.8747518124148887E-006   4.6324879674306843E-006   0.0000000000000000     
  -1.8889882602699943E-006   4.7148057625723322E-006   0.0000000000000000     
  -1.9031331561543892E-006   4.7977148413687352E-006   0.0000000000000000     
  -1.9171864999491842E-006   4.8812113880406662E-006   0.0000000000000000     
  -1.9311482915354891E-006   4.9652915868089032E-006   0.0000000000000000     
  -1.8943854931610805E-006   4.3136920202789434E-006   0.0000000000000000     
  -1.9095965981614649E-006   4.3935784831619101E-006   0.0000000000000000     
  -1.9247123377265651E-006   4.4740714938967223E-006   0.0000000000000000     
  -1.9397327114796642E-006   4.5551672364685873E-006   0.0000000000000000     
  -1.9546577190440429E-006   4.6368618948627002E-006   0.0000000000000000     
  -1.9694873600429808E-006   4.7191516530642673E-006   0.0000000000000000     
  -1.9842216340997605E-006   4.8020326950584856E-006   0.0000000000000000     
  -1.9988605408376610E-006   4.8855012048305588E-006   0.0000000000000000     
  -2.0134040798799645E-006   4.9695533663656847E-006   0.0000000000000000     
  -1.9720998225606661E-006   4.3183612072707325E-006   0.0000000000000000     
  -1.9879193790631388E-006   4.3982184863378459E-006   0.0000000000000000     
  -2.0036397560772363E-006   4.4786823143350820E-006   0.0000000000000000     
  -2.0192609529705220E-006   4.5597488749938405E-006   0.0000000000000000     
  -2.0347829691105619E-006   4.6414143520455252E-006   0.0000000000000000     
  -2.0502058038649230E-006   4.7236749292215400E-006   0.0000000000000000     
  -2.0655294566011694E-006   4.8065267902532845E-006   0.0000000000000000     
  -2.0807539266868662E-006   4.8899661188721618E-006   0.0000000000000000     
  -2.0958792134895812E-006   4.9739890988095782E-006   0.0000000000000000     
  -2.0500422692075677E-006   4.3232135013067556E-006   0.0000000000000000     
  -2.0664702784360005E-006   4.4030404525163028E-006   0.0000000000000000     
  -2.0827952937381197E-006   4.4834739536266733E-006   0.0000000000000000     
  -2.0990173142899229E-006   4.5645101881279132E-006   0.0000000000000000     
  -2.1151363392674067E-006   4.6461453395100668E-006   0.0000000000000000     
  -2.1311523678465672E-006   4.7283755912631786E-006   0.0000000000000000     
  -2.1470653992034015E-006   4.8111971268772912E-006   0.0000000000000000     
  -2.1628754325139054E-006   4.8946061298424499E-006   0.0000000000000000     
  -2.1785824669540762E-006   4.9785987836486989E-006   0.0000000000000000     
  -2.1282216104454754E-006   4.3282489037222925E-006   0.0000000000000000     
  -2.1452580737968364E-006   4.4080443829592608E-006   0.0000000000000000     
  -2.1621877281272296E-006   4.4884464128545464E-006   0.0000000000000000     
  -2.1790105725472625E-006   4.5694511766999423E-006   0.0000000000000000     
  -2.1957266061675378E-006   4.6510548577872344E-006   0.0000000000000000     
  -2.2123358280986623E-006   4.7332536394082133E-006   0.0000000000000000     
  -2.2288382374512422E-006   4.8160437048546658E-006   0.0000000000000000     
  -2.2452338333358824E-006   4.8994212374183842E-006   0.0000000000000000     
  -2.2615226148631884E-006   4.9833824203911553E-006   0.0000000000000000     
  -2.2066466236180774E-006   4.3334674158526218E-006   0.0000000000000000     
  -2.2242915426624349E-006   4.4132302789287101E-006   0.0000000000000000     
  -2.2418258366625788E-006   4.4935996931017576E-006   0.0000000000000000     
  -2.2592495048519321E-006   4.5745718415390662E-006   0.0000000000000000     
  -2.2765625464639164E-006   4.6561429074079388E-006   0.0000000000000000     
  -2.2937649607319562E-006   4.7383090738756705E-006   0.0000000000000000     
  -2.3108567468894767E-006   4.8210665241095692E-006   0.0000000000000000     
  -2.3278379041699007E-006   4.9044114412769318E-006   0.0000000000000000     
  -2.3447084318066523E-006   4.9883400085450619E-006   0.0000000000000000     
  -2.2853260860690628E-006   4.3388690390330208E-006   0.0000000000000000     
  -2.3035794625495864E-006   4.4185981416866365E-006   0.0000000000000000     
  -2.3217183967621793E-006   4.4989337954513577E-006   0.0000000000000000     
  -2.3397428883133242E-006   4.5798721834744252E-006   0.0000000000000000     
  -2.3576529368095029E-006   4.6614094889030867E-006   0.0000000000000000     
  -2.3754485418571977E-006   4.7435418948845846E-006   0.0000000000000000     
  -2.3931297030628929E-006   4.8262655845661623E-006   0.0000000000000000     
  -2.4106964200330679E-006   4.9095767410950623E-006   0.0000000000000000     
  -2.4281486923742070E-006   4.9934715476185313E-006   0.0000000000000000     
  -2.3642687751421231E-006   4.3444537745987700E-006   0.0000000000000000     
  -2.3831306109750776E-006   4.4241479724950252E-006   0.0000000000000000     
  -2.4018741858440422E-006   4.5044487209863920E-006   0.0000000000000000     
  -2.4204995000408336E-006   4.5853522033351537E-006   0.0000000000000000     
  -2.4390065538572594E-006   4.6668546028035916E-006   0.0000000000000000     
  -2.4573953475851352E-006   4.7489521026539788E-006   0.0000000000000000     
  -2.4756658815162743E-006   4.8316408861486034E-006   0.0000000000000000     
  -2.4938181559424873E-006   4.9149171365497435E-006   0.0000000000000000     
  -2.5118521711555888E-006   4.9987770371196755E-006   0.0000000000000000     
  -2.4434834681809467E-006   4.3502216238851465E-006   0.0000000000000000     
  -2.4629537654556972E-006   4.4298797726158629E-006   0.0000000000000000     
  -2.4823019813261829E-006   4.5101444707899209E-006   0.0000000000000000     
  -2.5015281171438503E-006   4.5910119019503951E-006   0.0000000000000000     
  -2.5206321742601459E-006   4.6724782496403594E-006   0.0000000000000000     
  -2.5396141540265156E-006   4.7545396974028873E-006   0.0000000000000000     
  -2.5584740577944067E-006   4.8371924287810560E-006   0.0000000000000000     
  -2.5772118869152650E-006   4.9204326273179374E-006   0.0000000000000000     
  -2.5958276427405379E-006   5.0042564765566088E-006   0.0000000000000000     
  -1.9311482915354891E-006   4.9652915868089032E-006   0.0000000000000000     
  -1.9450185308005081E-006   5.0499516220320703E-006   0.0000000000000000     
  -1.9587972176558103E-006   5.1351876786201856E-006   0.0000000000000000     
  -1.9724843520190554E-006   5.2209959416211268E-006   0.0000000000000000     
  -1.9860799338079041E-006   5.3073725960827597E-006   0.0000000000000000     
  -1.9995839629400163E-006   5.3943138270529553E-006   0.0000000000000000     
  -2.0129964393330529E-006   5.4818158195795862E-006   0.0000000000000000     
  -2.0263173629046740E-006   5.5698747587105225E-006   0.0000000000000000     
  -2.0395467335725410E-006   5.6584868294936352E-006   0.0000000000000000     
  -2.0134040798799645E-006   4.9695533663656847E-006   0.0000000000000000     
  -2.0278522509224023E-006   5.0541853638459904E-006   0.0000000000000000     
  -2.0422050539505075E-006   5.1393933822412843E-006   0.0000000000000000     
  -2.0564624890222684E-006   5.2251736067183091E-006   0.0000000000000000     
  -2.0706245561956674E-006   5.3115222224437998E-006   0.0000000000000000     
  -2.0846912555286933E-006   5.3984354145844923E-006   0.0000000000000000     
  -2.0986625870793287E-006   5.4859093683071252E-006   0.0000000000000000     
  -2.1125385509055599E-006   5.5739402687784327E-006   0.0000000000000000     
  -2.1263191470653723E-006   5.6625243011651540E-006   0.0000000000000000     
  -2.0958792134895812E-006   4.9739890988095782E-006   0.0000000000000000     
  -2.1109053165180422E-006   5.0585919140606588E-006   0.0000000000000000     
  -2.1258322358456415E-006   5.1437707496754455E-006   0.0000000000000000     
  -2.1406599716869343E-006   5.2295217909676997E-006   0.0000000000000000     
  -2.1553885242564748E-006   5.3158412232511878E-006   0.0000000000000000     
  -2.1700178937688183E-006   5.4027252318396762E-006   0.0000000000000000     
  -2.1845480804385216E-006   5.4901700020469296E-006   0.0000000000000000     
  -2.1989790844801398E-006   5.5781717191867113E-006   0.0000000000000000     
  -2.2133109061082275E-006   5.6667265685727892E-006   0.0000000000000000     
  -2.1785824669540762E-006   4.9785987836486989E-006   0.0000000000000000     
  -2.1941865018971139E-006   5.0631712721156031E-006   0.0000000000000000     
  -2.2096875375050267E-006   5.1483197803808197E-006   0.0000000000000000     
  -2.2250855741370301E-006   5.2340404939115273E-006   0.0000000000000000     
  -2.2403806121523348E-006   5.3203295981749035E-006   0.0000000000000000     
  -2.2555726519101547E-006   5.4071832786381294E-006   0.0000000000000000     
  -2.2706616937697022E-006   5.4945977207683792E-006   0.0000000000000000     
  -2.2856477380901907E-006   5.5825691100328332E-006   0.0000000000000000     
  -2.3005307852308330E-006   5.6710936318986707E-006   0.0000000000000000     
  -2.2615226148631884E-006   4.9833824203911553E-006   0.0000000000000000     
  -2.2777045813692981E-006   5.0679234374503382E-006   0.0000000000000000     
  -2.2937797330924791E-006   5.1530404738155591E-006   0.0000000000000000     
  -2.3097480704965343E-006   5.2387297150920266E-006   0.0000000000000000     
  -2.3256095940452609E-006   5.3249873468849312E-006   0.0000000000000000     
  -2.3413643042024623E-006   5.4118095547994722E-006   0.0000000000000000     
  -2.3570122014319387E-006   5.4991925244408546E-006   0.0000000000000000     
  -2.3725532861974888E-006   5.5871324414142708E-006   0.0000000000000000     
  -2.3879875589629149E-006   5.6756254913249258E-006   0.0000000000000000     
  -2.3447084318066523E-006   4.9883400085450619E-006   0.0000000000000000     
  -2.3614683292442762E-006   5.0728484095043824E-006   0.0000000000000000     
  -2.3781175967718126E-006   5.1579328294378218E-006   0.0000000000000000     
  -2.3946562348894223E-006   5.2435894540514269E-006   0.0000000000000000     
  -2.4110842440972658E-006   5.3298144690512489E-006   0.0000000000000000     
  -2.4274016248955042E-006   5.4166040601433339E-006   0.0000000000000000     
  -2.4436083777842991E-006   5.5039544130337346E-006   0.0000000000000000     
  -2.4597045032638095E-006   5.5918617134284997E-006   0.0000000000000000     
  -2.4756900018341995E-006   5.6803221470336793E-006   0.0000000000000000     
  -2.4281486923742070E-006   4.9934715476185313E-006   0.0000000000000000     
  -2.4454865198317339E-006   5.0779461877172625E-006   0.0000000000000000     
  -2.4627099027068438E-006   5.1629968467057556E-006   0.0000000000000000     
  -2.4798188414396749E-006   5.2486197103319672E-006   0.0000000000000000     
  -2.4968133364703596E-006   5.3348109643438425E-006   0.0000000000000000     
  -2.5136933882390402E-006   5.4215667944893364E-006   0.0000000000000000     
  -2.5304589971858509E-006   5.5088833865164025E-006   0.0000000000000000     
  -2.5471101637509297E-006   5.5967569261729906E-006   0.0000000000000000     
  -2.5636468883744129E-006   5.6851835992070552E-006   0.0000000000000000     
  -2.5118521711555888E-006   4.9987770371196755E-006   0.0000000000000000     
  -2.5297679274413522E-006   5.0832167715284959E-006   0.0000000000000000     
  -2.5475654250613860E-006   5.1682325250775146E-006   0.0000000000000000     
  -2.5652446642712638E-006   5.2538204834758727E-006   0.0000000000000000     
  -2.5828056453265576E-006   5.3399768324326910E-006   0.0000000000000000     
  -2.6002483684828310E-006   5.4266977576571030E-006   0.0000000000000000     
  -2.6175728339956645E-006   5.5139794448582363E-006   0.0000000000000000     
  -2.6347790421206236E-006   5.6018180797452233E-006   0.0000000000000000     
  -2.6518669931132813E-006   5.6902098480271875E-006   0.0000000000000000     
  -2.5958276427405379E-006   5.0042564765566088E-006   0.0000000000000000     
  -2.6143213263828142E-006   5.0886601603775967E-006   0.0000000000000000     
  -2.6326929379992570E-006   5.1736398640112516E-006   0.0000000000000000     
  -2.6509424775081725E-006   5.2591917730253789E-006   0.0000000000000000     
  -2.6690699448278652E-006   5.3453120729877794E-006   0.0000000000000000     
  -2.6870753398766419E-006   5.4319969494662574E-006   0.0000000000000000     
  -2.7049586625728087E-006   5.5192425880286165E-006   0.0000000000000000     
  -2.7227199128346692E-006   5.6070451742426627E-006   0.0000000000000000     
  -2.7403590905805323E-006   5.6954008936762003E-006   0.0000000000000000     
  -2.0395467335725410E-006   5.6584868294936352E-006   0.0000000000000000     
  -2.0526845512787452E-006   5.7476482170189707E-006   0.0000000000000000     
  -2.0657308160631107E-006   5.8373551065452713E-006   0.0000000000000000     
  -2.0786855279898946E-006   5.9276036833734574E-006   0.0000000000000000     
  -2.0915486871233525E-006   6.0183901328044450E-006   0.0000000000000000     
  -2.1043202935277411E-006   6.1097106401391571E-006   0.0000000000000000     
  -2.1170003472673163E-006   6.2015613906785098E-006   0.0000000000000000     
  -2.1295888484063354E-006   6.2939385697234217E-006   0.0000000000000000     
  -2.1420857970090529E-006   6.3868383625748114E-006   0.0000000000000000     
  -2.1263191470653723E-006   5.6625243011651540E-006   0.0000000000000000     
  -2.1400043756109070E-006   5.7516576506427098E-006   0.0000000000000000     
  -2.1535942365709238E-006   5.8413365024212498E-006   0.0000000000000000     
  -2.1670887299683400E-006   5.9315570417196151E-006   0.0000000000000000     
  -2.1804878558260704E-006   6.0223154537566435E-006   0.0000000000000000     
  -2.1937916141670319E-006   6.1136079237511728E-006   0.0000000000000000     
  -2.2070000050141388E-006   6.2054306369220357E-006   0.0000000000000000     
  -2.2201130283903102E-006   6.2977797784880758E-006   0.0000000000000000     
  -2.2331306843184592E-006   6.3906515336681268E-006   0.0000000000000000     
  -2.2133109061082275E-006   5.6667265685727892E-006   0.0000000000000000     
  -2.2275435454971293E-006   5.7558307354858981E-006   0.0000000000000000     
  -2.2416770026603429E-006   5.8454804050746475E-006   0.0000000000000000     
  -2.2557112775711547E-006   5.9356717624546208E-006   0.0000000000000000     
  -2.2696463702028527E-006   6.0264009927414001E-006   0.0000000000000000     
  -2.2834822805287213E-006   6.1176642810505639E-006   0.0000000000000000     
  -2.2972190085220498E-006   6.2094578124976974E-006   0.0000000000000000     
  -2.3108565541561225E-006   6.3017777721983800E-006   0.0000000000000000     
  -2.3243949174042281E-006   6.3946203452681928E-006   0.0000000000000000     
  -2.3005307852308330E-006   5.6710936318986707E-006   0.0000000000000000     
  -2.3153108354789464E-006   5.7601674717561359E-006   0.0000000000000000     
  -2.3299878888342633E-006   5.8497868146877316E-006   0.0000000000000000     
  -2.3445619452246237E-006   5.9399478456990312E-006   0.0000000000000000     
  -2.3590330045778646E-006   6.0306467497956032E-006   0.0000000000000000     
  -2.3734010668218243E-006   6.1218797119830169E-006   0.0000000000000000     
  -2.3876661318843415E-006   6.2136429172668449E-006   0.0000000000000000     
  -2.4018281996932545E-006   6.3059325506526573E-006   0.0000000000000000     
  -2.4158872701763995E-006   6.3987447971460234E-006   0.0000000000000000     
  -2.3879875589629149E-006   5.6756254913249258E-006   0.0000000000000000     
  -2.4033150200978901E-006   5.7646678596610165E-006   0.0000000000000000     
  -2.4185356695955818E-006   5.8542557314427666E-006   0.0000000000000000     
  -2.4336495073550283E-006   5.9443852915733993E-006   0.0000000000000000     
  -2.4486565332752723E-006   6.0350527249561385E-006   0.0000000000000000     
  -2.4635567472553528E-006   6.1262542164942074E-006   0.0000000000000000     
  -2.4783501491943095E-006   6.2179859510908307E-006   0.0000000000000000     
  -2.4930367389911833E-006   6.3102441136492317E-006   0.0000000000000000     
  -2.5076165165450129E-006   6.4030248890726300E-006   0.0000000000000000     
  -2.4756900018341995E-006   5.6803221470336793E-006   0.0000000000000000     
  -2.4915648738954950E-006   5.7693318994081350E-006   0.0000000000000000     
  -2.5073291194471923E-006   5.8588871555220163E-006   0.0000000000000000     
  -2.5229827383886535E-006   5.9489841001982858E-006   0.0000000000000000     
  -2.5385257306192411E-006   6.0396189182598959E-006   0.0000000000000000     
  -2.5539580960383181E-006   6.1307877945298176E-006   0.0000000000000000     
  -2.5692798345452466E-006   6.2224869138310058E-006   0.0000000000000000     
  -2.5844909460393887E-006   6.3147124609864230E-006   0.0000000000000000     
  -2.5995914304201077E-006   6.4074606208190308E-006   0.0000000000000000     
  -2.5636468883744129E-006   5.6851835992070552E-006   0.0000000000000000     
  -2.5800691714132938E-006   5.7741595912050872E-006   0.0000000000000000     
  -2.5963770128919921E-006   5.8636810871077476E-006   0.0000000000000000     
  -2.6125704127517824E-006   5.9537442716942431E-006   0.0000000000000000     
  -2.6286493709339367E-006   6.0443453297437647E-006   0.0000000000000000     
  -2.6446138873797343E-006   6.1354804460355258E-006   0.0000000000000000     
  -2.6604639620304476E-006   6.2271458053487227E-006   0.0000000000000000     
  -2.6761995948273520E-006   6.3193375924625560E-006   0.0000000000000000     
  -2.6918207857117234E-006   6.4120519921562322E-006   0.0000000000000000     
  -2.6518669931132813E-006   5.6902098480271875E-006   0.0000000000000000     
  -2.6688366871928219E-006   5.7791509352594700E-006   0.0000000000000000     
  -2.6856881244328771E-006   5.8686375263822261E-006   0.0000000000000000     
  -2.7024213048706956E-006   5.9586658061818267E-006   0.0000000000000000     
  -2.7190362285435256E-006   6.0492319594446322E-006   0.0000000000000000     
  -2.7355328954886134E-006   6.1403321709570108E-006   0.0000000000000000     
  -2.7519113057432080E-006   6.2319626255053323E-006   0.0000000000000000     
  -2.7681714593445543E-006   6.3241195078759581E-006   0.0000000000000000     
  -2.7843133563298981E-006   6.4167990028552531E-006   0.0000000000000000     
  -2.7403590905805323E-006   5.6954008936762003E-006   0.0000000000000000     
  -2.7578761957756086E-006   5.7843059317788733E-006   0.0000000000000000     
  -2.7752712285727414E-006   5.8737564735277146E-006   0.0000000000000000     
  -2.7925441891716801E-006   5.9637487037815949E-006   0.0000000000000000     
  -2.8096950777721720E-006   6.0542788073993833E-006   0.0000000000000000     
  -2.8267238945739690E-006   6.1453429692399583E-006   0.0000000000000000     
  -2.8436306397768182E-006   6.2369373741621880E-006   0.0000000000000000     
  -2.8604153135804701E-006   6.3290582070249458E-006   0.0000000000000000     
  -2.8770779161846734E-006   6.4217016526871050E-006   0.0000000000000000     
  -2.1420857970090529E-006   6.3868383625748114E-006   0.0000000000000000     
  -2.1544911931127185E-006   6.4802569545154788E-006   0.0000000000000000     
  -2.1668050366465405E-006   6.5741905307557311E-006   0.0000000000000000     
  -2.1790273275127196E-006   6.6686352764877551E-006   0.0000000000000000     
  -2.1911580656134561E-006   6.7635873769037391E-006   0.0000000000000000     
  -2.2031972508509542E-006   6.8590430171958802E-006   0.0000000000000000     
  -2.2151448831274112E-006   6.9549983825563572E-006   0.0000000000000000     
  -2.2270009623450286E-006   7.0514496581773614E-006   0.0000000000000000     
  -2.2387654884060085E-006   7.1483930292510793E-006   0.0000000000000000     
  -2.2331306843184592E-006   6.3906515336681268E-006   0.0000000000000000     
  -2.2460529728080487E-006   6.4840420876896932E-006   0.0000000000000000     
  -2.2588798938147177E-006   6.5779476258149275E-006   0.0000000000000000     
  -2.2716114472806543E-006   6.6723643333146583E-006   0.0000000000000000     
  -2.2842476331480444E-006   6.7672883954597042E-006   0.0000000000000000     
  -2.2967884513590733E-006   6.8627159975208828E-006   0.0000000000000000     
  -2.3092339018559292E-006   6.9586433247690210E-006   0.0000000000000000     
  -2.3215839845807959E-006   7.0550665624749374E-006   0.0000000000000000     
  -2.3338386994758613E-006   7.1519818959094597E-006   0.0000000000000000     
  -2.3243949174042281E-006   6.3946203452681928E-006   0.0000000000000000     
  -2.3378340982430261E-006   6.4879817168657207E-006   0.0000000000000000     
  -2.3511740966626801E-006   6.5818580723215574E-006   0.0000000000000000     
  -2.3644149126567259E-006   6.6762455970092952E-006   0.0000000000000000     
  -2.3775565462187010E-006   6.7711404763025298E-006   0.0000000000000000     
  -2.3905989973421400E-006   6.8665388955748571E-006   0.0000000000000000     
  -2.4035422660205835E-006   6.9624370401998711E-006   0.0000000000000000     
  -2.4163863522475639E-006   7.0588310955511651E-006   0.0000000000000000     
  -2.4291312560166205E-006   7.1557172470023373E-006   0.0000000000000000     
  -2.4158872701763995E-006   6.3987447971460234E-006   0.0000000000000000     
  -2.4298433432817289E-006   6.4920758418323920E-006   0.0000000000000000     
  -2.4436964190376432E-006   6.5859218701167278E-006   0.0000000000000000     
  -2.4574464974926564E-006   6.6802790674838657E-006   0.0000000000000000     
  -2.4710935786952804E-006   6.7751436194186465E-006   0.0000000000000000     
  -2.4846376626940295E-006   6.8705117114059087E-006   0.0000000000000000     
  -2.4980787495374180E-006   6.9663795289304964E-006   0.0000000000000000     
  -2.5114168392739576E-006   7.0627432574772436E-006   0.0000000000000000     
  -2.5246519319521628E-006   7.1595990825309947E-006   0.0000000000000000     
  -2.5076165165450129E-006   6.4030248890726300E-006   0.0000000000000000     
  -2.5220894817882300E-006   6.4963244623785348E-006   0.0000000000000000     
  -2.5364556347868207E-006   6.5901390190415495E-006   0.0000000000000000     
  -2.5507149756401631E-006   6.6844647446505655E-006   0.0000000000000000     
  -2.5648675044476362E-006   6.7792978247944697E-006   0.0000000000000000     
  -2.5789132213086139E-006   6.8746344450621482E-006   0.0000000000000000     
  -2.5928521263224764E-006   6.9704707910424889E-006   0.0000000000000000     
  -2.6066842195886007E-006   7.0668030483243805E-006   0.0000000000000000     
  -2.6204095012063635E-006   7.1636274024967082E-006   0.0000000000000000     
  -2.5995914304201077E-006   6.4074606208190308E-006   0.0000000000000000     
  -2.6145812876266040E-006   6.5007275782929736E-006   0.0000000000000000     
  -2.6294605177574268E-006   6.5945095189371371E-006   0.0000000000000000     
  -2.6442291209509696E-006   6.6888026284215971E-006   0.0000000000000000     
  -2.6588870973456210E-006   6.7836030924164187E-006   0.0000000000000000     
  -2.6734344470797691E-006   6.8789070965916769E-006   0.0000000000000000     
  -2.6878711702918049E-006   6.9747108266174366E-006   0.0000000000000000     
  -2.7021972671201178E-006   7.0710104681637738E-006   0.0000000000000000     
  -2.7164127377030982E-006   7.1678022069007611E-006   0.0000000000000000     
  -2.6918207857117234E-006   6.4120519921562322E-006   0.0000000000000000     
  -2.7073275346609242E-006   6.5052851893645365E-006   0.0000000000000000     
  -2.7227198417966782E-006   6.5990333696446040E-006   0.0000000000000000     
  -2.7379977072767965E-006   6.6932927187091605E-006   0.0000000000000000     
  -2.7531611312590886E-006   6.7880594222709165E-006   0.0000000000000000     
  -2.7682101139013682E-006   6.8833296660426012E-006   0.0000000000000000     
  -2.7831446553614454E-006   6.9790996357369333E-006   0.0000000000000000     
  -2.7979647557971341E-006   7.0753655170666355E-006   0.0000000000000000     
  -2.8126704153662419E-006   7.1721234957444290E-006   0.0000000000000000     
  -2.7843133563298981E-006   6.4167990028552531E-006   0.0000000000000000     
  -2.8003369967552676E-006   6.5099972953820529E-006   0.0000000000000000     
  -2.8162423807517864E-006   6.6037105710050605E-006   0.0000000000000000     
  -2.8320295084693613E-006   6.6979350154254447E-006   0.0000000000000000     
  -2.8476983800578933E-006   6.7926668143443802E-006   0.0000000000000000     
  -2.8632489956672874E-006   6.8879021534630291E-006   0.0000000000000000     
  -2.8786813554474438E-006   6.9836372184825670E-006   0.0000000000000000     
  -2.8939954595482716E-006   7.0798681951041686E-006   0.0000000000000000     
  -2.9091913081196725E-006   7.1765912690289935E-006   0.0000000000000000     
  -2.8770779161846734E-006   6.4217016526871050E-006   0.0000000000000000     
  -2.8936184477737072E-006   6.5148638961343508E-006   0.0000000000000000     
  -2.9100369084699692E-006   6.6085411228596192E-006   0.0000000000000000     
  -2.9263332983803870E-006   6.7027295184826622E-006   0.0000000000000000     
  -2.9425076176118875E-006   6.7974252686232292E-006   0.0000000000000000     
  -2.9585598662713985E-006   6.8926245589010696E-006   0.0000000000000000     
  -2.9744900444658456E-006   6.9883235749359340E-006   0.0000000000000000     
  -2.9902981523021587E-006   7.0845185023475716E-006   0.0000000000000000     
  -3.0059841898872634E-006   7.1812055267557354E-006   0.0000000000000000     
 </DataArray>
 <DataArray  type="Float64" Name="stress" NumberOfComponents="3" format="ascii">
   17996.388828677846       0.26521815685737238       0.28513148509654485     
   17903.013399540905        7.5663607187379966E-002   8.1553454597580635E-002
   17809.635184501472       -4.4311417423159583E-002  -6.9624104549226018E-002
   17716.250625543453      -0.10656697019021522      -0.17207633355861648     
   17622.856164651028      -0.12296310407691635      -0.22947837333258159     
   17529.448243807910      -0.10535987280945847      -0.24550536547191429     
   17436.023304998183       -6.5617330048553413E-002 -0.22383245081752126     
   17342.577790205949       -1.5595528143421689E-002 -0.16813477063911964     
   17249.108141415363        3.2845479154275381E-002  -8.2087465932769679E-002
   17434.688755005154       0.96071995257625531        92.363501155924752     
   17344.141672156922       0.51701071405932453        92.181103001566868     
   17253.603172523413       0.20785099900695059        92.044646787838047     
   17163.066747887064        1.1546749629815167E-002   91.951546359340639     
   17072.525890030513       -9.3596091980543861E-002   91.899215560677050     
   16981.974090736516      -0.12927158351703838        91.885068236537592     
   16891.404841787567      -0.11717378309094784        91.906518231557641     
   16800.811634966351       -7.8996748719873722E-002   91.960979390489825     
   16710.187962055352       -3.6434538424146012E-002   92.045865557756954     
   16872.880438194086        1.4628676825859657        181.44069387443227     
   16785.177732331340       0.82843734531525115        181.30412776997511     
   16697.492874600761       0.37743071623754076        181.20380740076484     
   16609.817153374253        8.0809034458070528E-002   181.13815342940208     
   16522.141857023475       -9.0466461048890778E-002   181.10558651839460     
   16434.458273919885      -0.16543453170288558        181.10452732997896     
   16346.757692435231      -0.17313393862514204        181.13339652676189     
   16259.031400941287      -0.14260344250578783        181.19061477118240     
   16171.270687809470      -0.10288180538736924        181.27460272556596     
   16310.971120132208        1.7738339128982261        267.54252185075620     
   16226.128278189793        1.0119529387447983        267.47005643657263     
   16141.310210332245       0.46620361425539159        267.42177413365306     
   16056.506748310681       0.10269177641566785        267.39702025418131     
   15971.707723876230      -0.11247673759862664        267.39514011033867     
   15886.902968779899      -0.21319609102829418        267.41547901439333     
   15802.082314772906      -0.23336044656207378        267.45738227865229     
   15717.235593606441      -0.20686396695873555        267.52019521529741     
   15632.352637031554      -0.16760081548454764        267.60326313659937     
   15748.968042706842        1.8957912097384906        350.69479729500910     
   15667.000007858196        1.0695669320975867        350.69831767862291     
   15585.061099316048       0.47594557221054856        350.71246338587093     
   15503.140439001443        7.8666866519597534E-002   350.73742221080391     
   15421.227148835278      -0.15852944801645208        350.77338194728327     
   15339.310350738582      -0.27190363489444280        350.82053038940296     
   15257.379166632323      -0.29771595762395009        350.87905533122716     
   15175.422718437570      -0.27222667921250832        350.94914456670438     
   15093.430128075268      -0.23169606319788727        351.03098588992458     
   15186.878447805375        1.8309121392185261        430.92333241721570     
   15107.799619462354        1.0032887629822653        431.00834017310711     
   15028.751461150734       0.40843246960048418        431.08979155695272     
   14949.723131751984        1.0206196738181461E-002   431.16863467665149     
   14870.703790147234      -0.22752711798239034        431.24581763990017     
   14791.682595217855      -0.34090453675798926        431.32228855454014     
   14712.648705845115      -0.36606312220374093        431.39899552833748     
   14633.591280910290      -0.33913993649821350        431.47688666913734     
   14554.499479294747      -0.29627204193275247        431.55691008472979     
   14624.709577315418        1.5813692678339066        508.25393942760763     
   14548.533811128147       0.81512786931580195        508.41955259702615     
   14472.387215434794       0.26544018605181918        508.56767504629164     
   14396.259732867584      -0.10121834162964660        508.69993302905721     
   14320.141306058562      -0.31837227365394938        508.81795279886524     
   14244.021877639549      -0.41954617021565355        508.92336060928466     
   14167.891390242799      -0.43826459107094706        509.01778271395779     
   14091.739786500159      -0.40805209640166140        509.10284536636021     
   14015.557009043700      -0.36243324591941928        509.18017482007059     
   14062.468673124740        1.1493351618009910        582.71243053647572     
   13989.209280981353       0.50709368873140193        582.95138362742728     
   13915.974281766665        4.8744601333964965E-002   583.16003025333191     
   13842.755148653754      -0.25413485666649649        583.34059264540258     
   13769.543354815798      -0.42996744095489703        583.49529303495115     
   13696.330373425873      -0.50717590838758042        583.62635365337781     
   13623.107677657159      -0.51418301468584104        583.73599673197282     
   13549.866740682868      -0.47941151596842246        583.82644450210967     
   13476.599035676067      -0.43128416867057240        583.89991919508736     
   13500.162977120359       0.53698238722063252        654.32461795372444     
   13429.832727147832        8.1195659045079083E-002   654.62326194141588     
   13359.518579744712      -0.23987840525569482        654.88077357749341     
   13289.214285415743      -0.44707145676238724        655.09988890298496     
   13218.913594665410      -0.56121514632286562        655.28334395885997     
   13148.610257998573      -0.60314112478226889        655.43387478628426     
   13078.298025919867      -0.59368104323857551        655.55421742634030     
   13007.970648934068      -0.55366655273064680        655.64710792020048     
   12937.621877545871      -0.50392930404541403        655.71528230896865     
   17249.108141415363        3.2845479154275381E-002  -8.2087465932769679E-002
   17155.606527586315        6.8653806757538405E-002  -4.5756119394630459E-004
   17062.067873822562        8.9964714221423492E-002   4.8455540481024434E-002
   16968.492756323136        9.8698865162987204E-002   7.0678129640161735E-002
   16874.881751287088        9.6776922999197268E-002   7.2236496753297130E-002
   16781.235434913495        8.6119551260708249E-002   5.9156932472292797E-002
   16687.554383401519        6.8647414085717173E-002   3.7465727448400085E-002
   16593.839172950113        4.6281174327305052E-002   1.3189172025769975E-002
   16500.090379758381        2.0941495865372417E-002  -7.6464429939265806E-003
   16710.187962055352       -3.6434538424146012E-002   92.045865557756954     
   16619.535559310611       -5.1567469645306119E-003   92.130371809128349     
   16528.860845783514        1.4776349133171607E-002   92.188488562799691     
   16438.164337450908        2.5084672871344083E-002   92.224822677515618     
   16347.446550289604        2.7488146876748942E-002   92.243981012326174     
   16256.708000275874        2.3706692140876839E-002   92.250570425903888     
   16165.949203387005        1.5460232604709745E-002   92.249197777311323     
   16075.170675599558        4.4686904602713184E-003   92.244469925184546     
   15984.372932889963       -7.5480130208234186E-003   92.240993728494331     
   16171.270687809470      -0.10288180538736924        181.27460272556596     
   16083.484084045165       -7.3203967257541080E-002   181.35994561147439     
   15995.686227506012       -5.2448693988480954E-002   181.42452882986601     
   15907.877566842821       -3.9120482981161331E-002   181.47172331236280     
   15820.058550706222       -3.1723832076750114E-002   181.50489999057331     
   15732.229627747109       -2.8763238228748378E-002   181.52742979633331     
   15644.391246616213       -2.8743199134623865E-002   181.54268366122903     
   15556.543855964297       -3.0168212190801569E-002   181.55403251703777     
   15468.687904442108       -3.1542774811896379E-002   181.56484729538778     
   15632.352637031554      -0.16760081548454764        267.60326313659937     
   15547.446377788830      -0.13720505365017743        267.68754968447939     
   15462.536776932324      -0.11388303209423611        267.75600063215160     
   15377.624208683163       -9.6387346997289569E-002   267.81093448854921     
   15292.709047262551       -8.3470594169739343E-002   267.85466976282919     
   15207.791666891697       -7.3885369783965871E-002   267.88952496406500     
   15122.872441791780       -6.6384269865920942E-002   267.91781860128390     
   15037.951746184004       -5.9719890449741797E-002   267.94186918352597     
   14953.029954289521       -5.2644827599579003E-002   267.96399521981988     
   15093.430128075268      -0.23169606319788727        351.03098588992458     
   15011.416716540012      -0.19887720739461656        351.11246986643295     
   14929.405252004217      -0.17169928330076800        351.18232825962713     
   14847.396027155894      -0.14918666422818205        351.24201066052478     
   14765.389334683134      -0.13036372317674250        351.29296666007855     
   14683.385467273853      -0.11425483390303270        351.33664584929164     
   14601.384717616038       -9.9884369578830956E-002   351.37449781904411     
   14519.387378397862       -8.6276703277690103E-002   351.40797216042097     
   14437.393742307124       -7.2456208576113568E-002   351.43851846424292     
   14554.499479294747      -0.29627204193275247        431.55691008472979     
   14475.389376297409      -0.25993762865255121        431.63399199577043     
   14396.284410663844      -0.22807006463608559        431.70293600262642     
   14317.184786445257      -0.19998917916018399        431.76450628269242     
   14238.090707692885      -0.17501480156352045        431.81946701341514     
   14159.002378457932      -0.15246676111655688        431.86858237218405     
   14079.920002791570      -0.13166488722345093        431.91261653642533     
   14000.843784745108      -0.11192900882178947        431.95233368357475     
   13921.773928369619       -9.2578955711360322E-002   431.98849799099133     
   14015.557009043700      -0.36243324591941928        509.18017482007059     
   13939.358633059583      -0.32210351795856695        509.25140191095915     
   13863.167010853160      -0.28516799370481749        509.31724815126182     
   13786.982250735271      -0.25126563700814586        509.37797580946960     
   13710.804461016751      -0.22003541182857589        509.43384715393699     
   13634.633750008328      -0.19111628217615362        509.48512445307591     
   13558.470226020856      -0.16414721201181237        509.53206997524683     
   13482.313997365138      -0.13876716541744827        509.57494598889105     
   13406.165172351904      -0.11461510638218897        509.61401476235744     
   13476.599035676067      -0.43128416867057240        583.89991919508736     
   13403.318762825231      -0.38709207560532377        583.96398545040756     
   13330.045810514343      -0.34516568758226640        584.02468899585961     
   13256.780184210233      -0.30548678206559998        584.08197369535083     
   13183.521889379612      -0.26803713639947091        584.13578341274138     
   13110.270931489475      -0.23279852753421437        584.18606201214743     
   13037.027316006386      -0.19975273347426992        584.23275335729477     
   12963.791048397245      -0.16888153114814486        584.27580131219759     
   12890.562134128817      -0.14016669807824655        584.31514974070649     
   12937.621877545871      -0.50392930404541403        655.71528230896865     
   12867.264041592991      -0.45662050196551718        655.77102845263846     
   12796.913567589358      -0.41023576392672112        655.82468282655566     
   12726.570351054179      -0.36512335926909145        655.87605439469178     
   12656.234287506564      -0.32163155741181981        655.92495212107258     
   12585.905272465687      -0.28010862800147152        655.97118496963856     
   12515.583201450714      -0.24090284048816102        656.01456190439865     
   12445.267969980843      -0.20436246406916325        656.05489188933484     
   12374.959473575222      -0.17083576832783365        656.09198388844140     
   16500.090379758381        2.0941495865372417E-002  -7.6464429939265806E-003
   16406.327333595782       -3.5274001675134059E-004  -2.0143263895757421E-002
   16312.568668160940       -1.2902888046482985E-002  -2.4620781107603167E-002
   16218.813915547087       -1.8268637661094544E-002  -2.2878720627350517E-002
   16125.062607847289       -1.8009678436101240E-002  -1.6716808201219634E-002
   16031.314277154985       -1.3685699053894496E-002  -7.9347698588609454E-003
   15937.568455562872       -6.8563902777896146E-003   1.6676685832586562E-003
   15843.824675164316        9.1855883783864556E-004   1.0290781027227254E-002
   15750.082468052369        8.0794585892363102E-003   1.6134841637183754E-002
   15984.372932889963       -7.5480130208234186E-003   92.240993728494331     
   15893.565612416201       -1.6558559838813380E-002   92.242043635319220     
   15802.757790948099       -2.0399592923240562E-002   92.247057768859065     
   15711.949143881833       -2.0153124934040534E-002   92.254888501962967     
   15621.139346612918       -1.6901170724850090E-002   92.264388206850839     
   15530.328074537234       -1.1725744019713602E-002   92.274409255836048     
   15439.515003050725       -5.7088586308964295E-003   92.283804021621705     
   15348.699807549161        6.7471679358277470E-005   92.291424876383502     
   15257.882163428048        4.5212316408651532E-003   92.296124192565628     
   15468.687904442108       -3.1542774811896379E-002   181.56484729538778     
   15380.826082911832       -3.1025687793771795E-002   181.57703077073060     
   15292.960651071531       -2.8212965580678429E-002   181.58983973978903     
   15205.091410825369       -2.3764927638694644E-002   181.60267616727492     
   15117.218164077130       -1.8341894527111435E-002   181.61494201760337     
   15029.340712731331       -1.2604184706106025E-002   181.62603925576667     
   14941.458858691982       -7.2121179982786998E-003   181.63536984631855     
   14853.572403863287       -2.8260137532925000E-003   181.64233575398487     
   14765.681150149359       -1.0619166550895898E-004   181.64633894348327     
   14953.029954289521       -5.2644827599579003E-002   267.96399521981988     
   14868.105148405477       -4.4833125958575692E-002   267.98497389107786     
   14783.175102426932       -3.6986837268159434E-002   268.00393607267193     
   14698.239727972010       -2.9400567678749212E-002   268.02073081544006     
   14613.298936658799       -2.2368923398971674E-002   268.03520717032768     
   14528.352640105610       -1.6186510217266914E-002   268.04721418831718     
   14443.400749930572       -1.1147934569635254E-002   268.05660092028199     
   14358.443177751764       -7.5478026128621423E-003   268.06321641718762     
   14273.479835187374       -5.6807204300639569E-003   268.06690972994329     
   14437.393742307124       -7.2456208576113568E-002   351.43851846424292     
   14355.399212219281       -5.9059878567495616E-002   351.46602874447433     
   14273.398998909719       -4.7365039838041412E-002   351.48955770831242     
   14191.393106916203       -3.7356566183916584E-002   351.50929898679357     
   14109.381540776511       -2.9019331846029672E-002   351.52544621103226     
   14027.364305028561       -2.2338210428642924E-002   351.53819301219039     
   13945.341404210205       -1.7298075740654895E-002   351.54773302132071     
   13863.312842859177       -1.3883801964766462E-002   351.55425986936905     
   13781.278625513356       -1.2080262916242646E-002   351.55796718760382     
   13921.773928369619       -9.2578955711360322E-002   431.98849799099133     
   13842.704677675822       -7.4784948567867104E-002   432.02035107933932     
   13763.630194415649       -5.9991404154061456E-002   432.04691558782514     
   13684.550559252277       -4.7929445186127850E-002   432.06862722162799     
   13605.465852848809       -3.8330194554873742E-002   432.08592168586785     
   13526.376155868622       -3.0924774467166571E-002   432.09923468592700     
   13447.281548974652       -2.5444308398618887E-002   432.10900192682709     
   13368.182112830222       -2.1619918602482358E-002   432.11565911387117     
   13289.077928098413       -1.9182728114174097E-002   432.11964195217632     
   13406.165172351904      -0.11461510638218897        509.61401476235744     
   13330.017948097489       -9.3087339379962941E-002   509.64809664406090     
   13253.866542840278       -7.5509761891225935E-002   509.67622065220519     
   13177.711096574538       -6.1415726334416831E-002   509.69896206012180     
   13101.551749294402       -5.0338585603640240E-002   509.71689614101649     
   13025.388640994086       -4.1811692296505498E-002   509.73059816809842     
   12949.221911667759       -3.5368399127946759E-002   509.74064341464435     
   12873.051701309607       -3.0542058949322382E-002   509.74760715400271     
   12796.878149913766       -2.6866024537412159E-002   509.75206465922048     
   12890.562134128817      -0.14016669807824655        584.31514974070649     
   12817.335426806732      -0.11504605429126968        584.34942118696415     
   12744.105898079275       -9.4563944150650059E-002   584.37768384250398     
   12670.873730477317       -7.8111931370585808E-002   584.40055004255044     
   12597.639106531853       -6.5081579475190665E-002   584.41863212242959     
   12524.402208773528       -5.4864452892616100E-002   584.43254241734917     
   12451.163219733313       -4.6852114987814275E-002   584.44289326248816     
   12377.922321942064       -4.0436129685531341E-002   584.45029699310942     
   12304.679697930602       -3.5008060838663368E-002   584.45536594449027     
   12374.959473575222      -0.17083576832783365        656.09198388844140     
   12304.653517126031      -0.14174009639918950        656.12448045643430     
   12234.346114028225      -0.11779778232175886        656.15151609964119     
   12164.037472555099       -9.8314581739032292E-002   656.17363770923532     
   12093.727800979701       -8.2596251017548639E-002   656.19139217635313     
   12023.417307575261       -6.9948546105024434E-002   656.20532639209432     
   11953.106200615088       -5.9677222905520466E-002   656.21598724782382     
   11882.794688372320       -5.1088037394947605E-002   656.22392163459051     
   11812.482979120119       -4.3486745625159529E-002   656.22967644360438     
   15750.082468052369        8.0794585892363102E-003   1.6134841637183754E-002
   15656.339401384150        1.2795947017366416E-002   1.8403238918751404E-002
   15562.593462722241        1.4639013685155078E-002   1.7936235778498948E-002
   15468.844814768974        1.4150999722005508E-002   1.5389417592725049E-002
   15375.093620226253        1.1874244654791255E-002   1.1418369982064802E-002
   15281.340041796193        8.3510891536207055E-003   6.6786784730837765E-003
   15187.584242180861        4.1238731346311397E-003   1.8259284726226928E-003
   15093.826384082149       -2.6506358608457958E-004  -2.4842946604287527E-003
   15000.066630202080       -4.2733808568300446E-003  -5.5964053362829403E-003
   15257.882163428048        4.5212316408651532E-003   92.296124192565628     
   15167.062625134631        7.0471380313392729E-003   92.297919913596274     
   15076.242028012008        7.9762267387195607E-003   92.297895010558861     
   14985.420468801538        7.6309689102345146E-003   92.296499397645277     
   14894.598044244171        6.3338346235468634E-003   92.294182989002238     
   14803.774851080820        4.4072935461372253E-003   92.291395698891876     
   14712.950986052976        2.1738169307354838E-003   92.288587441618802     
   14622.126545901312       -4.4125948988948949E-005   92.286208131251371     
   14531.301627367071       -1.9240644323872402E-003   92.284707682017981     
   14765.681150149359       -1.0619166550895898E-004   181.64633894348327     
   14677.787498098402        1.1884210553034791E-003   181.64801819109101     
   14589.894008873383        1.8342797038712888E-003   181.64859522689221     
   14502.000725300004        1.9741366104426561E-003   181.64834644633734     
   14414.107690203813        1.7507435559309670E-003   181.64754824452146     
   14326.214946410986        1.3068545740679838E-003   181.64647701700196     
   14238.322536747159        7.8522171133954544E-004   181.64540915916277     
   14150.430504038135        3.2859761813597288E-004   181.64462106625754     
   14062.538891109849        7.9735554209037218E-005   181.64438913365913     
   14273.479835187374       -5.6807204300639569E-003   268.06690972994329     
   14188.514020068380       -4.7802647786738817E-003   268.06876356942530     
   14103.549089784465       -3.8814835479570320E-003   268.07005129856555     
   14018.585045291715       -2.9811896602041088E-003   268.07090794625827     
   13933.621887546517       -2.0761952200700762E-003   268.07146854149511     
   13848.659617505211       -1.1633123685896862E-003   268.07186811319900     
   13763.698236123982       -2.3935401350172469E-004   268.07224169033043     
   13678.737744359149        6.9886771416349802E-004   268.07272430184042     
   13593.778143166821        1.6545398439120618E-003   268.07345097660516     
   13781.278625513356       -1.2080262916242646E-002   351.55796718760382     
   13699.242190836632       -1.0858982994250255E-002   351.56022154640891     
   13617.206955222795       -9.2657205632349360E-003   351.56227763892298     
   13535.172889804158       -7.3967010539490730E-003   351.56416128002132     
   13453.139965713181       -5.3481497307075188E-003   351.56589828462381     
   13371.108154082285       -3.2162917159439530E-003   351.56751446779026     
   13289.077426043990       -1.0973522412314196E-003   351.56903564449829     
   13207.047752730577        9.1244327632011846E-004   351.57048762960562     
   13125.019105274534        2.7168696778971935E-003   351.57189623816367     
   13289.077928098413       -1.9182728114174097E-002   432.11964195217632     
   13209.972010195845       -1.7047795296093682E-002   432.12245762012196     
   13130.867289666530       -1.4413087147659098E-002   432.12528866160193     
   13051.763719864746       -1.1434089360591315E-002   432.12808382998895     
   12972.661254144676       -8.2662880704447161E-003   432.13079187864116     
   12893.559845860978       -5.0651676401685108E-003   432.13336156115491     
   12814.459448367610       -1.9862150011249469E-003   432.13574163085269     
   12735.360015019003        8.1508472703717416E-004   432.13788084114617     
   12656.261499169472        3.1832459189899964E-003   432.13972794549011     
   12796.878149913766       -2.6866024537412159E-002   509.75206465922048     
   12720.703477938396       -2.3346764193775016E-002   509.75553728840174     
   12644.529777593389       -1.9418240534832876E-002   509.75909878007070     
   12568.356996500732       -1.5255046874699474E-002   509.76265297863216     
   12492.185082282249       -1.1031777135940501E-002   509.76610372841742     
   12416.013982559823       -6.9230250255714054E-003   509.76935487366683     
   12339.843644955406       -3.1033840696181869E-003   509.77231025872499     
   12263.674017090809        2.5255185028072447E-004   509.77487372793928     
   12187.505046588038        2.9701892231059901E-003   509.77694912565073     
   12304.679697930602       -3.5008060838663368E-002   584.45536594449027     
   12231.436593856817       -2.9755951894458121E-002   584.45952604919273     
   12158.194103481421       -2.4375836802846607E-002   584.46372240799894     
   12084.952180739625       -1.9021264812181471E-002   584.46784610856935     
   12011.710779566713       -1.3845785173089098E-002   584.47178823861054     
   11938.469853897723       -9.0029476173185685E-003   584.47543988568441     
   11865.229357667989       -4.6463010648949421E-003   584.47869213748493     
   11791.989244812576       -9.2939521255175350E-004   584.48143608167879     
   11718.749469266784        1.9942208514294180E-003   584.48356280589098     
   11812.482979120119       -4.3486745625159529E-002   656.22967644360438     
   11742.171357743548       -3.6275420648962609E-002   656.23448940043795     
   11671.859951808365       -2.9380532975210372E-002   656.23917395885053     
   11601.548733608839       -2.2894435219768638E-002   656.24364060220933     
   11531.237675439048       -1.6909480094000173E-002   656.24779981397137     
   11460.926749593236       -1.1518020310631982E-002   656.25156207750513     
   11390.615928365756       -6.8124082304166222E-003   656.25483787637518     
   11320.305184050665       -2.8849967793576070E-003   656.25753769387177     
   11249.994488942233        1.7186174591188319E-004   656.25957201340066     
   15000.066630202080       -4.2733808568300446E-003  -5.5964053362829403E-003
   14906.306775005043       -6.9993221750337398E-003  -7.0356361039745361E-003
   14812.548441377941       -8.1130558073709835E-003  -7.0138692956324220E-003
   14718.791534656872       -7.9301281830339576E-003  -5.9054931400165491E-003
   14625.035960178069       -6.7660850490938174E-003  -4.0848962617118798E-003
   14531.281623277555       -4.9364731848982046E-003  -1.9264668613796752E-003
   14437.528429291659       -2.7568379691729206E-003   1.9540638936034019E-004
   14343.776283556115       -5.4272697525448166E-004   1.9063351965409321E-003
   14250.025091407342        1.3903143753850600E-003   2.8319310640064726E-003
   14531.301627367071       -1.9240644323872402E-003   92.284707682017981     
   14440.476744632002       -3.0918826296328916E-003   92.284292866768496     
   14349.652314840316       -3.4969230628121295E-003   92.284700739462295     
   14258.828289177045       -3.3019023858287255E-003   92.285676636609935     
   14168.004618827179       -2.6695370288507547E-003   92.286965894712225     
   14077.181254975651       -1.7625441323616542E-003   92.288313850207629     
   13986.358148807587       -7.4364005467941752E-004   92.289465839512047     
   13895.535251507919        2.2445850117946975E-004   92.290167199208739     
   13804.712514261408        9.7903395362664014E-004   92.290163265520533     
   14062.538891109849        7.9735554209037218E-005   181.64438913365913     
   13974.647369403159        4.2896577724604867E-005   181.64473532403238     
   13886.755574655848        1.0333159752917709E-004   181.64539516201580     
   13798.863496138138        2.2527461624122225E-004   181.64621538599235     
   13710.971123120124        3.7295953552529681E-004   181.64704273382591     
   13623.078444872537        5.1062185957562178E-004   181.64772394412489     
   13535.185450665369        6.0249514262977755E-004   181.64810575491893     
   13447.292129769081        6.1281400485313497E-004   181.64803490448412     
   13359.398471454146        5.0581354025780456E-004   181.64735813120862     
   13593.778143166821        1.6545398439120618E-003   268.07345097660516     
   13508.818626681661        2.3982255352166248E-003   268.07433049657101     
   13423.858401462063        2.7418999698056723E-003   268.07513483554010     
   13338.897487100261        2.7508706907610758E-003   268.07579381046372     
   13253.935903188245        2.4904446900109178E-003   268.07623723817829     
   13168.973669318482        2.0259297707525548E-003   268.07639493569377     
   13084.010805082995        1.4226328048607684E-003   268.07619671997503     
   12999.047330074047        7.4586131449905224E-004   268.07557240788469     
   12914.083263883731        6.0922320699319243E-005   268.07445181632141     
   13125.019105274534        2.7168696778971935E-003   351.57189623816367     
   13042.990493829851        3.9673119053986738E-003   351.57311714501600     
   12960.960975895934        4.4729726450896123E-003   351.57398519670647     
   12878.930593623209        4.3743536180045339E-003   351.57449496577243     
   12796.899389162398        3.8119570490380283E-003   351.57464102464291     
   12714.867404663981        2.9262846592246206E-003   351.57441794588431     
   12632.834682278512        1.8578380449980614E-003   351.57382030204457     
   12550.801264156464        7.4711915294756182E-004   351.57284266559662     
   12468.767192448480       -2.6537017674854724E-004   351.57147960903995     
   12656.261499169472        3.1832459189899964E-003   432.13972794549011     
   12577.162948210611        4.7433650051971199E-003   432.14113403013090     
   12498.063478594760        5.3507410648307996E-003   432.14201168245626     
   12418.963147267352        5.1951921263935219E-003   432.14240190744954     
   12339.862011173749        4.4665361619991018E-003   432.14234571011315     
   12260.760127259609        3.3545918931849883E-003   432.14188409549661     
   12181.657552470055        2.0491764739745122E-003   432.14105806846186     
   12102.554343750631        7.4010847993122297E-004   432.13990863417331     
   12023.450558046721       -3.8279422506093397E-004   432.13847679747556     
   12187.505046588038        2.9701892231059901E-003   509.77694912565073     
   12111.335967186498        4.7195933398143097E-003   509.77841991263136     
   12035.166090195726        5.4293961820803815E-003   509.77927972962652     
   11958.995479592475        5.3128536092117429E-003   509.77959769117291     
   11882.824199353539        4.5832217560928257E-003   509.77944291160247     
   11806.652313455748        3.4537565838945739E-003   509.77888450529872     
   11730.479885875749        2.1377135972215910E-003   509.77799158664624     
   11654.306980590485        8.4834929612043197E-004   509.77683327002643     
   11578.133661576656       -2.0108065973545308E-004   509.77547866978409     
   11718.749469266784        1.9942208514294180E-003   584.48356280589098     
   11645.509528120427        3.8892061884325813E-003   584.48501355318956     
   11572.268991336134        4.7631294655730017E-003   584.48585477519612     
   11499.027922158675        4.8268064711010084E-003   584.48616537257419     
   11425.786383832714        4.2910527572530555E-003   584.48602424603348     
   11352.544439602825        3.3666836575321213E-003   584.48551029628618     
   11279.302152713741        2.2645148301307927E-003   584.48470242389999     
   11206.059586410074        1.1953617022300023E-003   584.48367952962917     
   11132.816803936495        3.7003989109507529E-004   584.48252051408247     
   11249.994488942233        1.7186174591188319E-004   656.25957201340066     
   11179.683608374928        2.2454119193753286E-003   656.26095371257634     
   11109.372362653123        3.4061318838212173E-003   656.26180225586927     
   11039.060806525975        3.8365184827853227E-003   656.26218800724700     
   10968.748994742344        3.7190684020060871E-003   656.26218133037480     
   10898.436982051326        3.2362783972530451E-003   656.26185258919168     
   10828.124823202064        2.5706453607199364E-003   656.26127214761641     
   10757.812572943503        1.9046661186621350E-003   656.26051036948547     
   10687.500286024690        1.4208374104782706E-003   656.25963761858407     
   14250.025091407342        1.3903143753850600E-003   2.8319310640064726E-003
   14156.274177638723        2.6260132017341675E-003   2.9800618896616564E-003
   14062.522963882788        3.0708931362823932E-003   2.6914866127685957E-003
   13968.771500733572        2.8936011040059384E-003   2.0911534432135732E-003
   13875.019838785445        2.2627849357377272E-003   1.3040105615624990E-003
   13781.268028632834        1.3470929370669182E-003   4.5500617770165454E-004
   13687.516120870017        3.1517244860879146E-004  -3.3091147893576407E-004
   13593.764166091345       -6.6432861513021635E-004  -9.2879414913805893E-004
   13500.012214891054       -1.4227625433704816E-003  -1.2136938589563107E-003
   13804.712514261408        9.7903395362664014E-004   92.290163265520533     
   13713.889884744940        1.3920617921030498E-003   92.289615809241141     
   13623.067357768557        1.4926274570825626E-003   92.288906832900608     
   13532.244955218284        1.3536845108319540E-003   92.288112020906908     
   13441.422698979895        1.0481857389095239E-003   92.287307057770647     
   13350.600610938978        6.4908284184639342E-004   92.286567627830181     
   13259.778712981741        2.2932985575607745E-004   92.285969415693842     
   13168.957026993812       -1.3812102588417474E-004   92.285588105636748     
   13078.135574861055       -3.8031707845220808E-004   92.285499382453253     
   13359.398471454146        5.0581354025780456E-004   181.64735813120862     
   13271.504818345657        3.5649640540214023E-004   181.64633760587327     
   13183.611519349750        2.6080191310029477E-004   181.64536083278688     
   13095.718573157192        2.1436612769321073E-004   181.64446254996781     
   13007.825978458828        2.1282509351294721E-004   181.64367749514861     
   12919.933733945809        2.5181606088153785E-004   181.64304040644240     
   12832.041838309076        3.2697544702386949E-004   181.64258602186999     
   12744.150290239470        4.3393942178227007E-004   181.64234907929500     
   12656.259088428176        5.6834518727555405E-004   181.64236431674956     
   12914.083263883731        6.0922320699319243E-005   268.07445181632141     
   12829.119154209960       -4.2795034460141324E-004   268.07315175944819     
   12744.155523028885       -6.0226213463465683E-004   268.07203724589141     
   12659.192351350108       -5.2531430446833838E-004   268.07111038445760     
   12574.229620183489       -2.6040719603770413E-004   268.07037328373355     
   12489.267310538839        1.2915847128169844E-004   268.06982805259304     
   12404.305403425809        5.8008134328701999E-004   268.06947679983301     
   12319.343879854194        1.0290609425283037E-003   268.06932163405526     
   12234.382720833757        1.4127963650025777E-003   268.06936466412799     
   12468.767192448480       -2.6537017674854724E-004   351.57147960903995     
   12386.733068105930       -9.0854921018035384E-004   351.57006457727624     
   12304.699443207990       -1.0742448444034380E-003   351.56891983134540     
   12222.666286596790       -8.6631648355250945E-004   351.56802316808586     
   12140.633567114564       -3.8862331985001219E-004   351.56735238426700     
   12058.601253603489        2.5497515071037924E-004   351.56688527669888     
   11976.569314905859        9.6061974727490451E-004   351.56659964216794     
   11894.537719863663        1.6244507251030882E-003   351.56647327757116     
   11812.506437319327        2.1426093321679218E-003   351.56648397965972     
   12023.450558046721       -3.8279422506093397E-004   432.13847679747556     
   11944.346735802199       -1.0325690527679399E-003   432.13708236675569     
   11865.243354289518       -1.1328248210702441E-003   432.13599234848124     
   11786.140375696925       -8.0960059403878404E-004   432.13516854467457     
   11707.037762212787       -1.8893530796049163E-004   432.13457275746867     
   11627.935476025421        6.0313236372167012E-004   432.13416678918384     
   11548.833479322961        1.4405625956896984E-003   432.13391244168020     
   11469.731734293870        2.1973171219542564E-003   432.13377151734426     
   11390.630203126280        2.7473563341118279E-003   432.13370581812569     
   11578.133661576656       -2.0108065973545308E-004   509.77547866978409     
   11501.960333067107       -7.4727979335875716E-004   509.77421143544029     
   11425.787330675616       -7.5568197144093574E-004   509.77323855657323     
   11349.614615450269       -3.5612674537333078E-004   509.77251415795610     
   11273.442148438973        3.2154540804185672E-004   509.77199236438065     
   11197.269890689913        1.1474951934360433E-003   509.77162730051896     
   11121.097803251014        1.9918823363695992E-003   509.77137309107042     
   11044.925847170351        2.7248670617154858E-003   509.77118386086636     
   10968.753983495955        3.2166095938919170E-003   509.77101373447869     
   11132.816803936495        3.7003989109507529E-004   584.48252051408247     
   11059.574035669209        4.9511072575114667E-008   584.48145809059986     
   10986.331446768694        7.9505009580316255E-005   584.48064221493166     
   10913.089002656483        4.9314488478557905E-004   584.48002765173794     
   10839.846668753988        1.1257070855208440E-003   584.47956916560668     
   10766.604410482649        1.8619297420627845E-003   584.47922152121839     
   10693.362193263940        2.5865512297968962E-003   584.47893948301692     
   10620.119982519123        3.1843089468566177E-003   584.47867781568800     
   10546.877743669853        3.5399418197812338E-003   584.47839128386852     
   10687.500286024690        1.4208374104782706E-003   656.25963761858407     
   10617.188019376852        1.2621490559467929E-003   656.25882863967354     
   10546.875776970914        1.3950563934486127E-003   656.25818708279996     
   10476.563534115348        1.7372542474731745E-003   656.25767666973957     
   10406.251266118521        2.2064376562411780E-003   656.25726112206348     
   10335.938948289066        2.7203016097701038E-003   656.25690416159591     
   10265.626555935389        3.1965408365977055E-003   656.25656951015060     
   10195.314064366014        3.5528504349713330E-003   656.25622088942362     
   10125.001448889354        3.7069253407935321E-003   656.25582202112400     
   13500.012214891054       -1.4227625433704816E-003  -1.2136938589563107E-003
   13406.260423556427       -1.7994288382396917E-003  -1.1960296546942230E-003
   13312.508896081405       -1.8079378405673197E-003  -1.0088902447969094E-003
   13218.757604621005       -1.5411057120218175E-003  -7.1133118660559474E-004
   13125.006521330261       -1.0917495155808865E-003  -3.6240768561704814E-004
   13031.255618364041       -5.5268615960812895E-004  -2.1175511745185588E-005
   12937.504867877402       -1.6731929463276174E-005   2.5331002567024195E-004
   12843.754242024919        4.2329476582381176E-004   4.0199329934670781E-004
   12750.003712961990        6.7457895602274220E-004   3.6581891534297314E-004
   13078.135574861055       -3.8031707845220808E-004   92.285499382453253     
   12987.314281115629       -4.6936667695263168E-004   92.285623775516129     
   12896.493049381243       -4.4707341385219479E-004   92.285806317530898     
   12805.671870181826       -3.4502444759709761E-004   92.286009446810141     
   12714.850734040605       -1.9480830815155059E-004   92.286195601510030     
   12624.029631480966       -2.8014300369250122E-005   92.286327220185015     
   12533.208553026812        1.2377075199765386E-004   92.286366741118314     
   12442.387489201641        2.2895829624758335E-004   92.286276602657296     
   12351.566430528772        2.5595978740966530E-004   92.286019243298384     
   12656.259088428176        5.6834518727555405E-004   181.64236431674956     
   12568.368022148617        6.6631474692258053E-004   181.64251431899189     
   12480.476885041968        6.7852875054086326E-004   181.64264534486517     
   12392.585682349574        6.2245849312603241E-004   181.64273764317772     
   12304.694419312562        5.1557438291638391E-004   181.64277146238734     
   12216.803101172614        3.7534877355938079E-004   181.64272705168045     
   12128.911733171020        2.1925254395682714E-004   181.64258465965440     
   12041.020320549047        6.4756676692923065E-005   181.64232453489146     
   11953.128868548652       -7.0665714247297728E-005   181.64192692660276     
   12234.382720833757        1.4127963650025777E-003   268.06936466412799     
   12149.421659732801        1.6115402154355252E-003   268.06947628992594     
   12064.460453451820        1.5839856218917703E-003   268.06952175595302     
   11979.499118299784        1.3844956674802233E-003   268.06949543803051     
   11894.537670585092        1.0674317054508720E-003   268.06939171179295     
   11809.576126616275        6.8715564611920854E-004   268.06920495312949     
   11724.614502702092        2.9802979224768933E-004   268.06892953779789     
   11639.652815150939       -4.5584341478388524E-005   268.06855984159046     
   11554.691080271563       -2.8932441364304395E-004   268.06809024026927     
   11812.506437319327        2.1426093321679218E-003   351.56648397965972     
   11730.475206944297        2.3702309790678555E-003   351.56651037734827     
   11648.443804998878        2.2844134718980058E-003   351.56644911479890     
   11566.412255207888        1.9642400952761818E-003   351.56630501116655     
   11484.380581296569        1.4887946322232892E-003   351.56608288598846     
   11402.348806989936        9.3716046967529110E-004   351.56578755850677     
   11320.316956012972        3.8842089452373330E-004   351.56542384813628     
   11238.285052090683       -7.8340575328184059E-005   351.56499657414287     
   11156.253118948231       -3.8404031647587544E-004   351.56451055596108     
   11390.630203126280        2.7473563341118279E-003   432.13370581812569     
   11311.528676860378        2.9463112282428483E-003   432.13361727036755     
   11232.426990071122        2.7949286577495513E-003   432.13344098541802     
   11153.325170249247        2.3848444870964158E-003   432.13318854271552     
   11074.223244885552        1.8076948335874476E-003   432.13287152166941     
   10995.121241470984        1.1551159554983315E-003   432.13250150194398     
   10916.019187496207        5.1874354812753154E-004   432.13209006296660     
   10836.917110452001       -9.7865145107789431E-006   432.13164878418900     
   10757.815037829216       -3.3883804508150206E-004   432.13118924518625     
   10968.753983495955        3.2166095938919170E-003   509.77101373447869     
   10892.582082557587        3.3437032834626734E-003   509.77079765813988     
   10816.410059056620        3.1306470536947018E-003   509.77051093199600     
   10740.237940598978        2.6694606990531611E-003   509.77016821236015     
   10664.065754790583        2.0521638602986059E-003   509.76978415545227     
   10587.893529237119        1.3707755706491298E-003   509.76937341748084     
   10511.721291544467        7.1731541447661584E-004   509.76895065466346     
   10435.549069318411        1.8380274241280858E-004   509.76853052326561     
   10359.376890164829       -1.3774307899439009E-004   509.76812767949093     
   10546.877743669853        3.5399418197812338E-003   584.47839128386852     
   10473.635437112707        3.5663302055581880E-003   584.47805222966588     
   10400.393062343595        3.3066856740333606E-003   584.47767251858477     
   10327.150643432698        2.8412420879249112E-003   584.47726620011701     
   10253.908204450076        2.2502329961753276E-003   584.47684732378798     
   10180.665769465939        1.6138925748236943E-003   584.47642993914860     
   10107.423362550377        1.0124543305209954E-003   584.47602809570310     
   10034.181007773635        5.2615227923524799E-004   584.47565584294841     
   9960.9387292057381        2.3522006358689396E-004   584.47532723046515     
   10125.001448889354        3.7069253407935321E-003   656.25582202112400     
   10054.688753602630        3.6181155082886107E-003   656.25538167416676     
   9984.3760503201647        3.3381609232492337E-003   656.25493930929611     
   9914.0633559255893        2.9233408940854133E-003   656.25450468590498     
   9843.7506873025795        2.4299341062032909E-003   656.25408756335855     
   9773.4380613350222        1.9142201786053192E-003   656.25369770102895     
   9703.1254949066624        1.4324782428047911E-003   656.25334485838664     
   9632.8130049012107        1.0409873616481491E-003   656.25303879480816     
   9562.5006082024247        7.9602674077250413E-004   656.25278926970623     
   12750.003712961990        6.7457895602274220E-004   3.6581891534297314E-004
   12656.253223437101        6.6511845943750814E-004   2.1105420909036952E-004
   12562.502755282214        4.5319094442675123E-004   5.5762420297241786E-005
   12468.752339277180        1.4139493669063086E-004  -8.1418165400617978E-005
   12375.002006201248       -1.6767156785135739E-004  -1.8184967773934372E-004
   12281.251786834195       -3.7140952963454765E-004  -2.2689368203792284E-004
   12187.501711955376       -3.6722071854455862E-004  -1.9791223717492538E-004
   12093.751812344957       -5.2504946324916091E-005  -7.6267058125400320E-005
   12000.002118782017        6.7533493802329758E-004   1.5667993244964032E-004
   12351.566430528772        2.5595978740966530E-004   92.286019243298384     
   12260.745418497316        1.9888345150320674E-004   92.285699656969214     
   12169.924508318087        9.7577253654890228E-005   92.285452635861432     
   12079.103711098132       -1.0935500540654175E-005   92.285285316035370     
   11988.283037944957       -8.9629716967465356E-005   92.285204833358407     
   11897.462499965110       -1.0148366209250526E-004   92.285218323605022     
   11806.642108265663       -9.4736160463071428E-006   92.285332922856355     
   11715.821873954355        2.2342571401168243E-004   92.285555766887057     
   11625.001808137267        6.3423560777664534E-004   92.285893991412522     
   11953.128868548652       -7.0665714247297728E-005   181.64192692660276     
   11865.237472143417       -1.4760035946892458E-004   181.64151289758391     
   11777.346219748048       -1.4849593981125508E-004   181.64121529183791     
   11689.455106763775       -8.8681569650361780E-005   181.64103202900134     
   11601.564128591537        1.6512444744876120E-005   181.64096102863508     
   11513.673280633388        1.5175962471403182E-004   181.64100021033045     
   11425.782558289793        3.0172835067787673E-004   181.64114749399528     
   11337.891956962792        4.5109191887604538E-004   181.64140079897922     
   11250.001472053358        5.8452020948607242E-004   181.64175804537896     
   11554.691080271563       -2.8932441364304395E-004   268.06809024026927     
   11469.729409796837       -3.6670588360721013E-004   268.06763965242720     
   11384.767893695678       -2.8379109926390811E-004   268.06732473889781     
   11299.806515630598       -9.5038395102164941E-005   268.06713648931600     
   11214.845259263968        1.4509343509416794E-004   268.06706589311153     
   11129.884108258109        3.8214572487049736E-004   268.06710393965346     
   11044.923046275475        5.6165976184274768E-004   268.06724161851014     
   10959.962056978580        6.2917675268181483E-004   268.06746991920869     
   10875.001124029483        5.3023860209577833E-004   268.06777983088404     
   11156.253118948231       -3.8404031647587544E-004   351.56451055596108     
   11074.221256878340       -4.5080782456352608E-004   351.56406879716207     
   10992.189534284249       -3.0707155929121654E-004   351.56376198521406     
   10910.157927056067       -3.3197662560269237E-005   351.56357646560565     
   10828.126411084151        2.9044839675407275E-004   351.56349858346664     
   10746.094962258770        5.8350105564386467E-004   351.56351468424333     
   10664.063556470293        7.6559407398235635E-004   351.56361111353664     
   10582.032169608852        7.5636234896592214E-004   351.56377421616099     
   10500.000777564956        4.7544007384203724E-004   351.56399033764444     
   10757.815037829216       -3.3883804508150206E-004   432.13118924518625     
   10678.713038809372       -3.9227888510140474E-004   432.13078920775513     
   10599.611145636971       -2.1710040846301126E-004   432.13050803909107     
   10520.509330397092        9.3647409357799916E-005   432.13032972630407     
   10441.407565174619        4.4691459152090829E-004   432.13023825670342     
   10362.305822054659        7.4965109160984866E-004   432.13021761742152     
   10283.204073122033        9.0880641846524668E-004   432.13025179604250     
   10204.102290461771        8.3133100042687147E-004   432.13032477913310     
   10125.000446158816        4.2417443592057680E-004   432.13042055461477     
   10359.376890164829       -1.3774307899439009E-004   509.76812767949093     
   10283.204781010814       -1.8349339006817900E-004   509.76778976031881     
   10207.032731877342       -1.2640440672839759E-005   509.76754390883099     
   10130.860715010878        2.8230413954588585E-004   509.76737404013261     
   10054.688702657906        6.0882873049195041E-004   509.76726406950382     
   9978.5166670648505        8.7442135918536223E-004   509.76719791204215     
   9902.3445804783878        9.8657069656837848E-004   509.76715948307543     
   9826.1724151448070        8.5276461277317139E-004   509.76713269775405     
   9750.0001433108191        3.8049187014621566E-004   509.76710147121861     
   9960.9387292057381        2.3522006358689396E-004   584.47532723046515     
   9887.6965089040350        1.8317545391255408E-004   584.47505933071898     
   9814.4542971286046        3.0754524550502538E-004   584.47485060276995     
   9741.2120702544380        5.2957972229705774E-004   584.47468717567176     
   9667.9698046562225        7.7052731876392500E-004   584.47455517878313     
   9594.7274767088093        9.5163816968124593E-004   584.47444074115697     
   9521.4850627871310        9.9416124430717900E-004   584.47432999216744     
   9448.2425392657242        8.1934576655839919E-004   584.47420906087370     
   9374.9998825195125        3.4844149558921345E-004   584.47406407630513     
   9562.5006082024247        7.9602674077250413E-004   656.25278926970623     
   9492.1882479099804        7.1535368169861613E-004   656.25258679492356     
   9421.8758455141342        7.4469390256126644E-004   656.25240912914558     
   9351.5633854849038        8.3228083985886769E-004   656.25224690151788     
   9281.2508522921307        9.2634750581055414E-004   656.25209074134273     
   9210.9382304057599        9.7512692809686996E-004   656.25193127776242     
   9140.6255042959565        9.2685261279257247E-004   656.25175914023589     
   9070.3126584322981        7.2975688681253814E-004   656.25156495789349     
   8999.9996772847626        3.3207369233423378E-004   656.25133935957479     
   13500.162977120359       0.53698238722063252        654.32461795372444     
   13429.832727147832        8.1195659045079083E-002   654.62326194141588     
   13359.518579744712      -0.23987840525569482        654.88077357749341     
   13289.214285415743      -0.44707145676238724        655.09988890298496     
   13218.913594665410      -0.56121514632286562        655.28334395885997     
   13148.610257998573      -0.60314112478226889        655.43387478628426     
   13078.298025919867      -0.59368104323857551        655.55421742634030     
   13007.970648934068      -0.55366655273064680        655.64710792020048     
   12937.621877545871      -0.50392930404541403        655.71528230896865     
   12937.834528068026      -0.13064126157041756        723.10054239326007     
   12870.432838082241      -0.38206258501122647        723.43826812147461     
   12803.038789251543      -0.55250507182154251        723.72725236449628     
   12735.648614469312      -0.65452574400114827        723.97062367783610     
   12668.258546629026      -0.70068162338611728        724.17151061719414     
   12600.864818624099      -0.70352973190074408        724.33304173807801     
   12533.463663347951      -0.67562709140020161        724.45834559607624     
   12466.051313694008      -0.62953072380969388        724.55055074679660     
   12398.624002555664      -0.57779765120767479        724.61278574577921     
   12375.516284775616      -0.73121197737054899        789.02636369643710     
   12311.031454192915      -0.80423182230288148        789.38164464335171     
   12246.548824978510      -0.84264119365980150        789.68417592306832     
   12182.066775738756      -0.85184473771778357        789.93731818323681     
   12117.583685079406      -0.83724710124852209        790.14443207122315     
   12053.097931606613      -0.80425293090092964        790.30887823457738     
   11988.607893926323      -0.75826687320386554        790.43401732082111     
   11924.111950644681      -0.70469357453839621        790.52320997749223     
   11859.608480367537      -0.64893768190677292        790.57981685202401     
   11813.201869194305       -1.2666431749908043        852.09207276473501     
   11751.625001536720       -1.1863842360107810        852.44606302453599     
   11690.047458738449       -1.1106552269270651        852.74650359799887     
   11628.469428442144       -1.0388306724867107        852.99682680202284     
   11566.891098290087      -0.97028509794790807        853.20046495341467     
   11505.312655924852      -0.90439302820641387        853.36085036907980     
   11443.734288988897      -0.84052898825348166        853.48141536585808     
   11382.156185124788      -0.77806750328500129        853.56559226072704     
   11320.578531975048      -0.71638309790296262        853.61681337053199     
   11250.884903275110       -1.7388482689420925        912.28766049967612     
   11192.209906170869       -1.5295920088019557        912.62419478264712     
   11133.533462344036       -1.3569156277339971        912.90919473388021     
   11074.857231797716       -1.2152857828241395        913.14600391724525     
   11016.182874534667       -1.0991691312010516        913.33796589636518     
   10957.512050557565       -1.0030323301280077        913.48842423487963     
   10898.846419869458      -0.92134203663272274        913.60072249651489     
   10840.187642473100      -0.84856490805896101        913.67820424493232     
   10781.537378371482      -0.77916760128164242        913.72421304392935     
   10688.559008969067       -2.1497406740668339        969.60311780269967     
   10632.782594152126       -1.8349273236849513        969.90871143497293     
   10577.005607607909       -1.5817908524231825        970.16720867537595     
   10521.230845023714       -1.3810123031908006        970.38170391191420     
   10465.461102086596       -1.2232727189471007        970.55529153257191     
   10409.699174483521       -1.0992531430479175        970.69106592523951     
   10353.947857901729      -0.99963461819697841        970.79212147790008     
   10298.209948028307      -0.91509818752138017        970.86155257850851     
   10242.488240550232      -0.83632489394722143        970.90245361493487     
   10126.217808227373       -2.5012338049900791        1024.0284355753477     
   10073.339491537385       -2.1034623636842298        1024.2922844989814     
   10020.462666342572       -1.7856493572026011        1024.5155047669409     
   9967.5909273382076       -1.5358124682002199        1024.7007811689348     
   9914.7278692194523       -1.3419693794317027        1024.8507984945686     
   9861.8770866815066       -1.1921377733642657        1024.9682415335055     
   9809.0421744196028       -1.0743353326924989        1025.0557950753689     
   9756.2267271289074      -0.97657974010280668        1025.1161439097241     
   9703.4343395047599      -0.88688867789323922        1025.1519728263413     
   9563.8549230009594       -2.7952410763641637        1075.5536047189678     
   9513.8770243835970       -2.3362693115204820        1075.7675854920681     
   9463.9034103607664       -1.9688595981920116        1075.9490423533346     
   9413.9381379593597       -1.6794885125136716        1076.1000900713148     
   9363.9852642067908       -1.4546326302697707        1076.2228434149322     
   9314.0488461301793       -1.2807685275165568        1076.3194171529321     
   9264.1329407567591       -1.1443727800929082        1076.3919260540413     
   9214.2416051137552       -1.0319219639932271        1076.4424848870890     
   9164.3788962283943      -0.92989265519963737        1076.4732084208435     
   9001.4639752410512       -3.0336759028591587        1124.1686161351581     
   8954.3916187479499       -2.5344203501822449        1124.3272859318934     
   8907.3266114750804       -2.1317900316926170        1124.4627807791203     
   8860.2731361054230       -1.8118426704918420        1124.5764850020864     
   8813.2353753221505       -1.5606359894818524        1124.6697829261761     
   8766.2175118083178       -1.3642277117592130        1124.7440588767920     
   8719.2237282470469       -1.2086755602390440        1124.8006971792729     
   8672.2582073213962       -1.0800372579124087        1124.8410821589241     
   8625.3251317145478      -0.96437052781129751        1124.8665981411721     
   12937.621877545871      -0.50392930404541403        655.71528230896865     
   12867.264041592991      -0.45662050196551718        655.77102845263846     
   12796.913567589358      -0.41023576392672112        655.82468282655566     
   12726.570351054179      -0.36512335926909145        655.87605439469178     
   12656.234287506564      -0.32163155741181981        655.92495212107258     
   12585.905272465687      -0.28010862800147152        655.97118496963856     
   12515.583201450714      -0.24090284048816102        656.01456190439865     
   12445.267969980843      -0.20436246406916325        656.05489188933484     
   12374.959473575222      -0.17083576832783365        656.09198388844140     
   12398.624002555664      -0.57779765120767479        724.61278574577921     
   12331.191605469960      -0.52708896223703050        724.66047455795456     
   12263.766375741039      -0.47613985544558091        724.70680612852118     
   12196.348112912860      -0.42561851756454416        724.75155648373266     
   12128.936616529496      -0.37619313495088136        724.79450164976822     
   12061.531686134882      -0.32853189454317544        724.83541765282291     
   11994.133121273146      -0.28330298256378228        724.87408051914156     
   11926.740721488335      -0.24117458564569461        724.91026627493147     
   11859.354286324382      -0.20281489052240431        724.94375094634825     
   11859.608480367537      -0.64893768190677292        790.57981685202401     
   11795.104150993575      -0.59322949250281454        790.62087210616403     
   11730.606537095522      -0.53677705624659211        790.66101180854298     
   11666.115377290815      -0.48045164824270614        790.69999946735300     
   11601.630410197035      -0.42512454342659112        790.73759859084703     
   11537.151374431718      -0.37166701665637447        790.77357268729713     
   11472.678008612236      -0.32095034333178774        790.80768526479426     
   11408.210051356153      -0.27384579823865351        790.83969983159534     
   11343.747241280955      -0.23122465637925416        790.86937989593082     
   11320.578531975048      -0.71638309790296262        853.61681337053199     
   11259.004294807943      -0.65425709956343781        853.65241398497437     
   11197.436122289870      -0.59152617519293926        853.68728878922798     
   11135.873727160390      -0.52914785962593669        853.72120919326017     
   11074.316822159124      -0.46807968750545115        853.75394660714858     
   11012.765120025613      -0.40927919371779353        853.78527244082670     
   10951.218333499286      -0.35370391325977835        853.81495810423030     
   10889.676175319735      -0.30231138105909849        853.84277500738267     
   10828.138358226597      -0.25605913163508376        853.86849456032064     
   10781.537378371482      -0.77916760128164242        913.72421304392935     
   10722.894653557179      -0.70938679026494356        913.75529308205444     
   10664.257201961253      -0.63976602114189518        913.78562599329621     
   10605.624745493933      -0.57123225987061232        913.81501150920678     
   10546.997006065398      -0.50471247243558537        913.84324936130133     
   10488.373705585822      -0.44113362498683273        913.87013928116176     
   10429.754565965424      -0.38142268340607188        913.89548100029253     
   10371.139309114471      -0.32650661353682153        913.91907425029626     
   10312.527656943083      -0.27731238158366978        913.94071876269527     
   10242.488240550232      -0.83632489394722143        970.90245361493487     
   10186.777843885502      -0.75783357117916239        970.92970228508989     
   10131.071846746821      -0.68087540286251169        970.95601234340643     
   10075.370015263756      -0.60622995730454932        970.98123226275857     
   10019.672115565580      -0.53467680345511326        971.00521051601731     
   9963.9779137819187      -0.46699550941320922        971.02779557611018     
   9908.2871760421276      -0.40396564382263023        971.04883591592568     
   9852.5996684757247      -0.34636677509297442        971.06818000831902     
   9796.9151572121318      -0.29497847176071446        971.08567632619861     
   9703.4343395047599      -0.88688867789323922        1025.1519728263413     
   9650.6564824369943      -0.79881244916987271        1025.1758344817524     
   9597.8821272836431      -0.71423312925708160        1025.1984367621940     
   9545.1111194420791      -0.63366606051977215        1025.2196973016271     
   9492.3433043094501      -0.55762658554340305        1025.2395337340272     
   9439.5785272832418      -0.48663004632408047        1025.2578636935145     
   9386.8166337606344      -0.42119178533812374        1025.2746048139718     
   9334.0574691389102      -0.36182714513233805        1025.2896747294919     
   9281.3008788154748      -0.30905146760733260        1025.3029910740274     
   9164.3788962283943      -0.92989265519963737        1076.4732084208435     
   9114.5331858558311      -0.83153843081845480        1076.4938825597351     
   9064.6901142088700      -0.73921800917378278        1076.5128881723363     
   9014.8496410012376      -0.65306567765674117        1076.5302324734644     
   8965.0117259467679      -0.57321572360569917        1076.5459226780476     
   8915.1763287591220      -0.49980243490972498        1076.5599660010528     
   8865.3434091520958      -0.43296009879622943        1076.5723696573057     
   8815.5129268394503      -0.37282300278411640        1076.5831408617953     
   8765.6848415348340      -0.31952543462193717        1076.5922868293335     
   8625.3251317145478      -0.96437052781129751        1124.8665981411721     
   8578.4105707860945      -0.85522652324516457        1124.8840394067061     
   8531.4978781595692      -0.75520885158812234        1124.8993554964766     
   8484.5871629136982      -0.66395391675314386        1124.9126636259830     
   8437.6785341272407      -0.58109812302654973        1124.9240810107947     
   8390.7721008790668      -0.50627787419671222        1124.9337248665661     
   8343.8679722479428      -0.43912957452585033        1124.9417124088927     
   8296.9662573126188      -0.37928962784280884        1124.9481608532444     
   8250.0670651519049      -0.32639443836933424        1124.9531874152938     
   12374.959473575222      -0.17083576832783365        656.09198388844140     
   12304.653517126031      -0.14174009639918950        656.12448045643430     
   12234.346114028225      -0.11779778232175886        656.15151609964119     
   12164.037472555099       -9.8314581739032292E-002   656.17363770923532     
   12093.727800979701       -8.2596251017548639E-002   656.19139217635313     
   12023.417307575261       -6.9948546105024434E-002   656.20532639209432     
   11953.106200615088       -5.9677222905520466E-002   656.21598724782382     
   11882.794688372320       -5.1088037394947605E-002   656.22392163459051     
   11812.482979120119       -4.3486745625159529E-002   656.22967644360438     
   11859.354286324382      -0.20281489052240431        724.94375094634825     
   11791.970542613262      -0.16959964997067800        724.97334785966029     
   11724.586499710678      -0.14196287107597527        724.99831012795755     
   11657.202380946554      -0.11916012075334947        725.01907345779330     
   11589.818409650561      -0.10044696653676510        725.03607355564168     
   11522.434809152570       -8.5078975714168337E-002   725.04974612807337     
   11455.051802782404       -7.2311715588512016E-002   725.06052688164266     
   11387.669613869855       -6.1400753513225936E-002   725.06885152285156     
   11320.288465744710       -5.1601656649381766E-002   725.07515575821105     
   11343.747241280955      -0.23122465637925416        790.86937989593082     
   11279.287137110592      -0.19436181412629594        790.89578162038572     
   11214.827627697032      -0.16343174129542604        790.91834252673198     
   11150.368946849496      -0.13765507353991779        790.93739816164441     
   11085.911328377271      -0.11625244667493462        790.95328407193892     
   11021.455006089611       -9.8444496490628808E-002   790.96633580440368     
   10957.000213795774       -8.3451858849457494E-002   790.97688890578650     
   10892.547185305197       -7.0495169112746225E-002   790.98527892292759     
   10828.096154426928       -5.8795063494926580E-002   790.99184140252885     
   10828.138358226597      -0.25605913163508376        853.86849456032064     
   10766.603169367077      -0.21606596408037149        853.89146471199115     
   10705.069247203222      -0.18227962822447807        853.91135007942705     
   10643.536831446641      -0.15390108523479284        853.92839707446922     
   10582.006161808858      -0.13013129672208379        853.94285210909925     
   10520.477478001507      -0.11017122395969636        853.95496159516813     
   10458.951019736251       -9.3221828027253650E-002   853.96497194458948     
   10397.427026724565       -7.8484070606009482E-002   853.97312956928738     
   10335.905738678159       -6.5158912846072781E-002   853.97968088123355     
   10312.527656943083      -0.27731238158366978        913.94071876269527     
   10253.918508131761      -0.23475147506542271        913.96008010780986     
   10195.311107445372      -0.19858176685511353        913.97706956960053     
   10136.705695920582      -0.16799980132645942        913.99185545001296     
   10078.102514594333      -0.14220212212421757        914.00460605095054     
   10019.501804503368      -0.12038527334425453        914.01548967436804     
   9960.9038066844078      -0.10174579937802264        914.02467462221932     
   9902.3087621742670       -8.5480244003520056E-002   914.03232919641903     
   9843.7169120097969       -7.0785151176096406E-002   914.03862169892943     
   9796.9151572121318      -0.29497847176071446        971.08567632619861     
   9741.2330221536158      -0.25045772246858178        971.10131078113977     
   9685.5529576392964      -0.21241339288872041        971.11523778076946     
   9629.8752014541096      -0.18005286661991704        971.12755854190311     
   9574.1999913828131      -0.15258352788941920        971.13837428138720     
   9518.5275652102391      -0.12921276046017738        971.14778621613596     
   9462.8581607212218      -0.10914794834297936        971.15589556296470     
   9407.1920157006261       -9.1596475223013840E-002   971.16280353871048     
   9351.5293679332390       -7.5765725163364550E-002   971.16861136026830     
   9281.3008788154748      -0.30905146760733260        1025.3029910740274     
   9228.5465801816736      -0.26322408146097587        1025.3148397053828     
   9175.7945470011909      -0.22384974091391996        1025.3255914964511     
   9123.0450092298524      -0.19016192656226849        1025.3352916039012     
   9070.2981968232689      -0.16139411953963645        1025.3439851843521     
   9017.5543397372512      -0.13677980066813689        1025.3517173945370     
   8964.8136679275049      -0.11555245068848308        1025.3585333910346     
   8912.0764113498371       -9.6945550651071244E-002   1025.3644783306511     
   8859.3427999598680       -8.0192581360734039E-002   1025.3695973699157     
   8765.6848415348340      -0.31952543462193717        1076.5922868293335     
   8715.8590509649566      -0.27308992751932237        1076.6003498538576     
   8666.0356247470136      -0.23296604638881035        1076.6078675001643     
   8616.2147804304550      -0.19842862624409463        1076.6148398896373     
   8566.3967355647910      -0.16875250221710303        1076.6212671436517     
   8516.5817076995245      -0.14321250920193052        1076.6271493835729     
   8466.7699143841601      -0.12108348218180254        1076.6324867307644     
   8416.9615731681806      -0.10164025625090289        1076.6372793066284     
   8367.1569016011654       -8.4157666113242158E-002   1076.6415272325139     
   8250.0670651519049      -0.32639443836933424        1124.9531874152938     
   8203.1703032525129      -0.28009463577836868        1124.9575241998718     
   8156.2759400927152      -0.23983754452456196        1124.9618025753828     
   8109.3841762386191      -0.20495461099744716        1124.9659886528536     
   8062.4952122563855      -0.17477728131098047        1124.9700485431752     
   8015.6092487120713      -0.14863700184560003        1124.9739483573444     
   7968.7264861719223      -0.12586521865523537        1124.9776542063353     
   7921.8471252019554      -0.10579337819171997        1124.9811322011371     
   7874.9713663683606       -8.7752926538541942E-002   1124.9843484526493     
   11812.482979120119       -4.3486745625159529E-002   656.22967644360438     
   11742.171357743548       -3.6275420648962609E-002   656.23448940043795     
   11671.859951808365       -2.9380532975210372E-002   656.23917395885053     
   11601.548733608839       -2.2894435219768638E-002   656.24364060220933     
   11531.237675439048       -1.6909480094000173E-002   656.24779981397137     
   11460.926749593236       -1.1518020310631982E-002   656.25156207750513     
   11390.615928365756       -6.8124082304166222E-003   656.25483787637518     
   11320.305184050665       -2.8849967793576070E-003   656.25753769387177     
   11249.994488942233        1.7186174591188319E-004   656.25957201340066     
   11320.288465744710       -5.1601656649381766E-002   725.07515575821105     
   11252.907855492260       -4.2503186773501511E-002   725.08045475318863     
   11185.527128126239       -3.4201010757897166E-002   725.08543565820889     
   11118.146278869017       -2.6711053935287055E-002   725.09004215739719     
   11050.765302942929       -2.0049241689775954E-002   725.09421793469596     
   10983.384195570510       -1.4231499088964483E-002   725.09790667421089     
   10916.002951974187       -9.2737514023610856E-003   725.10105205999264     
   10848.621567376260       -5.1919242855547054E-003   725.10359777609233     
   10781.240036999252       -2.0019424800921115E-003   725.10548750653993     
   10828.096154426928       -5.8795063494926580E-002   790.99184140252885     
   10763.646021292685       -4.8082778107072954E-002   790.99738245897868     
   10699.195540323506       -3.8575251428937918E-002   791.00246607020165     
   10634.744726762516       -3.0221672698189650E-002   791.00706457805643     
   10570.293595853102       -2.2971230700932210E-002   791.01115032452674     
   10505.842162838473       -1.6773114812622225E-002   791.01469565160755     
   10441.390442962009       -1.1576513938507560E-002   791.01767290123973     
   10376.938451466949       -7.3306170697833295E-003   791.02005441538051     
   10312.486203596533       -3.9846133804530837E-003   791.02181253602475     
   10335.905738678159       -6.5158912846072781E-002   853.97968088123355     
   10274.385627381620       -5.3082523534158099E-002   853.98523742676150     
   10212.865026383108       -4.2551859979084838E-002   853.99024411597236     
   10151.343968039333       -3.3459066276009253E-002   853.99469740590132     
   10089.822484707212       -2.5696286088077613E-002   853.99859375377139     
   10028.300608743526       -1.9155663560923131E-002   854.00192961670268     
   9966.7783725049976       -1.3729342827900837E-002   854.00470145182578     
   9905.2558083485001       -9.3094677531553316E-003   854.00690571633709     
   9843.7329486308208       -5.7881823495335993E-003   854.00853886733705     
   9843.7169120097969       -7.0785151176096406E-002   914.03862169892943     
   9785.1264459957929       -5.7570752101128164E-002   914.04398456541628     
   9726.5354242880512       -4.6179441489130113E-002   914.04874871682148     
   9667.9438934494374       -3.6456009580888349E-002   914.05293018267059     
   9609.3519000430642       -2.8245246197911911E-002   914.05654499260629     
   9550.7594906318245       -2.1391941573256190E-002   914.05960917632797     
   9492.1667117788165       -1.5740885477953270E-002   914.06213876337915     
   9433.5736100468985       -1.1136868355606566E-002   914.06414978345015     
   9374.9802319991722       -7.4246798239983036E-003   914.06565826608232     
   9351.5293679332390       -7.5765725163364550E-002   971.16861136026830     
   9295.8682493720025       -6.1615792702014005E-002   971.17358878381174     
   9240.2065720212195       -4.9506601184020838E-002   971.17795879397477     
   9184.5443937427372       -3.9245277751888352E-002   971.18175245004079     
   9128.8817723982975       -3.0638949870990473E-002   971.18500081140166     
   9073.2187658498024       -2.3494744709296356E-002   971.18773493751030     
   9017.5554319590992       -1.7619789400669106E-002   971.18998588765658     
   8961.8918285879699       -1.2821211196296645E-002   971.19178472130727     
   8906.2280135982928       -8.9061372682408546E-003   971.19316249773146     
   8859.3427999598680       -8.0192581360734039E-002   1025.3695973699157     
   8806.6108097470296       -6.5285974171729322E-002   1025.3740149908774     
   8753.8783075655992       -5.2581944008579740E-002   1025.3778532686722     
   8701.1453596690753       -4.1859645969907433E-002   1025.3811537496879     
   8648.4120323106690       -3.2898235808261234E-002   1025.3839579803946     
   8595.6783917437315       -2.5476869171143335E-002   1025.3863075071411     
   8542.9445042215793       -1.9374701537799410E-002   1025.3882438763187     
   8490.2104359976493       -1.4370888341545651E-002   1025.3898086344566     
   8437.4762533251960       -1.0244585126656602E-002   1025.3910433278722     
   8367.1569016011654       -8.4157666113242158E-002   1076.6415272325139     
   8317.3538993575603       -6.8649625887701404E-002   1076.6452280954434     
   8267.5504689041900       -5.5454075078614551E-002   1076.6484110621836     
   8217.7466819784531       -4.4331888984743273E-002   1076.6511236233832     
   8167.9426103177802       -3.5043942841184617E-002   1076.6534132697459     
   8118.1383256598165       -2.7351111216376012E-002   1076.6553274920977     
   8068.3338997419814       -2.1014269244460593E-002   1076.6569137810923     
   8018.5294043017684       -1.5794292164173385E-002   1076.6582196275074     
   7968.7249110767189       -1.1452054659457644E-002   1076.6592925220414     
   7874.9713663683606       -8.7752926538541942E-002   1124.9843484526493     
   7828.0972904404925       -7.1775076334688492E-002   1124.9871930064764     
   7781.2228940198183       -5.8171599676825281E-002   1124.9896110956900     
   7734.3482514207026       -4.6694782173290150E-002   1124.9916516127287     
   7687.4734369574726       -3.7096909326464811E-002   1124.9933634498159     
   7640.5985249443675       -2.9130266870197374E-002   1124.9947954993272     
   7593.7235896958900       -2.2547140112237685E-002   1124.9959966535921     
   7546.8487055262158       -1.7099814933771995E-002   1124.9970158049716     
   7499.9739467497448       -1.2540576673927717E-002   1124.9979018457209     
   11249.994488942233        1.7186174591188319E-004   656.25957201340066     
   11179.683608374928        2.2454119193753286E-003   656.26095371257634     
   11109.372362653123        3.4061318838212173E-003   656.26180225586927     
   11039.060806525975        3.8365184827853227E-003   656.26218800724700     
   10968.748994742344        3.7190684020060871E-003   656.26218133037480     
   10898.436982051326        3.2362783972530451E-003   656.26185258919168     
   10828.124823202064        2.5706453607199364E-003   656.26127214761641     
   10757.812572943503        1.9046661186621350E-003   656.26051036948547     
   10687.500286024690        1.4208374104782706E-003   656.25963761858407     
   10781.240036999252       -2.0019424800921115E-003   725.10548750653993     
   10713.858335350389        2.9838014916094835E-004   725.10679685699222     
   10646.476469015492        1.8181585128331790E-003   725.10767473686815     
   10579.094481334874        2.7018604159820825E-003   725.10817478611864     
   10511.712415648746        3.0939533276068687E-003   725.10835064461219     
   10444.330315297455        3.1389049458994123E-003   725.10825595215476     
   10376.948223621273        2.9811827666890167E-003   725.10794434879131     
   10309.566183960480        2.7652544636111998E-003   725.10746947426037     
   10242.184239655344        2.6355877671448980E-003   725.10688496847922     
   10312.486203596533       -3.9846133804530837E-003   791.02181253602475     
   10248.033814246766       -1.4483800664493174E-003   791.02306351908112     
   10183.581410730803        4.0959602347356849E-004   791.02396796906157     
   10119.129026917244        1.7022104743773525E-003   791.02456475058432     
   10054.676696674818        2.5423591368962661E-003   791.02489272839819     
   9990.2244538723098        3.0429377607106289E-003   791.02499076712388     
   9925.7723323785212        3.3168422660310171E-003   791.02489773152126     
   9861.3203660622112        3.4769685944411322E-003   791.02465248627095     
   9796.8685887919382        3.6362120554258581E-003   791.02429389597103     
   9843.7329486308208       -5.7881823495335993E-003   854.00853886733705     
   9782.2099891263297       -3.0116500124677259E-003   854.00973855949826     
   9720.6871215945448       -8.3941714547108859E-004   854.01066216817651     
   9659.1643723697889        8.1629759506540722E-004   854.01133573159620     
   9597.6417677865356        2.0432755427464144E-003   854.01178528804621     
   9536.1193341791750        2.9292980989339412E-003   854.01203687585564     
   9474.5970978821279        3.5621466499833332E-003   854.01211653317034     
   9413.0750852297297        4.0296023216797039E-003   854.01205029828657     
   9351.5533225565123        4.4194469032845518E-003   854.01186420956037     
   9374.9802319991722       -7.4246798239983036E-003   914.06565826608232     
   9316.3868040513571       -4.4082109088776633E-003   914.06680683883451     
   9257.7935354024212       -1.9487418667267775E-003   914.06773755004951     
   9199.2004467894494        2.2851003450341523E-005   914.06846556017422     
   9140.6075589498469        1.5756923539811396E-003   914.06900602995097     
   9082.0148926209204        2.7789064656644769E-003   914.06937411997831     
   9023.4224685399731        3.7016177848272491E-003   914.06958499084828     
   8964.8303074442447        4.4129503894509980E-003   914.06965380322856     
   8906.2384300711401        4.9820289864328515E-003   914.06959571768994     
   8906.2280135982928       -8.9061372682408546E-003   971.19316249773146     
   8850.5642030840700       -5.6548441239101521E-003   971.19425321774338     
   8794.9005859498320       -2.9382400639406114E-003   971.19517433037595     
   8739.2371792729300       -6.9940045568728237E-004   971.19593206734078     
   8683.5740001307404        1.1185993203071121E-003   971.19653266039927     
   8627.9110656007724        2.5726840835886833E-003   971.19698234131852     
   8572.2483927603353        3.7197783794908901E-003   971.19728734192972     
   8516.5859986868581        4.6168069843588455E-003   971.19745389382899     
   8460.9239004577703        5.3206945754027402E-003   971.19748822887971     
   8437.4762533251960       -1.0244585126656602E-002   1025.3910433278722     
   8384.7421302867460       -6.7683309871426900E-003   1025.3920625568212     
   8332.0082070324424       -3.8277726735032047E-003   1025.3929527249786     
   8279.2744989170715       -1.3717276215174934E-003   1025.3937130840861     
   8226.5410212952811        6.5098641289296211E-004   1025.3943428857594     
   8173.8077895218203        2.2915518179615901E-003   1025.3948413816847     
   8121.0748189513361        3.6011509764648508E-003   1025.3952078235061     
   8068.3421249387102        4.6309665181070159E-003   1025.3954414629723     
   8015.6097228385979        5.4321808620443335E-003   1025.3955415516521     
   7968.7249110767189       -1.1452054659457644E-002   1076.6592925220414     
   7918.9205297216122       -7.7654529522988014E-003   1076.6602197166319     
   7869.1163324458885       -4.6372009460355912E-003   1076.6610529496697     
   7819.3123348186846       -2.0154014505351370E-003   1076.6617864414088     
   7769.5085524093283        1.5184318544925191E-004   1076.6624144123211     
   7719.7050007870903        1.9164304867445026E-003   1076.6629310827218     
   7669.9016955212010        3.3302580950476113E-003   1076.6633306729696     
   7620.0986521809482        4.4452234037635208E-003   1076.6636074034141     
   7570.2958863355852        5.3132241046114359E-003   1076.6637554944357     
   7499.9739467497448       -1.2540576673927717E-002   1124.9979018457209     
   7453.0993454509671       -8.6629910338160698E-003   1124.9987095577885     
   7406.2248959855642       -5.3863865241510211E-003   1124.9994552200440     
   7359.3506160745610       -2.6516929656281718E-003   1125.0001299703340     
   7312.4765234389606       -3.9984037493923097E-004   1125.0007249464409     
   7265.6026357997262        1.4282411293606856E-003   1125.0012312861959     
   7218.7289708779608        2.8916218857375497E-003   1125.0016401274702     
   7171.8555463946259        4.0493717447134259E-003   1125.0019426080516     
   7124.9823800707491        4.9605607960074849E-003   1125.0021298657587     
   10687.500286024690        1.4208374104782706E-003   656.25963761858407     
   10617.188019376852        1.2621490559467929E-003   656.25882863967354     
   10546.875776970914        1.3950563934486127E-003   656.25818708279996     
   10476.563534115348        1.7372542474731745E-003   656.25767666973957     
   10406.251266118521        2.2064376562411780E-003   656.25726112206348     
   10335.938948289066        2.7203016097701038E-003   656.25690416159591     
   10265.626555935389        3.1965408365977055E-003   656.25656951015060     
   10195.314064366014        3.5528504349713330E-003   656.25622088942362     
   10125.001448889354        3.7069253407935321E-003   656.25582202112400     
   10242.184239655344        2.6355877671448980E-003   725.10688496847922     
   10174.802308850702        2.6706012322392780E-003   725.10631425788347     
   10107.420272121848        2.8234819924364274E-003   725.10582897140273     
   10040.038116454853        3.0508502195516485E-003   725.10540505279801     
   9972.6558288357337        3.3093261304202315E-003   725.10501844582609     
   9905.2733962505445        3.5555297690734733E-003   725.10464509420751     
   9837.8908056853452        3.7460812905010243E-003   725.10426094179559     
   9770.5080441261580        3.8376007773877063E-003   725.10384193219841     
   9703.1250985589995        3.7867084479330515E-003   725.10336400923075     
   9796.8685887919382        3.6362120554258581E-003   791.02429389597103     
   9732.4168199010746        3.8243328981479863E-003   791.02390773313198     
   9667.9648539644350        3.9885627334115270E-003   791.02354477918038     
   9603.5126877128369        4.1180046255249181E-003   791.02319141234636     
   9539.0603178773272        4.2017618347927055E-003   791.02283401083128     
   9474.6077411889109        4.2289377784072713E-003   791.02245895295277     
   9410.1549543785713        4.1886355597853253E-003   791.02205261686606     
   9345.7019541772315        4.0699584251342458E-003   791.02160138086674     
   9281.2487373158183        3.8620095724581915E-003   791.02109162309239     
   9351.5533225565123        4.4194469032845518E-003   854.01186420956037     
   9290.0315650213906        4.7270921704694047E-003   854.01161779230267     
   9228.5095532559571        4.8995256970556511E-003   854.01134989659352     
   9166.9872918034453        4.9518914861437224E-003   854.01105554762182     
   9105.4647852071939        4.8993341019922809E-003   854.01072977060574     
   9043.9420380104111        4.7569974699399609E-003   854.01036759067847     
   8982.4190547564031        4.5400261010399845E-003   854.00996403305430     
   8920.8958399884195        4.2635639774744050E-003   854.00951412291681     
   8859.3723982497868        3.9427556198461389E-003   854.00901288543423     
   8906.2384300711401        4.9820289864328515E-003   914.06959571768994     
   8847.6465567049090        5.3826269804631011E-003   914.06945316220583     
   8789.0544007539338        5.5655982423559180E-003   914.06925971414057     
   8730.4619726409583        5.5656853678556217E-003   914.06901725804494     
   8671.8692827890191        5.4176317230485438E-003   914.06872767854429     
   8613.2763416211255        5.1561806835707102E-003   914.06839286030731     
   8554.6831595601507        4.8160751216528297E-003   914.06801468782965     
   8496.0897470290674        4.4320583315311524E-003   914.06759504584011     
   8437.4961144508416        4.0388735224041739E-003   914.06713581892132     
   8460.9239004577703        5.3206945754027402E-003   971.19748822887971     
   8405.2618074450220        5.7946854603869724E-003   971.19742256971210     
   8349.5994272155804        5.9960073003821890E-003   971.19728962225736     
   8293.9367741395181        5.9725603177867015E-003   971.19709634289870     
   8238.2738625867460        5.7722443348211527E-003   971.19684968819831     
   8182.6107069273439        5.4429593619715888E-003   971.19655661464981     
   8126.9473215312164        5.0326053046774177E-003   971.19622407883605     
   8071.2837207684097        4.5890822152614419E-003   971.19585903719008     
   8015.6199190088964        4.1602900723773928E-003   971.19546844624608     
   8015.6097228385979        5.4321808620443335E-003   1025.3955415516521     
   7962.8773297349826        5.9670154555533372E-003   1025.3955347416575     
   7910.1446633984151        6.1999805702726007E-003   1025.3954550113313     
   7857.4117402133561        6.1856907418587070E-003   1025.3953126014987     
   7804.6785765641316        5.9787607992802805E-003   1025.3951177529652     
   7751.9451888352032        5.6338052449973475E-003   1025.3948807067291     
   7699.2115934108742        5.2054389229851949E-003   1025.3946117035307     
   7646.4778066757435        4.7482765212407685E-003   1025.3943209844344     
   7593.7438450140799        4.3169327623218123E-003   1025.3940187901630     
   7570.2958863355852        5.3132241046114359E-003   1076.6637554944357     
   7520.4931360681285        5.9033649781667918E-003   1076.6637984048471     
   7470.6901400597862        6.1867448885095655E-003   1076.6637712718459     
   7420.8869147766572        6.2182508522710123E-003   1076.6636858331058     
   7371.0834766849139        6.0527700838974852E-003   1076.6635538263411     
   7321.2798422508367        5.7451902189313842E-003   1076.6633869892660     
   7271.4760279405555        5.3503984413509897E-003   1076.6631970596054     
   7221.6720502203007        4.9232819851567911E-003   1076.6629957750479     
   7171.8679255562729        4.5187282967162901E-003   1076.6627948733633     
   7124.9823800707491        4.9605607960074849E-003   1125.0021298657587     
   7078.1092389378691        5.6074822559821769E-003   1125.0022222861687     
   7031.2358879569692        5.9655274612850917E-003   1125.0022537942721     
   6984.3623417436293        6.0834147907371516E-003   1125.0022358371482     
   6937.4886149129561        6.0098616168033914E-003   1125.0021798617709     
   6890.6147220804623        5.7935861668738653E-003   1125.0020973151502     
   6843.7406778614668        5.4833060353303154E-003   1125.0019996444382     
   6796.8664968713410        5.1277392362862884E-003   1125.0018982965701     
   6749.9921937254103        4.7756035010024789E-003   1125.0018047186038     
   10125.001448889354        3.7069253407935321E-003   656.25582202112400     
   10054.688753602630        3.6181155082886107E-003   656.25538167416676     
   9984.3760503201647        3.3381609232492337E-003   656.25493930929611     
   9914.0633559255893        2.9233408940854133E-003   656.25450468590498     
   9843.7506873025795        2.4299341062032909E-003   656.25408756335855     
   9773.4380613350222        1.9142201786053192E-003   656.25369770102895     
   9703.1254949066624        1.4324782428047911E-003   656.25334485838664     
   9632.8130049012107        1.0409873616481491E-003   656.25303879480816     
   9562.5006082024247        7.9602674077250413E-004   656.25278926970623     
   9703.1250985589995        3.7867084479330515E-003   725.10336400923075     
   9635.7420741300102        3.5964226476608019E-003   725.10286346505427     
   9568.3590904251596        3.3178943508573866E-003   725.10239539092754     
   9500.9761560901243        2.9799425828969106E-003   725.10196392928412     
   9433.5932797707264        2.6113868520951655E-003   725.10157322249177     
   9366.2104701126555        2.2410459482671286E-003   725.10122741302166     
   9298.8277357617244        1.8977393674504128E-003   725.10093064326566     
   9231.4450853636135        1.6102859603961406E-003   725.10068705569984     
   9164.0625275640941        1.4075050657993415E-003   725.10050079275402     
   9281.2487373158183        3.8620095724581915E-003   791.02109162309239     
   9216.7954451648402        3.5999252668261761E-003   791.02057523864755     
   9152.3422225775794        3.3304510861853487E-003   791.02011290708299     
   9087.8890715091657        3.0601042212765606E-003   791.01970418359019     
   9023.4359939148435        2.7954022575613635E-003   791.01934862335054     
   8958.9829917497354        2.5428622384424671E-003   791.01904578153199     
   8894.5300669691169        2.3090016229616595E-003   791.01879521340322     
   8830.0772215281686        2.1003377460147021E-003   791.01859647412016     
   8765.6244573820150        1.9233875491408980E-003   791.01844911893545     
   8859.3723982497868        3.9427556198461389E-003   854.00901288543423     
   8797.8488863352977        3.6345119024190353E-003   854.00851792813046     
   8736.3254558857861        3.3785638020162878E-003   854.00808750681279     
   8674.8021037133258        3.1642849135096185E-003   854.00771761914098     
   8613.2788266300795        2.9810491087118862E-003   854.00740426290201     
   8551.7556214479991        2.8182295682199765E-003   854.00714343569337     
   8490.2324849793222        2.6652003871276975E-003   854.00693113525642     
   8428.7094140360168        2.5113348833656346E-003   854.00676335925311     
   8367.1864054302405        2.3460068305212189E-003   854.00663610540153     
   8437.4961144508416        4.0388735224041739E-003   914.06713581892132     
   8378.9024172694790        3.7060710478726833E-003   914.06669246675767     
   8320.3087994581401        3.4649650447136082E-003   914.06631483927231     
   8261.7152542334134        3.2929440262705612E-003   914.06599640646550     
   8203.1217748115687        3.1673956818849547E-003   914.06573063823510     
   8144.5283544091799        3.0657085476377688E-003   914.06551100449212     
   8085.9349862425315        2.9652704533873475E-003   914.06533097517422     
   8027.3416635282638        2.8434698692763050E-003   914.06518402017025     
   7968.7483794826840        2.6776947220241709E-003   914.06506360947139     
   8015.6199190088964        4.1602900723773928E-003   971.19546844624608     
   7959.9560575954247        3.8204908632906154E-003   971.19509978768428     
   7904.2922624030707        3.5923873278989049E-003   971.19479055362945     
   7848.6285246000198        3.4465404551156098E-003   971.19453271585508     
   7792.9648353544808        3.3535106822455418E-003   971.19431824632227     
   7737.3011858347836        3.2838593338055944E-003   971.19413911686604     
   7681.6375672092145        3.2081471763376612E-003   971.19398729946829     
   7625.9739706459977        3.0969349886618147E-003   971.19385476598677     
   7570.3103873134851        2.9207839243099443E-003   971.19373348833369     
   7593.7438450140799        4.3169327623218123E-003   1025.3940187901630     
   7541.0098269414675        3.9836603386902425E-003   1025.3937408243619     
   7488.2758538289117        3.7635633134414093E-003   1025.3935102990265     
   7435.5419163438828        3.6255334134693840E-003   1025.3933187177659     
   7382.8080051540337        3.5384628181418520E-003   1025.3931575842446     
   7330.0741109267656        3.4712428710008680E-003   1025.3930184019630     
   7277.3402243296141        3.3927653730643215E-003   1025.3928926745855     
   7224.6063360303051        3.2719225027904031E-003   1025.3927719057763     
   7171.8724366962915        3.0776060048083309E-003   1025.3926475990420     
   7171.8679255562729        4.5187282967162901E-003   1076.6627948733633     
   7122.0637449354908        4.2014672267214337E-003   1076.6626165098235     
   7072.2595828439480        3.9812251384319097E-003   1076.6624697245375     
   7022.4554309957548        3.8303824667309527E-003   1076.6623465825724     
   6972.6512811052035        3.7213201449048938E-003   1076.6622391489070     
   6922.8471248866490        3.6264192467569956E-003   1076.6621394887100     
   6873.0429540542336        3.5180605486857530E-003   1076.6620396669020     
   6823.2387603223524        3.3686250230857695E-003   1076.6619317486636     
   6773.4345354051948        3.1504934327131195E-003   1076.6618077989458     
   6749.9921937254103        4.7756035010024789E-003   1125.0018047186038     
   6703.1178312057791        4.4798005383199779E-003   1125.0017277774195     
   6656.2434585565697        4.2481054792915529E-003   1125.0016644793523     
   6609.3690700863353        4.0615465086375480E-003   1125.0016084806416     
   6562.4946601033762        3.9011516778373334E-003   1125.0015534375118     
   6515.6202229162318        3.7479492957572802E-003   1125.0014930061257     
   6468.7457528333107        3.5829674961860292E-003   1125.0014208427849     
   6421.8712441631451        3.3872344911287655E-003   1125.0013306037629     
   6374.9966912141772        3.1417783925462572E-003   1125.0012159451665     
   9562.5006082024247        7.9602674077250413E-004   656.25278926970623     
   9492.1882479099804        7.1535368169861613E-004   656.25258679492356     
   9421.8758455141342        7.4469390256126644E-004   656.25240912914558     
   9351.5633854849038        8.3228083985886769E-004   656.25224690151788     
   9281.2508522921307        9.2634750581055414E-004   656.25209074134273     
   9210.9382304057599        9.7512692809686996E-004   656.25193127776242     
   9140.6255042959565        9.2685261279257247E-004   656.25175914023589     
   9070.3126584322981        7.2975688681253814E-004   656.25156495789349     
   8999.9996772847626        3.3207369233423378E-004   656.25133935957479     
   9164.0625275640941        1.4075050657993415E-003   725.10050079275402     
   9096.6799807261959        1.2835398533752596E-003   725.10034487479447     
   9029.2973532028627        1.1991666506219190E-003   725.10018674652974     
   8961.9146386245393        1.1331535233694012E-003   725.10002218691363     
   8894.5318306217923        1.0642692004694254E-003   725.09984697482616     
   8827.1489228251630        9.7128181823791238E-004   725.09965688921773     
   8759.7659088650980        8.3295978674868820E-004   725.09944770889615     
   8692.3827823721640        6.2807147423882270E-004   725.09921521265778     
   8624.9995369767021        3.3538531624799361E-004   725.09895517944278     
   8765.6244573820150        1.9233875491408980E-003   791.01844911893545     
   8701.1716830812547        1.7561417985234584E-003   791.01831853259898     
   8636.7188065097343        1.5743683179607615E-003   791.01817035768886     
   8572.2658286227033        1.3812514021083189E-003   791.01800453597866     
   8507.8127503753512        1.1799747376244341E-003   791.01782100912442     
   8443.3595727227585        9.7372228992753662E-004   791.01761971887618     
   8378.9062966202200        7.6567792120840750E-004   791.01740060675138     
   8314.4529230228964        5.5902590293044341E-004   791.01716361462866     
   8249.9994528858406        3.5694964117283234E-004   791.01690868412959     
   8367.1864054302405        2.3460068305212189E-003   854.00663610540153     
   8305.6633699432423        2.1376499516918557E-003   854.00651500541767     
   8244.1402247776277        1.8761024080049538E-003   854.00637043770007     
   8182.6169763771077        1.5828437417440000E-003   854.00620551976363     
   8121.0936311859123        1.2793541491191718E-003   854.00602336941529     
   8059.5701956477897        9.8711315376931452E-004   854.00582710423328     
   7998.0466762068745        7.2760058583298814E-004   854.00561984199589     
   7936.5230793068349        5.2229658331270912E-004   854.00540470021190     
   7874.9994113918910        3.9268058162633679E-004   854.00518479670916     
   7968.7483794826840        2.6776947220241709E-003   914.06506360947139     
   7910.1550562802877        2.4325546155523625E-003   914.06494153036147     
   7851.5616273489504        2.1101710208313307E-003   914.06479746135562     
   7792.9681027855158        1.7442000439586991E-003   914.06463670926155     
   7734.3744926865929        1.3682971912203357E-003   914.06446458072435     
   7675.7808071493746        1.0161192276427755E-003   914.06428638278942     
   7617.1870562703425        7.2132155310100643E-004   914.06410742215257     
   7558.5932501465559        5.1756067796304706E-004   914.06393300549144     
   7499.9993988743681        4.3849193980349810E-004   914.06376843951784     
   7570.3103873134851        2.9207839243099443E-003   971.19373348833369     
   7514.6467570604782        2.6453465156919265E-003   971.19360534446412     
   7458.9830335665820        2.2823775261713308E-003   971.19346190378076     
   7403.3192287454340        1.8715893515945936E-003   971.19330967546762     
   7347.6553545108573        1.4526944437420752E-003   971.19315516850975     
   7291.9914227764639        1.0654051434357825E-003   971.19300489198179     
   7236.3274454563107        7.4943444451491814E-004   971.19286535499634     
   7180.6634344637769        5.4449434173875488E-004   971.19274306648038     
   7124.9994017128911        4.9029765432351269E-004   971.19264453570202     
   7171.8724366962915        3.0776060048083309E-003   1025.3926475990420     
   7119.1384872518029        2.7805157287730253E-003   1025.3925136845639     
   7066.4044627730509        2.3985243392417033E-003   1025.3923742399152     
   7013.6703751545956        1.9712809844349977E-003   1025.3922359894441     
   6960.9362362915390        1.5384350385829748E-003   1025.3921056577306     
   6908.2020580783928        1.1396358145248087E-003   1025.3919899692110     
   6855.4678524101437        8.1453258781039040E-004   1025.3918956485181     
   6802.7336311813615        6.0277469174252474E-004   1025.3918294199545     
   6749.9994062871456        5.4401158513428527E-004   1025.3917980082288     
   6773.4345354051948        3.1504934327131195E-003   1076.6618077989458     
   6723.6302618224909        2.8425529758351331E-003   1076.6616737879804     
   6673.8259343110767        2.4644144832564052E-003   1076.6615449447218     
   6624.0215629108980        2.0495445351116359E-003   1076.6614272221589     
   6574.2171576619594        1.6314095687448571E-003   1076.6613265735575     
   6524.4127286040939        1.2434757650225947E-003   1076.6612489519136     
   6474.6082857773335        9.1920993918392924E-004   1076.6612003103680     
   6424.8038392214785        6.9207840169838164E-004   1076.6611866019653     
   6374.9993989765971        5.9554756944635301E-004   1076.6612137797615     
   6374.9966912141772        3.1417783925462572E-003   1125.0012159451665     
   6328.1220957404366        2.8359483626445581E-003   1125.0010928915315     
   6281.2474675232197        2.4858505212250748E-003   1125.0009844930780     
   6234.3728129117872        2.1126489668858994E-003   1125.0008949447147     
   6187.4981382552132        1.7375073480252468E-003   1125.0008284412643     
   6140.6234499027178        1.3815898537359317E-003   1125.0007891775599     
   6093.7487542034205        1.0660600805749709E-003   1125.0007813485208     
   6046.8740575064148        8.1208199344473542E-004   1125.0008091488758     
   5999.9993661610170        6.4081955997608020E-004   1125.0008767735744     
   9001.4639752410512       -3.0336759028591587        1124.1686161351581     
   8954.3916187479499       -2.5344203501822449        1124.3272859318934     
   8907.3266114750804       -2.1317900316926170        1124.4627807791203     
   8860.2731361054230       -1.8118426704918420        1124.5764850020864     
   8813.2353753221505       -1.5606359894818524        1124.6697829261761     
   8766.2175118083178       -1.3642277117592130        1124.7440588767920     
   8719.2237282470469       -1.2086755602390440        1124.8006971792729     
   8672.2582073213962       -1.0800372579124087        1124.8410821589241     
   8625.3251317145478      -0.96437052781129751        1124.8665981411721     
   8439.0428091268095       -3.2087470870851575        1169.8703065930661     
   8394.8842593064492       -2.6858599274319204        1169.9717398179664     
   8350.7354439308019       -2.2602983297306309        1170.0595174502632     
   8306.6004551038714       -1.9184219475050668        1170.1342707700837     
   8262.4833849293664       -1.6465904348497133        1170.1966310572930     
   8218.3883255112287       -1.4311634453665647        1170.2472295918822     
   8174.3193689533791       -1.2585006327267365        1170.2866976538351     
   8130.2806073595239       -1.1149616509446787        1170.3156665230249     
   8086.2761328336437      -0.98690615376926871        1170.3347674795082     
   7876.5950307919938       -3.3109348452226186        1212.6577642135301     
   7835.3586573234443       -2.7777145144559654        1212.7024884144237     
   7794.1332982258709       -2.3401772881479701        1212.7423603030979     
   7752.9228592299341       -1.9853040643952227        1212.7773733328995     
   7711.7312460659878       -1.7000757416740271        1212.8075209568865     
   7670.5623644647012       -1.4714732180364081        1212.8327966283157     
   7629.4201201564792       -1.2864773919845902        1212.8531938002538     
   7588.3084188718776       -1.1320691617838747        1212.8687059259285     
   7547.2311663414312      -0.99522942549310756        1212.8793264584897     
   7314.1229051193741       -3.3395597124404048        1252.5243569252077     
   7275.8153287379291       -2.8098293297289274        1252.5139841354426     
   7237.5192705514273       -2.3716980499525562        1252.5067344774748     
   7199.2383541231357       -2.0130873294860976        1252.5020787963592     
   7160.9762030159063       -1.7219186249340055        1252.4994879369785     
   7122.7364407928781       -1.4861133928498020        1252.4984327443385     
   7084.5226910170049       -1.2935930898474908        1252.4983840633879     
   7046.3385772514121       -1.1322791722909642        1252.4988127391296     
   7008.1877230591326      -0.99009309670736911        1252.4991896165320     
   6751.6286969915072       -3.2939422239592204        1289.4634526567552     
   6716.2547894888748       -2.7820495914370440        1289.4006793953745     
   6680.8924570988293       -2.3551317575797839        1289.3480651133523     
   6645.5449454231330       -2.0023700507217654        1289.3046732663349     
   6610.2155000630864       -1.7129457994333279        1289.2695673095152     
   6574.9073666200802       -1.4760403323657556        1289.2418106982955     
   6539.6237906956303       -1.2808349778970296        1289.2204668880668     
   6504.3680178911454       -1.1165110646061294        1289.2045993342090     
   6469.1432938080634      -0.97224992103156183        1289.1932714920670     
   6189.1146712910067       -3.1734029150104561        1323.4684193367905     
   6156.6775555151735       -2.6942205179173015        1323.3570266082402     
   6124.2519540594722       -2.2907495535564522        1323.2617773507188     
   6091.8406387696432       -1.9537505362313823        1323.1814428486832     
   6059.4463814915098       -1.6739839798999583        1323.1147943864989     
   6027.0719540706114       -1.4422103992851589        1323.0606032484648     
   5994.7201283528302       -1.2491903082107001        1323.0176407190152     
   5962.3936761838331       -1.0856842211264848        1322.9846780825217     
   5930.0953694093614      -0.94245265214772189        1322.9604866233849     
   5626.5830929005897       -2.9772623207863944        1354.5326248940532     
   5597.0841427558962       -2.5461873274855407        1354.3774781883828     
   5567.5968576244541       -2.1788225807256367        1354.2432963294425     
   5538.1234398022270       -1.8678270941634310        1354.1286736493425     
   5508.6660915850052       -1.6058598814515790        1354.0322044798772     
   5479.2270152687188       -1.3855799564239533        1353.9524831531662     
   5449.8084131492487       -1.1996463326245248        1353.8881040010922     
   5420.4124875225225       -1.0407180236727527        1353.8376613557266     
   5391.0414406843993      -0.90145404353052072        1353.7997495489542     
   5064.0362267027522       -2.7048409765479846        1382.6494372570173     
   5037.4750671499705       -2.3377952384078071        1382.4564865498751     
   5010.9262639852413       -2.0196219814124561        1382.2880471894910     
   4984.3913541604179       -1.7451980325683962        1382.1426517740044     
   4957.8718746276481       -1.5094002184887358        1382.0188329016787     
   4931.3693623386916       -1.3071053663009025        1381.9151231706742     
   4904.8853542454908       -1.1331903027773933        1381.8300551790794     
   4878.4213873001427      -0.98253185460885106        1381.7621615252169     
   4851.9789984544022      -0.85000684889905642        1381.7099748072098     
   4501.4763375802959       -2.3554594174368049        1407.8122243546047     
   4477.8508446363630       -2.0688894690561028        1407.5885041070449     
   4454.2392693329948       -1.8134188984824959        1407.3914550708087     
   4430.6423874839920       -1.5864616596261385        1407.2196633287044     
   4407.0609749032992       -1.3854317061682195        1407.0717149638540     
   4383.4958074047781       -1.2077429918676899        1406.9461960592448     
   4359.9476608022460       -1.0508094705066924        1406.8416926978100     
   4336.4173109095354      -0.91204509595831951        1406.7567909625179     
   4312.9055335406110      -0.78886382188056814        1406.6900769364295     
   8625.3251317145478      -0.96437052781129751        1124.8665981411721     
   8578.4105707860945      -0.85522652324516457        1124.8840394067061     
   8531.4978781595692      -0.75520885158812234        1124.8993554964766     
   8484.5871629136982      -0.66395391675314386        1124.9126636259830     
   8437.6785341272407      -0.58109812302654973        1124.9240810107947     
   8390.7721008790668      -0.50627787419671222        1124.9337248665661     
   8343.8679722479428      -0.43912957452585033        1124.9417124088927     
   8296.9662573126188      -0.37928962784280884        1124.9481608532444     
   8250.0670651519049      -0.32639443836933424        1124.9531874152938     
   8086.2761328336437      -0.98690615376926871        1170.3347674795082     
   8042.2907838698893      -0.86840599124298024        1170.3478759484624     
   7998.3068458454736      -0.76204340321282871        1170.3585932286949     
   7954.3245811892202      -0.66694362702946819        1170.3671394106952     
   7910.3442523297554      -0.58223190069156772        1170.3737345848433     
   7866.3661216956743      -0.50703346197178689        1170.3785988416028     
   7822.3904517158380      -0.44047354825215734        1170.3819522714384     
   7778.4175048188745      -0.38167739726941363        1170.3840149647319     
   7734.4475434333890      -0.32977024706542579        1170.3850070119295     
   7547.2311663414312      -0.99522942549310756        1212.8793264584897     
   7506.1730015310286      -0.87049716547107892        1212.8862645384891     
   7465.1162187193668      -0.76022698770748320        1212.8909258669210     
   7424.0612066060594      -0.66312322680369107        1212.8935987375828     
   7383.0083538909985      -0.57789021669668728        1212.8945714444378     
   7341.9580492737914      -0.50323229166224337        1212.8941322812682     
   7300.9106814541701      -0.43785378618440518        1212.8925695419348     
   7259.8666391318484      -0.38045903455304142        1212.8901715203253     
   7218.8263110065673      -0.32975237082473541        1212.8872265102789     
   7008.1877230591326      -0.99009309670736911        1252.4991896165320     
   6970.0553850865235      -0.86205165079218204        1252.4983502062335     
   6931.9247295325613      -0.75013978004199089        1252.4956973394430     
   6893.7962442890030      -0.65273117847436879        1252.4915528419720     
   6855.6704172478185      -0.56819953968215486        1252.4862385397396     
   6817.5477363008931      -0.49491855739961466        1252.4800762585803     
   6779.4286893400449      -0.43126192544150399        1252.4733878243412     
   6741.3137642570973      -0.37560333785859257        1252.4664950628478     
   6703.2034489440339      -0.32631648797269008        1252.4597197999624     
   6469.1432938080634      -0.97224992103156183        1289.1932714920670     
   6433.9360958533653      -0.84362105212812821        1289.1832779810188     
   6398.7311110365399      -0.73216195466966383        1289.1722515745798     
   6363.5288993627037      -0.63600594478702988        1289.1605129590744     
   6328.3300208369947      -0.55328633876297317        1289.1483828209630     
   6293.1350354645801      -0.48213645278110562        1289.1361818466653     
   6257.9445032506019      -0.42068960292181146        1289.1242307225880     
   6222.7589842001689      -0.36707910544100741        1289.1128501350911     
   6187.5790383184558      -0.31943827659324597        1289.1023607706802     
   5930.0953694093614      -0.94245265214772189        1322.9604866233849     
   5897.8132951484977      -0.81575697442826822        1322.9401928922725     
   5865.5340959828200      -0.70667368599515612        1322.9199325006614     
   5833.2583769519370      -0.61318598821230808        1322.8999903241831     
   5800.9867430952354      -0.53327708299275400        1322.8806512382723     
   5768.7197994524522      -0.46493017142665849        1322.8622001185931     
   5736.4581510629905      -0.40612845531632047        1322.8449218406208     
   5704.2024029665017      -0.35485513593221185        1322.8291012799295     
   5671.9531602024445      -0.30909341502456300        1322.8150233120434     
   5391.0414406843993      -0.90145404353052072        1353.7997495489542     
   5361.6851442889265      -0.77901102251780685        1353.7682399693385     
   5332.3324171228778      -0.67405514866209160        1353.7380840461237     
   5302.9838821813119      -0.58450977161214723        1353.7094961725461     
   5273.6401624593354      -0.50829824124730294        1353.6826907419024     
   5244.3018809520090      -0.44334390725634876        1353.6578821474566     
   5214.9696606544130      -0.38757011940720076        1353.6352847824346     
   5185.6441245616152      -0.33890022757896077        1353.6151130401338     
   5156.3258956686786      -0.29525758130353097        1353.5975813137379     
   4851.9789984544022      -0.85000684889905642        1381.7099748072098     
   4825.5498045916274      -0.73393480128243027        1381.6665642416028     
   4799.1248072081289      -0.63468651715106716        1381.6260501391646     
   4772.7046201756721      -0.55021575734735961        1381.5885417394534     
   4746.2898573661123      -0.47847628239242113        1381.5541482820327     
   4719.8811326509112      -0.41742185385214725        1381.5229790063670     
   4693.4790599020262      -0.36500623218148576        1381.4951431520351     
   4667.0842529910524      -0.31918317856252543        1381.4707499585143     
   4640.6973257897653      -0.27790645377581313        1381.4499086653968     
   4312.9055335406110      -0.78886382188056814        1406.6900769364295     
   4289.4054373735125      -0.68107991582746763        1406.6343107384089     
   4265.9099989900833      -0.58894796610729827        1406.5831747082198     
   4242.4197960598030      -0.51054240773532911        1406.5366382602335     
   4218.9354062521506      -0.44393767568794829        1406.4946708088075     
   4195.4574072367022      -0.38720820494154395        1406.4572417683673     
   4171.9863766829139      -0.33842843054662808        1406.4243205532907     
   4148.5228922602946      -0.29567278740091751        1406.3958765779305     
   4125.0675316383422      -0.25701571058266381        1406.3718792566672     
   8250.0670651519049      -0.32639443836933424        1124.9531874152938     
   8203.1703032525129      -0.28009463577836868        1124.9575241998718     
   8156.2759400927152      -0.23983754452456196        1124.9618025753828     
   8109.3841762386191      -0.20495461099744716        1124.9659886528536     
   8062.4952122563855      -0.17477728131098047        1124.9700485431752     
   8015.6092487120713      -0.14863700184560003        1124.9739483573444     
   7968.7264861719223      -0.12586521865523537        1124.9776542063353     
   7921.8471252019554      -0.10579337819171997        1124.9811322011371     
   7874.9713663683606       -8.7752926538541942E-002   1124.9843484526493     
   7734.4475434333890      -0.32977024706542579        1170.3850070119295     
   7690.4802870282674      -0.28408070209479774        1170.3857437766396     
   7646.5154016933848      -0.24411529681674438        1170.3868537795902     
   7602.5530697890827      -0.20926616335646031        1170.3882768468320     
   7558.5934736755999      -0.17892543424113683        1170.3899528043528     
   7514.6367957132834      -0.15248524183471091        1170.3918214782195     
   7470.6832182624566      -0.12933771816597073        1170.3938226945265     
   7426.7329236833521      -0.10887499589034633        1170.3958962792833     
   7382.7860943363585       -9.0489207065274968E-002   1170.3979820585196     
   7218.8263110065673      -0.32975237082473541        1212.8872265102789     
   7177.7890497316594      -0.28486138555126672        1212.8845134247347     
   7136.7540596852932      -0.24540791987919874        1212.8825642922520     
   7095.7215071541268      -0.21083768485323162        1212.8812970800193     
   7054.6915584249182      -0.18059639120019710        1212.8806297552499     
   7013.6643797844645      -0.15412974966238835        1212.8804802851787     
   6972.6401375194291      -0.13088347143866486        1212.8807666370342     
   6931.6189979166156      -0.11030326718810102        1212.8814067780504     
   6890.6011272627038       -9.1834847853078827E-002   1212.8823186753805     
   6703.2034489440339      -0.32631648797269008        1252.4597197999624     
   6665.0966062948419      -0.28243220652620948        1252.4537018284088     
   6626.9918755059380      -0.24372698279194083        1252.4488000798769     
   6588.8894089227861      -0.20969299863963897        1252.4449150888761     
   6550.7893588908073      -0.17982243591404767        1252.4419473898870     
   6512.6918777554229      -0.15360747661179630        1252.4397975173599     
   6474.5971178620484      -0.13054030261309890        1252.4383660058252     
   6436.5052315561243      -0.11011309584955598        1252.4375533897012     
   6398.4163711830734       -9.1818038229575905E-002   1252.4372602034985     
   6187.5790383184558      -0.31943827659324597        1289.1023607706802     
   6152.4029716498644      -0.27678868550674451        1289.0931776719156     
   6117.2288105929329      -0.23908405422957912        1289.0854271090122     
   6082.0566956841021      -0.20585592807924513        1289.0789966098391     
   6046.8867674596386      -0.17663585274317484        1289.0737737021848     
   6011.7191664559678      -0.15095537349020560        1289.0696459138264     
   5976.5540332094306      -0.12834603593637439        1289.0665007727050     
   5941.3915082563390      -0.10833938552127620        1289.0642258065586     
   5906.2317321331520       -9.0466967499196471E-002   1289.0627085432388     
   5671.9531602024445      -0.30909341502456300        1322.8150233120434     
   5639.7081607289128      -0.26792634276262106        1322.8028096396092     
   5607.4648263839363      -0.23149070281237982        1322.7923113462844     
   5575.2232880270758      -0.19935029654880054        1322.7834073793458     
   5542.9836765178588      -0.17106892564629561        1322.7759766861043     
   5510.7461227158792      -0.14621039146300063        1322.7698982137376     
   5478.5107574806443      -0.12433849569970334        1322.7650509095922     
   5446.2777116717098      -0.10501703968452603        1322.7613137209128     
   5414.0471161485866       -8.7809825060958246E-002   1322.7585655948619     
   5156.3258956686786      -0.29525758130353097        1353.5975813137379     
   5127.0121884641503      -0.25584069849719526        1353.5824664157290     
   5097.6998843165402      -0.22095849718334648        1353.5693187582017     
   5068.3891065407688      -0.19019992722155621        1353.5580131338797     
   5039.0799784519304      -0.16315393865852457        1353.5484243356382     
   5009.7726233649209      -0.13940948165873124        1353.5404271561802     
   4980.4671645948574      -0.11855550607174337        1353.5338963883530     
   4951.1637254565458      -0.10018096231465279        1353.5287068249336     
   4921.8624292651130       -8.3874799972591063E-002   1353.5247332586598     
   4640.6973257897653      -0.27790645377581313        1381.4499086653968     
   4614.3150697876645      -0.24052727334492374        1381.4320166845953     
   4587.9339458282648      -0.20749900621308370        1381.4163153112847     
   4561.5540718142356      -0.17842864335102604        1381.4026796098890     
   4535.1755656482328      -0.15292317595617533        1381.3909846447300     
   4508.7985452329540      -0.13058959505769963        1381.3811054802859     
   4482.4231284711213      -0.11103489162405822        1381.3729171809100     
   4456.0494332653579       -9.3866056856541036E-002   1381.3662948110289     
   4429.6775775183814       -7.8690081669492429E-002   1381.3611134350031     
   4125.0675316383422      -0.25701571058266381        1406.3718792566672     
   4101.6168196316266      -0.22198158748165042        1406.3513291304857     
   4078.1669723567825      -0.19112379854277606        1406.3331669721433     
   4054.7181044364334      -0.16406026840945742        1406.3172725437339     
   4031.2703304932238      -0.14040892154321227        1406.3035256073485     
   4007.8237651497134      -0.11978768269500506        1406.2918059250808     
   3984.3785230286471      -0.10181447627792295        1406.2819932590892     
   3960.9347187525204       -8.6107227091360983E-002   1406.2739673714186     
   3937.4924669440306       -7.2283859554545415E-002   1406.2676080241633     
   7874.9713663683606       -8.7752926538541942E-002   1124.9843484526493     
   7828.0972904404925       -7.1775076334688492E-002   1124.9871930064764     
   7781.2228940198183       -5.8171599676825281E-002   1124.9896110956900     
   7734.3482514207026       -4.6694782173290150E-002   1124.9916516127287     
   7687.4734369574726       -3.7096909326464811E-002   1124.9933634498159     
   7640.5985249443675       -2.9130266870197374E-002   1124.9947954993272     
   7593.7235896958900       -2.2547140112237685E-002   1124.9959966535921     
   7546.8487055262158       -1.7099814933771995E-002   1124.9970158049716     
   7499.9739467497448       -1.2540576673927717E-002   1124.9979018457209     
   7382.7860943363585       -9.0489207065274968E-002   1170.3979820585196     
   7338.8409324865543       -7.4220790128492808E-002   1170.3998799025230     
   7294.8955688243605       -6.0348765803155402E-002   1170.4014612714936     
   7250.9500783480316       -4.8623139945902949E-002   1170.4027733766418     
   7207.0045360557579       -3.8793918489318457E-002   1170.4038634290541     
   7163.0590169457682       -3.0611107456479658E-002   1170.4047786397882     
   7119.1135960163183       -2.3824712565783557E-002   1170.4055662200690     
   7075.1683482656281       -1.8184739871685451E-002   1170.4062733809828     
   7031.2233486919013       -1.3441195181712828E-002   1170.4069473335874     
   6890.6011272627038       -9.1834847853078827E-002   1212.8823186753805     
   6849.5848817765200       -7.5513194330142142E-002   1212.8832255827415     
   6808.5685566881129       -6.1576583631904214E-002   1212.8839347137623     
   6767.5522268010200       -4.9775670474446088E-002   1212.8844899753826     
   6726.5359669189165       -3.9861109195953759E-002   1212.8849352746247     
   6685.5198518454772       -3.1583554352891952E-002   1212.8853145184944     
   6644.5039563842374       -2.4693660821867525E-002   1212.8856716140208     
   6603.4883553388872       -1.8942082976991514E-002   1212.8860504682198     
   6562.4731235129975       -1.4079475493872451E-002   1212.8864949880431     
   6398.4163711830734       -9.1818038229575905E-002   1252.4372602034985     
   6360.3290707318138       -7.5672562836189172E-002   1252.4371448869063     
   6322.2418117813349       -6.1868802592925931E-002   1252.4369581765893     
   6284.1546680621323       -5.0160989118012367E-002   1252.4367390525447     
   6246.0677133047375       -4.0303354010120529E-002   1252.4365264947826     
   6207.9810212396642       -3.2050128916353060E-002   1252.4363594833251     
   6169.8946655973450       -2.5155545634106602E-002   1252.4362769981083     
   6131.8087201083654       -1.9373835661554040E-002   1252.4363180191356     
   6093.7232585032052       -1.4459230665806899E-002   1252.4365215264502     
   5906.2317321331520       -9.0466967499196471E-002   1289.0627085432388     
   5871.0734317739489       -7.4719169042055000E-002   1289.0615526546128     
   5835.9152882745657       -6.1239171293891559E-002   1289.0604584141163     
   5800.7573734139760       -4.9787711126555223E-002   1289.0594582518049     
   5765.5997589709532       -4.0125525831399500E-002   1289.0585845978017     
   5730.4425167244690       -3.2013352270723772E-002   1289.0578698821346     
   5695.2857184533768       -2.5211927631744402E-002   1289.0573465349473     
   5660.1294359365038       -1.9481988983670817E-002   1289.0570469862855     
   5624.9737409527670       -1.4584273408900117E-002   1289.0570036662241     
   5414.0471161485866       -8.7809825060958246E-002   1322.7585655948619     
   5381.8178973244067       -7.2673286503004420E-002   1322.7563637256051     
   5349.5889403382935       -5.9701438506863269E-002   1322.7543621804957     
   5317.3603141390995       -4.8664451584727431E-002   1322.7525852168249     
   5285.1320876754398       -3.9332497004124889E-002   1322.7510570918769     
   5252.9043298961660       -3.1475745312263825E-002   1322.7498020629237     
   5220.6771097499695       -2.4864367571353796E-002   1322.7488443871966     
   5188.4504961856255       -1.9268534393177106E-002   1322.7482083220523     
   5156.2245581518218       -1.4458416842444421E-002   1322.7479181246608     
   4921.8624292651130       -8.3874799972591063E-002   1353.5247332586598     
   4892.5623998046976       -6.9555188697222547E-002   1353.5214929394906     
   4863.2627221430021       -5.7269353017090907E-002   1353.5185962298576     
   4833.9634615200248       -4.6799825931657324E-002   1353.5160575912723     
   4804.6646831759899       -3.7929140246887982E-002   1353.5138914853253     
   4775.3664523508478       -3.0439829417218789E-002   1353.5121123735414     
   4746.0688342848916       -2.4114425969401054E-002   1353.5107347175854     
   4716.7718942180654       -1.8735463212578907E-002   1353.5097729789236     
   4687.4756973905714       -1.4085473836757956E-002   1353.5092416191296     
   4429.6775775183814       -7.8690081669492429E-002   1381.3611134350031     
   4403.3068716363232       -6.5385149283201827E-002   1381.3568551360279     
   4376.9365878590097       -5.3956663972030583E-002   1381.3530873163106     
   4350.5667868393775       -4.4202449114891351E-002   1381.3498130187522     
   4324.1975292303159       -3.5920328521569900E-002   1381.3470352863478     
   4297.8288756847751       -2.8908125648968053E-002   1381.3447571619997     
   4271.4608868558435       -2.2963663702739723E-002   1381.3429816887171     
   4245.0936233963066       -1.7884766494489668E-002   1381.3417119094081     
   4218.7271459592093       -1.3469257325141371E-002   1381.3409508670245     
   3937.4924669440306       -7.2283859554545415E-002   1406.2676080241633     
   3914.0512452407947       -6.0183441712524655E-002   1406.2623651548963     
   3890.6104916568829       -4.9777119965710881E-002   1406.2577621940179     
   3867.1702613796424       -4.0880936663825196E-002   1406.2537891429902     
   3843.7306095962736       -3.3310934278688364E-002   1406.2504360032351     
   3820.2915914941004       -2.6883155095674738E-002   1406.2476927761395     
   3796.8532622604662       -2.1413641477465717E-002   1406.2455494632509     
   3773.4156770826221       -1.6718435810844312E-002   1406.2439960659460     
   3749.9788911478649       -1.2613580411425573E-002   1406.2430225856504     
   7499.9739467497448       -1.2540576673927717E-002   1124.9979018457209     
   7453.0993454509671       -8.6629910338160698E-003   1124.9987095577885     
   7406.2248959855642       -5.3863865241510211E-003   1124.9994552200440     
   7359.3506160745610       -2.6516929656281718E-003   1125.0001299703340     
   7312.4765234389606       -3.9984037493923097E-004   1125.0007249464409     
   7265.6026357997262        1.4282411293606856E-003   1125.0012312861959     
   7218.7289708779608        2.8916218857375497E-003   1125.0016401274702     
   7171.8555463946259        4.0493717447134259E-003   1125.0019426080516     
   7124.9823800707491        4.9605607960074849E-003   1125.0021298657587     
   7031.2233486919013       -1.3441195181712828E-002   1170.4069473335874     
   6987.2785475332057       -9.4090538659656886E-003   1170.4076087428484     
   6943.3338587095450       -6.0243514790272457E-003   1170.4082396562976     
   6899.3893027420036       -3.2186843109229812E-003   1170.4088293589189     
   6855.4449001514131       -9.2364956526580499E-004   1170.4093671356320     
   6811.5006714588826        9.2915630830248119E-004   1170.4098422714026     
   6767.5566371854684        2.4081369738269132E-003   1170.4102440511947     
   6723.6128178520794        3.5816953932226170E-003   1170.4105617599866     
   6679.6692339798019        4.5182352450865437E-003   1170.4107846827108     
   6562.4731235129975       -1.4079475493872451E-002   1212.8864949880431     
   6521.4581297380500       -9.9446358090062859E-003   1212.8869917579384     
   6480.4432080966035       -6.4921911498458940E-003   1212.8874900527778     
   6439.4283812689309       -3.6465405578383070E-003   1212.8879778151793     
   6398.4136719352973       -1.3320829298208992E-003   1212.8884429878296     
   6357.3991027760512        5.2678265728900442E-004   1212.8888735133839     
   6316.3846964714521        2.0056570369888505E-003   1212.8892573345165     
   6275.3704757017294        3.1801410755178949E-003   1212.8895823938974     
   6234.3564631472163        4.1258358955928998E-003   1212.8898366342121     
   6093.7232585032052       -1.4459230665806899E-002   1252.4365215264502     
   6055.6380716943258       -1.0275848675064481E-002   1252.4368401990700     
   6017.5529175730398       -6.7978781410147349E-003   1252.4371921365521     
   5979.4678203380845       -3.9446565970138181E-003   1252.4375644498707     
   5941.3828041883489       -1.6355210984784208E-003   1252.4379442499664     
   5903.2978933227387        2.1019134487687552E-004   1252.4383186477289     
   5865.2131119399901        1.6731432147025771E-003   1252.4386747541575     
   5827.1284842389159        2.8339972595858853E-003   1252.4389996801158     
   5789.0440344184262        3.7734164329776831E-003   1252.4392805365596     
   5624.9737409527670       -1.4584273408900117E-002   1289.0570036662241     
   5589.8183530310262       -1.0408803484551754E-002   1289.0571356622231     
   5554.6629605652361       -6.9493847054218350E-003   1289.0573316348341     
   5519.5075886321310       -4.1224280489586818E-003   1289.0575783738173     
   5484.3522623083218       -1.8443447784193268E-003   1289.0578626689903     
   5449.1970066704089       -3.1546213222100050E-005   1289.0581713100244     
   5414.0418467950822        1.3995565848290425E-003   1289.0584910866914     
   5378.8868077589996        2.5325525887183176E-003   1289.0588087887802     
   5343.7319146387781        3.4510303919432772E-003   1289.0591112060747     
   5156.2245581518218       -1.4458416842444421E-002   1322.7479181246608     
   5123.9989533770922       -1.0349611634865141E-002   1322.7478597434963     
   5091.7733104998388       -6.9546824181543343E-003   1322.7478942748276     
   5059.5476548338975       -4.1892497561093478E-003   1322.7480086979049     
   5027.3220116929069       -1.9689347952862590E-003   1322.7481899918155     
   4995.0964063906367       -2.0935839415869850E-004   1322.7484251357341     
   4962.8708642408965        1.1738587729723804E-003   1322.7487011087965     
   4930.6454105573239        2.2650956304914871E-003   1322.7490048902312     
   4898.4200706536931        3.1487314431615232E-003   1322.7493234590454     
   4687.4756973905714       -1.4085473836757956E-002   1353.5092416191296     
   4658.1798523614807       -1.0104384338319505E-002   1353.5089940388564     
   4628.8839408032800       -6.8217433818063000E-003   1353.5088657837314     
   4599.5879876260415       -4.1545170358858741E-003   1353.5088445328813     
   4570.2920177398973       -2.0196717528051522E-003   1353.5089179654274     
   4540.9960560549625       -3.3417374402233690E-004   1353.5090737604382     
   4511.7001274814174        9.8501070192469342E-004   1353.5092995971427     
   4482.4042569292515        2.0209151537073922E-003   1353.5095831545386     
   4453.1084693086004        2.8565733487084799E-003   1353.5099121117798     
   4218.7271459592093       -1.3469257325141371E-002   1381.3409508670245     
   4192.3610296130964       -9.6792331701180956E-003   1381.3405201443363     
   4165.9948249018998       -6.5585398908751813E-003   1381.3402318886431     
   4139.6285556913153       -4.0276250138049363E-003   1381.3400749895702     
   4113.2622458470923       -2.0069361594323709E-003   1381.3400383367461     
   4086.8959192349671       -4.1692078821142786E-004   1381.3401108197802     
   4060.5295997207477        8.2197366259606497E-004   1381.3402813283365     
   4034.1633111701212        1.7892996065711486E-003   1381.3405387520643     
   4007.7970774488622        2.5646096005402796E-003   1381.3408719805825     
   3749.9788911478649       -1.2613580411425573E-002   1406.2430225856504     
   3726.5424647609607       -9.0802691111093736E-003   1406.2424196559982     
   3703.1059362222463       -6.1730438767426676E-003   1406.2419783168079     
   3679.6693277124582       -3.8179689081516699E-003   1406.2416891788077     
   3656.2326614121748       -1.9411088915148866E-003   1406.2415428526692     
   3632.7959595020784       -4.6852820514686755E-004   1406.2415299491822     
   3609.3592441629071        6.7370876922723255E-004   1406.2416410790288     
   3585.9225375752562        1.5595375371049158E-003   1406.2418668529672     
   3562.4858619198335        2.2628936865203286E-003   1406.2421978817215     
   7124.9823800707491        4.9605607960074849E-003   1125.0021298657587     
   7078.1092389378691        5.6074822559821769E-003   1125.0022222861687     
   7031.2358879569692        5.9655274612850917E-003   1125.0022537942721     
   6984.3623417436293        6.0834147907371516E-003   1125.0022358371482     
   6937.4886149129561        6.0098616168033914E-003   1125.0021798617709     
   6890.6147220804623        5.7935861668738653E-003   1125.0020973151502     
   6843.7406778614668        5.4833060353303154E-003   1125.0019996444382     
   6796.8664968713410        5.1277392362862884E-003   1125.0018982965701     
   6749.9921937254103        4.7756035010024789E-003   1125.0018047186038     
   6679.6692339798019        4.5182352450865437E-003   1170.4107846827108     
   6635.7256840453747        5.2152232915432251E-003   1170.4109280162093     
   6591.7819608246418        5.6511234352001338E-003   1170.4110209444993     
   6547.8380762874258        5.8658350453697494E-003   1170.4110737333624     
   6503.8940424033481        5.8992568588109862E-003   1170.4110966484284     
   6459.9498711420583        5.7912877477974689E-003   1170.4110999553509     
   6416.0055744733572        5.5818269756855443E-003   1170.4110939199609     
   6372.0611643668317        5.3107732746866532E-003   1170.4110888078526     
   6328.1166527922824        5.0180258804175537E-003   1170.4110948847740     
   6234.3564631472163        4.1258358955928998E-003   1212.8898366342121     
   6193.3424888522477        4.8539726346916723E-003   1212.8900276003255     
   6152.3283741857686        5.3468643811811489E-003   1212.8901769358451     
   6111.3141288146144        5.6367340384895215E-003   1212.8902937314017     
   6070.2997624058880        5.7558053915727214E-003   1212.8903870776460     
   6029.2852846266915        5.7363019109288871E-003   1212.8904660651833     
   5988.2707051439038        5.6104465998032538E-003   1212.8905397846597     
   5947.2560336246815        5.4104632442886214E-003   1212.8906173267844     
   5906.2412797358975        5.1685748981071811E-003   1212.8907077820561     
   5789.0440344184262        3.7734164329776831E-003   1252.4392805365596     
   5750.9596234923383        4.5147705552608386E-003   1252.4395153271234     
   5712.8751014801246        5.0447816952328139E-003   1252.4397159293712     
   5674.7904760891170        5.3891408051640610E-003   1252.4398902651456     
   5636.7057550266827        5.5735392395490635E-003   1252.4400462561857     
   5598.6209460001610        5.6236680763959157E-003   1252.4401918243775     
   5560.5360567167518        5.5652179948992853E-003   1252.4403348915666     
   5522.4510948839397        5.4238806260400452E-003   1252.4404833794633     
   5484.3660682089476        5.2253466187721642E-003   1252.4406452099834     
   5343.7319146387781        3.4510303919432772E-003   1289.0591112060747     
   5308.5770580992739        4.1886569736107049E-003   1289.0593854853250     
   5273.4221161478245        4.7369077408347948E-003   1289.0596320863465     
   5238.2670948750992        5.1160847488063155E-003   1289.0598577684004     
   5203.1120003717324        5.3464901770894357E-003   1289.0600692907592     
   5167.9568387283025        5.4484260238041315E-003   1289.0602734126514     
   5132.8016160355037        5.4421944091700425E-003   1289.0604768933515     
   5097.6463383837827        5.3480971362205310E-003   1289.0606864920492     
   5062.4910118639264        5.1864365782421373E-003   1289.0609089680665     
   4898.4200706536931        3.1487314431615232E-003   1322.7493234590454     
   4866.1947628067992        3.8666719769935298E-003   1322.7496323636074     
   4833.9693916287943        4.4152743387257942E-003   1322.7499195680300     
   4801.7439619365996        4.8105949535965919E-003   1322.7501906752161     
   4769.5184785470428        5.0686899548963993E-003   1322.7504512881003     
   4737.2929462771099        5.2056158526738727E-003   1322.7507070096831     
   4705.0673699435602        5.2374285139649146E-003   1322.7509634428752     
   4672.8417543634159        5.1801848076138413E-003   1322.7512261906752     
   4640.6161043534466        5.0499406058861496E-003   1322.7515008559221     
   4453.1084693086004        2.8565733487084799E-003   1353.5099121117798     
   4423.8127077487588        3.5398559914483485E-003   1353.5102502506711     
   4394.5169013631294        4.0719138605709304E-003   1353.5105725356127     
   4365.2210540376773        4.4657006840225222E-003   1353.5108834193627     
   4335.9251696587107        4.7341704571408627E-003   1353.5111873549504     
   4306.6292521123078        4.8902769503911259E-003   1353.5114887952279     
   4277.3333052846674        4.9469738592051726E-003   1353.5117921930521     
   4248.0373330619104        4.9172152066603303E-003   1353.5121020013580     
   4218.7413393300785        4.8139544408059010E-003   1353.5124226730336     
   4007.7970774488622        2.5646096005402796E-003   1381.3408719805825     
   3981.4308630588930        3.1992489773529087E-003   1381.3412334352133     
   3955.0646187906018        3.6988578845011943E-003   1381.3415851502646     
   3928.6983479424634        4.0744313241702912E-003   1381.3419304348586     
   3902.3320538127346        4.3369634956889058E-003   1381.3422725980631     
   3875.9657396998673        4.4974491943321482E-003   1381.3426149489715     
   3849.5994089023138        4.5668831760394824E-003   1381.3429607967291     
   3823.2330647183617        4.5562598515971331E-003   1381.3433134503689     
   3796.8667104464935        4.4765741768060252E-003   1381.3436762189815     
   3562.4858619198335        2.2628936865203286E-003   1406.2421978817215     
   3539.0491988708955        2.8358909933103860E-003   1406.2425762058522     
   3515.6125173513465        3.2881386694043613E-003   1406.2429515732897     
   3492.1758204149337        3.6298157954206545E-003   1406.2433261555495     
   3468.7391111151314        3.8711007357505878E-003   1406.2437021241678     
   3445.3023925055936        4.0221723888862471E-003   1406.2440816506437     
   3421.8656676400574        4.0932095944299363E-003   1406.2444669066774     
   3398.4289395720248        4.0943908850294974E-003   1406.2448600637063     
   3374.9922113551288        4.0358950750487566E-003   1406.2452632932841     
   6749.9921937254103        4.7756035010024789E-003   1125.0018047186038     
   6703.1178312057791        4.4798005383199779E-003   1125.0017277774195     
   6656.2434585565697        4.2481054792915529E-003   1125.0016644793523     
   6609.3690700863353        4.0615465086375480E-003   1125.0016084806416     
   6562.4946601033762        3.9011516778373334E-003   1125.0015534375118     
   6515.6202229162318        3.7479492957572802E-003   1125.0014930061257     
   6468.7457528333107        3.5829674961860292E-003   1125.0014208427849     
   6421.8712441631451        3.3872344911287655E-003   1125.0013306037629     
   6374.9966912141772        3.1417783925462572E-003   1125.0012159451665     
   6328.1166527922824        5.0180258804175537E-003   1170.4110948847740     
   6284.1720777142809        4.7439195045626548E-003   1170.4111102348056     
   6240.2274673888687        4.4964269609408802E-003   1170.4111231856002     
   6196.2828192226034        4.2669033953188773E-003   1170.4111293682781     
   6152.3381306220854        4.0467041530973802E-003   1170.4111244139317     
   6108.3933989938114        3.8271842715857929E-003   1170.4111039536567     
   6064.4486217445001        3.5996994372453628E-003   1170.4110636185640     
   6020.5037962805827        3.3556044988927169E-003   1170.4109990397540     
   5976.5589200087379        3.0862549472203682E-003   1170.4109058483155     
   5906.2412797358975        5.1685748981071811E-003   1212.8907077820561     
   5865.2264611378641        4.9144984175200079E-003   1212.8908015064212     
   5824.2115890228351        4.6563903290461894E-003   1212.8908810244402     
   5783.1966633559150        4.3941345027178613E-003   1212.8909436797890     
   5742.1816841022492        4.1276147153439524E-003   1212.8909868160292     
   5701.1666512269521        3.8567146766581573E-003   1212.8910077767785     
   5660.1515646952239        3.5813183285426931E-003   1212.8910039058269     
   5619.1364244721599        3.3013093704994390E-003   1212.8909725467620     
   5578.1212305228883        3.0165715722887398E-003   1212.8909110431330     
   5484.3660682089476        5.2253466187721642E-003   1252.4406452099834     
   5446.2809781767264        4.9905472617410851E-003   1252.4408055505924     
   5408.1958224566797        4.7276949214847264E-003   1252.4409434834154     
   5370.1106030329229        4.4434035735321231E-003   1252.4410578023135     
   5332.0253218896387        4.1442869733145926E-003   1252.4411473012067     
   5293.9399810109016        3.8369588212390227E-003   1252.4412107738547     
   5255.8545823808199        3.5280327213058627E-003   1252.4412470141986     
   5217.7691279835681        3.2241227381746285E-003   1252.4412548159962     
   5179.6836198032379        2.9318423326003540E-003   1252.4412329731335     
   5062.4910118639264        5.1864365782421373E-003   1289.0609089680665     
   5027.3356255309791        4.9710757939465111E-003   1289.0611263254743     
   4992.1801666886431        4.7100401004627201E-003   1289.0613160499461     
   4957.0246388005726        4.4148748738734866E-003   1289.0614781232175     
   4921.8690453301870        4.0971248838559404E-003   1289.0616125270717     
   4886.7133897409758        3.7683352356907562E-003   1289.0617192431318     
   4851.5576754966287        3.4400513334276184E-003   1289.0617982531321     
   4816.4019060605906        3.1238182373272139E-003   1289.0618495387714     
   4781.2460848963783        2.8311808766829927E-003   1289.0618730818551     
   4640.6161043534466        5.0499406058861496E-003   1322.7515008559221     
   4608.3903999008935        4.8550945275565027E-003   1322.7517677894989     
   4576.1646207171143        4.6031255801608495E-003   1322.7520042117310     
   4543.9387712055850        4.3087121746339108E-003   1322.7522110298621     
   4511.7128557696342        3.9865319254204223E-003   1322.7523891511514     
   4479.4868788125959        3.6512628248601686E-003   1322.7525394827919     
   4447.2608447378625        3.3175826210936066E-003   1322.7526629321117     
   4415.0347579489244        3.0001696527506283E-003   1322.7527604063957     
   4382.8086228490611        2.7137016504639178E-003   1322.7528328128037     
   4218.7413393300785        4.8139544408059010E-003   1353.5124226730336     
   4189.4452979866137        4.6416131522164505E-003   1353.5127339008764     
   4160.1491835403722        4.4066509219646832E-003   1353.5130134562339     
   4130.8530007948966        4.1250798219607532E-003   1353.5132629094383     
   4101.5567545539452        3.8129121332985960E-003   1353.5134838309637     
   4072.2604496211134        3.4861600104250101E-003   1353.5136777912903     
   4042.9640908000260        3.1608354786385462E-003   1353.5138463608343     
   4013.6676828944173        2.8529508322208130E-003   1353.5139911101526     
   3984.3712307078622        2.5785183261177735E-003   1353.5141136095303     
   3796.8667104464935        4.4765741768060252E-003   1381.3436762189815     
   3770.5003164883956        4.3296419892158156E-003   1381.3440286180378     
   3744.1338541565401        4.1203152381967811E-003   1381.3443492709855     
   3717.7673281152615        3.8641417140752310E-003   1381.3446401492361     
   3691.4007430288502        3.5766690136824764E-003   1381.3449032240333     
   3665.0341035617557        3.2734453004650277E-003   1381.3451404667501     
   3638.6674143782507        2.9700181489715760E-003   1381.3453538487063     
   3612.3006801427218        2.6819355464340333E-003   1381.3455453412519     
   3585.9339055194746        2.4247451228802674E-003   1381.3457169155699     
   3374.9922113551288        4.0358950750487566E-003   1406.2452632932841     
   3351.5554521063837        3.9181909407943749E-003   1406.2456558990707     
   3328.1186315640180        3.7438182607729686E-003   1406.2460171435255     
   3304.6817537135225        3.5260617787571391E-003   1406.2463491365718     
   3281.2448225403873        3.2782066316485725E-003   1406.2466539879711     
   3257.8078420299789        3.0135374438486906E-003   1406.2469338075932     
   3234.3708161679156        2.7453394136500719E-003   1406.2471907052820     
   3210.9337489395980        2.4868971624982805E-003   1406.2474267909936     
   3187.4966443304934        2.2514958156989451E-003   1406.2476441744413     
   6374.9966912141772        3.1417783925462572E-003   1125.0012159451665     
   6328.1220957404366        2.8359483626445581E-003   1125.0010928915315     
   6281.2474675232197        2.4858505212250748E-003   1125.0009844930780     
   6234.3728129117872        2.1126489668858994E-003   1125.0008949447147     
   6187.4981382552132        1.7375073480252468E-003   1125.0008284412643     
   6140.6234499027178        1.3815898537359317E-003   1125.0007891775599     
   6093.7487542034205        1.0660600805749709E-003   1125.0007813485208     
   6046.8740575064148        8.1208199344473542E-004   1125.0008091488758     
   5999.9993661610170        6.4081955997608020E-004   1125.0008767735744     
   5976.5589200087379        3.0862549472203682E-003   1170.4109058483155     
   5932.6140086680325        2.7909126961276343E-003   1170.4108062052621     
   5888.6690811716899        2.4794200471660588E-003   1170.4107266127846     
   5844.7241396873142        2.1590026292415132E-003   1170.4106692139242     
   5800.7791863825551        1.8368857845416642E-003   1170.4106361515007     
   5756.8342234252696        1.5202954061805940E-003   1170.4106295686377     
   5712.8892529829991        1.2164569714059326E-003   1170.4106516081927     
   5668.9442772233351        9.3259617278818041E-004   1170.4107044130576     
   5624.9992983141210        6.7593833205137344E-004   1170.4107901263224     
   5578.1212305228883        3.0165715722887398E-003   1212.8909110431330     
   5537.1060069844989        2.7336718549122452E-003   1212.8908437006210     
   5496.0907772445198        2.4566783320096874E-003   1212.8907969229215     
   5455.0755401434626        2.1817263768753037E-003   1212.8907712005457     
   5414.0602945221672        1.9049517118219228E-003   1212.8907670240662     
   5373.0450392211096        1.6224897351548861E-003   1212.8907848841450     
   5332.0297730811426        1.3304760855135100E-003   1212.8908252714177     
   5291.0144949427640        1.0250463453758130E-003   1212.8908886763006     
   5249.9992036468439        7.0233587052825897E-004   1212.8909755896407     
   5179.6836198032379        2.9318423326003540E-003   1252.4412329731335     
   5141.5980857333880        2.6627386898780969E-003   1252.4412047572241     
   5103.5125499237429        2.4158796882147726E-003   1252.4411937357779     
   5065.4270087423702        2.1791588997075451E-003   1252.4411991466320     
   5027.3414585573801        1.9404699908136536E-003   1252.4412202275348     
   4989.2558957368810        1.6877066357210424E-003   1252.4412562162220     
   4951.1703166491252        1.4087625670526904E-003   1252.4413063505206     
   4913.0847176619236        1.0915316868249647E-003   1252.4413698681653     
   4874.9990951437321        7.2390766695207276E-004   1252.4414460070009     
   4781.2460848963783        2.8311808766829927E-003   1289.0618730818551     
   4746.0902399582274        2.5766264868707367E-003   1289.0618887544035     
   4710.9343933914324        2.3552791358270042E-003   1289.0619153636974     
   4675.7785399459117        2.1496387371371384E-003   1289.0619512942417     
   4640.6226743717698        1.9422056029725354E-003   1289.0619949304460     
   4605.4667914191014        1.7154798952105921E-003   1289.0620446569358     
   4570.3108858379010        1.4519617736823420E-003   1289.0620988581034     
   4535.1549523781741        1.1341515198637353E-003   1289.0621559183851     
   4499.9989857901473        7.4454910054555512E-004   1289.0622142225434     
   4382.8086228490611        2.7137016504639178E-003   1322.7528328128037     
   4350.5824647026629        2.4738482650263904E-003   1322.7528950717117     
   4318.3563018294772        2.2731309304617753E-003   1322.7529601189312     
   4286.1301282161057        2.0915045954552625E-003   1322.7530258852360     
   4253.9039378488596        1.9089238744527393E-003   1322.7530903014760     
   4221.6777247142654        1.7053438052698766E-003   1322.7531512982557     
   4189.4514827987941        1.4607191615141346E-003   1322.7532068064888     
   4157.2252060887595        1.1550047433956934E-003   1322.7532547567803     
   4124.9988885708417        7.6815564148091653E-004   1322.7532930799589     
   3984.3712307078622        2.5785183261177735E-003   1353.5141136095303     
   3955.0747550101423        2.3529170541678468E-003   1353.5142230885253     
   3925.7782694200005        2.1676898832083680E-003   1353.5143263137088     
   3896.4817680148535        2.0030947514442232E-003   1353.5144211617423     
   3867.1852448721334        1.8393896657471487E-003   1353.5145055091709     
   3837.8886940689417        1.6568320158967254E-003   1353.5145772324233     
   3808.5921096828938        1.4356799053985014E-003   1353.5146342082214     
   3779.2954857909190        1.1561907695067930E-003   1353.5146743127070     
   3749.9988164708002        7.9862297593535914E-004   1353.5146954230142     
   3585.9339055194746        2.4247451228802674E-003   1381.3457169155699     
   3559.5671059242459        2.2123457879388297E-003   1381.3458721843785     
   3533.2002903449684        2.0372105495880533E-003   1381.3460122604542     
   3506.8334538043619        1.8827484695975727E-003   1381.3461353657501     
   3480.4665913250424        1.7323680497156602E-003   1381.3462397221201     
   3454.0996979298561        1.5694788717155461E-003   1381.3463235515117     
   3427.7327686413587        1.3774896397080738E-003   1381.3463850756318     
   3401.3657984820697        1.1398089807244105E-003   1381.3464225163209     
   3374.9987824750797        8.3984645880263997E-004   1381.3464340957107     
   3187.4966443304934        2.2514958156989451E-003   1406.2476441744413     
   3164.0595124885372        2.0506476842001575E-003   1406.2478417386799     
   3140.6223587863033        1.8799474892148282E-003   1406.2480162713723     
   3117.1851800463287        1.7288034921421058E-003   1406.2481667391990     
   3093.7479730911809        1.5866241977846585E-003   1406.2482921089972     
   3070.3107347433051        1.4428179640617600E-003   1406.2483913473930     
   3046.8734618252115        1.2867931592381865E-003   1406.2484634211730     
   3023.4361511594070        1.1079582016009226E-003   1406.2485072971037     
   2999.9987995684869        8.9572149749983510E-004   1406.2485219417845     
   4501.4763375802959       -2.3554594174368049        1407.8122243546047     
   4477.8508446363630       -2.0688894690561028        1407.5885041070449     
   4454.2392693329948       -1.8134188984824959        1407.3914550708087     
   4430.6423874839920       -1.5864616596261385        1407.2196633287044     
   4407.0609749032992       -1.3854317061682195        1407.0717149638540     
   4383.4958074047781       -1.2077429918676899        1406.9461960592448     
   4359.9476608022460       -1.0508094705066924        1406.8416926978100     
   4336.4173109095354      -0.91204509595831951        1406.7567909625179     
   4312.9055335406110      -0.78886382188056814        1406.6900769364295     
   3938.8903731624509       -1.9807152452506216        1430.0058452934072     
   3918.2014927401297       -1.7763290809216414        1429.7596142325692     
   3897.5282014671097       -1.5856779997268404        1429.5410135920099     
   3876.8705551298071       -1.4085760477596523        1429.3487336056041     
   3856.2286095141499       -1.2448372718117753        1429.1814645070967     
   3835.6024204060991       -1.0942757185221126        1429.0378965301129     
   3814.9920435917338      -0.95670543427900157        1428.9167199083877     
   3794.3975348570257      -0.83194046572657498        1428.8166248756111     
   3773.8189499880727      -0.71979485957581346        1428.7363016655645     
   3376.2668892839365       -1.6317236000140838        1449.2231151429419     
   3358.5196915750912       -1.4961743589315120        1448.9621516983091     
   3340.7888592450372       -1.3608226350838777        1448.7289761704253     
   3323.0739060667470       -1.2272891856050592        1448.5223690570624     
   3305.3743458129002       -1.0971947678847300        1448.3411108558187     
   3287.6896922563242      -0.97216013938077595        1448.1839820643927     
   3270.0194591698441      -0.85380605727186776        1448.0497631804731     
   3252.3631603262011      -0.74375327901884702        1447.9372347016820     
   3234.7203094982706      -0.64362256183039790        1447.8451771257546     
   2813.6105631350688       -1.3070813248037894        1465.4693357756605     
   2798.8099509638773       -1.2270723563706269        1465.1999460176339     
   2784.0255454446360       -1.1375619715363428        1464.9579076437053     
   2769.2564963517652       -1.0413842561628144        1464.7420775287458     
   2754.5019534593030      -0.94137329652937751        1464.5513125476248     
   2739.7610665414159      -0.84036317864627108        1464.3844695752045     
   2725.0329853722719      -0.74118798879908354        1464.2404054863991     
   2710.3168597260428      -0.64668181297679439        1464.1179771560016     
   2695.6118393769289      -0.55967873723943740        1464.0160414589984     
   2250.9260719062281       -1.0053852623790362        1478.7498090639685     
   2239.0767807288480      -0.96767012641930705        1478.4768267037703     
   2227.2425628439764      -0.91460517554389753        1478.2303728493930     
   2215.4223820421239      -0.84964444227318836        1478.0093668664858     
   2203.6152021132357      -0.77624195962266640        1477.8127281201726     
   2191.8199868474198      -0.69785176058132947        1477.6393759757718     
   2180.0357000348195      -0.61792787801914528        1477.4882297986076     
   2168.2613054655935      -0.53992434477663664        1477.3582089539771     
   2156.4957669298865      -0.46729519383052320        1477.2482328072790     
   1688.2180927878694      -0.72523225565828398        1489.0698368804117     
   1679.3246906923625      -0.71661472260814207        1488.7966232697320     
   1670.4442142211899      -0.69066141368591616        1488.5489366253385     
   1661.5756191950245      -0.65085292670653416        1488.3257449161310     
   1652.7178614345094      -0.60066985932201078        1488.1260161110847     
   1643.8698967603207      -0.54359280935511833        1487.9487181792090     
   1635.0306809931562      -0.48310237430905545        1487.7928190894868     
   1626.1991699538039      -0.42267915203331086        1487.6572868109454     
   1617.3743194628603      -0.36580373999368021        1487.5410893124570     
   1125.4913029703976      -0.46521914749837379        1496.4347210975500     
   1119.5581906771852      -0.47255319771733184        1496.1631652291433     
   1113.6348023542696      -0.46443985253932851        1495.9161638090939     
   1107.7202638675608      -0.44379289240913522        1495.6927195234791     
   1101.8137010828914      -0.41352609772809501        1495.4918350579985     
   1095.9142398661145      -0.37655324915664323        1495.3125130987328     
   1090.0210060830600      -0.33578812705144401        1495.1537563314764     
   1084.1331255996504      -0.29414451181941104        1495.0145674421242     
   1078.2497242817269      -0.25453618398955768        1494.8939491166261     
   562.75037964428122      -0.22394278078485286        1500.8497635878348     
   559.78179050555707      -0.23413260527891566        1500.5802820948893     
   556.81863002119997      -0.23464965876124211        1500.3346192383435     
   553.86037211686767      -0.22724752218132949        1500.1117985342023     
   550.90649071817234      -0.21367977694859519        1499.9108434985633     
   547.95645975077821      -0.19570000420949896        1499.7307776474624     
   545.00975314021480      -0.17506178535100503        1499.5706244968871     
   542.06584481220909      -0.15351870143624069        1499.4294075629837     
   539.12420869225809      -0.13282433400775062        1499.3061503616618     
  -1.2286631762370072E-010   1.6021488576499610E-009   1502.3202662237986     
  -5.3055909882961646E-011   1.3054546247518201E-009   1502.0518033803285     
   9.3545946372590300E-011   1.1906165040183043E-009   1501.8068677507697     
   1.7836559177758821E-010   1.1239475646258985E-009   1501.5844897942675     
   2.5742587854397519E-010   1.1651357051929345E-009   1501.3836999703683     
   3.2898154647823270E-010   1.2858640790795750E-009   1501.2035287385688     
   3.7510004709195845E-010   1.4323132250681942E-009   1501.0430065581829     
   3.2560010485329067E-010   1.5642712575125052E-009   1500.9011638886882     
   2.5358630611823459E-010   1.6579099208328763E-009   1500.7770311895783     
   4312.9055335406110      -0.78886382188056814        1406.6900769364295     
   4289.4054373735125      -0.68107991582746763        1406.6343107384089     
   4265.9099989900833      -0.58894796610729827        1406.5831747082198     
   4242.4197960598030      -0.51054240773532911        1406.5366382602335     
   4218.9354062521506      -0.44393767568794829        1406.4946708088075     
   4195.4574072367022      -0.38720820494154395        1406.4572417683673     
   4171.9863766829139      -0.33842843054662808        1406.4243205532907     
   4148.5228922602946      -0.29567278740091751        1406.3958765779305     
   4125.0675316383422      -0.25701571058266381        1406.3718792566672     
   3773.8189499880727      -0.71979485957581346        1428.7363016655645     
   3753.2505814422252      -0.62157438652548080        1428.6686606562821     
   3732.6870345656789      -0.53754185479056105        1428.6073667874077     
   3712.1288344779955      -0.46594686581829592        1428.5522421350402     
   3691.5765062985706      -0.40503902166415173        1428.5031087752564     
   3671.0305751468022      -0.35306792421420141        1428.4597887840489     
   3650.4915661422901      -0.30828317497525859        1428.4221042375398     
   3629.9600044044782      -0.26893437571220602        1428.3898772117873     
   3609.4364150527181      -0.23327112860420129        1428.3629297828465     
   3234.7203094982706      -0.64362256183039790        1447.8451771257546     
   3217.0861950132376      -0.55582041148750250        1447.7669785947733     
   3199.4567406516139      -0.48063515603666929        1447.6966365076230     
   3181.8324133659180      -0.41651028675119051        1447.6338452470509     
   3164.2136801090164      -0.36188929457239283        1447.5782991960712     
   3146.6010078334643      -0.31521567055415289        1447.5296927374688     
   3128.9948634919915      -0.27493290590837205        1447.4877202540986     
   3111.3957140372268      -0.23948449183603771        1447.4520761288372     
   3093.8040264217821      -0.20731391942365462        1447.4224547445262     
   2695.6118393769289      -0.55967873723943740        1464.0160414589984     
   2680.9140685153220      -0.48328086218623412        1463.9286846878902     
   2666.2205269283590      -0.41780496607952955        1463.8504794418905     
   2651.5316177850850      -0.36190715202849333        1463.7810120556894     
   2636.8477442546855      -0.31424352275371348        1463.7198688641413     
   2622.1693095063156      -0.27347018126431522        1463.6666362019853     
   2607.4967167090022      -0.23824323053281660        1463.6209004039140     
   2592.8303690318426      -0.20721877374421638        1463.5822478047605     
   2578.1706696440447      -0.17905291344322904        1463.5502647392675     
   2156.4957669298865      -0.46729519383052320        1477.2482328072790     
   2144.7359923772974      -0.40341860991748035        1477.1531990696449     
   2132.9798030767283      -0.34862838053277301        1477.0683911634487     
   2121.2275327969169      -0.30181194314366167        1476.9933070203824     
   2109.4795153067153      -0.26185673499355744        1476.9274445722813     
   2097.7360843749170      -0.22765019343705717        1476.8703017508976     
   2085.9975737703194      -0.19807975575076853        1476.8213764879990     
   2074.2643172617254      -0.17203285925290857        1476.7801667153124     
   2062.5366486179628      -0.14839694127374514        1476.7461703646700     
   1617.3743194628603      -0.36580373999368021        1487.5410893124570     
   1608.5537570279726      -0.31569652601808684        1487.4399418740300     
   1599.7359787773978      -0.27268249517851473        1487.3498672454407     
   1590.9212434629226      -0.23589914167610004        1487.2702946005743     
   1582.1098098361176      -0.20448396010624492        1487.2006531133147     
   1573.3019366489691      -0.17757444410131029        1487.1403719575840     
   1564.4978826530491      -0.15430808824135056        1487.0888803071953     
   1555.6979066001757      -0.13382238652661727        1487.0456073361727     
   1546.9022672420413      -0.11525483330979114        1487.0099822182503     
   1078.2497242817269      -0.25453618398955768        1494.8939491166261     
   1072.3691528961624      -0.21957748181978332        1494.7883332350718     
   1066.4904637110501      -0.18954440585963539        1494.6944032610681     
   1060.6138348444140      -0.16384322948920271        1494.6115392556706     
   1054.7394444140846      -0.14188022655895338        1494.5391212800848     
   1048.8674705380697      -0.12306167044255290        1494.4765293953649     
   1042.9980913342472      -0.10679383486615279        1494.4231436626339     
   1037.1314849205169       -9.2482993549936054E-002   1494.3783441430514     
   1031.2678294148159       -7.9535419875696789E-002   1494.3415108976576     
   539.12420869225809      -0.13282433400775062        1499.3061503616618     
   536.18397041062576      -0.11452434877216433        1499.1977932867546     
   533.24466755838444       -9.8791208294557009E-002   1499.1014947834376     
   530.30639200295377       -8.5318687901946078E-002   1499.0166054451586     
   527.36923561172591       -7.3800563020540721E-002   1498.9424758654166     
   524.43329025191213       -6.3930609527517390E-002   1498.8784566376264     
   521.49864779094014       -5.5402602685745705E-002   1498.8238983552244     
   518.56540009610626       -4.7910318169840593E-002   1498.7781516116713     
   515.63363903473737       -4.1147531580548957E-002   1498.7405670004432     
   2.5358630611823459E-010   1.6579099208328763E-009   1500.7770311895783     
   1.6737045255842181E-010   1.7146308771222268E-009   1500.6677421630609     
   1.2548420791397845E-010   1.7338287392509300E-009   1500.5706373857427     
   6.3963786092452122E-011   1.6955202780031994E-009   1500.4850576284762     
   4.2191665178309131E-011   1.6401518983638257E-009   1500.4103436621224     
   8.5823170016271032E-011   1.6006326628568419E-009   1500.3458362576466     
   1.2685860031637423E-010   1.4560105861333123E-009   1500.2908761858957     
   2.1848407873383110E-010   1.3695520323278383E-009   1500.2448042177477     
   3.3823142550388066E-010   1.2544930271010805E-009   1500.2069611241257     
   4125.0675316383422      -0.25701571058266381        1406.3718792566672     
   4101.6168196316266      -0.22198158748165042        1406.3513291304857     
   4078.1669723567825      -0.19112379854277606        1406.3331669721433     
   4054.7181044364334      -0.16406026840945742        1406.3172725437339     
   4031.2703304932238      -0.14040892154321227        1406.3035256073485     
   4007.8237651497134      -0.11978768269500506        1406.2918059250808     
   3984.3785230286471      -0.10181447627792295        1406.2819932590892     
   3960.9347187525204       -8.6107227091360983E-002   1406.2739673714186     
   3937.4924669440306       -7.2283859554545415E-002   1406.2676080241633     
   3609.4364150527181      -0.23327112860420129        1428.3629297828465     
   3588.9172627248417      -0.20097059339150292        1428.3398847927863     
   3568.3987359085527      -0.17263043029811342        1428.3194078601775     
   3547.8809454983634      -0.14788099094130303        1428.3013852260183     
   3527.3640023886837      -0.12635262725893881        1428.2857031311817     
   3506.8480174739275      -0.10767569121640008        1428.2722478165797     
   3486.3331016486454       -9.1480534355468990E-002   1428.2609055231569     
   3465.8193658072087       -7.7397508789317726E-002   1428.2515624918506     
   3445.3069208440943       -6.5056966116117110E-002   1428.2441049635306     
   3093.8040264217821      -0.20731391942365462        1447.4224547445262     
   3076.2164050108036      -0.17820687895959963        1447.3971467056092     
   3058.6292122928171      -0.15275531618397054        1447.3745742652418     
   3041.0425524055145      -0.13061210527803269        1447.3546292792435     
   3023.4565294867421      -0.11143011999331520        1447.3372036035514     
   3005.8712476743603       -9.4862234219817765E-002   1447.3221890941309     
   2988.2868111061894       -8.0561322074686359E-002   1447.3094776068228     
   2970.7033239200473       -6.8180257421545321E-002   1447.2989609975684     
   2953.1208902536650       -5.7371914319901407E-002   1447.2905311222175     
   2578.1706696440447      -0.17905291344322904        1463.5502647392675     
   2563.5145332435868      -0.15360441799873570        1463.5229565453740     
   2548.8586686508602      -0.13141831425502914        1463.4985354091755     
   2534.2031702185809      -0.11218009323579281        1463.4768979377106     
   2519.5481322994410       -9.5575245832947076E-002   1463.4579407380604     
   2504.8936492461366       -8.1289263192275030E-002   1463.4415604172336     
   2490.2398154114135       -6.9007636119977178E-002   1463.4276535822553     
   2475.5867251478612       -5.8415855956354790E-002   1463.4161168402075     
   2460.9344728082929       -4.9199413356973309E-002   1463.4068467981231     
   2062.5366486179628      -0.14839694127374514        1476.7461703646700     
   2050.8119341771294      -0.12707718449928507        1476.7171559884353     
   2039.0873721242237      -0.10853928195422213        1476.6911605140524     
   2027.3630439983881       -9.2511436594577390E-002   1476.6680844358177     
   2015.6390313386630       -7.8721851493014583E-002   1476.6478282480841     
   2003.9154156842137       -6.6898729552349323E-002   1476.6302924452334     
   1992.1922785741306       -5.6770273783854464E-002   1476.6153775216019     
   1980.4697015474894       -4.8064687211876844E-002   1476.6029839714572     
   1968.7477661434320       -4.0510172690915169E-002   1476.5930122891930     
   1546.9022672420413      -0.11525483330979114        1487.0099822182503     
   1538.1088945655501       -9.8539152007219855E-002   1486.9795867111807     
   1529.3155898543769       -8.4038076816852936E-002   1486.9523188017677     
   1520.5224188056977       -7.1532617104594465E-002   1486.9280820078136     
   1511.7294471163743       -6.0803783327855854E-002   1486.9067798471806     
   1502.9367404835923       -5.1632584948833937E-002   1486.8883158376077     
   1494.1443646043158       -4.3800032065348660E-002   1486.8725934968995     
   1485.3523851756713       -3.7087134248110942E-002   1486.8595163428697     
   1476.5608678945584       -3.1274901750180106E-002   1486.8489878932444     
   1031.2678294148159       -7.9535419875696789E-002   1494.3415108976576     
   1025.4057011628872       -6.7904294355344064E-002   1494.3100903899910     
   1019.5435889828499       -5.7834556107877688E-002   1494.2818794943853     
   1013.6815397012577       -4.9170116609502657E-002   1494.2567838881637     
   1007.8196001446039       -4.1754887568458798E-002   1494.2347092488592     
   1001.9578171393294       -3.5432780800476849E-002   1494.2155612537799     
   996.09623751206186       -3.0047707629762499E-002   1494.1992455804127     
   990.23490808916040       -2.5443580150579237E-002   1494.1856679061004     
   984.37387569722000       -2.1464309694181338E-002   1494.1747339082431     
   515.63363903473737       -4.1147531580548957E-002   1498.7405670004432     
   512.70264072315911       -3.5086585394253689E-002   1498.7085087012549     
   509.77163665104086       -2.9848577680326116E-002   1498.6797118137893     
   506.84065174590086       -2.5350416715639312E-002   1498.6540833111853     
   503.90971093522319       -2.1509010854231292E-002   1498.6315301665527     
   500.97883914647730       -1.8241268521251186E-002   1498.6119593532053     
   498.04806130718953       -1.5464097959664969E-002   1498.5952778442243     
   495.11740234484347       -1.3094407652658901E-002   1498.5813926128033     
   492.18688718691755       -1.1049105852066532E-002   1498.5702106321087     
   3.3823142550388066E-010   1.2544930271010805E-009   1500.2069611241257     
   4.2566896119915630E-010   1.0933182482296492E-009   1500.1746833213735     
   4.4861913274392425E-010   9.2232638076967663E-010   1500.1456849820113     
   3.6938431995818543E-010   7.1909083123445004E-010   1500.1198735111373     
   2.3417028646534152E-010   5.2050203696446646E-010   1500.0971563138328     
   3.6432306539698098E-012   3.0562778351371362E-010   1500.0774407952340     
  -2.5112112609488971E-010   2.1758486068881124E-010   1500.0606343604434     
  -5.7104368138114055E-010   1.5433963094165929E-010   1500.0466444145670     
  -9.3179441731951439E-010   1.6833034566485703E-010   1500.0353783626977     
   3937.4924669440306       -7.2283859554545415E-002   1406.2676080241633     
   3914.0512452407947       -6.0183441712524655E-002   1406.2623651548963     
   3890.6104916568829       -4.9777119965710881E-002   1406.2577621940179     
   3867.1702613796424       -4.0880936663825196E-002   1406.2537891429902     
   3843.7306095962736       -3.3310934278688364E-002   1406.2504360032351     
   3820.2915914941004       -2.6883155095674738E-002   1406.2476927761395     
   3796.8532622604662       -2.1413641477465717E-002   1406.2455494632509     
   3773.4156770826221       -1.6718435810844312E-002   1406.2439960659460     
   3749.9788911478649       -1.2613580411425573E-002   1406.2430225856504     
   3445.3069208440943       -6.5056966116117110E-002   1428.2441049635306     
   3424.7953835567937       -5.4268698520900216E-002   1428.2379506334282     
   3404.2843295853063       -4.4979689628007691E-002   1428.2325777122369     
   3383.7738080878912       -3.7026078591225087E-002   1428.2279632143020     
   3363.2638682226370       -3.0244005101849325E-002   1428.2240841538805     
   3342.7545591477110       -2.4469608518984387E-002   1428.2209175451919     
   3322.2459300213941       -1.9539028084864185E-002   1428.2184404026418     
   3301.7380300018640       -1.5288403138129070E-002   1428.2166297404526     
   3281.2309082472302       -1.1553873210687016E-002   1428.2154625728913     
   2953.1208902536650       -5.7371914319901407E-002   1447.2905311222175     
   2935.5392375446941       -4.7933145529327703E-002   1447.2835724710017     
   2917.9580523927093       -3.9796930901729866E-002   1447.2775188027065     
   2900.3773776783078       -3.2820334897223802E-002   1447.2723358760045     
   2882.7972562822183       -2.6860421632704856E-002   1447.2679894496628     
   2865.2177310852403       -2.1774255242462459E-002   1447.2644452825109     
   2847.6388449680480       -1.7418900336679144E-002   1447.2616691332237     
   2830.0606408113867       -1.3651421004851727E-002   1447.2596267606161     
   2812.4831614958703       -1.0328881689133596E-002   1447.2582839233353     
   2460.9344728082929       -4.9199413356973309E-002   1463.4068467981231     
   2446.2828716583704       -4.1157446787792651E-002   1463.3991954003338     
   2431.6316962986475       -3.4217978410765681E-002   1463.3925543430028     
   2416.9809830838967       -2.8259825665145399E-002   1463.3868798609585     
   2402.3307683690368       -2.3161805410381930E-002   1463.3821281890901     
   2387.6810885089817       -1.8802734717155545E-002   1463.3782555621731     
   2373.0319798585306       -1.5061430836681211E-002   1463.3752182150522     
   2358.3834787725191       -1.1816711031542582E-002   1463.3729723825631     
   2343.7356216058688       -8.9473921964327019E-003   1463.3714742995721     
   1968.7477661434320       -4.0510172690915169E-002   1476.5930122891930     
   1957.0263503516517       -3.3922266093554754E-002   1476.5847841540992     
   1945.3052975228727       -2.8231966279463450E-002   1476.5776532108966     
   1933.5846372377871       -2.3340671092000775E-002   1476.5715679021778     
   1921.8643990770017       -1.9149778330302070E-002   1476.5664766704247     
   1910.1446126210967       -1.5560686179924232E-002   1476.5623279582076     
   1898.4253074507990       -1.2474792251168765E-002   1476.5590702080922     
   1886.7065131466597       -9.7934946112445687E-003   1476.5566518625651     
   1874.9882592893568       -7.4181910058541689E-003   1476.5550213641525     
   1476.5608678945584       -3.1274901750180106E-002   1486.8489878932444     
   1467.7697380784284       -2.6208267248364336E-002   1486.8403034649318     
   1458.9788922852656       -2.1828028174923020E-002   1486.8327842840356     
   1450.1883530731170       -1.8058990992642521E-002   1486.8263727324747     
   1441.3981429999562       -1.4825962456257002E-002   1486.8210111920855     
   1432.6082846238858       -1.2053748953974264E-002   1486.8166420447840     
   1423.8188005028883       -9.6671572071045375E-003   1486.8132076723484     
   1415.0297131950599       -7.5909935520712679E-003   1486.8106504566756     
   1406.2410452583454       -5.7500647462234156E-003   1486.8089127796284     
   984.37387569722000       -2.1464309694181338E-002   1494.1747339082431     
   978.51309929266267       -1.7996113870196950E-002   1494.1657180655370     
   972.65251680551842       -1.4995298235987775E-002   1494.1579164401537     
   966.79214352294241       -1.2410905612796341E-002   1494.1512670848849     
   960.93199473197694       -1.0191979170940613E-002   1494.1457080525370     
   955.07208571959404       -8.2875623414793154E-003   1494.1411773959258     
   949.21243177297049       -6.6466979228607670E-003   1494.1376131678662     
   943.35304817905933       -5.2184293755317412E-003   1494.1349534211549     
   937.49395022502540       -3.9517994450193328E-003   1494.1331362085768     
   492.18688718691755       -1.1049105852066532E-002   1498.5702106321087     
   489.25649844810937       -9.2664701668070393E-003   1498.5609926886145     
   486.32620730335594       -7.7229106684910676E-003   1498.5530185568762     
   483.39602152039419       -6.3925349001578979E-003   1498.5462236922513     
   480.46594886686182       -5.2494507008020719E-003   1498.5405435500809     
   477.53599711042386       -4.2677658486240944E-003   1498.5359135857830     
   474.60617401897014       -3.4215873806431318E-003   1498.5322692546913     
   471.67648736004901       -2.6850235677784440E-003   1498.5295460121758     
   468.74694490139802       -2.0321817732167347E-003   1498.5276793135672     
  -9.3179441731951439E-010   1.6833034566485703E-010   1500.0353783626977     
  -1.2737781522394597E-009   2.1820115569464742E-010   1500.0260920668675     
  -1.4271865232497336E-009   5.3269704256667690E-010   1500.0180595119402     
  -1.4981749816210979E-009   8.4333154126054659E-010   1500.0112152875497     
  -1.4312006216948261E-009   1.2267215742717177E-009   1500.0054939831966     
  -1.3116066669339724E-009   1.5175037382643148E-009   1500.0008301883984     
  -1.0824049180820538E-009   1.7974434733046783E-009   1499.9971584927623     
  -7.7506664323023957E-010   1.9965435742719819E-009   1499.9944134858197     
  -4.1572097809610104E-010   1.9971012394431923E-009   1499.9925297570981     
   3749.9788911478649       -1.2613580411425573E-002   1406.2430225856504     
   3726.5424647609607       -9.0802691111093736E-003   1406.2424196559982     
   3703.1059362222463       -6.1730438767426676E-003   1406.2419783168079     
   3679.6693277124582       -3.8179689081516699E-003   1406.2416891788077     
   3656.2326614121748       -1.9411088915148866E-003   1406.2415428526692     
   3632.7959595020784       -4.6852820514686755E-004   1406.2415299491822     
   3609.3592441629071        6.7370876922723255E-004   1406.2416410790288     
   3585.9225375752562        1.5595375371049158E-003   1406.2418668529672     
   3562.4858619198335        2.2628936865203286E-003   1406.2421978817215     
   3281.2309082472302       -1.1553873210687016E-002   1428.2154625728913     
   3260.7241313937993       -8.3310351978980179E-003   1428.2147009087514     
   3240.2172466919355       -5.6801056618951407E-003   1428.2141170563243     
   3219.7102742210423       -3.5341532970960543E-003   1428.2137034792356     
   3199.2032340602764       -1.8262475005030865E-003   1428.2134526409725     
   3178.6961462890567       -4.8945690491564164E-004   1428.2133570052067     
   3158.1890309867567        5.4314969861479767E-004   1428.2134090354384     
   3137.6819082326533        1.3385031611505838E-003   1428.2136011952575     
   3117.1747981060016        1.9635345656752179E-003   1428.2139259482274     
   2812.4831614958703       -1.0328881689133596E-002   1447.2582839233353     
   2794.9059995370499       -7.4561427387607182E-003   1447.2573777149430     
   2777.3287307207534       -5.0938304358396636E-003   1447.2566641026767     
   2759.7513728330950       -3.1826574960405196E-003   1447.2561371558825     
   2742.1739436603339       -1.6633363022720005E-003   1447.2557909438908     
   2724.5964609886655       -4.7657962147695798E-004   1447.2556195361519     
   2707.0189426043289        4.3689978735983459E-004   1447.2556170020105     
   2689.4414062935321        1.1363893750058196E-003   1447.2557774108409     
   2671.8638698423729        1.6811763319992679E-003   1447.2560948319997     
   2343.7356216058688       -8.9473921964327019E-003   1463.3714742995721     
   2329.0880434743376       -6.4633070084028077E-003   1463.3704398868113     
   2314.4403654579146       -4.4210738902847879E-003   1463.3696111938714     
   2299.7926028579773       -2.7696883391854499E-003   1463.3689836488595     
   2285.1447709757067       -1.4581462794467370E-003   1463.3685526799418     
   2270.4968851124877       -4.3544324842059723E-004   1463.3683137152545     
   2255.8489605696668        3.4942530680837081E-004   1463.3682621829066     
   2241.2010126484001        9.4746322690753004E-004   1463.3683935110234     
   2226.5530566500738        1.4096751712031619E-003   1463.3687031277543     
   1874.9882592893568       -7.4181910058541689E-003   1476.5550213641525     
   1863.2702374893258       -5.3602427102532602E-003   1476.5538772364835     
   1851.5521280529613       -3.6686908892988868E-003   1476.5529500679831     
   1839.8339436049278       -2.3014534688172716E-003   1476.5522363984442     
   1828.1156967697514       -1.2164485389121182E-003   1476.5517327677192     
   1816.3974001720931       -3.7159402177167067E-004   1476.5514357157181     
   1804.6790664365676        2.7519213176674384E-004   1476.5513417822231     
   1792.9607081877709        7.6599196097504318E-004   1476.5514475070781     
   1781.2423380503060        1.1428875056935794E-003   1476.5517494301521     
   1406.2410452583454       -5.7500647462234156E-003   1486.8089127796284     
   1397.4525558656692       -4.1546648579924295E-003   1486.8076795761917     
   1388.6639956552583       -2.8435368160444341E-003   1486.8066724630660     
   1379.8753743833047       -1.7841599176335876E-003   1486.8058888447999     
   1371.0867018058145       -9.4401412712841193E-004   1486.8053261258440     
   1362.2979876790835       -2.9057856266945237E-004   1486.8049817107687     
   1353.5092417591266        2.0866685758846870E-004   1486.8048530040553     
   1344.7204738021537        5.8624282627306457E-004   1486.8049374102541     
   1335.9316935642191        8.7466963600490999E-004   1486.8052323337699     
   937.49395022502540       -3.9517994450193328E-003   1494.1331362085768     
   931.63497288714234       -2.8542880839381723E-003   1494.1318367181188     
   925.77594541427618       -1.9524665520407325E-003   1494.1307701172605     
   919.91687450242375       -1.2240148777209470E-003   1494.1299344281526     
   914.05776684739158       -6.4661368713814227E-004   1494.1293276729268     
   908.19862914503074       -1.9794345456602969E-004   1494.1289478736767     
   902.33946809129066        1.4431556633098808E-004   1494.1287930526305     
   896.48029038200798        4.0248288735256210E-004   1494.1288612318106     
   890.62110271303106        5.9887802268576706E-004   1494.1291504333692     
   468.74694490139802       -2.0321817732167347E-003   1498.5276793135672     
   465.81746283725812       -1.4668277635507820E-003   1498.5263384744353     
   462.88795447941658       -1.0023353974872862E-003   1498.5252347685921     
   459.95842327165246       -6.2722541082393946E-004   1498.5243665887087     
   457.02887265770613       -3.3001864164816652E-004   1498.5237323274873     
   454.09930608157606       -9.9235072809733538E-005   1498.5233303776915     
   451.16972698697543        7.6604317513329079E-005   1498.5231591319668     
   448.24013881783412        2.0897922848917005E-004   1498.5232169830674     
   445.31054501794642        3.0936911852563753E-004   1498.5235023236457     
  -4.1572097809610104E-010   1.9971012394431923E-009   1499.9925297570981     
  -8.4819645404997961E-011   1.8613199963874547E-009   1499.9911746573241     
   9.3371420353238461E-011   1.3700292519120036E-009   1499.9900581551144     
   2.1697947355918452E-010   9.5686071684892354E-010   1499.9891787666547     
   2.5131746786666053E-010   3.8112119475959719E-010   1499.9885350081881     
   2.1390345246810824E-010  -1.7107913046964859E-010   1499.9881253959559     
   1.5779333724648924E-010  -6.3240593899762925E-010   1499.9879484462069     
   7.3849048907302905E-011  -1.0030446647199062E-009   1499.9880026751628     
  -6.9810407740735403E-013  -1.1881731397473786E-009   1499.9882865991481     
   3562.4858619198335        2.2628936865203286E-003   1406.2421978817215     
   3539.0491988708955        2.8358909933103860E-003   1406.2425762058522     
   3515.6125173513465        3.2881386694043613E-003   1406.2429515732897     
   3492.1758204149337        3.6298157954206545E-003   1406.2433261555495     
   3468.7391111151314        3.8711007357505878E-003   1406.2437021241678     
   3445.3023925055936        4.0221723888862471E-003   1406.2440816506437     
   3421.8656676400574        4.0932095944299363E-003   1406.2444669066774     
   3398.4289395720248        4.0943908850294974E-003   1406.2448600637063     
   3374.9922113551288        4.0358950750487566E-003   1406.2452632932841     
   3117.1747981060016        1.9635345656752179E-003   1428.2139259482274     
   3096.6676948974828        2.4687744854645643E-003   1428.2143161190086     
   3076.1605814726508        2.8666699536188389E-003   1428.2147102952572     
   3055.6534607733452        3.1670271386019522E-003   1428.2151095850256     
   3035.1463357412713        3.3796517210475940E-003   1428.2155150963022     
   3014.6392093181807        3.5143496020282328E-003   1428.2159279371590     
   2994.1320844459842        3.5809269703577229E-003   1428.2163492156196     
   2973.6249640664223        3.5891897249484828E-003   1428.2167800397028     
   2953.1178511212188        3.5489437326532425E-003   1428.2172215174512     
   2671.8638698423729        1.6811763319992679E-003   1447.2560948319997     
   2654.2863360966398        2.1184657392723238E-003   1447.2564938859723     
   2636.7087978799768        2.4620554016792084E-003   1447.2569032712113     
   2619.1312579450250        2.7211209750248599E-003   1447.2573231739618     
   2601.5537190446544        2.9048388594219432E-003   1447.2577537805425     
   2583.9761839318489        3.0223855154645207E-003   1447.2581952773562     
   2566.3986553593754        3.0829366251055035E-003   1447.2586478506730     
   2548.8211360801110        3.0956685344563084E-003   1447.2591116868157     
   2531.2436288468484        3.0697574360374347E-003   1447.2595869720731     
   2226.5530566500738        1.4096751712031619E-003   1463.3687031277543     
   2211.9051004699172        1.7783651546778856E-003   1463.3691085280002     
   2197.2571434601323        2.0673605191632305E-003   1463.3695298588641     
   2182.6091881074876        2.2849504720170444E-003   1463.3699665267241     
   2167.9612368988383        2.4394246473775638E-003   1463.3704179380220     
   2153.3132923209641        2.5390721608573585E-003   1463.3708834991398     
   2138.6653568607121        2.5921825509840346E-003   1463.3713626164586     
   2124.0174330047794        2.6070448301425131E-003   1463.3718546964126     
   2109.3695232400596        2.5919486296288596E-003   1463.3723591454068     
   1781.2423380503060        1.1428875056935794E-003   1476.5517494301521     
   1769.5239660187158        1.4418729577982958E-003   1476.5521590662988     
   1757.8055951002289        1.6756517295561935E-003   1476.5525894160662     
   1746.0872274384953        1.8513691153430045E-003   1476.5530392478358     
   1734.3688651771631        1.9761708217629348E-003   1476.5535073297672     
   1722.6505104598825        2.0572021896896331E-003   1476.5539924302591     
   1710.9321654303199        2.1016088066971861E-003   1476.5544933175850     
   1699.2138322321009        2.1165361423527429E-003   1476.5550087599593     
   1687.4955130088781        2.1091297306838896E-003   1476.5555375257220     
   1335.9316935642191        8.7466963600490999E-004   1486.8052323337699     
   1327.1429107445765        1.1023897469044641E-003   1486.8056445220302     
   1318.3541296872497        1.2799949877830841E-003   1486.8060813006821     
   1309.5653521156071        1.4132299893390154E-003   1486.8065409416456     
   1300.7765797529960        1.5078392623877335E-003   1486.8070217169593     
   1291.9878143229448        1.5695677820417586E-003   1486.8075218985946     
   1283.1990575486948        1.6041597244793593E-003   1486.8080397585263     
   1274.4103111537133        1.6173599942703731E-003   1486.8085735687323     
   1265.6215768613476        1.6149131631095770E-003   1486.8091216011828     
   890.62110271303106        5.9887802268576706E-004   1494.1291504333692     
   884.76191264911654        7.5331618381824228E-004   1494.1295639164925     
   878.90272410821910        8.7345662933557833E-004   1494.1300048704368     
   873.04353831648575        9.6338649831295697E-004   1494.1304712126341     
   867.18435649992989        1.0271924999756266E-003   1494.1309608606898     
   861.32517988446250        1.0689610552390150E-003   1494.1314717319476     
   855.46600969625922        1.0927793369432948E-003   1494.1320017439878     
   849.60684716122648        1.1027337195628206E-003   1494.1325488142343     
   843.74769350549684        1.1029113592826434E-003   1494.1331108601239     
   445.31054501794642        3.0936911852563753E-004   1498.5235023236457     
   442.38094973371921        3.8805236127359422E-004   1498.5239162708397     
   439.45135525015814        4.4910271913067845E-004   1498.5243594831281     
   436.52176221881984        4.9469204117258414E-004   1498.5248296653042     
   433.59217129118656        5.2699198445793627E-004   1498.5253245220367     
   430.66258311888026        5.4817463052359017E-004   1498.5258417582288     
   427.73299835341624        5.6041167798071001E-004   1498.5263790785223     
   424.80341764639280        5.6587504195704241E-004   1498.5269341878047     
   421.87384164931876        5.6673658579597941E-004   1498.5275047907096     
  -6.9810407740735403E-013  -1.1881731397473786E-009   1499.9882865991481     
   2.7924163096295712E-012  -1.0124254382600679E-009   1499.9887006062709     
   7.7664078611572272E-012  -9.2834752843731537E-010   1499.9891444966070     
   1.3944628946212623E-010  -4.1397571790258245E-010   1499.9896159039376     
   3.1894630036550152E-010   1.3935902645245031E-010   1499.9901124621722     
   4.7763408346116885E-010   6.4317201281639636E-010   1499.9906318050982     
   6.2310152059093390E-010   1.0036555057876376E-009   1499.9911715667108     
   7.6948794629134841E-010   1.3001179463163267E-009   1499.9917293807875     
   8.6739431617868267E-010   1.3401853026028378E-009   1499.9923028812063     
   3374.9922113551288        4.0358950750487566E-003   1406.2452632932841     
   3351.5554521063837        3.9181909407943749E-003   1406.2456558990707     
   3328.1186315640180        3.7438182607729686E-003   1406.2460171435255     
   3304.6817537135225        3.5260617787571391E-003   1406.2463491365718     
   3281.2448225403873        3.2782066316485725E-003   1406.2466539879711     
   3257.8078420299789        3.0135374438486906E-003   1406.2469338075932     
   3234.3708161679156        2.7453394136500719E-003   1406.2471907052820     
   3210.9337489395980        2.4868971624982805E-003   1406.2474267909936     
   3187.4966443304934        2.2514958156989451E-003   1406.2476441744413     
   2953.1178511212188        3.5489437326532425E-003   1428.2172215174512     
   2932.6107151789347        3.4600594370886029E-003   1428.2176523740750     
   2912.1035259089949        3.3227438092353623E-003   1428.2180520072691     
   2891.5962864044577        3.1473070357606048E-003   1428.2184225338528     
   2871.0889997584914        2.9440596794074736E-003   1428.2187660704794     
   2850.5816690642164        2.7233121138579008E-003   1428.2190847339496     
   2830.0742974147852        2.4953748866209935E-003   1428.2193806410189     
   2809.5668879032814        2.2705581927766616E-003   1428.2196559084214     
   2789.0594436228580        2.0591725628946733E-003   1428.2199126529233     
   2531.2436288468484        3.0697574360374347E-003   1447.2595869720731     
   2513.6661050613834        3.0047519715026283E-003   1447.2600515713491     
   2496.0885358325254        2.8992241481091696E-003   1447.2604846404588     
   2478.5109234736096        2.7608853624769836E-003   1447.2608883020628     
   2460.9332702980641        2.5974469359653085E-003   1447.2612646789325     
   2443.3555786193106        2.4166201692423783E-003   1447.2616158938640     
   2425.7778507507019        2.2261162927179612E-003   1447.2619440695428     
   2408.2000890057066        2.0336467526931301E-003   1447.2622513286544     
   2390.6222956976189        1.8469228115236547E-003   1447.2625397940221     
   2109.3695232400596        2.5919486296288596E-003   1463.3723591454068     
   2094.7216019794223        2.5463362153459457E-003   1463.3728527966555     
   2080.0736430752945        2.4677815779341472E-003   1463.3733142976976     
   2065.4256481739699        2.3617725527174116E-003   1463.3737457763011     
   2050.7776189218716        2.2337970306125499E-003   1463.3741493602440     
   2036.1295569650940        2.0893422099561576E-003   1463.3745271772684     
   2021.4814639500839        1.9338959879178219E-003   1463.3748813552786     
   2006.8333415230852        1.7729459790416513E-003   1463.3752140220081     
   1992.1851913302914        1.6119795940312542E-003   1463.3755273052136     
   1687.4955130088781        2.1091297306838896E-003   1476.5555375257220     
   1675.7771861586291        2.0788796369970441E-003   1476.5560553558930     
   1664.0588293778744        2.0229379443890139E-003   1476.5565402338636     
   1652.3404437586762        1.9449447933084230E-003   1476.5569942916486     
   1640.6220303926143        1.8485387878399706E-003   1476.5574196611171     
   1628.9035903715287        1.7373594869241060E-003   1476.5578184741503     
   1617.1851247872755        1.6150462317909842E-003   1476.5581928627626     
   1605.4666347315456        1.4852383195602670E-003   1476.5585449588093     
   1593.7481212961609        1.3515748512418213E-003   1476.5588768942748     
   1265.6215768613476        1.6149131631095770E-003   1486.8091216011828     
   1256.8328378246495        1.5964500207132915E-003   1486.8096585547710     
   1248.0440764811319        1.5592160467008398E-003   1486.8101617036923     
   1239.2552934806513        1.5053776617151016E-003   1486.8106331832053     
   1230.4664894731163        1.4371010776130788E-003   1486.8110751283793     
   1221.6776651083949        1.3565527292485058E-003   1486.8114896743709     
   1212.8888210365174        1.2658991579996837E-003   1486.8118789563291     
   1204.0999579073659        1.1673067721744701E-003   1486.8122451094318     
   1195.3110763709021        1.0629419996348588E-003   1486.8125902688043     
   843.74769350549684        1.1029113592826434E-003   1494.1331108601239     
   837.88853720334191        1.0931154377544772E-003   1494.1336616991314     
   832.02936612561837        1.0711377506140707E-003   1494.1341779619638     
   826.17018059299824        1.0380472294855281E-003   1494.1346617860911     
   820.31098092615514        9.9491276210983415E-004   1494.1351153089408     
   814.45176744569847        9.4280320217876579E-004   1494.1355406679202     
   808.59254047238483        8.8278746574133038E-004   1494.1359400005736     
   802.73330032682679        8.1593441638005970E-004   1494.1363154442224     
   796.87404732970742        7.4331296946184011E-004   1494.1366691364281     
   421.87384164931876        5.6673658579597941E-004   1498.5275047907096     
   418.94426452016637        5.6294311636406746E-004   1498.5280640947371     
   416.01468005197177        5.5322522624123849E-004   1498.5285882633482     
   413.08508834875033        5.3792948622799486E-004   1498.5290794353791     
   410.15548951447556        5.1740261869781534E-004   1498.5295397495195     
   407.22588365328602        4.9199161904311950E-004   1498.5299713447457     
   404.29627086912109        4.6204312747022414E-004   1498.5303763598370     
   401.36665126605396        4.2790395562519734E-004   1498.5307569335582     
   398.43702494819831        3.8992099862866780E-004   1498.5311152048255     
   8.6739431617868267E-010   1.3401853026028378E-009   1499.9923028812063     
   8.8886101655895984E-010   1.0702808136752055E-009   1499.9928650474767     
   9.1015319091988517E-010   7.3362012234549142E-010   1499.9933918626730     
   9.1887949188747761E-010   1.4860890547809822E-010   1499.9938854661557     
   9.3524130620171320E-010  -4.3014119044504737E-010   1499.9943479970725     
   1.0115309924108896E-009  -9.7225173018051447E-010   1499.9947815948028     
   1.1106835871551582E-009  -1.5152458078889501E-009   1499.9951883985873     
   1.3476517438682339E-009  -1.7342227862789978E-009   1499.9955705477848     
   1.6745771556809775E-009  -1.7528520753602815E-009   1499.9959301815661     
   3187.4966443304934        2.2514958156989451E-003   1406.2476441744413     
   3164.0595124885372        2.0506476842001575E-003   1406.2478417386799     
   3140.6223587863033        1.8799474892148282E-003   1406.2480162713723     
   3117.1851800463287        1.7288034921421058E-003   1406.2481667391990     
   3093.7479730911809        1.5866241977846585E-003   1406.2482921089972     
   3070.3107347433051        1.4428179640617600E-003   1406.2483913473930     
   3046.8734618252115        1.2867931592381865E-003   1406.2484634211730     
   3023.4361511594070        1.1079582016009226E-003   1406.2485072971037     
   2999.9987995684869        8.9572149749983510E-004   1406.2485219417845     
   2789.0594436228580        2.0591725628946733E-003   1428.2199126529233     
   2768.5519704622529        1.8702071184861779E-003   1428.2201466033137     
   2748.0444714620767        1.7031573028134517E-003   1428.2203519788009     
   2727.5369454431921        1.5540925262484961E-003   1428.2205286317501     
   2707.0293912264187        1.4190822066666442E-003   1428.2206764144275     
   2686.5218076325523        1.2941957086241018E-003   1428.2207951793171     
   2666.0141934825788        1.1755029833011577E-003   1428.2208847785896     
   2645.5065475971878        1.0590731666297870E-003   1428.2209450646706     
   2624.9988687973500        9.4097572025475529E-004   1428.2209758898787     
   2390.6222956976189        1.8469228115236547E-003   1447.2625397940221     
   2373.0444736453574        1.6728208254335186E-003   1447.2628035395883     
   2355.4666243665952        1.5138797311919916E-003   1447.2630356376899     
   2337.8887482230207        1.3713052694583894E-003   1447.2632367081189     
   2320.3108455764418        1.2463032952609865E-003   1447.2634073707993     
   2302.7329167884077        1.1400793574694035E-003   1447.2635482455285     
   2285.1549622207849        1.0538390581587009E-003   1447.2636599521643     
   2267.5769822350699        9.8878822439019132E-004   1447.2637431105538     
   2249.9989771931810        9.4613244323227264E-004   1447.2637983406323     
   1992.1851913302914        1.6119795940312542E-003   1463.3755273052136     
   1977.5370141425194        1.4561200470097901E-003   1463.3758147912645     
   1962.8888105963294        1.3100434805437544E-003   1463.3760694942073     
   1948.2405821369530        1.1785671978259415E-003   1463.3762926832965     
   1933.5923302094261        1.0665081294973788E-003   1463.3764856278981     
   1918.9440562587017        9.7868275292967155E-004   1463.3766495972170     
   1904.2957617300058        9.1990830389931944E-004   1463.3767858606773     
   1889.6474480683314        8.9500181707080628E-004   1463.3768956874508     
   1874.9991167188850        9.0878028447605175E-004   1463.3769803470125     
   1593.7481212961609        1.3515748512418213E-003   1476.5588768942748     
   1582.0295840583431        1.2177361563772138E-003   1476.5591826021137     
   1570.3110232479555        1.0895779450947884E-003   1476.5594557944944     
   1558.5924409359836        9.7400373283562658E-004   1476.5596982721047     
   1546.8738391934232        8.7791671091963508E-004   1476.5599118355406     
   1535.1552200912840        8.0822026615123832E-004   1476.5600982855844     
   1523.4365857006790        7.7181785553648297E-004   1476.5602594228205     
   1511.7179380923460        7.7561290356698009E-004   1476.5603970478112     
   1499.9992793376202        8.2650840715814411E-004   1476.5605129613971     
   1195.3110763709021        1.0629419996348588E-003   1486.8125902688043     
   1186.5221754975673        9.5530066840865402E-004   1486.8129092159243     
   1177.7332554178076        8.5041169563737640E-004   1486.8131967848283     
   1168.9443183710009        7.5573984611310152E-004   1486.8134551894038     
   1160.1553665966017        6.7874983693627655E-004   1486.8136866436898     
   1151.3664023340234        6.2690648798024995E-004   1486.8138933615787     
   1142.5774278228791        6.0767482221990576E-004   1486.8140775570882     
   1133.7884453023501        6.2851941225972041E-004   1486.8142414440531     
   1124.9994570121510        6.9690543739397981E-004   1486.8143872366588     
   796.87404732970742        7.4331296946184011E-004   1494.1366691364281     
   791.01478056483677        6.6644510161495418E-004   1494.1369968763966     
   785.15550020243211        5.9047376095122672E-004   1494.1372947111920     
   779.29620819303204        5.2190085995107438E-004   1494.1375651500073     
   773.43690648707502        4.6722777335617138E-004   1494.1378107020937     
   767.57759703485669        4.3295564054801616E-004   1494.1380338764181     
   761.71828178700980        4.2558618127941372E-004   1494.1382371823288     
   755.85896269365446        4.5162049499936074E-004   1494.1384231288173     
   749.99964170555359        5.1756044103967724E-004   1494.1385942250963     
   398.43702494819831        3.8992099862866780E-004   1498.5311152048255     
   395.50739136475238        3.4880045041063568E-004   1498.5314478273453     
   392.57775069848373        3.0769319465662193E-004   1498.5317518199427     
   389.64810415317487        2.7061224258773109E-004   1498.5320298689114     
   386.71845293296087        2.4157086791376514E-004   1498.5322846605795     
   383.78879824168712        2.2458211857667720E-004   1498.5325188811551     
   380.85914128326351        2.2365899714316129E-004   1498.5327352170350     
   377.92948326158955        2.4281458449593174E-004   1498.5329363544511     
   374.99982538064830        2.8606223867200242E-004   1498.5331249795368     
   1.6745771556809775E-009  -1.7528520753602815E-009   1499.9959301815661     
   2.0199641479782839E-009  -1.5094755413741298E-009   1499.9962643125073     
   2.2810550729286484E-009  -1.0626889318334001E-009   1499.9965703571679     
   2.4506943637386441E-009  -6.0045676958003171E-010   1499.9968510609099     
   2.4777895282430181E-009  -8.7284825428342783E-011   1499.9971091690720     
   2.3602462542095491E-009   2.8918961406601140E-010   1499.9973474269634     
   1.9823865144365892E-009   4.9277421563994177E-010   1499.9975685799507     
   1.3816215973536397E-009   3.3500269414587149E-010   1499.9977753733949     
   5.2218184990072790E-010  -2.4992125971184577E-010   1499.9979705524902     
  -1.2286631762370072E-010   1.6021488576499610E-009   1502.3202662237986     
  -5.3055909882961646E-011   1.3054546247518201E-009   1502.0518033803285     
   9.3545946372590300E-011   1.1906165040183043E-009   1501.8068677507697     
   1.7836559177758821E-010   1.1239475646258985E-009   1501.5844897942675     
   2.5742587854397519E-010   1.1651357051929345E-009   1501.3836999703683     
   3.2898154647823270E-010   1.2858640790795750E-009   1501.2035287385688     
   3.7510004709195845E-010   1.4323132250681942E-009   1501.0430065581829     
   3.2560010485329067E-010   1.5642712575125052E-009   1500.9011638886882     
   2.5358630611823459E-010   1.6579099208328763E-009   1500.7770311895783     
  -562.75037964413548       0.22394278412448898        1500.8497635870726     
  -559.78179050533174       0.23413260805784830        1500.5802820944459     
  -556.81863002093235       0.23464966102193330        1500.3346192381232     
  -553.86037211645703       0.22724752442718454        1500.1117985341302     
  -550.90649071764119       0.21367977924629145        1499.9108434985446     
  -547.95645975012405       0.19570000676171162        1499.7307776474690     
  -545.00975313952551       0.17506178818453577        1499.5706244969599     
  -542.06584481153845       0.15351870460912664        1499.4294075629966     
  -539.12420869178129       0.13282433725422038        1499.3061503616675     
  -1125.4913029694139       0.46521915117466506        1496.4347210961446     
  -1119.5581906763771       0.47255320069149320        1496.1631652283320     
  -1113.6348023536252       0.46443985502287433        1495.9161638086864     
  -1107.7202638669207       0.44379289478166584        1495.6927195233163     
  -1101.8137010822800       0.41352610014439506        1495.4918350580313     
  -1095.9142398654847       0.37655325168464060        1495.3125130988237     
  -1090.0210060824418       0.33578812983824946        1495.1537563315865     
  -1084.1331255990810       0.29414451479192394        1495.0145674422181     
  -1078.2497242811999       0.25453618724799298        1494.8939491166541     
  -1688.2180927856730       0.72523225974941852        1489.0698368785613     
  -1679.3246906908118       0.71661472575112839        1488.7966232686865     
  -1670.4442142201272       0.69066141629343747        1488.5489366247778     
  -1661.5756191941455       0.65085292918843152        1488.3257449159589     
  -1652.7178614338100       0.60066986178151183        1488.1260161111604     
  -1643.8698967597770       0.54359281182087216        1487.9487181793979     
  -1635.0306809926951       0.48310237698990477        1487.7928190896992     
  -1626.1991699533094       0.42267915485297181        1487.6572868110684     
  -1617.3743194622998       0.36580374316270081        1487.5410893125754     
  -2250.9260719026734        1.0053852669648222        1478.7498090617714     
  -2239.0767807262168       0.96767013010548908        1478.4768267024265     
  -2227.2425628423730       0.91460517841198907        1478.2303728487211     
  -2215.4223820410207       0.84964444479805934        1478.0093668663083     
  -2203.6152021124640       0.77624196212116203        1477.8127281202587     
  -2191.8199868469178       0.69785176310142560        1477.6393759760574     
  -2180.0357000343752       0.61792788070499682        1477.4882297989518     
  -2168.2613054651260       0.53992434764973041        1477.3582089543127     
  -2156.4957669292380       0.46729519688688015        1477.2482328074489     
  -2813.6105631300998        1.3070813299522115        1465.4693357731908     
  -2798.8099509603053        1.2270723604659679        1465.1999460161969     
  -2784.0255454423645        1.1375619747016117        1464.9579076429845     
  -2769.2564963503282        1.0413842588341140        1464.7420775285570     
  -2754.5019534584098       0.94137329915577084        1464.5513125478235     
  -2739.7610665409375       0.84036318112327990        1464.3844695755795     
  -2725.0329853719149       0.74118799136658708        1464.2404054868343     
  -2710.3168597256727       0.64668181561239635        1464.1179771564389     
  -2695.6118393762945       0.55967874009002117        1464.0160414592929     
  -3376.2668892777710        1.6317236057134323        1449.2231151404842     
  -3358.5196915707688        1.4961743633514288        1448.9621516968466     
  -3340.7888592421914        1.3608226385704256        1448.7289761697136     
  -3323.0739060649230        1.2272891884679211        1448.5223690569615     
  -3305.3743458119043        1.0971947705234015        1448.3411108560781     
  -3287.6896922558244       0.97216014177956822        1448.1839820649107     
  -3270.0194591695367       0.85380605972068224        1448.0497631810690     
  -3252.3631603258532       0.74375328163614540        1447.9372347022490     
  -3234.7203094976244       0.64362256456411160        1447.8451771261671     
  -3938.8903731554583        1.9807152513269557        1430.0058452909586     
  -3918.2014927350733        1.7763290858081291        1429.7596142310642     
  -3897.5282014638915        1.5856780033859650        1429.5410135913489     
  -3876.8705551278417        1.4085760508332896        1429.3487336055612     
  -3856.2286095130462        1.2448372745279812        1429.1814645074780     
  -3835.6024204055798        1.0942757209900265        1429.0378965307850     
  -3814.9920435914532       0.95670543667370112        1428.9167199091398     
  -3794.3975348567405       0.83194046821790835        1428.8166248763671     
  -3773.8189499874752       0.71979486197528786        1428.7363016661172     
  -4501.4763375728808        2.3554594239044491        1407.8122243523128     
  -4477.8508446310252        2.0688894741385866        1407.5885041056765     
  -4454.2392693294150        1.8134189025929572        1407.3914550701954     
  -4430.6423874818183        1.5864616629016837        1407.2196633287363     
  -4407.0609749020923        1.3854317089076176        1407.0717149643585     
  -4383.4958074041642        1.2077429943212792        1406.9461960600634     
  -4359.9476608019313        1.0508094728513697        1406.8416926987452     
  -4336.4173109093063       0.91204509815997881        1406.7567909634265     
  -4312.9055335400881       0.78886382408290956        1406.6900769371209     
   2.5358630611823459E-010   1.6579099208328763E-009   1500.7770311895783     
   1.6737045255842181E-010   1.7146308771222268E-009   1500.6677421630609     
   1.2548420791397845E-010   1.7338287392509300E-009   1500.5706373857427     
   6.3963786092452122E-011   1.6955202780031994E-009   1500.4850576284762     
   4.2191665178309131E-011   1.6401518983638257E-009   1500.4103436621224     
   8.5823170016271032E-011   1.6006326628568419E-009   1500.3458362576466     
   1.2685860031637423E-010   1.4560105861333123E-009   1500.2908761858957     
   2.1848407873383110E-010   1.3695520323278383E-009   1500.2448042177477     
   3.3823142550388066E-010   1.2544930271010805E-009   1500.2069611241257     
  -539.12420869178129       0.13282433725422038        1499.3061503616675     
  -536.18397041021956       0.11452435226590296        1499.1977932867378     
  -533.24466755814751        9.8791211612024199E-002   1499.1014947834501     
  -530.30639200278836        8.5318691199745444E-002   1499.0166054451904     
  -527.36923561151866        7.3800566349376595E-002   1498.9424758654641     
  -524.43329025171545        6.3930612570089806E-002   1498.8784566376844     
  -521.49864779066479        5.5402605547158146E-002   1498.8238983553083     
  -518.56540009564185        4.7910321000415479E-002   1498.7781516117548     
  -515.63363903414756        4.1147533955836479E-002   1498.7405670004673     
  -1078.2497242811999       0.25453618724799298        1494.8939491166541     
  -1072.3691528956508       0.21957748519270126        1494.7883332350923     
  -1066.4904637106088       0.18954440926944471        1494.6944032610736     
  -1060.6138348440381       0.16384323280652779        1494.6115392557183     
  -1054.7394444137697       0.14188022967266534        1494.5391212801665     
  -1048.8674705377302       0.12306167355654907        1494.4765293954745     
  -1042.9980913338936       0.10679383779057616        1494.4231436627920     
  -1037.1314849201149        9.2482996136027396E-002   1494.3783441431640     
  -1031.2678294143673        7.9535422187348104E-002   1494.3415108976990     
  -1617.3743194622998       0.36580374316270081        1487.5410893125754     
  -1608.5537570273484       0.31569652928646974        1487.4399418740816     
  -1599.7359787767357       0.27268249853023008        1487.3498672455057     
  -1590.9212434622300       0.23589914508750098        1487.2702946006168     
  -1582.1098098355801       0.20448396315634909        1487.2006531133968     
  -1573.3019366484521       0.17757444704591308        1487.1403719576927     
  -1564.4978826526199       0.15430809094573306        1487.0888803073594     
  -1555.6979065998596       0.13382238888596021        1487.0456073362552     
  -1546.9022672418280       0.11525483541100812        1487.0099822182769     
  -2156.4957669292380       0.46729519688688015        1477.2482328074489     
  -2144.7359923764852       0.40341861311674165        1477.1531990697331     
  -2132.9798030758329       0.34862838372680471        1477.0683911634994     
  -2121.2275327960429       0.30181194626152319        1476.9933070204329     
  -2109.4795153059381       0.26185673790905639        1476.9274445723329     
  -2097.7360843742176       0.22765019615519577        1476.8703017509965     
  -2085.9975737698169       0.19807975817934675        1476.8213764880668     
  -2074.2643172614758       0.17203286144683716        1476.7801667153533     
  -2062.5366486179937       0.14839694321301522        1476.7461703646420     
  -2695.6118393762945       0.55967874009002117        1464.0160414592929     
  -2680.9140685143984       0.48328086513618018        1463.9286846880548     
  -2666.2205269272640       0.41780496909996145        1463.8504794419289     
  -2651.5316177839568       0.36190715498742065        1463.7810120557658     
  -2636.8477442537001       0.31424352539568190        1463.7198688641965     
  -2622.1693095054561       0.27347018374371146        1463.6666362019978     
  -2607.4967167084392       0.23824323275937331        1463.6209004039438     
  -2592.8303690316993       0.20721877558742108        1463.5822478047669     
  -2578.1706696443780       0.17905291501733700        1463.5502647391902     
  -3234.7203094976244       0.64362256456411160        1447.8451771261671     
  -3217.0861950122048       0.55582041429033779        1447.7669785950186     
  -3199.4567406503611       0.48063515871649543        1447.6966365077235     
  -3181.8324133647102       0.41651028926116851        1447.6338452470989     
  -3164.2136801079032       0.36188929680406545        1447.5782991960509     
  -3146.6010078326267       0.31521567259096628        1447.5296927374009     
  -3128.9948634914781       0.27493290778784285        1447.4877202539965     
  -3111.3957140372131       0.23948449330146104        1447.4520761287256     
  -3093.8040264223901       0.20731392062054965        1447.4224547443650     
  -3773.8189499874752       0.71979486197528786        1428.7363016661172     
  -3753.2505814412311       0.62157438902545437        1428.6686606565941     
  -3732.6870345645107       0.53754185703542134        1428.6073667875480     
  -3712.1288344767895       0.46594686785897466        1428.5522421350413     
  -3691.5765062974428       0.40503902361820110        1428.5031087751406     
  -3671.0305751460328       0.35306792565347678        1428.4597887838659     
  -3650.4915661419291       0.30828317615305423        1428.4221042373283     
  -3629.9600044046438       0.26893437674743836        1428.3898772115292     
  -3609.4364150535566       0.23327112939546168        1428.3629297826174     
  -4312.9055335400881       0.78886382408290956        1406.6900769371209     
  -4289.4054373726303       0.68107991795341150        1406.6343107388243     
  -4265.9099989890219       0.58894796798335847        1406.5831747083589     
  -4242.4197960587471       0.51054240934445261        1406.5366382601760     
  -4218.9354062512721       0.44393767695464703        1406.4946708085706     
  -4195.4574072361083       0.38720820587650451        1406.4572417680142     
  -4171.9863766827575       0.33842843111983711        1406.4243205529062     
  -4148.5228922606530       0.29567278784497830        1406.3958765775351     
  -4125.0675316393372       0.25701571093532039        1406.3718792563520     
   3.3823142550388066E-010   1.2544930271010805E-009   1500.2069611241257     
   4.2566896119915630E-010   1.0933182482296492E-009   1500.1746833213735     
   4.4861913274392425E-010   9.2232638076967663E-010   1500.1456849820113     
   3.6938431995818543E-010   7.1909083123445004E-010   1500.1198735111373     
   2.3417028646534152E-010   5.2050203696446646E-010   1500.0971563138328     
   3.6432306539698098E-012   3.0562778351371362E-010   1500.0774407952340     
  -2.5112112609488971E-010   2.1758486068881124E-010   1500.0606343604434     
  -5.7104368138114055E-010   1.5433963094165929E-010   1500.0466444145670     
  -9.3179441731951439E-010   1.6833034566485703E-010   1500.0353783626977     
  -515.63363903414756        4.1147533955836479E-002   1498.7405670004673     
  -512.70264072243799        3.5086587467617392E-002   1498.7085087012508     
  -509.77163665034266        2.9848579348509929E-002   1498.6797118136913     
  -506.84065174531497        2.5350418066580005E-002   1498.6540833109896     
  -503.90971093489401        2.1509011880397111E-002   1498.6315301663660     
  -500.97883914653653        1.8241269165457652E-002   1498.6119593529381     
  -498.04806130771385        1.5464098478162214E-002   1498.5952778439389     
  -495.11740234592708        1.3094408021260051E-002   1498.5813926125925     
  -492.18688718865451        1.1049106309457102E-002   1498.5702106320307     
  -1031.2678294143673        7.9535422187348104E-002   1494.3415108976990     
  -1025.4057011624257        6.7904296385052021E-002   1494.3100903899301     
  -1019.5435889824264        5.7834557788396523E-002   1494.2818794941979     
  -1013.6815397010214        4.9170117868584384E-002   1494.2567838878906     
  -1007.8196001445784        4.1754888547245628E-002   1494.2347092484647     
  -1001.9578171396018        3.5432781527106272E-002   1494.2155612533261     
  -996.09623751267486        3.0047708232700643E-002   1494.1992455799586     
  -990.23490809017426        2.5443580649152864E-002   1494.1856679057832     
  -984.37387569868849        2.1464310252042651E-002   1494.1747339081508     
  -1546.9022672418280       0.11525483541100812        1487.0099822182769     
  -1538.1088945654653        9.8539153826550319E-002   1486.9795867110820     
  -1529.3155898544801        8.4038078157902873E-002   1486.9523188015294     
  -1520.5224188058921        7.1532618325022668E-002   1486.9280820074409     
  -1511.7294471168132        6.0803784214044754E-002   1486.9067798467183     
  -1502.9367404841764        5.1632585711502088E-002   1486.8883158370916     
  -1494.1443646050520        4.3800032720298532E-002   1486.8725934963977     
  -1485.3523851765262        3.7087135053468501E-002   1486.8595163425293     
  -1476.5608678955834        3.1274902651659886E-002   1486.8489878931964     
  -2062.5366486179937       0.14839694321301522        1476.7461703646420     
  -2050.8119341774704       0.12707718604394813        1476.7171559882688     
  -2039.0873721248131       0.10853928320636896        1476.6911605137125     
  -2027.3630439991396        9.2511437682787800E-002   1476.6680844353773     
  -2015.6390313395423        7.8721852436501649E-002   1476.6478282475734     
  -2003.9154156850714        6.6898730542902740E-002   1476.6302924447127     
  -1992.1922785749446        5.6770274754853745E-002   1476.6153775211403     
  -1980.4697015481938        4.8064688278714129E-002   1476.6029839711657     
  -1968.7477661439214        4.0510174088012718E-002   1476.5930122892648     
  -2578.1706696443780       0.17905291501733700        1463.5502647391902     
  -2563.5145332443303       0.15360441938958047        1463.5229565451805     
  -2548.8586686519475       0.13141831534801440        1463.4985354088560     
  -2534.2031702198292       0.11218009426818298        1463.4768979372925     
  -2519.5481323007225        9.5575246888756737E-002   1463.4579407376123     
  -2504.8936492473140        8.1289264253200599E-002   1463.4415604167984     
  -2490.2398154123298        6.9007637340973815E-002   1463.4276535819351     
  -2475.5867251483719        5.8415857461113774E-002   1463.4161168401347     
  -2460.9344728082583        4.9199415177554329E-002   1463.4068467984121     
  -3093.8040264223901       0.20731392062054965        1447.4224547443650     
  -3076.2164050119745       0.17820687996027118        1447.3971467053886     
  -3058.6292122942823       0.15275531718282309        1447.3745742649805     
  -3041.0425524071616       0.13061210626165121        1447.3546292789160     
  -3023.4565294883446       0.11143012113598161        1447.3372036032986     
  -3005.8712476757655        9.4862235576442799E-002   1447.3221890939067     
  -2988.2868111071343        8.0561323721894951E-002   1447.3094776067585     
  -2970.7033239203574        6.8180259375026253E-002   1447.2989609977251     
  -2953.1208902531366        5.7371916635588605E-002   1447.2905311227221     
  -3609.4364150535566       0.23327112939546168        1428.3629297826174     
  -3588.9172627262792       0.20097059413251372        1428.3398847925571     
  -3568.3987359103517       0.17263043100706454        1428.3194078600254     
  -3547.8809455002729       0.14788099192219306        1428.3013852259051     
  -3527.3640023903927       0.12635262875346598        1428.2857031311171     
  -3506.8480174753186       0.10767569295649082        1428.2722478166636     
  -3486.3331016494290        9.1480536630115239E-002   1428.2609055234191     
  -3465.8193658071905        7.7397511391609441E-002   1428.2515624923572     
  -3445.3069208431079        6.5056969109036800E-002   1428.2441049643351     
  -4125.0675316393372       0.25701571093532039        1406.3718792563520     
  -4101.6168196331455       0.22198158796754797        1406.3513291303000     
  -4078.1669723585778       0.19112379930811585        1406.3331669720988     
  -4054.7181044382642       0.16406026960157760        1406.3172725438731     
  -4031.2703304948250       0.14040892330808674        1406.3035256076746     
  -4007.8237651509103       0.11978768500421211        1406.2918059256165     
  -3984.3785230291878       0.10181447915579156        1406.2819932598104     
  -3960.9347187522771        8.6107230304605764E-002   1406.2739673723408     
  -3937.4924669427855        7.2283863053598907E-002   1406.2676080252666     
  -9.3179441731951439E-010   1.6833034566485703E-010   1500.0353783626977     
  -1.2737781522394597E-009   2.1820115569464742E-010   1500.0260920668675     
  -1.4271865232497336E-009   5.3269704256667690E-010   1500.0180595119402     
  -1.4981749816210979E-009   8.4333154126054659E-010   1500.0112152875497     
  -1.4312006216948261E-009   1.2267215742717177E-009   1500.0054939831966     
  -1.3116066669339724E-009   1.5175037382643148E-009   1500.0008301883984     
  -1.0824049180820538E-009   1.7974434733046783E-009   1499.9971584927623     
  -7.7506664323023957E-010   1.9965435742719819E-009   1499.9944134858197     
  -4.1572097809610104E-010   1.9971012394431923E-009   1499.9925297570981     
  -492.18688718865451        1.1049106309457102E-002   1498.5702106320307     
  -489.25649845044848        9.2664707848371108E-003   1498.5609926887068     
  -486.32620730604771        7.7229116787123075E-003   1498.5530185571395     
  -483.39602152311465        6.3925367392414501E-003   1498.5462236926626     
  -480.46594886950135        5.2494532007756334E-003   1498.5405435507153     
  -477.53599711284426        4.2677688248318191E-003   1498.5359135864796     
  -474.60617402092765        3.4215911358899120E-003   1498.5322692554191     
  -471.67648736148584        2.6850275440892801E-003   1498.5295460128750     
  -468.74694490226949        2.0321856792406834E-003   1498.5276793141591     
  -984.37387569868849        2.1464310252042651E-002   1494.1747339081508     
  -978.51309929447939        1.7996114846141609E-002   1494.1657180657162     
  -972.65251680751226        1.4995299635415904E-002   1494.1579164406514     
  -966.79214352502481        1.2410907516027692E-002   1494.1512670856953     
  -960.93199473396419        1.0191981767434299E-002   1494.1457080536084     
  -955.07208572144225        8.2875654155714074E-003   1494.1411773971556     
  -949.21243177455449        6.6467015200259993E-003   1494.1376131691891     
  -943.35304818035070        5.2184331236730941E-003   1494.1349534224400     
  -937.49395022596286        3.9518032585306173E-003   1494.1331362096062     
  -1476.5608678955834        3.1274902651659886E-002   1486.8489878931964     
  -1467.7697380795605        2.6208268445259364E-002   1486.8403034652813     
  -1458.9788922864343        2.1828029755738498E-002   1486.8327842848112     
  -1450.1883530742305        1.8058993137060497E-002   1486.8263727335891     
  -1441.3981430011236        1.4825964945146097E-002   1486.8210111935493     
  -1432.6082846249485        1.2053752077008539E-002   1486.8166420464258     
  -1423.8188005039422        9.6671605343772171E-003   1486.8132076740501     
  -1415.0297131960860        7.5909971200758264E-003   1486.8106504582988     
  -1406.2410452594793        5.7500681001556586E-003   1486.8089127809108     
  -1968.7477661439214        4.0510174088012718E-002   1476.5930122892648     
  -1957.0263503519161        3.3922267777825255E-002   1476.5847841546110     
  -1945.3052975230378        2.8231968197019341E-002   1476.5776532118623     
  -1933.5846372379058        2.3340673314237392E-002   1476.5715679035425     
  -1921.8643990770961        1.9149781103124042E-002   1476.5664766721166     
  -1910.1446126213243        1.5560689156700391E-002   1476.5623279601371     
  -1898.4253074512030        1.2474795531034033E-002   1476.5590702100249     
  -1886.7065131474658        9.7934977694649206E-003   1476.5566518642906     
  -1874.9882592906570        7.4181940558446513E-003   1476.5550213655106     
  -2460.9344728082583        4.9199415177554329E-002   1463.4068467984121     
  -2446.2828716578306        4.1157448876901981E-002   1463.3991954010546     
  -2431.6316962977608        3.4217980863900266E-002   1463.3925543441417     
  -2416.9809830829099        2.8259828322347857E-002   1463.3868798624765     
  -2402.3307683681833        2.3161808090776503E-002   1463.3821281908963     
  -2387.6810885083946        1.8802737529199476E-002   1463.3782555641274     
  -2373.0319798584660        1.5061433586765816E-002   1463.3752182169778     
  -2358.3834787731594        1.1816713694884129E-002   1463.3729723843103     
  -2343.7356216074227        8.9473946953830819E-003   1463.3714743008500     
  -2953.1208902531366        5.7371916635588605E-002   1447.2905311227221     
  -2935.5392375433926        4.7933148233255451E-002   1447.2835724719075     
  -2917.9580523909462        3.9796933674551838E-002   1447.2775188039875     
  -2900.3773776764742        3.2820337569546609E-002   1447.2723358775606     
  -2882.7972562805662        2.6860424247729497E-002   1447.2679894514897     
  -2865.2177310840939        2.1774257741526526E-002   1447.2644452843590     
  -2847.6388449676083        1.7418902700114813E-002   1447.2616691350054     
  -2830.0606408119697        1.3651423063606671E-002   1447.2596267621038     
  -2812.4831614976861        1.0328883616693929E-002   1447.2582839243753     
  -3445.3069208431079        6.5056969109036800E-002   1428.2441049643351     
  -3424.7953835550034        5.4268701476303249E-002   1428.2379506344878     
  -3404.2843295830598        4.4979692417655315E-002   1428.2325777135841     
  -3383.7738080855211        3.7026081323119797E-002   1428.2279632157909     
  -3363.2638682205015        3.0244007549526941E-002   1428.2240841554303     
  -3342.7545591462058        2.4469610536016262E-002   1428.2209175467626     
  -3322.2459300208170        1.9539029742190905E-002   1428.2184404040477     
  -3301.7380300024447        1.5288404605144024E-002   1428.2166297415672     
  -3281.2309082493398        1.1553874519904639E-002   1428.2154625735809     
  -3937.4924669427855        7.2283863053598907E-002   1406.2676080252666     
  -3914.0512452387366        6.0183445080838283E-002   1406.2623651561730     
  -3890.6104916544255        4.9777123012518132E-002   1406.2577621953292     
  -3867.1702613771695        4.0880939210637735E-002   1406.2537891442655     
  -3843.7306095941994        3.3310936126326851E-002   1406.2504360044040     
  -3820.2915914927535        2.6883156335998137E-002   1406.2476927771745     
  -3796.8532622601369        2.1413642183233605E-002   1406.2455494640540     
  -3773.4156770835889        1.6718436185328756E-002   1406.2439960664708     
  -3749.9788911503342        1.2613580845709293E-002   1406.2430225858434     
  -4.1572097809610104E-010   1.9971012394431923E-009   1499.9925297570981     
  -8.4819645404997961E-011   1.8613199963874547E-009   1499.9911746573241     
   9.3371420353238461E-011   1.3700292519120036E-009   1499.9900581551144     
   2.1697947355918452E-010   9.5686071684892354E-010   1499.9891787666547     
   2.5131746786666053E-010   3.8112119475959719E-010   1499.9885350081881     
   2.1390345246810824E-010  -1.7107913046964859E-010   1499.9881253959559     
   1.5779333724648924E-010  -6.3240593899762925E-010   1499.9879484462069     
   7.3849048907302905E-011  -1.0030446647199062E-009   1499.9880026751628     
  -6.9810407740735403E-013  -1.1881731397473786E-009   1499.9882865991481     
  -468.74694490226949        2.0321856792406834E-003   1498.5276793141591     
  -465.81746283766296        1.4668311085870300E-003   1498.5263384748730     
  -462.88795447948013        1.0023380525581160E-003   1498.5252347688124     
  -459.95842327144919        6.2722738721276983E-004   1498.5243665887285     
  -457.02887265752071        3.3001933775267389E-004   1498.5237323273436     
  -454.09930608141053        9.9234747693799363E-005   1498.5233303773398     
  -451.16972698686544       -7.6605416211350530E-005   1498.5231591315116     
  -448.24013881781650       -2.0898104205002710E-004   1498.5232169825188     
  -445.31054501801350       -3.0937119126406287E-004   1498.5235023231439     
  -937.49395022596286        3.9518032585306173E-003   1494.1331362096062     
  -931.63497288782207        2.8542915532625557E-003   1494.1318367188092     
  -925.77594541483495        1.9524691420542695E-003   1494.1307701175926     
  -919.91687450290851        1.2240166727792712E-003   1494.1299344281654     
  -914.05776684789532        6.4661444565672355E-004   1494.1293276725664     
  -908.19862914552186        1.9794340994394588E-004   1494.1289478730284     
  -902.33946809179918       -1.4431643967327545E-004   1494.1287930517615     
  -896.48029038245454       -4.0248429075973036E-004   1494.1288612308952     
  -890.62110271344488       -5.9887985884188311E-004   1494.1291504325197     
  -1406.2410452594793        5.7500681001556586E-003   1486.8089127809108     
  -1397.4525558669138        4.1546678419877026E-003   1486.8076795770471     
  -1388.6639956566080        2.8435391645871277E-003   1486.8066724634232     
  -1379.8753743846812        1.7841616719351805E-003   1486.8058888446149     
  -1371.0867018073254        9.4401497938179091E-004   1486.8053261252717     
  -1362.2979876805321        2.9057878811045157E-004   1486.8049817098577     
  -1353.5092417604731       -2.0866733240154645E-004   1486.8048530029130     
  -1344.7204738032710       -5.8624371791893282E-004   1486.8049374090203     
  -1335.9316935650222       -8.7467077901237644E-004   1486.8052323326694     
  -1874.9882592906570        7.4181940558446513E-003   1476.5550213655106     
  -1863.2702374911048        5.3602454536303412E-003   1476.5538772372574     
  -1851.5521280551302        3.6686931858866956E-003   1476.5529500681766     
  -1839.8339436073495        2.3014552791664755E-003   1476.5522363981097     
  -1828.1156967723318        1.2164497089770521E-003   1476.5517327669334     
  -1816.3974001745880        3.7159473276915378E-004   1476.5514357145767     
  -1804.6790664387981       -2.7519181458046660E-004   1476.5513417808493     
  -1792.9607081895840       -7.6599197143423225E-004   1476.5514475056166     
  -1781.2423380514863       -1.1428875739056821E-003   1476.5517494288911     
  -2343.7356216074227        8.9473946953830819E-003   1463.3714743008500     
  -2329.0880434767641        6.4633092638359813E-003   1463.3704398874493     
  -2314.4403654609882        4.4210759130010047E-003   1463.3696111939023     
  -2299.7926028614147        2.7696902460547790E-003   1463.3689836483529     
  -2285.1447709792915        1.4581479887283422E-003   1463.3685526790216     
  -2270.4968851159533        4.3544474976897618E-004   1463.3683137139601     
  -2255.8489605727127       -3.4942382319513854E-004   1463.3682621814116     
  -2241.2010126508249       -9.4746192189631984E-004   1463.3683935095476     
  -2226.5530566516040       -1.4096739896558574E-003   1463.3687031264606     
  -2812.4831614976861        1.0328883616693929E-002   1447.2582839243753     
  -2794.9059995400567        7.4561446477900972E-003   1447.2573777153923     
  -2777.3287307245537        5.0938323652189865E-003   1447.2566641025646     
  -2759.7513728374061        3.1826595474058195E-003   1447.2561371552590     
  -2742.1739436647285        1.6633387504043640E-003   1447.2557909429088     
  -2724.5964609929106        4.7658228459113161E-004   1447.2556195348366     
  -2707.0189426080137       -4.3689689255188568E-004   1447.2556170005439     
  -2689.4414062963551       -1.1363863685573961E-003   1447.2557774093973     
  -2671.8638698440159       -1.6811732970154480E-003   1447.2560948307480     
  -3281.2309082493398        1.1553874519904639E-002   1428.2154625735809     
  -3260.7241313973495        8.3310364718727214E-003   1428.2147009089169     
  -3240.2172466963666        5.6801073969836580E-003   1428.2141170560760     
  -3219.7102742258667        3.5341559803327982E-003   1428.2137034785728     
  -3199.2032340651622        1.8262508490352047E-003   1428.2134526400062     
  -3178.6961462936292        4.8946092260848673E-004   1428.2133570040173     
  -3158.1890309906016       -5.4314487010742596E-004   1428.2134090341294     
  -3137.6819082354455       -1.3384979806687625E-003   1428.2136011939685     
  -3117.1747981075255       -1.9635293433566403E-003   1428.2139259470819     
  -3749.9788911503342        1.2613580845709293E-002   1406.2430225858434     
  -3726.5424647647469        9.0802701352004078E-003   1406.2424196558493     
  -3703.1059362268697        6.1730457853172993E-003   1406.2419783163987     
  -3679.6693277173640        3.8179722430413676E-003   1406.2416891781754     
  -3656.2326614169619        1.9411136199778412E-003   1406.2415428518739     
  -3632.7959595064067        4.6853422236381448E-004   1406.2415299482550     
  -3609.3592441663982       -6.7370163378654979E-004   1406.2416410780659     
  -3585.9225375776823       -1.5595298348216602E-003   1406.2418668519824     
  -3562.4858619209081       -2.2628859028372972E-003   1406.2421978807197     
  -6.9810407740735403E-013  -1.1881731397473786E-009   1499.9882865991481     
   2.7924163096295712E-012  -1.0124254382600679E-009   1499.9887006062709     
   7.7664078611572272E-012  -9.2834752843731537E-010   1499.9891444966070     
   1.3944628946212623E-010  -4.1397571790258245E-010   1499.9896159039376     
   3.1894630036550152E-010   1.3935902645245031E-010   1499.9901124621722     
   4.7763408346116885E-010   6.4317201281639636E-010   1499.9906318050982     
   6.2310152059093390E-010   1.0036555057876376E-009   1499.9911715667108     
   7.6948794629134841E-010   1.3001179463163267E-009   1499.9917293807875     
   8.6739431617868267E-010   1.3401853026028378E-009   1499.9923028812063     
  -445.31054501801350       -3.0937119126406287E-004   1498.5235023231439     
  -442.38094973378691       -3.8805431867672269E-004   1498.5239162704140     
  -439.45135525009601       -4.4910421792110355E-004   1498.5243594827821     
  -436.52176221846923       -4.9469271732505149E-004   1498.5248296649916     
  -433.59217129050444       -5.2699171294534608E-004   1498.5253245218528     
  -430.66258311782349       -5.4817340512158808E-004   1498.5258417580023     
  -427.73299835203142       -5.6040966137516079E-004   1498.5263790783522     
  -424.80341764468659       -5.6587250031725489E-004   1498.5269341875921     
  -421.87384164743924       -5.6673395778261693E-004   1498.5275047904536     
  -890.62110271344488       -5.9887985884188311E-004   1494.1291504325197     
  -884.76191264932186       -7.5331777719611637E-004   1494.1295639157820     
  -878.90272410806847       -8.7345770458568950E-004   1494.1300048698436     
  -873.04353831605704       -9.6338713780141916E-004   1494.1304712122471     
  -867.18435649903449       -1.0271921807998297E-003   1494.1309608603540     
  -861.32517988316829       -1.0689599529314364E-003   1494.1314717316523     
  -855.46600969456642       -1.0927774758329178E-003   1494.1320017436942     
  -849.60684715926084       -1.1027316118656927E-003   1494.1325488138721     
  -843.74769350330689       -1.1029090923102558E-003   1494.1331108596089     
  -1335.9316935650222       -8.7467077901237644E-004   1486.8052323326694     
  -1327.1429107449294       -1.1023907433695967E-003   1486.8056445212035     
  -1318.3541296870631       -1.2799955519540163E-003   1486.8060813000136     
  -1309.5653521149120       -1.4132301619724785E-003   1486.8065409411361     
  -1300.7765797518587       -1.5078388997835646E-003   1486.8070217165937     
  -1291.9878143212852       -1.5695667377713107E-003   1486.8075218982538     
  -1283.1990575466473       -1.6041583957076000E-003   1486.8080397581523     
  -1274.4103111513264       -1.6173583588283691E-003   1486.8085735682500     
  -1265.6215768587995       -1.6149116474934999E-003   1486.8091216004700     
  -1781.2423380514863       -1.1428875739056821E-003   1476.5517494288911     
  -1769.5239660191214       -1.4418729039107347E-003   1476.5521590652972     
  -1757.8055950999581       -1.6756515536826555E-003   1476.5525894153552     
  -1746.0872274376175       -1.8513688654593352E-003   1476.5530392472747     
  -1734.3688651756877       -1.9761702299092576E-003   1476.5535073293515     
  -1722.6505104579005       -2.0572015283732981E-003   1476.5539924298785     
  -1710.9321654278976       -2.1016080164599771E-003   1476.5544933170975     
  -1699.2138322293692       -2.1165354269214731E-003   1476.5550087592535     
  -1687.4955130059341       -2.1091290793719963E-003   1476.5555375247677     
  -2226.5530566516040       -1.4096739896558574E-003   1463.3687031264606     
  -2211.9051004703770       -1.7783638096489085E-003   1463.3691085270175     
  -2197.2571434597621       -2.0673594513027638E-003   1463.3695298581038     
  -2182.6091881064081       -2.2849497091783633E-003   1463.3699665261256     
  -2167.9612368971502       -2.4394241549998696E-003   1463.3704179375507     
  -2153.3132923187331       -2.5390719080178314E-003   1463.3708834986692     
  -2138.6653568580359       -2.5921825233581330E-003   1463.3713626158574     
  -2124.0174330018172       -2.6070452108797326E-003   1463.3718546956050     
  -2109.3695232368900       -2.5919493488117951E-003   1463.3723591442490     
  -2671.8638698440159       -1.6811732970154480E-003   1447.2560948307480     
  -2654.2863360971060       -2.1184629524668708E-003   1447.2564938849837     
  -2636.7087978794098       -2.4620530659831275E-003   1447.2569032704200     
  -2619.1312579437317       -2.7211194820893070E-003   1447.2573231732779     
  -2601.5537190428140       -2.9048383629515229E-003   1447.2577537799914     
  -2583.9761839295375       -3.0223857211240102E-003   1447.2581952767134     
  -2566.3986553566610       -3.0829376015617527E-003   1447.2586478498915     
  -2548.8211360771434       -3.0956703668607588E-003   1447.2591116858025     
  -2531.2436288436284       -3.0697597305788804E-003   1447.2595869706679     
  -3117.1747981075255       -1.9635293433566403E-003   1428.2139259470819     
  -3096.6676948977897       -2.4687698867182917E-003   1428.2143161180111     
  -3076.1605814720388       -2.8666666045182865E-003   1428.2147102943975     
  -3055.6534607719800       -3.1670249187527588E-003   1428.2151095842212     
  -3035.1463357393541       -3.3796509781041095E-003   1428.2155150954748     
  -3014.6392093159607       -3.5143505937185182E-003   1428.2159279362461     
  -2994.1320844434840       -3.5809293667625752E-003   1428.2163492145337     
  -2973.6249640636793       -3.5891933300717938E-003   1428.2167800383838     
  -2953.1178511182516       -3.5489479315629069E-003   1428.2172215158239     
  -3562.4858619209081       -2.2628859028372972E-003   1406.2421978807197     
  -3539.0491988707845       -2.8358840704640897E-003   1406.2425762048736     
  -3515.6125173505034       -3.2881336519494653E-003   1406.2429515722781     
  -3492.1758204135153       -3.6298127179179573E-003   1406.2433261544691     
  -3468.7391111134439       -3.8711001802766987E-003   1406.2437021229503     
  -3445.3023925037869       -4.0221742713129061E-003   1406.2440816493011     
  -3421.8656676381338       -4.0932136123501550E-003   1406.2444669051570     
  -3398.4289395699989       -4.0943966405393439E-003   1406.2448600620116     
  -3374.9922113529028       -4.0359017953051080E-003   1406.2452632913953     
   8.6739431617868267E-010   1.3401853026028378E-009   1499.9923028812063     
   8.8886101655895984E-010   1.0702808136752055E-009   1499.9928650474767     
   9.1015319091988517E-010   7.3362012234549142E-010   1499.9933918626730     
   9.1887949188747761E-010   1.4860890547809822E-010   1499.9938854661557     
   9.3524130620171320E-010  -4.3014119044504737E-010   1499.9943479970725     
   1.0115309924108896E-009  -9.7225173018051447E-010   1499.9947815948028     
   1.1106835871551582E-009  -1.5152458078889501E-009   1499.9951883985873     
   1.3476517438682339E-009  -1.7342227862789978E-009   1499.9955705477848     
   1.6745771556809775E-009  -1.7528520753602815E-009   1499.9959301815661     
  -421.87384164743924       -5.6673395778261693E-004   1498.5275047904536     
  -418.94426451824341       -5.6294101864295953E-004   1498.5280640944547     
  -416.01468005004989       -5.5322392921652863E-004   1498.5285882630317     
  -413.08508834681220       -5.3792924350659632E-004   1498.5290794350688     
  -410.15548951255028       -5.1740361226393361E-004   1498.5295397493378     
  -407.22588365119833       -4.9199367433061525E-004   1498.5299713446432     
  -404.29627086682433       -4.6204599098587096E-004   1498.5303763598208     
  -401.36665126345036       -4.2790752502241958E-004   1498.5307569337008     
  -398.43702494488394       -3.8992442702578956E-004   1498.5311152050845     
  -843.74769350330689       -1.1029090923102558E-003   1494.1331108596089     
  -837.88853720107807       -1.0931135761325095E-003   1494.1336616984904     
  -832.02936612334975       -1.0711367327189691E-003   1494.1341779613313     
  -826.17018059074712       -1.0380471834423588E-003   1494.1346617854795     
  -820.31098092395303       -9.9491377585536611E-004   1494.1351153084031     
  -814.45176744346452       -9.4280520858092132E-004   1494.1355406675823     
  -808.59254047003049       -8.8279030774174316E-004   1494.1359400004576     
  -802.73330032421450       -8.1593775848887162E-004   1494.1363154444264     
  -796.87404732662947       -7.4331631270752041E-004   1494.1366691369180     
  -1265.6215768587995       -1.6149116474934999E-003   1486.8091216004700     
  -1256.8328378220365       -1.5964488795248144E-003   1486.8096585538435     
  -1248.0440764785164       -1.5592156293564585E-003   1486.8101617027335     
  -1239.2552934780058       -1.5053778867013534E-003   1486.8106331822212     
  -1230.4664894705420       -1.4371022512591480E-003   1486.8110751275672     
  -1221.6776651059233       -1.3565547676535061E-003   1486.8114896737970     
  -1212.8888210340162       -1.2659018584599835E-003   1486.8118789560806     
  -1204.0999579047832       -1.1673097322386639E-003   1486.8122451095676     
  -1195.3110763680875       -1.0629448946701814E-003   1486.8125902693444     
  -1687.4955130059341       -2.1091290793719963E-003   1476.5555375247677     
  -1675.7771861555598       -2.0788792832036052E-003   1476.5560553546582     
  -1664.0588293749138       -2.0229384632557412E-003   1476.5565402325221     
  -1652.3404437556462       -1.9449454920277276E-003   1476.5569942903214     
  -1640.6220303896653       -1.8485401202497087E-003   1476.5574196599543     
  -1628.9035903687084       -1.7373613760582884E-003   1476.5578184732537     
  -1617.1851247845329       -1.6150485359958111E-003   1476.5581928622807     
  -1605.4666347290208       -1.4852409137802169E-003   1476.5585449587627     
  -1593.7481212937589       -1.3515775563064381E-003   1476.5588768947846     
  -2109.3695232368900       -2.5919493488117951E-003   1463.3723591442490     
  -2094.7216019760576       -2.5463370053557810E-003   1463.3728527951607     
  -2080.0736430719107       -2.4677828038193184E-003   1463.3733142960471     
  -2065.4256481706557       -2.3617740870349735E-003   1463.3737457746431     
  -2050.7776189185965       -2.2337987245464319E-003   1463.3741493587870     
  -2036.1295569620552       -2.0893441903808707E-003   1463.3745271761163     
  -2021.4814639473020       -1.9338980816883122E-003   1463.3748813544878     
  -2006.8333415205761       -1.7729481086234955E-003   1463.3752140217498     
  -1992.1851913281546       -1.6119816536956932E-003   1463.3755273055751     
  -2531.2436288436284       -3.0697597305788804E-003   1447.2595869706679     
  -2513.6661050580014       -3.0047545209299642E-003   1447.2600515696201     
  -2496.0885358289829       -2.8992267187959442E-003   1447.2604846385414     
  -2478.5109234700585       -2.7608877716147617E-003   1447.2608883001599     
  -2460.9332702945803       -2.5974490986300225E-003   1447.2612646772577     
  -2443.3555786160382       -2.4166220922552384E-003   1447.2616158924609     
  -2425.7778507477510       -2.2261179713041201E-003   1447.2619440685251     
  -2408.2000890031709       -2.0336483586333998E-003   1447.2622513281640     
  -2390.6222956956808       -1.8469243653953527E-003   1447.2625397941122     
  -2953.1178511182516       -3.5489479315629069E-003   1428.2172215158239     
  -2932.6107151757415       -3.4600638872461786E-003   1428.2176523721446     
  -2912.1035259056162       -3.3227480014375033E-003   1428.2180520052475     
  -2891.5962864009407       -3.1473106080284197E-003   1428.2184225317953     
  -2871.0889997549621       -2.9440625939969323E-003   1428.2187660685950     
  -2850.5816690607744       -2.7233141444185094E-003   1428.2190847323343     
  -2830.0742974115838       -2.4953760380412859E-003   1428.2193806398266     
  -2809.5668879006312       -2.2705589605038767E-003   1428.2196559076608     
  -2789.0594436209431       -2.0591731188233098E-003   1428.2199126526889     
  -3374.9922113529028       -4.0359017953051080E-003   1406.2452632913953     
  -3351.5554521038466       -3.9181978156648256E-003   1406.2456558970450     
  -3328.1186315611935       -3.7438245219618693E-003   1406.2460171414461     
  -3304.6817537103607       -3.5260669239960407E-003   1406.2463491345170     
  -3281.2448225369462       -3.2782102509827382E-003   1406.2466539860482     
  -3257.8078420265433       -3.0135396091282018E-003   1406.2469338058584     
  -3234.3708161646014       -2.7453401096408925E-003   1406.2471907038491     
  -3210.9337489366635       -2.4868970208444807E-003   1406.2474267899283     
  -3187.4966443284115       -2.2514954134749132E-003   1406.2476441738011     
   1.6745771556809775E-009  -1.7528520753602815E-009   1499.9959301815661     
   2.0199641479782839E-009  -1.5094755413741298E-009   1499.9962643125073     
   2.2810550729286484E-009  -1.0626889318334001E-009   1499.9965703571679     
   2.4506943637386441E-009  -6.0045676958003171E-010   1499.9968510609099     
   2.4777895282430181E-009  -8.7284825428342783E-011   1499.9971091690720     
   2.3602462542095491E-009   2.8918961406601140E-010   1499.9973474269634     
   1.9823865144365892E-009   4.9277421563994177E-010   1499.9975685799507     
   1.3816215973536397E-009   3.3500269414587149E-010   1499.9977753733949     
   5.2218184990072790E-010  -2.4992125971184577E-010   1499.9979705524902     
  -398.43702494488394       -3.8992442702578956E-004   1498.5311152050845     
  -395.50739136084610       -3.4880347303101189E-004   1498.5314478277235     
  -392.57775069400549       -3.0769542843245290E-004   1498.5317518203822     
  -389.64810414846738       -2.7061349041446192E-004   1498.5320298692327     
  -386.71845292821769       -2.4157121821133387E-004   1498.5322846607710     
  -383.78879823711424       -2.2458164346517151E-004   1498.5325188812096     
  -380.85914127923343       -2.2365814655245231E-004   1498.5327352168756     
  -377.92948325874767       -2.4281401702808125E-004   1498.5329363539358     
  -374.99982537940838       -2.8606268303121851E-004   1498.5331249790652     
  -796.87404732662947       -7.4331631270752041E-004   1494.1366691369180     
  -791.01478056128940       -6.6644796260106887E-004   1494.1369968770434     
  -785.15550019848092       -5.9047596420214177E-004   1494.1372947119416     
  -779.29620818888975       -5.2190230508131208E-004   1494.1375651506189     
  -773.43690648270604       -4.6722807033461322E-004   1494.1378107024125     
  -767.57759703064335       -4.3295530355180745E-004   1494.1380338764056     
  -761.71828178298210       -4.2558532777547953E-004   1494.1382371820175     
  -755.85896269049999       -4.5161986741959481E-004   1494.1384231281040     
  -749.99964170345049       -5.1756055657392608E-004   1494.1385942241363     
  -1195.3110763680875       -1.0629448946701814E-003   1486.8125902693444     
  -1186.5221754945524       -9.5530344765393238E-004   1486.8129092168090     
  -1177.7332554145057       -8.5041391793083676E-004   1486.8131967857228     
  -1168.9443183674452       -7.5574122502075625E-004   1486.8134551901414     
  -1160.1553665928614       -6.7875040701892431E-004   1486.8136866441785     
  -1151.3664023302254       -6.2690644853091726E-004   1486.8138933616256     
  -1142.5774278189351       -6.0767422189655917E-004   1486.8140775566505     
  -1133.7884452987569       -6.2851880915104630E-004   1486.8142414431304     
  -1124.9994570089987       -6.9690521593201993E-004   1486.8143872351866     
  -1593.7481212937589       -1.3515775563064381E-003   1476.5588768947846     
  -1582.0295840559809       -1.2177387749261470E-003   1476.5591826030177     
  -1570.3110232454303       -1.0895800501202757E-003   1476.5594557955367     
  -1558.5924409332290       -9.7400522406587697E-004   1476.5596982730588     
  -1546.8738391904515       -8.7791775365531066E-004   1476.5599118361033     
  -1535.1552200878996       -8.0822055826956785E-004   1476.5600982857150     
  -1523.4365856967920       -7.7181747406029899E-004   1476.5602594223053     
  -1511.7179380883508       -7.7561211867305246E-004   1476.5603970466670     
  -1499.9992793331621       -8.2650752722202014E-004   1476.5605129596988     
  -1992.1851913281546       -1.6119816536956932E-003   1463.3755273055751     
  -1977.5370141406959       -1.4561222054680911E-003   1463.3758147921092     
  -1962.8888105946421       -1.3100455444146064E-003   1463.3760694951977     
  -1948.2405821350978       -1.1785690212491318E-003   1463.3762926842248     
  -1933.5923302071792       -1.0665093168427120E-003   1463.3764856284595     
  -1918.9440562559339       -9.7868345005736046E-004   1463.3766495973264     
  -1904.2957617264710       -9.1990846181033703E-004   1463.3767858601930     
  -1889.6474480639522       -8.9500145634247019E-004   1463.3768956862043     
  -1874.9991167133378       -9.0877900140640122E-004   1463.3769803451273     
  -2390.6222956956808       -1.8469243653953527E-003   1447.2625397941122     
  -2373.0444736439663       -1.6728222797155468E-003   1447.2628035402347     
  -2355.4666243655188       -1.5138814195552186E-003   1447.2630356385366     
  -2337.8887482219825       -1.3713070565017915E-003   1447.2632367089400     
  -2320.3108455749798       -1.2463049550888172E-003   1447.2634073714107     
  -2302.7329167863095       -1.1400806566825850E-003   1447.2635482456135     
  -2285.1549622175135       -1.0538397746131523E-003   1447.2636599517828     
  -2267.5769822304951       -9.8878795608925429E-004   1447.2637431093472     
  -2249.9989771867226       -9.4613065812154673E-004   1447.2637983386817     
  -2789.0594436209431       -2.0591731188233098E-003   1428.2199126526889     
  -2768.5519704611079       -1.8702079464674171E-003   1428.2201466036061     
  -2748.0444714614182       -1.7031585986160280E-003   1428.2203519793595     
  -2727.5369454426796       -1.5540941121798824E-003   1428.2205286323499     
  -2707.0293912255661       -1.4190840399805893E-003   1428.2206764148973     
  -2686.5218076309420       -1.2941976106048969E-003   1428.2207951794082     
  -2666.0141934796784       -1.1755041965670898E-003   1428.2208847781878     
  -2645.5065475926517       -1.0590730729518327E-003   1428.2209450637126     
  -2624.9988687904006       -9.4097365911238739E-004   1428.2209758881233     
  -3187.4966443284115       -2.2514954134749132E-003   1406.2476441738011     
  -3164.0595124873516       -2.0506475825641246E-003   1406.2478417384332     
  -3140.6223587857889       -1.8799480401412438E-003   1406.2480162714039     
  -3117.1851800461041       -1.7288049621129176E-003   1406.2481667394040     
  -3093.7479730907362       -1.5866263305497341E-003   1406.2482921092012     
  -3070.3107347422060       -1.4428203631950964E-003   1406.2483913474969     
  -3046.8734618229369       -1.2867950615600421E-003   1406.2484634210016     
  -3023.4361511553848       -1.1079586925006879E-003   1406.2485072965412     
  -2999.9987995618303       -8.9571924650044821E-004   1406.2485219406897     
  -4501.4763375728808        2.3554594239044491        1407.8122243523128     
  -4477.8508446310252        2.0688894741385866        1407.5885041056765     
  -4454.2392693294150        1.8134189025929572        1407.3914550701954     
  -4430.6423874818183        1.5864616629016837        1407.2196633287363     
  -4407.0609749020923        1.3854317089076176        1407.0717149643585     
  -4383.4958074041642        1.2077429943212792        1406.9461960600634     
  -4359.9476608019313        1.0508094728513697        1406.8416926987452     
  -4336.4173109093063       0.91204509815997881        1406.7567909634265     
  -4312.9055335400881       0.78886382408290956        1406.6900769371209     
  -5064.0362266957263        2.7048409830633773        1382.6494372548900     
  -5037.4750671447709        2.3377952436585474        1382.4564865486836     
  -5010.9262639817634        2.0196219855190520        1382.2880471889498     
  -4984.3913541582224        1.7451980359373920        1382.1426517741118     
  -4957.8718746263321        1.5094002213986641        1382.0188329022585     
  -4931.3693623380050        1.3071053687269796        1381.9151231715382     
  -4904.8853542452034        1.1331903049335779        1381.8300551801883     
  -4878.4213872999017       0.98253185668340848        1381.7621615262417     
  -4851.9789984540294       0.85000685069644533        1381.7099748079825     
  -5626.5830928943878        2.9772623271462635        1354.5326248919448     
  -5597.0841427512569        2.5461873326801197        1354.3774781871241     
  -5567.5968576211944        2.1788225848379170        1354.2432963289377     
  -5538.1234397999769        1.8678270975517535        1354.1286736494360     
  -5508.6660915836355        1.6058598843487744        1354.0322044805014     
  -5479.2270152679430        1.3855799588179707        1353.9524831541096     
  -5449.8084131488395        1.1996463347004465        1353.8881040022341     
  -5420.4124875223315        1.0407180255187995        1353.8376613568014     
  -5391.0414406841828       0.90145404513941685        1353.7997495498014     
  -6189.1146712860736        3.1734029209656001        1323.4684193347900     
  -6156.6775555112754        2.6942205229270257        1323.3570266069773     
  -6124.2519540566655        2.2907495576523615        1323.2617773501934     
  -6091.8406387676032        1.9537505396069719        1323.1814428487719     
  -6059.4463814901010        1.6739839828683216        1323.1147943870787     
  -6027.0719540697410        1.4422104017319270        1323.0606032493833     
  -5994.7201283523336        1.2491903102277320        1323.0176407201509     
  -5962.3936761836349        1.0856842227151446        1322.9846780835924     
  -5930.0953694093332       0.94245265342738094        1322.9604866241800     
  -6751.6286969881885        3.2939422292174640        1289.4634526546313     
  -6716.2547894860018        2.7820495960631888        1289.4006793940409     
  -6680.8924570965828        2.3551317614392246        1289.3480651127143     
  -6645.5449454213513        2.0023700540341451        1289.3046732663231     
  -6610.2155000616904        1.7129458023737243        1289.2695673100122     
  -6574.9073666190980        1.4760403348186628        1289.2418106991433     
  -6539.6237906950182        1.2808349799465759        1289.2204668891002     
  -6504.3680178909199        1.1165110661690960        1289.2045993351599     
  -6469.1432938081543       0.97224992220844797        1289.1932714927659     
  -7314.1229051177570        3.3395597169214852        1252.5243569229947     
  -7275.8153287362647        2.8098293338121039        1252.5139841339603     
  -7237.5192705498594        2.3716980535727998        1252.5067344767367     
  -7199.2383541215677        2.0130873327184418        1252.5020787962262     
  -7160.9762030145475        1.7219186278503003        1252.4994879373539     
  -7122.7364407917721        1.4861133952799719        1252.4984327450720     
  -7084.5226910163237        1.2935930916828511        1252.4983840643006     
  -7046.3385772512192        1.1322791736147337        1252.4988127400131     
  -7008.1877230594200       0.99009309769098763        1252.4991896170795     
  -7876.5950307921385        3.3109348487523675        1212.6577642112463     
  -7835.3586573229341        2.7777145180334628        1212.7024884128596     
  -7794.1332982249241        2.3401772915299262        1212.7423603022241     
  -7752.9228592287145        1.9853040675257034        1212.7773733326653     
  -7711.7312460647372        1.7000757444407100        1212.8075209571123     
  -7670.5623644635989        1.4714732203647145        1212.8327966288734     
  -7629.4201201557298        1.2864773938158578        1212.8531938009926     
  -7588.3084188717066        1.1320691629880457        1212.8687059266026     
  -7547.2311663418623       0.99522942637304368        1212.8793264588619     
  -8439.0428091283757        3.2087470896613013        1169.8703065906057     
  -8394.8842593069348        2.6858599304259769        1169.9717398162400     
  -8350.7354439305709        2.2602983326892172        1170.0595174492653     
  -8306.6004551030364        1.9184219504245448        1170.1342707696274     
  -8262.4833849283023        1.6465904374149432        1170.1966310573146     
  -8218.3883255102392        1.4311634474888706        1170.2472295922344     
  -8174.3193689526288        1.2585006344625072        1170.2866976542757     
  -8130.2806073592892        1.1149616522916403        1170.3156665234562     
  -8086.2761328342231       0.98690615447048913        1170.3347674796739     
  -9001.4639752438561        3.0336759044444079        1124.1686161325536     
  -8954.3916187493578        2.5344203524791737        1124.3272859300414     
  -8907.3266114754115        2.1317900343947258        1124.4627807779718     
  -8860.2731361050191        1.8118426731607542        1124.5764850014609     
  -8813.2353753213138        1.5606359919866009        1124.6697829259758     
  -8766.2175118074156        1.3642277138337704        1124.7440588768768     
  -8719.2237282463320        1.2086755618724965        1124.8006971794680     
  -8672.2582073212798        1.0800372590333609        1124.8410821590801     
  -8625.3251317151553       0.96437052857845629        1124.8665981411402     
  -4312.9055335400881       0.78886382408290956        1406.6900769371209     
  -4289.4054373726303       0.68107991795341150        1406.6343107388243     
  -4265.9099989890219       0.58894796798335847        1406.5831747083589     
  -4242.4197960587471       0.51054240934445261        1406.5366382601760     
  -4218.9354062512721       0.44393767695464703        1406.4946708085706     
  -4195.4574072361083       0.38720820587650451        1406.4572417680142     
  -4171.9863766827575       0.33842843111983711        1406.4243205529062     
  -4148.5228922606530       0.29567278784497830        1406.3958765775351     
  -4125.0675316393372       0.25701571093532039        1406.3718792563520     
  -4851.9789984540294       0.85000685069644533        1381.7099748079825     
  -4825.5498045909635       0.73393480301410818        1381.6665642420326     
  -4799.1248072074359       0.63468651843163570        1381.6260501392853     
  -4772.7046201750327       0.55021575824775937        1381.5885417393226     
  -4746.2898573655566       0.47847628317595081        1381.5541482816873     
  -4719.8811326507102       0.41742185410680577        1381.5229790058545     
  -4693.4790599021462       0.36500623225037998        1381.4951431514680     
  -4667.0842529915881       0.31918317857821421        1381.4707499580070     
  -4640.6973257908085       0.27790645373306688        1381.4499086650651     
  -5391.0414406841828       0.90145404513941685        1353.7997495498014     
  -5361.6851442885954       0.77901102381156306        1353.7682399697694     
  -5332.3324171225659       0.67405514959227730        1353.7380840462233     
  -5302.9838821811736       0.58450977211214195        1353.7094961722992     
  -5273.6401624593582       0.50829824134552837        1353.6826907414572     
  -5244.3018809521991       0.44334390715948757        1353.6578821468431     
  -5214.9696606548314       0.38757011920461082        1353.6352847818041     
  -5185.6441245622827       0.33890022723198854        1353.6151130395735     
  -5156.3258956696009       0.29525758118916201        1353.5975813134478     
  -5930.0953694093332       0.94245265342738094        1322.9604866241800     
  -5897.8132951485532       0.81575697540620240        1322.9401928926363     
  -5865.5340959830019       0.70667368661111141        1322.9199325006830     
  -5833.2583769522562       0.61318598851789829        1322.8999903238312     
  -5800.9867430957447       0.53327708283995889        1322.8806512377128     
  -5768.7197994530343       0.46493017112629786        1322.8622001178821     
  -5736.4581510636890       0.40612845488499261        1322.8449218399303     
  -5704.2024029672484       0.35485513551589065        1322.8291012793761     
  -5671.9531602031902       0.30909341485835284        1322.8150233118504     
  -6469.1432938081543       0.97224992220844797        1289.1932714927659     
  -6433.9360958537973       0.84362105289210376        1289.1832779813001     
  -6398.7311110372175       0.73216195500708636        1289.1722515744459     
  -6363.5288993635895       0.63600594481658845        1289.1605129586337     
  -6328.3300208380197       0.55328633854151121        1289.1483828202950     
  -6293.1350354656061       0.48213645231408009        1289.1361818459031     
  -6257.9445032515287       0.42068960252981924        1289.1242307218611     
  -6222.7589842009575       0.36707910520408404        1289.1128501346045     
  -6187.5790383189324       0.31943827668419544        1289.1023607705772     
  -7008.1877230594200       0.99009309769098763        1252.4991896170795     
  -6970.0553850873239       0.86205165130513706        1252.4983502063712     
  -6931.9247295336845       0.75013978029892314        1252.4956973392091     
  -6893.7962442903208       0.65273117860624552        1252.4915528414797     
  -6855.6704172493100       0.56819953942840584        1252.4862385390411     
  -6817.5477363022555       0.49491855723226763        1252.4800762578166     
  -6779.4286893411900       0.43126192530326080        1252.4733878236502     
  -6741.3137642578859       0.37560333779538269        1252.4664950624308     
  -6703.2034489442722       0.32631648828783000        1252.4597198000004     
  -7547.2311663418623       0.99522942637304368        1212.8793264588619     
  -7506.1730015320836       0.87049716593719495        1212.8862645384963     
  -7465.1162187208483       0.76022698798897181        1212.8909258665915     
  -7424.0612066078638       0.66312322681369551        1212.8935987370471     
  -7383.0083538927829       0.57789021670578222        1212.8945714437386     
  -7341.9580492754112       0.50323229184868978        1212.8941322805329     
  -7300.9106814554434       0.43785378653228690        1212.8925695413416     
  -7259.8666391325769       0.38045903499187261        1212.8901715200343     
  -7218.8263110065409       0.32975237166647275        1212.8872265103996     
  -8086.2761328342231       0.98690615447048913        1170.3347674796739     
  -8042.2907838711526       0.86840599177776312        1170.3478759483114     
  -7998.3068458472590       0.76204340345339006        1170.3585932283008     
  -7954.3245811912193       0.66694362733005619        1170.3671394101409     
  -7910.3442523316835       0.58223190129956492        1170.3737345842133     
  -7866.3661216974324       0.50703346257614612        1170.3785988410398     
  -7822.3904517171077       0.44047354921031001        1170.3819522709991     
  -7778.4175048194738       0.38167739854816318        1170.3840149645528     
  -7734.4475434331862       0.32977024843285108        1170.3850070121384     
  -8625.3251317151553       0.96437052857845629        1124.8665981411402     
  -8578.4105707874660       0.85522652382542219        1124.8840394064582     
  -8531.4978781613154       0.75520885221567369        1124.8993554960698     
  -8484.5871629156300       0.66395391772311996        1124.9126636254834     
  -8437.6785341291579       0.58109812425072960        1124.9240810103086     
  -8390.7721008807312       0.50627787578741845        1124.9337248661720     
  -8343.8679722490924       0.43912957637712680        1124.9417124086026     
  -8296.9662573131282       0.37928962991873050        1124.9481608531910     
  -8250.0670651515939       0.32639444045162236        1124.9531874155368     
  -4125.0675316393372       0.25701571093532039        1406.3718792563520     
  -4101.6168196331455       0.22198158796754797        1406.3513291303000     
  -4078.1669723585778       0.19112379930811585        1406.3331669720988     
  -4054.7181044382642       0.16406026960157760        1406.3172725438731     
  -4031.2703304948250       0.14040892330808674        1406.3035256076746     
  -4007.8237651509103       0.11978768500421211        1406.2918059256165     
  -3984.3785230291878       0.10181447915579156        1406.2819932598104     
  -3960.9347187522771        8.6107230304605764E-002   1406.2739673723408     
  -3937.4924669427855        7.2283863053598907E-002   1406.2676080252666     
  -4640.6973257908085       0.27790645373306688        1381.4499086650651     
  -4614.3150697890924       0.24052727356024661        1381.4320166844966     
  -4587.9339458298409       0.20749900689634160        1381.4163153114573     
  -4561.5540718157108       0.17842864478507181        1381.4026796103319     
  -4535.1755656494561       0.15292317812622969        1381.3909846454728     
  -4508.7985452337307       0.13058959791669622        1381.3811054812588     
  -4482.4231284713178       0.11103489507922859        1381.3729171821049     
  -4456.0494332648459        9.3866060630261927E-002   1381.3662948123474     
  -4429.6775775170609        7.8690085633070339E-002   1381.3611134363794     
  -5156.3258956696009       0.29525758118916201        1353.5975813134478     
  -5127.0121884652308       0.25584069882779659        1353.5824664157740     
  -5097.6998843175879       0.22095849806532897        1353.5693187586508     
  -5068.3891065417001       0.19019992877906589        1353.5580131346949     
  -5039.0799784526025       0.16315394098910474        1353.5484243367389     
  -5009.7726233652402       0.13940948476783888        1353.5404271575601     
  -4980.4671645947055       0.11855550981931628        1353.5338963898987     
  -4951.1637254559146       0.10018096631415574        1353.5287068265327     
  -4921.8624292639579        8.3874804042579854E-002   1353.5247332601516     
  -5671.9531602031902       0.30909341485835284        1322.8150233118504     
  -5639.7081607295477       0.26792634308367269        1322.8028096398430     
  -5607.4648263844338       0.23149070373688119        1322.7923113469810     
  -5575.2232880273423       0.19935029830662643        1322.7834073804522     
  -5542.9836765178989       0.17106892804804374        1322.7759766875295     
  -5510.7461227156300       0.14621039465737340        1322.7698982154432     
  -5478.5107574801123       0.12433849941339759        1322.7650509113794     
  -5446.2777116710113       0.10501704362854980        1322.7613137226092     
  -5414.0471161477863        8.7809828839226611E-002   1322.7585655963246     
  -6187.5790383189324       0.31943827668419544        1289.1023607705772     
  -6152.4029716500190       0.27678868601719842        1289.0931776723219     
  -6117.2288105927901       0.23908405530141863        1289.0854271098965     
  -6082.0566956836701       0.20585592989937140        1289.0789966111288     
  -6046.8867674590529       0.17663585505601986        1289.0737737038132     
  -6011.7191664552047       0.15095537643696844        1289.0696459156698     
  -5976.5540332086630       0.12834603921692178        1289.0665007746229     
  -5941.3915082557314       0.10833938887617478        1289.0642258083180     
  -5906.2317321327655        9.0466970912984834E-002   1289.0627085445904     
  -6703.2034489442722       0.32631648828783000        1252.4597198000004     
  -6665.0966062944963       0.28243220734884744        1252.4537018289443     
  -6626.9918755052067       0.24372698394654435        1252.4488000809192     
  -6588.8894089217511       0.20969300031038074        1252.4449150902983     
  -6550.7893588896777       0.17982243792584995        1252.4419473915825     
  -6512.6918777543051       0.15360747903969241        1252.4397975192437     
  -6474.5971178612099       0.13054030505873015        1252.4383660076808     
  -6436.5052315556650       0.11011309848026940        1252.4375533913428     
  -6398.4163711832261        9.1818040689304325E-002   1252.4372602047167     
  -7218.8263110065409       0.32975237166647275        1212.8872265103996     
  -7177.7890497309427       0.28486138662219673        1212.8845134253652     
  -7136.7540596840772       0.24540792113339194        1212.8825642933250     
  -7095.7215071526543       0.21083768617427268        1212.8812970814122     
  -7054.6915584234566       0.18059639261036864        1212.8806297568979     
  -7013.6643797832039       0.15412975120398187        1212.8804802869006     
  -6972.6401375185396       0.13088347305483694        1212.8807666387002     
  -6931.6189979163992       0.11030326864056406        1212.8814067794654     
  -6890.6011272633623        9.1834849186398060E-002   1212.8823186763536     
  -7734.4475434331862       0.32977024843285108        1170.3850070121384     
  -7690.4802870273261       0.28408070343402869        1170.3857437772997     
  -7646.5154016919678       0.24411529794451781        1170.3868537805747     
  -7602.5530697874428       0.20926616435872347        1170.3882768480375     
  -7558.5934736740528       0.17892543496827784        1170.3899528057116     
  -7514.6367957120729       0.15248524212711345        1170.3918214796292     
  -7470.6832182617818       0.12933771834696017        1170.3938226958408     
  -7426.7329236834494       0.10887499589352956        1170.3958962803817     
  -7382.7860943374144        9.0489207126665860E-002   1170.3979820592776     
  -8250.0670651515939       0.32639444045162236        1124.9531874155368     
  -8203.1703032515088       0.28009463749776842        1124.9575242003677     
  -8156.2759400913537       0.23983754566324933        1124.9618025761079     
  -8109.3841762371576       0.20495461135442383        1124.9659886536765     
  -8062.4952122551304       0.17477728084986666        1124.9700485440476     
  -8015.6092487113137       0.14863700056366724        1124.9739483581996     
  -7968.7264861716922       0.12586521699904551        1124.9776542071386     
  -7921.8471252024874       0.10579337632998431        1124.9811322018300     
  -7874.9713663697221        8.7752924980122771E-002   1124.9843484532025     
  -3937.4924669427855        7.2283863053598907E-002   1406.2676080252666     
  -3914.0512452387366        6.0183445080838283E-002   1406.2623651561730     
  -3890.6104916544255        4.9777123012518132E-002   1406.2577621953292     
  -3867.1702613771695        4.0880939210637735E-002   1406.2537891442655     
  -3843.7306095941994        3.3310936126326851E-002   1406.2504360044040     
  -3820.2915914927535        2.6883156335998137E-002   1406.2476927771745     
  -3796.8532622601369        2.1413642183233605E-002   1406.2455494640540     
  -3773.4156770835889        1.6718436185328756E-002   1406.2439960664708     
  -3749.9788911503342        1.2613580845709293E-002   1406.2430225858434     
  -4429.6775775170609        7.8690085633070339E-002   1381.3611134363794     
  -4403.3068716343987        6.5385152896851650E-002   1381.3568551373462     
  -4376.9365878568806        5.3956666879457771E-002   1381.3530873174398     
  -4350.5667868373721        4.4202451338378523E-002   1381.3498130196899     
  -4324.1975292287925        3.5920329921736993E-002   1381.3470352870872     
  -4297.8288756840539        2.8908126026635728E-002   1381.3447571624454     
  -4271.4608868560590        2.2963663599966821E-002   1381.3429816889070     
  -4245.0936233976909        1.7884766153883902E-002   1381.3417119093720     
  -4218.7271459619587        1.3469257173255755E-002   1381.3409508668271     
  -4921.8624292639579        8.3874804042579854E-002   1353.5247332601516     
  -4892.5623998032352        6.9555192351572259E-002   1353.5214929407236     
  -4863.2627221414996        5.7269355905873454E-002   1353.5185962307994     
  -4833.9634615188861        4.6799827716085929E-002   1353.5160575918696     
  -4804.6646831753624        3.7929141174572578E-002   1353.5138914855747     
  -4775.3664523509915        3.0439829419037778E-002   1353.5121123735541     
  -4746.0688342858803        2.4114425414609286E-002   1353.5107347173473     
  -4716.7718942199972        1.8735462441554773E-002   1353.5097729785971     
  -4687.4756973934727        1.4085473529121373E-002   1353.5092416188543     
  -5414.0471161477863        8.7809828839226611E-002   1322.7585655963246     
  -5381.8178973235954        7.2673289877002389E-002   1322.7563637266594     
  -5349.5889403377860        5.9701441050265203E-002   1322.7543621811585     
  -5317.3603141390058        4.8664453233186578E-002   1322.7525852170666     
  -5285.1320876759019        3.9332497631676233E-002   1322.7510570917702     
  -5252.9043298972229        3.1475745282932621E-002   1322.7498020625640     
  -5220.6771097516630        2.4864367006102839E-002   1322.7488443867426     
  -5188.4504961879575        1.9268533862032200E-002   1322.7482083216178     
  -5156.2245581547750        1.4458416785373629E-002   1322.7479181245517     
  -5906.2317321327655        9.0466970912984834E-002   1289.0627085445904     
  -5871.0734317740016        7.4719171832612119E-002   1289.0615526554836     
  -5835.9152882750841        6.1239173412559467E-002   1289.0604584144846     
  -5800.7573734149973        4.9787712533088779E-002   1289.0594582517581     
  -5765.5997589724984        4.0125526523752342E-002   1289.0585845974558     
  -5730.4425167264653        3.2013352441936149E-002   1289.0578698816273     
  -5695.2857184557251        2.5211927648342680E-002   1289.0573465344585     
  -5660.1294359391668        1.9481989162159152E-002   1289.0570469860454     
  -5624.9737409555846        1.4584274279059173E-002   1289.0570036664792     
  -6398.4163711832261        9.1818040689304325E-002   1252.4372602047167     
  -6360.3290707326751        7.5672564954857080E-002   1252.4371448875561     
  -6322.2418117827874        6.1868804422829271E-002   1252.4369581767926     
  -6284.1546680641131        5.0160990578206111E-002   1252.4367390523985     
  -6246.0677133071695        4.0303355129708507E-002   1252.4365264943756     
  -6207.9810212423417        3.2050130030029322E-002   1252.4363594828808     
  -6169.8946656002181        2.5155546659789252E-002   1252.4362769978263     
  -6131.8087201112266        1.9373837007833572E-002   1252.4363180192875     
  -6093.7232585058218        1.4459232789477028E-002   1252.4365215272983     
  -6890.6011272633623        9.1834849186398060E-002   1212.8823186763536     
  -6849.5848817780470        7.5513195734401961E-002   1212.8832255832547     
  -6808.5685566902612        6.1576585167586018E-002   1212.8839347138826     
  -6767.5522268036966        4.9775672018768091E-002   1212.8844899752660     
  -6726.5359669218797        3.9861111142272421E-002   1212.8849352744403     
  -6685.5198518485831        3.1583556653458800E-002   1212.8853145183975     
  -6644.5039563872215        2.4693663668131194E-002   1212.8856716142427     
  -6603.4883553415830        1.8942086397146340E-002   1212.8860504689512     
  -6562.4731235152622        1.4079479522479232E-002   1212.8864949895535     
  -7382.7860943374144        9.0489207126665860E-002   1170.3979820592776     
  -7338.8409324885451        7.4220790475919785E-002   1170.3998799029434     
  -7294.8955688269652        6.0348766754032113E-002   1170.4014612717301     
  -7250.9500783509384        4.8623141936786851E-002   1170.4027733768532     
  -7207.0045360587901        3.8793921585693170E-002   1170.4038634294043     
  -7163.0590169487186        3.0611111518282996E-002   1170.4047786403967     
  -7119.1135960190140        2.3824717699426401E-002   1170.4055662210919     
  -7075.1683482678900        1.8184745815233327E-002   1170.4062733825399     
  -7031.2233486936884        1.3441201603654918E-002   1170.4069473359079     
  -7874.9713663697221        8.7752924980122771E-002   1124.9843484532025     
  -7828.0972904425498        7.1775075685764023E-002   1124.9871930069723     
  -7781.2228940222503        5.8171600535388279E-002   1124.9896110963166     
  -7734.3482514231991        4.6694784875398909E-002   1124.9916516135668     
  -7687.4734369598582        3.7096913959430822E-002   1124.9933634510203     
  -7640.5985249466030        2.9130273251666949E-002   1124.9947955009359     
  -7593.7235896977563        2.2547148086687230E-002   1124.9959966557196     
  -7546.8487055277719        1.7099823828175431E-002   1124.9970158076108     
  -7499.9739467510417        1.2540585801161797E-002   1124.9979018489241     
  -3749.9788911503342        1.2613580845709293E-002   1406.2430225858434     
  -3726.5424647647469        9.0802701352004078E-003   1406.2424196558493     
  -3703.1059362268697        6.1730457853172993E-003   1406.2419783163987     
  -3679.6693277173640        3.8179722430413676E-003   1406.2416891781754     
  -3656.2326614169619        1.9411136199778412E-003   1406.2415428518739     
  -3632.7959595064067        4.6853422236381448E-004   1406.2415299482550     
  -3609.3592441663982       -6.7370163378654979E-004   1406.2416410780659     
  -3585.9225375776823       -1.5595298348216602E-003   1406.2418668519824     
  -3562.4858619209081       -2.2628859028372972E-003   1406.2421978807197     
  -4218.7271459619587        1.3469257173255755E-002   1381.3409508668271     
  -4192.3610296170073        9.6792337210445112E-003   1381.3405201440462     
  -4165.9948249063809        6.5585418892624148E-003   1381.3402318882872     
  -4139.6285556958255        4.0276291276768461E-003   1381.3400749891734     
  -4113.2622458513242        2.0069421771040652E-003   1381.3400383363100     
  -4086.8959192385732        4.1692859781505831E-004   1381.3401108193032     
  -4060.5295997234311       -8.2196430480507843E-004   1381.3402813278037     
  -4034.1633111717260       -1.7892894481974508E-003   1381.3405387513710     
  -4007.7970774492987       -2.5645994853675802E-003   1381.3408719796500     
  -4687.4756973934727        1.4085473529121373E-002   1353.5092416188543     
  -4658.1798523651314        1.0104385205977451E-002   1353.5089940386754     
  -4628.8839408071399        6.8217460766391014E-003   1353.5088657837550     
  -4599.5879876297913        4.1545218191458844E-003   1353.5088445330293     
  -4570.2920177432388        2.0196786656470067E-003   1353.5089179655586     
  -4540.9960560576119        3.3418283874198096E-004   1353.5090737605556     
  -4511.7001274831964       -9.8499996693135472E-004   1353.5092995970185     
  -4482.4042569300900       -2.0209036363212363E-003   1353.5095831540482     
  -4453.1084693085359       -2.8565620634708466E-003   1353.5099121107128     
  -5156.2245581547750        1.4458416785373629E-002   1322.7479181245517     
  -5123.9989533803091        1.0349612986146894E-002   1322.7478597437657     
  -5091.7733105030802        6.9546855083899572E-003   1322.7478942754440     
  -5059.5476548367524        4.1892551751061546E-003   1322.7480086986857     
  -5027.3220116952079        1.9689424377702380E-003   1322.7481899926047     
  -4995.0964063922893        2.0936794385306712E-004   1322.7484251363644     
  -4962.8708642417587       -1.1738476321170310E-003   1322.7487011090520     
  -4930.6454105575240       -2.2650838452591415E-003   1322.7490048897573     
  -4898.4200706533347       -3.1487200515130098E-003   1322.7493234576359     
  -5624.9737409555846        1.4584274279059173E-002   1289.0570036664792     
  -5589.8183530337601        1.0408805651195507E-002   1289.0571356630733     
  -5554.6629605676499        6.9493886110194580E-003   1289.0573316360803     
  -5519.5075886340965        4.1224338835945673E-003   1289.0575783752818     
  -5484.3522623097042        1.8443525523252902E-003   1289.0578626704046     
  -5449.1970066711610        3.1555711075270665E-005   1289.0581713111117     
  -5414.0418467952959       -1.3995459610214311E-003   1289.0584910871760     
  -5378.8868077587940       -2.5325414537746838E-003   1289.0588087882709     
  -5343.7319146383206       -3.4510196517203440E-003   1289.0591112041116     
  -6093.7232585058218        1.4459232789477028E-002   1252.4365215272983     
  -6055.6380716965532        1.0275851929918645E-002   1252.4368402005957     
  -6017.5529175747342        6.7978828926698043E-003   1252.4371921385430     
  -5979.4678203392796        3.9446627822599112E-003   1252.4375644520214     
  -5941.3828041891265        1.6355283787561348E-003   1252.4379442518905     
  -5903.2978933230443       -2.1018281040596776E-004   1252.4383186491541     
  -5865.2131119399673       -1.6731339585476235E-003   1252.4386747546566     
  -5827.1284842387822       -2.8339879645500332E-003   1252.4389996792622     
  -5789.0440344183444       -3.7734077584445913E-003   1252.4392805339285     
  -6562.4731235152622        1.4079479522479232E-002   1212.8864949895535     
  -6521.4581297397654        9.9446406520655728E-003   1212.8869917601905     
  -6480.4432080978549        6.4921964890345407E-003   1212.8874900553760     
  -6439.4283812697604        3.6465465373112238E-003   1212.8879778178070     
  -6398.4136719358903        1.3320893413037993E-003   1212.8884429901095     
  -6357.3991027764932       -5.2677597886940930E-004   1212.8888735148389     
  -6316.3846964717450       -2.0056501366525481E-003   1212.8892573348171     
  -6275.3704757021587       -3.1801346526663110E-003   1212.8895823925559     
  -6234.3564631479012       -4.1258301152993226E-003   1212.8898366307458     
  -7031.2233486936884        1.3441201603654918E-002   1170.4069473359079     
  -6987.2785475346682        9.4090600900926802E-003   1170.4076087458095     
  -6943.3338587107337        6.0243573948355333E-003   1170.4082396594347     
  -6899.3893027430049        3.2186899798034574E-003   1170.4088293618183     
  -6855.4449001524945        9.2365447562769987E-004   1170.4093671378903     
  -6811.5006714601395       -9.2915240657021059E-004   1170.4098422726029     
  -6767.5566371868763       -2.4081337251118384E-003   1170.4102440509396     
  -6723.6128178538238       -3.5816931899717019E-003   1170.4105617578723     
  -6679.6692339818301       -4.5182335597928613E-003   1170.4107846783274     
  -7499.9739467510417        1.2540585801161797E-002   1124.9979018489241     
  -7453.0993454522140        8.6629994930262910E-003   1124.9987095612655     
  -7406.2248959870631        5.3863933576394629E-003   1124.9994552234123     
  -7359.3506160764236        2.6516978914514766E-003   1125.0001299731384     
  -7312.4765234413262        3.9984310797080980E-004   1125.0007249482692     
  -7265.6026358027648       -1.4282408242252131E-003   1125.0012312867275     
  -7218.7289708814596       -2.8916235019096348E-003   1125.0016401263345     
  -7171.8555463985313       -4.0493748647350003E-003   1125.0019426049432     
  -7124.9823800748572       -4.9605646331656317E-003   1125.0021298604054     
  -3562.4858619209081       -2.2628859028372972E-003   1406.2421978807197     
  -3539.0491988707845       -2.8358840704640897E-003   1406.2425762048736     
  -3515.6125173505034       -3.2881336519494653E-003   1406.2429515722781     
  -3492.1758204135153       -3.6298127179179573E-003   1406.2433261544691     
  -3468.7391111134439       -3.8711001802766987E-003   1406.2437021229503     
  -3445.3023925037869       -4.0221742713129061E-003   1406.2440816493011     
  -3421.8656676381338       -4.0932136123501550E-003   1406.2444669051570     
  -3398.4289395699989       -4.0943966405393439E-003   1406.2448600620116     
  -3374.9922113529028       -4.0359017953051080E-003   1406.2452632913953     
  -4007.7970774492987       -2.5645994853675802E-003   1381.3408719796500     
  -3981.4308630583860       -3.1992401247862290E-003   1381.3412334340057     
  -3955.0646187896473       -3.6988515541906963E-003   1381.3415851487830     
  -3928.6983479412102       -4.0744276213899866E-003   1381.3419304331653     
  -3902.3320538114904       -4.3369629706830892E-003   1381.3422725961857     
  -3875.9657396987336       -4.4974519539664470E-003   1381.3426149468719     
  -3849.5994089012474       -4.5668886702969758E-003   1381.3429607945341     
  -3823.2330647173230       -4.5562676550616743E-003   1381.3433134481515     
  -3796.8667104452611       -4.4765830680262297E-003   1381.3436762168219     
  -4453.1084693085359       -2.8565620634708466E-003   1353.5099121107128     
  -4423.8127077480995       -3.5398462389366614E-003   1353.5102502489601     
  -4394.5169013621171       -4.0719065043504088E-003   1353.5105725333658     
  -4365.2210540368014       -4.4656968063918612E-003   1353.5108834167218     
  -4335.9251696580468       -4.7341700885681348E-003   1353.5111873519813     
  -4306.6292521119603       -4.8902800722316897E-003   1353.5114887921122     
  -4277.3333052845437       -4.9469801635950716E-003   1353.5117921899648     
  -4248.0373330618368       -4.9172239464496670E-003   1353.5121019985011     
  -4218.7413393298784       -4.8139647224161308E-003   1353.5124226705748     
  -4898.4200706533347       -3.1487200515130098E-003   1322.7493234576359     
  -4866.1947628060725       -3.8666620300773502E-003   1322.7496323611540     
  -4833.9693916281522       -4.4152670798212057E-003   1322.7499195647183     
  -4801.7439619362303       -4.8105910022968601E-003   1322.7501906712880     
  -4769.5184785470747       -5.0686897075138404E-003   1322.7504512838159     
  -4737.2929462774837       -5.2056190304483607E-003   1322.7507070053186     
  -4705.0673699442759       -5.2374351396338170E-003   1322.7509634387000     
  -4672.8417543642236       -5.1801938018343208E-003   1322.7512261869713     
  -4640.6161043540624       -5.0499510587087570E-003   1322.7515008530966     
  -5343.7319146383206       -3.4510196517203440E-003   1289.0591112041116     
  -5308.5770580988046       -4.1886477260959509E-003   1289.0593854819040     
  -5273.4221161476044       -4.7369009566864406E-003   1289.0596320817849     
  -5238.2670948753421       -5.1160811310637655E-003   1289.0598577630835     
  -5203.1120003724227       -5.3464899112896092E-003   1289.0600692850437     
  -5167.9568387293693       -5.4484289848915068E-003   1289.0602734069016     
  -5132.8016160368225       -5.4422003502168081E-003   1289.0604768880005     
  -5097.6463383852051       -5.3481054251278692E-003   1289.0606864875658     
  -5062.4910118650987       -5.1864462238881970E-003   1289.0609089648585     
  -5789.0440344183444       -3.7734077584445913E-003   1252.4392805339285     
  -5750.9596234924657       -4.5147631392410403E-003   1252.4395153226460     
  -5712.8751014806267       -5.0447763348984154E-003   1252.4397159235821     
  -5674.7904760900501       -5.3891380073309847E-003   1252.4398902584305     
  -5636.7057550280006       -5.5735390724294120E-003   1252.4400462490407     
  -5598.6209460016944       -5.6236702118894755E-003   1252.4401918173519     
  -5560.5360567185016       -5.5652226992606302E-003   1252.4403348851240     
  -5522.4510948855859       -5.4238870750396018E-003   1252.4404833741537     
  -5484.3660682102482       -5.2253543390179402E-003   1252.4406452063497     
  -6234.3564631479012       -4.1258301152993226E-003   1212.8898366307458     
  -6193.3424888532581       -4.8539678100496531E-003   1212.8900275947951     
  -6152.3283741870200       -5.3468608093680814E-003   1212.8901769287984     
  -6111.3141288161678       -5.6367321649304358E-003   1212.8902937234093     
  -6070.2997624076161       -5.7558049784347531E-003   1212.8903870692861     
  -6029.2852846284723       -5.7363029702628410E-003   1212.8904660569756     
  -5988.2707051455600       -5.6104491136466095E-003   1212.8905397772651     
  -5947.2560336260121       -5.4104668679428869E-003   1212.8906173207317     
  -5906.2412797367551       -5.1685794635432103E-003   1212.8907077780059     
  -6679.6692339818301       -4.5182335597928613E-003   1170.4107846783274     
  -6635.7256840476566       -5.2152221360302065E-003   1170.4109280097036     
  -6591.7819608270311       -5.6511228062845476E-003   1170.4110209364726     
  -6547.8380762896322       -5.8658343909883115E-003   1170.4110737243836     
  -6503.8940424052835       -5.8992562417188310E-003   1170.4110966390897     
  -6459.9498711435699       -5.7912872016459005E-003   1170.4110999463080     
  -6416.0055744743677       -5.5818265873313067E-003   1170.4110939117988     
  -6372.0611643672191       -5.3107730068404635E-003   1170.4110888012460     
  -6328.1166527919922       -5.0180260550405364E-003   1170.4110948803179     
  -7124.9823800748572       -4.9605646331656317E-003   1125.0021298604054     
  -7078.1092389418300       -5.6074857125167910E-003   1125.0022222787202     
  -7031.2358879605472       -5.9655301706698083E-003   1125.0022537853881     
  -6984.3623417463168       -6.0834156333839928E-003   1125.0022358274571     
  -6937.4886149147633       -6.0098607414147409E-003   1125.0021798518869     
  -6890.6147220812536       -5.7935834224736027E-003   1125.0020973056605     
  -6843.7406778611648       -5.4833017411510809E-003   1125.0019996359194     
  -6796.8664968700305       -5.1277340121487214E-003   1125.0018982896031     
  -6749.9921937232475       -4.7755982841408695E-003   1125.0018047137537     
  -3374.9922113529028       -4.0359017953051080E-003   1406.2452632913953     
  -3351.5554521038466       -3.9181978156648256E-003   1406.2456558970450     
  -3328.1186315611935       -3.7438245219618693E-003   1406.2460171414461     
  -3304.6817537103607       -3.5260669239960407E-003   1406.2463491345170     
  -3281.2448225369462       -3.2782102509827382E-003   1406.2466539860482     
  -3257.8078420265433       -3.0135396091282018E-003   1406.2469338058584     
  -3234.3708161646014       -2.7453401096408925E-003   1406.2471907038491     
  -3210.9337489366635       -2.4868970208444807E-003   1406.2474267899283     
  -3187.4966443284115       -2.2514954134749132E-003   1406.2476441738011     
  -3796.8667104452611       -4.4765830680262297E-003   1381.3436762168219     
  -3770.5003164867981       -4.3296510293657775E-003   1381.3440286159389     
  -3744.1338541544887       -4.1203233497526526E-003   1381.3443492690008     
  -3717.7673281126417       -3.8641481032755109E-003   1381.3446401473677     
  -3691.4007430258298       -3.5766735386459914E-003   1381.3449032223305     
  -3665.0341035583592       -3.2734475282722997E-003   1381.3451404652021     
  -3638.6674143748014       -2.9700185041292571E-003   1381.3453538473354     
  -3612.3006801395254       -2.6819344682280644E-003   1381.3455453400147     
  -3585.9339055169812       -2.4247436242603726E-003   1381.3457169145597     
  -4218.7413393298784       -4.8139647224161308E-003   1353.5124226705748     
  -4189.4452979859516       -4.6416234365551645E-003   1353.5127338988921     
  -4160.1491835390243       -4.4066600089536223E-003   1353.5130134545852     
  -4130.8530007928866       -4.1250870938256412E-003   1353.5132629080647     
  -4101.5567545512595       -3.8129170516185695E-003   1353.5134838297390     
  -4072.2604496179742       -3.4861625078974612E-003   1353.5136777901491     
  -4042.9640907966082       -3.1608358624453103E-003   1353.5138463597777     
  -4013.6676828910354       -2.8529496155442757E-003   1353.5139911090212     
  -3984.3712307049864       -2.5785164780245395E-003   1353.5141136083296     
  -4640.6161043540624       -5.0499510587087570E-003   1322.7515008530966     
  -4608.3903999009272       -4.8551047959790594E-003   1322.7517677875733     
  -4576.1646207165031       -4.6031350273096905E-003   1322.7520042104868     
  -4543.9387712041553       -4.3087196852411580E-003   1322.7522110290768     
  -4511.7128557674114       -3.9865372093572660E-003   1322.7523891506264     
  -4479.4868788097510       -3.6512657857201702E-003   1322.7525394823733     
  -4447.2608447346247       -3.3175835467318393E-003   1322.7526629316258     
  -4415.0347579455247       -3.0001687930507615E-003   1322.7527604056509     
  -4382.8086228458869       -2.7136998921832856E-003   1322.7528328115661     
  -5062.4910118650987       -5.1864462238881970E-003   1289.0609089648585     
  -5027.3356255315321       -4.9710855284956779E-003   1289.0611263236046     
  -4992.1801666885212       -4.7100491140099621E-003   1289.0613160490316     
  -4957.0246387995630       -4.4148821207272704E-003   1289.0614781230408     
  -4921.8690453283170       -4.0971302209982241E-003   1289.0616125273311     
  -4886.7133897384883       -3.7683386024127685E-003   1289.0617192434438     
  -4851.5576754935382       -3.4400528275000397E-003   1289.0617982532476     
  -4816.4019060572291       -3.1238181488788541E-003   1289.0618495384376     
  -4781.2460848930759       -2.8311800624578609E-003   1289.0618730807391     
  -5484.3660682102482       -5.2253543390179402E-003   1252.4406452063497     
  -5446.2809781773967       -4.9905551127267245E-003   1252.4408055486613     
  -5408.1958224566206       -4.7277023613787605E-003   1252.4409434828094     
  -5370.1106030321553       -4.4434102017021360E-003   1252.4410578027296     
  -5332.0253218880716       -4.1442922658916359E-003   1252.4411473021369     
  -5293.9399810087180       -3.8369626633993903E-003   1252.4412107749317     
  -5255.8545823781014       -3.5280352944937476E-003   1252.4412470150069     
  -5217.7691279804294       -3.2241240198800369E-003   1252.4412548161804     
  -5179.6836197999801       -2.9318428003080044E-003   1252.4412329723734     
  -5906.2412797367551       -5.1685794635432103E-003   1212.8907077780059     
  -5865.2264611381070       -4.9145034058710735E-003   1212.8908015044337     
  -5824.2115890224140       -4.6563954733755963E-003   1212.8908810240682     
  -5783.1966633549291       -4.3941395833826391E-003   1212.8909436805297     
  -5742.1816841007021       -4.1276194451711490E-003   1212.8909868174605     
  -5701.1666512249976       -3.8567190890717029E-003   1212.8910077785190     
  -5660.1515646928492       -3.5813221140870155E-003   1212.8910039073305     
  -5619.1364244694314       -3.3013126144396665E-003   1212.8909725476019     
  -5578.1212305199242       -3.0165742064127699E-003   1212.8909110428956     
  -6328.1166527919922       -5.0180260550405364E-003   1170.4110948803179     
  -6284.1720777134615       -4.7439206132366962E-003   1170.4111102325892     
  -6240.2274673876345       -4.4964290086682013E-003   1170.4111231851880     
  -6196.2828192210700       -4.2669064298479498E-003   1170.4111293691535     
  -6152.3381306203628       -4.0467082901614049E-003   1170.4111244156645     
  -6108.3933989919642       -3.8271892772172578E-003   1170.4111039557549     
  -6064.4486217424910       -3.5997048962599365E-003   1170.4110636205974     
  -6020.5037962784209       -3.3556100950136170E-003   1170.4109990412308     
  -5976.5589200063878       -3.0862603102832509E-003   1170.4109058487429     
  -6749.9921937232475       -4.7755982841408695E-003   1125.0018047137537     
  -6703.1178312030715       -4.4797963719247491E-003   1125.0017277747440     
  -6656.2434585537731       -4.2481032869545743E-003   1125.0016644785057     
  -6609.3690700836105       -4.0615467396492022E-003   1125.0016084812523     
  -6562.4946601010070       -3.9011546550682397E-003   1125.0015534391139     
  -6515.6202229143328       -3.7479548491319292E-003   1125.0014930083444     
  -6468.7457528318055       -3.5829751227538509E-003   1125.0014208451657     
  -6421.8712441618500       -3.3872432695716270E-003   1125.0013306058206     
  -6374.9966912128921       -3.1417873260579654E-003   1125.0012159465275     
  -3187.4966443284115       -2.2514954134749132E-003   1406.2476441738011     
  -3164.0595124873516       -2.0506475825641246E-003   1406.2478417384332     
  -3140.6223587857889       -1.8799480401412438E-003   1406.2480162714039     
  -3117.1851800461041       -1.7288049621129176E-003   1406.2481667394040     
  -3093.7479730907362       -1.5866263305497341E-003   1406.2482921092012     
  -3070.3107347422060       -1.4428203631950964E-003   1406.2483913474969     
  -3046.8734618229369       -1.2867950615600421E-003   1406.2484634210016     
  -3023.4361511553848       -1.1079586925006879E-003   1406.2485072965412     
  -2999.9987995618303       -8.9571924650044821E-004   1406.2485219406897     
  -3585.9339055169812       -2.4247436242603726E-003   1381.3457169145597     
  -3559.5671059226420       -2.2123447372450755E-003   1381.3458721835409     
  -3533.2002903441162       -2.0372104654597933E-003   1381.3460122598945     
  -3506.8334538039621       -1.8827494643574028E-003   1381.3461353654320     
  -3480.4665913247609       -1.7323704159935005E-003   1381.3462397220092     
  -3454.0996979291281       -1.5694817448093090E-003   1381.3463235514914     
  -3427.7327686395979       -1.3774920907962951E-003   1381.3463850756777     
  -3401.3657984789129       -1.1398099447887944E-003   1381.3464225163696     
  -3374.9987824691716       -8.3984413709004002E-004   1381.3464340955586     
  -3984.3712307049864       -2.5785164780245395E-003   1353.5141136083296     
  -3955.0747550080578       -2.3529154912012018E-003   1353.5142230872079     
  -3925.7782694187013       -2.1676895478321967E-003   1353.5143263126158     
  -3896.4817680142260       -2.0030960349686211E-003   1353.5144211608465     
  -3867.1852448717618       -1.8393920395283203E-003   1353.5145055086584     
  -3837.8886940685929       -1.6568351409205206E-003   1353.5145772323108     
  -3808.5921096817965       -1.4356828098698315E-003   1353.5146342085218     
  -3779.2954857889090       -1.1561923292902065E-003   1353.5146743134544     
  -3749.9988164666738       -7.9862121060614299E-004   1353.5146954239253     
  -4382.8086228458869       -2.7136998921832856E-003   1322.7528328115661     
  -4350.5824647001155       -2.4738468953273696E-003   1322.7528950700546     
  -4318.3563018276927       -2.2731305803063151E-003   1322.7529601172657     
  -4286.1301282149007       -2.0915054349188722E-003   1322.7530258838678     
  -4253.9039378482312       -1.9089260524651763E-003   1322.7530903005445     
  -4221.6777247139735       -1.7053467197456484E-003   1322.7531512980190     
  -4189.4514827983739       -1.4607220578000124E-003   1322.7532068069677     
  -4157.2252060880037       -1.1550065717074176E-003   1322.7532547580013     
  -4124.9988885688563       -7.6815451825495984E-004   1322.7532930820209     
  -4781.2460848930759       -2.8311800624578609E-003   1289.0618730807391     
  -4746.0902399553743       -2.5766258722796920E-003   1289.0618887526684     
  -4710.9343933890796       -2.3552791190013522E-003   1289.0619153617611     
  -4675.7785399442919       -2.1496398089766444E-003   1289.0619512925009     
  -4640.6226743708276       -1.9422075397415028E-003   1289.0619949291961     
  -4605.4667914187949       -1.7154825034140231E-003   1289.0620446565674     
  -4570.3108858380101       -1.4519643909807201E-003   1289.0620988588294     
  -4535.1549523786916       -1.1341532181177172E-003   1289.0621559202875     
  -4499.9989857904593       -7.4454874948060024E-004   1289.0622142258444     
  -5179.6836197999801       -2.9318428003080044E-003   1252.4412329723734     
  -5141.5980857303139       -2.6627392376212811E-003   1252.4412047555986     
  -5103.5125499211217       -2.4158804083072027E-003   1252.4411937338043     
  -5065.4270087403129       -2.1791599353946367E-003   1252.4411991447362     
  -5027.3414585561304       -1.9404715626478719E-003   1252.4412202262024     
  -4989.2558957366264       -1.6877086704880639E-003   1252.4412562157679     
  -4951.1703166496964       -1.4087647518863378E-003   1252.4413063514321     
  -4913.0847176635552       -1.0915333266439120E-003   1252.4413698705705     
  -4874.9990951463524       -7.2390823061141418E-004   1252.4414460112682     
  -5578.1212305199242       -3.0165742064127699E-003   1212.8909110428956     
  -5537.1060069814657       -2.7336739642578323E-003   1212.8908436993577     
  -5496.0907772418041       -2.4566800764205254E-003   1212.8907969211307     
  -5455.0755401413862       -2.1817279814513313E-003   1212.8907711987301     
  -5414.0602945207265       -1.9049528784762515E-003   1212.8907670228450     
  -5373.0450392208359       -1.6224909677475807E-003   1212.8907848837962     
  -5332.0297730820503       -1.3304771673574578E-003   1212.8908252724275     
  -5291.0144949454861       -1.0250476866531244E-003   1212.8908886790148     
  -5249.9992036513886       -7.0233746578196588E-004   1212.8909755944512     
  -5976.5589200063878       -3.0862603102832509E-003   1170.4109058487429     
  -5932.6140086655723       -2.7909172890758782E-003   1170.4108062047026     
  -5888.6690811692133       -2.4794233904685825E-003   1170.4107266116748     
  -5844.7241396852496       -2.1590046842447919E-003   1170.4106692126902     
  -5800.7791863811599       -1.8368867163189861E-003   1170.4106361506633     
  -5756.8342234249567       -1.5202956253688171E-003   1170.4106295686274     
  -5712.8892529841660       -1.2164569131982716E-003   1170.4106516093875     
  -5668.9442772267403       -9.3259675736589998E-004   1170.4107044159164     
  -5624.9992983204056       -6.7594090046441124E-004   1170.4107901311836     
  -6374.9966912128921       -3.1417873260579654E-003   1125.0012159465275     
  -6328.1220957389769       -2.8359558914416994E-003   1125.0010928920740     
  -6281.2474675216581       -2.4858558590494795E-003   1125.0009844931146     
  -6234.3728129102419       -2.1126517881384643E-003   1125.0008949445546     
  -6187.4981382540418       -1.7375079080466094E-003   1125.0008284412179     
  -6140.6234499023813       -1.3815886068186956E-003   1125.0007891779978     
  -6093.7487542046838       -1.0660584318884503E-003   1125.0007813497550     
  -6046.8740575101929       -8.1208178312408563E-004   1125.0008091513798     
  -5999.9993661682774       -6.4082300832524197E-004   1125.0008767775817     
  -9001.4639752438561        3.0336759044444079        1124.1686161325536     
  -8954.3916187493578        2.5344203524791737        1124.3272859300414     
  -8907.3266114754115        2.1317900343947258        1124.4627807779718     
  -8860.2731361050191        1.8118426731607542        1124.5764850014609     
  -8813.2353753213138        1.5606359919866009        1124.6697829259758     
  -8766.2175118074156        1.3642277138337704        1124.7440588768768     
  -8719.2237282463320        1.2086755618724965        1124.8006971794680     
  -8672.2582073212798        1.0800372590333609        1124.8410821590801     
  -8625.3251317151553       0.96437052857845629        1124.8665981411402     
  -9563.8549230045082        2.7952410771172254        1075.5536047163118     
  -9513.8770243857216        2.3362693132362438        1075.7675854902589     
  -9463.9034103616013        1.9688596004270948        1075.9490423520774     
  -9413.9381379593215        1.6794885149392940        1076.1000900705744     
  -9363.9852642062760        1.4546326325339578        1076.2228434145300     
  -9314.0488461295135        1.2807685294087605        1076.3194171527234     
  -9264.1329407562935        1.1443727815799321        1076.3919260539792     
  -9214.2416051137207        1.0319219651501044        1076.4424848869978     
  -9164.3788962290582       0.92989265597952908        1076.4732084206328     
  -10126.217808231148        2.5012338053284111        1024.0284355727940     
  -10073.339491539633        2.1034623651044058        1024.2922844971326     
  -10020.462666343752        1.7856493592080369        1024.5155047656342     
  -9967.5909273385387        1.5358124704357579        1024.7007811680960     
  -9914.7278692192776        1.3419693815794744        1024.8507984939631     
  -9861.8770866811810        1.1921377751573345        1024.9682415331106     
  -9809.0421744194009        1.0743353340781141        1025.0557950749999     
  -9756.2267271291057       0.97657974099411149        1025.1161439094185     
  -9703.4343395054329       0.88688867876089716        1025.1519728259943     
  -10688.559008972565        2.1497406743455940        969.60311780033692     
  -10632.782594154211        1.8349273251510567        969.90871143322283     
  -10577.005607609270        1.5817908543431258        970.16720867405400     
  -10521.230845024427        1.3810123052094241        970.38170391092547     
  -10465.461102086863        1.2232727209866425        970.55529153181385     
  -10409.699174483674        1.0992531446477187        970.69106592459457     
  -10353.947857901934       0.99963461944071241        970.79212147734700     
  -10298.209948028652       0.91509818845543123        970.86155257797850     
  -10242.488240550891       0.83632489473620808        970.90245361452378     
  -11250.884903277949        1.7388482694818777        912.28766049752903     
  -11192.209906172828        1.5295920103330900        912.62419478096547     
  -11133.533462345527        1.3569156295907305        912.90919473265183     
  -11074.857231798731        1.2152857847472660        913.14600391623526     
  -11016.182874535330        1.0991691331300899        913.33796589546830     
  -10957.512050558184        1.0030323316527756        913.48842423406688     
  -10898.846419870028       0.92134203786326907        913.60072249579071     
  -10840.187642473657       0.84856490903985105        913.67820424431613     
  -10781.537378372077       0.77916760212656300        913.72421304346449     
  -11813.201869196095        1.2666431760526393        852.09207276277243     
  -11751.625001538305        1.1863842376747016        852.44606302309558     
  -11690.047458739971        1.1106552287392333        852.74650359680243     
  -11628.469428443515        1.0388306742802342        852.99682680099170     
  -11566.891098291357       0.97028509955907793        853.20046495246027     
  -11505.312655925993       0.90439302959657653        853.36085036814097     
  -11443.734288989934       0.84052898938671206        853.48141536504318     
  -11382.156185125663       0.77806750410172754        853.56559226000081     
  -11320.578531975649       0.71638309877198481        853.61681336998095     
  -12375.516284776044       0.73121197943646621        789.02636369463755     
  -12311.031454193824       0.80423182440108576        789.38164464196473     
  -12246.548824979955       0.84264119561339612        789.68417592192520     
  -12182.066775740361       0.85184473955450812        789.93731818223137     
  -12117.583685081157       0.83724710289743598        790.14443207019531     
  -12053.097931608299       0.80425293229563977        790.30887823358535     
  -11988.607893927854       0.75826687431845130        790.43401731985125     
  -11924.111950645796       0.70469357560841672        790.52320997659558     
  -11859.608480368177       0.64893768278125208        790.57981685139941     
  -12937.834528066875       0.13064126478911930        723.10054239149474     
  -12870.432838082384       0.38206258771424473        723.43826812008956     
  -12803.038789252803       0.55250507397249748        723.72725236330723     
  -12735.648614471242       0.65452574584105605        723.97062367686374     
  -12668.258546631363       0.70068162487768859        724.17151061619154     
  -12600.864818626456       0.70352973315129930        724.33304173704767     
  -12533.463663349985       0.67562709258800169        724.45834559503669     
  -12466.051313695480       0.62953072490563500        724.55055074583652     
  -12398.624002556271       0.57779765207578748        724.61278574503979     
  -13500.162977117505      -0.53698238255219621        654.32461795181371     
  -13429.832727147355       -8.1195655649025866E-002   654.62326194004265     
  -13359.518579746009       0.23987840766858426        654.88077357641100     
  -13289.214285418069       0.44707145851316454        655.09988890206137     
  -13218.913594668287       0.56121514773440140        655.28334395788750     
  -13148.610258001614       0.60314112604555703        655.43387478529291     
  -13078.298025922606       0.59368104433178814        655.55421742535077     
  -13007.970648936018       0.55366655380657903        655.64710791918321     
  -12937.621877546590       0.50392930490306753        655.71528230809270     
  -8625.3251317151553       0.96437052857845629        1124.8665981411402     
  -8578.4105707874660       0.85522652382542219        1124.8840394064582     
  -8531.4978781613154       0.75520885221567369        1124.8993554960698     
  -8484.5871629156300       0.66395391772311996        1124.9126636254834     
  -8437.6785341291579       0.58109812425072960        1124.9240810103086     
  -8390.7721008807312       0.50627787578741845        1124.9337248661720     
  -8343.8679722490924       0.43912957637712680        1124.9417124086026     
  -8296.9662573131282       0.37928962991873050        1124.9481608531910     
  -8250.0670651515939       0.32639444045162236        1124.9531874155368     
  -9164.3788962290582       0.92989265597952908        1076.4732084206328     
  -9114.5331858571153       0.83153843164336649        1076.4938825594184     
  -9064.6901142105235       0.73921801012011201        1076.5128881719515     
  -9014.8496410030311       0.65306567897278001        1076.5302324730906     
  -8965.0117259484541       0.57321572559703782        1076.5459226777903     
  -8915.1763287605863       0.49980243715845063        1076.5599660008652     
  -8865.3434091530780       0.43296010148014830        1076.5723696572559     
  -8815.5129268398341       0.37282300574133842        1076.5831408618610     
  -8765.6848415346267       0.31952543722536575        1076.5922868295215     
  -9703.4343395054329       0.88688867876089716        1025.1519728259943     
  -9650.6564824381276       0.79881245002479773        1025.1758344814507     
  -9597.8821272850437       0.71423313046761905        1025.1984367619268     
  -9545.1111194435234       0.63366606226281874        1025.2196973014204     
  -9492.3433043108289       0.55762658773892326        1025.2395337339583     
  -9439.5785272843841       0.48663004910304153        1025.2578636935316     
  -9386.8166337614621       0.42119178860230022        1025.2746048140816     
  -9334.0574691393867       0.36182714824008144        1025.2896747296077     
  -9281.3008788155639       0.30905147047724313        1025.3029910740829     
  -10242.488240550891       0.83632489473620808        970.90245361452378     
  -10186.777843886404       0.75783357210229951        970.92970228478316     
  -10131.071846747867       0.68087540414535397        970.95601234324931     
  -10075.370015264758       0.60622995926860312        970.98123226275629     
  -10019.672115566620       0.53467680577659848        971.00521051619194     
  -9963.9779137827936       0.46699551226129188        971.02779557637268     
  -9908.2871760429061       0.40396564699085502        971.04883591620421     
  -9852.5996684764013       0.34636677813978167        971.06818000849296     
  -9796.9151572127703       0.29497847440688929        971.08567632611062     
  -10781.537378372077       0.77916760212656300        913.72421304346449     
  -10722.894653557778       0.70938679129312732        913.75529308177374     
  -10664.257201961926       0.63976602227876356        913.78562599326688     
  -10605.624745494539       0.57123226160774720        913.81501150938243     
  -10546.997006066027       0.50471247460245650        913.84324936165001     
  -10488.373705586551       0.44113362726557170        913.87013928159229     
  -10429.754565966217       0.38142268599813178        913.89548100070851     
  -10371.139309115475       0.32650661611432952        913.91907425049192     
  -10312.527656944405       0.27731238373326050        913.94071876247187     
  -11320.578531975649       0.71638309877198481        853.61681336998095     
  -11259.004294808254       0.65425710054796582        853.65241398471278     
  -11197.436122290057       0.59152617630024906        853.68728878925174     
  -11135.873727160553       0.52914786093697330        853.72120919361566     
  -11074.316822159388       0.46807968886878371        853.75394660766631     
  -11012.765120026004       0.40927919558134818        853.78527244140560     
  -10951.218333500108       0.35370391505239240        853.81495810472416     
  -10889.676175321167       0.30231138260432999        853.84277500763949     
  -10828.138358228691       0.25605913305980721        853.86849456008883     
  -11859.608480368177       0.64893768278125208        790.57981685139941     
  -11795.104150993609       0.59322949333909492        790.62087210585389     
  -11730.606537095227       0.53677705714972035        790.66101180858152     
  -11666.115377290549       0.48045164894756454        790.69999946771043     
  -11601.630410197004       0.42512454387451726        790.73759859144002     
  -11537.151374432047       0.37166701723208462        790.77357268798050     
  -11472.678008613224       0.32095034375288378        790.80768526543500     
  -11408.210051358072       0.27384579843328538        790.83969983194197     
  -11343.747241283960       0.23122465660617308        790.86937989577098     
  -12398.624002556271       0.57779765207578748        724.61278574503979     
  -12331.191605469743       0.52708896292369900        724.66047455751811     
  -12263.766375740423       0.47613985573889295        724.70680612847150     
  -12196.348112912196       0.42561851737309553        724.75155648399914     
  -12128.936616529063       0.37619313443519786        724.79450165028425     
  -12061.531686135178       0.32853189342040423        724.83541765352163     
  -11994.133121274366       0.28330298123910325        724.87408051986574     
  -11926.740721490789       0.24117458421005722        724.91026627544954     
  -11859.354286328364       0.20281488921182245        724.94375094646477     
  -12937.621877546590       0.50392930490306753        655.71528230809270     
  -12867.264041592578       0.45662050243208796        655.77102845199215     
  -12796.913567588419       0.41023576351744850        655.82468282625143     
  -12726.570351053146       0.36512335804491158        655.87605439472350     
  -12656.234287506035       0.32163155518173880        655.92495212140420     
  -12585.905272465987       0.28010862500832445        655.97118497026213     
  -12515.583201452246       0.24090283688292402        656.01456190517672     
  -12445.267969983932       0.20436246045301232        656.05489189011769     
  -12374.959473580184       0.17083576518052723        656.09198388900825     
  -8250.0670651515939       0.32639444045162236        1124.9531874155368     
  -8203.1703032515088       0.28009463749776842        1124.9575242003677     
  -8156.2759400913537       0.23983754566324933        1124.9618025761079     
  -8109.3841762371576       0.20495461135442383        1124.9659886536765     
  -8062.4952122551304       0.17477728084986666        1124.9700485440476     
  -8015.6092487113137       0.14863700056366724        1124.9739483581996     
  -7968.7264861716922       0.12586521699904551        1124.9776542071386     
  -7921.8471252024874       0.10579337632998431        1124.9811322018300     
  -7874.9713663697221        8.7752924980122771E-002   1124.9843484532025     
  -8765.6848415346267       0.31952543722536575        1076.5922868295215     
  -8715.8590509642527       0.27308992944927013        1076.6003498541058     
  -8666.0356247460895       0.23296604725192083        1076.6078675004330     
  -8616.2147804295982       0.19842862592213351        1076.6148398898690     
  -8566.3967355641726       0.16875250074372161        1076.6212671438375     
  -8516.5817076993353       0.14321250659850193        1076.6271493837203     
  -8466.7699143844475       0.12108347891262383        1076.6324867309495     
  -8416.9615731689664       0.10164025287758705        1076.6372793069045     
  -8367.1569016024641        8.4157663366568158E-002   1076.6415272329418     
  -9281.3008788155639       0.30905147047724313        1025.3029910740829     
  -9228.5465801815226       0.26322408354099025        1025.3148397052994     
  -9175.7945470010509       0.22384974154419979        1025.3255914962217     
  -9123.0450092297815       0.19016192582239455        1025.3352916034914     
  -9070.2981968234544       0.16139411745825782        1025.3439851838577     
  -9017.5543397377514       0.13677979727617640        1025.3517173940172     
  -8964.8136679282852       0.11555244658029551        1025.3585333906708     
  -8912.0764113506775        9.6945546540155192E-002   1025.3644783306115     
  -8859.3427999607575        8.0192577953312139E-002   1025.3695973703941     
  -9796.9151572127703       0.29497847440688929        971.08567632611062     
  -9741.2330221542779       0.25045772420389767        971.10131078072209     
  -9685.5529576401386       0.21241339331936615        971.11523778003868     
  -9629.8752014550810       0.18005286576499202        971.12755854088084     
  -9574.1999913839281       0.15258352565933819        971.13837428026761     
  -9518.5275652113705       0.12921275720145786        971.14778621502762     
  -9462.8581607222459       0.10914794437258024        971.15589556208101     
  -9407.1920157013301        9.1596471232151089E-002   971.16280353839511     
  -9351.5293679333699        7.5765721946936537E-002   971.16861136083162     
  -10312.527656944405       0.27731238373326050        913.94071876247187     
  -10253.918508133438       0.23475147643557648        913.96008010708931     
  -10195.311107447318       0.19858176718025788        913.97706956841432     
  -10136.705695922694       0.16799980052974206        913.99185544849377     
  -10078.102514596396       0.14220212030113544        914.00460604928935     
  -10019.501804505133       0.12038527077584149        914.01548967274402     
  -9960.9038066856447       0.10174579624936086        914.02467462097331     
  -9902.3087621746508        8.5480240932156448E-002   914.03232919587447     
  -9843.7169120089875        7.0785148732284142E-002   914.03862169950855     
  -10828.138358228691       0.25605913305980721        853.86849456008883     
  -10766.603169369895       0.21606596488982177        853.89146471112463     
  -10705.069247206451       0.18227962831542754        853.91135007798857     
  -10643.536831449888       0.15390108496922039        853.92839707266580     
  -10582.006161811812       0.13013129598584783        853.94285210707471     
  -10520.477478003831       0.11017122288285464        853.95496159320976     
  -10458.951019737571        9.3221826735316426E-002   853.96497194304641     
  -10397.427026724479        7.8484069366822951E-002   853.97312956855285     
  -10335.905738676223        6.5158911992057256E-002   853.97968088174264     
  -11343.747241283960       0.23122465660617308        790.86937989577098     
  -11279.287137114654       0.19436181414448583        790.89578161958036     
  -11214.827627701499       0.16343174151916173        790.91834252537444     
  -11150.368946853885       0.13765507395783061        790.93739815980825     
  -11085.911328381128       0.11625244732658757        790.95328406985573     
  -11021.455006092476        9.8444497347827564E-002   790.96633580236380     
  -10957.000213797201        8.3451859843535203E-002   790.97688890410950     
  -10892.547185304518        7.0495170457434142E-002   790.98527892192430     
  -10828.096154423871        5.8795064778678352E-002   790.99184140269494     
  -11859.354286328364       0.20281488921182245        724.94375094646477     
  -11791.970542618506       0.16959964918896731        724.97334785918224     
  -11724.586499716417       0.14196287122558715        724.99831012695563     
  -11657.202380952049       0.11916012213123395        725.01907345633049     
  -11589.818409655167       0.10044696924614982        725.03607355388294     
  -11522.434809155709        8.5078979581339809E-002   725.04974612621197     
  -11455.051802783561        7.2311720176458039E-002   725.06052687990643     
  -11387.669613868520        6.1400758177569514E-002   725.06885152152893     
  -11320.288465740565        5.1601660662527138E-002   725.07515575774164     
  -12374.959473580184       0.17083576518052723        656.09198388900825     
  -12304.653517132443       0.14174009464886694        656.12448045668964     
  -12234.346114035106       0.11779778257960061        656.15151609950135     
  -12164.037472561451        9.8314584671243210E-002   656.17363770862198     
  -12093.727800984867        8.2596256369924959E-002   656.19139217523798     
  -12023.417307578575        6.9948553573794925E-002   656.20532639073599     
  -11953.106200615961        5.9677231616205972E-002   656.21598724621788     
  -11882.794688370355        5.1088046149288857E-002   656.22392163293193     
  -11812.482979115071        4.3486752812896157E-002   656.22967644212486     
  -7874.9713663697221        8.7752924980122771E-002   1124.9843484532025     
  -7828.0972904425498        7.1775075685764023E-002   1124.9871930069723     
  -7781.2228940222503        5.8171600535388279E-002   1124.9896110963166     
  -7734.3482514231991        4.6694784875398909E-002   1124.9916516135668     
  -7687.4734369598582        3.7096913959430822E-002   1124.9933634510203     
  -7640.5985249466030        2.9130273251666949E-002   1124.9947955009359     
  -7593.7235896977563        2.2547148086687230E-002   1124.9959966557196     
  -7546.8487055277719        1.7099823828175431E-002   1124.9970158076108     
  -7499.9739467510417        1.2540585801161797E-002   1124.9979018489241     
  -8367.1569016024641        8.4157663366568158E-002   1076.6415272329418     
  -8317.3538993591956        6.8649624483896332E-002   1076.6452280962378     
  -8267.5504689058289        5.5454075809393544E-002   1076.6484110633953     
  -8217.7466819798319        4.4331892528134631E-002   1076.6511236250931     
  -8167.9426103189853        3.5043948873862973E-002   1076.6534132720990     
  -8118.1383256607469        2.7351119645572908E-002   1076.6553274949219     
  -8068.3338997426936        2.1014279709561379E-002   1076.6569137843860     
  -8018.5294043024696        1.5794303608799964E-002   1076.6582196311720     
  -7968.7249110777211        1.1452065989033144E-002   1076.6592925258969     
  -8859.3427999607575        8.0192577953312139E-002   1025.3695973703941     
  -8806.6108097477172        6.5285972616038634E-002   1025.3740149920736     
  -8753.8783075660085        5.2581944729809038E-002   1025.3778532706663     
  -8701.1453596690772        4.1859649501475360E-002   1025.3811537524705     
  -8648.4120323103634        3.2898242402552569E-002   1025.3839579838575     
  -8595.6783917433531        2.5476878195149766E-002   1025.3863075111572     
  -8542.9445042213665        1.9374712570879637E-002   1025.3882438807477     
  -8490.2104359978530        1.4370900488302141E-002   1025.3898086389586     
  -8437.4762533263674        1.0244597157452517E-002   1025.3910433320941     
  -9351.5293679333699        7.5765721946936537E-002   971.16861136083162     
  -9295.8682493714441        6.1615791050371627E-002   971.17358878547384     
  -9240.2065720200389        4.9506601889333979E-002   971.17795879666926     
  -9184.5443937410546        3.9245281099283602E-002   971.18175245372402     
  -9128.8817723965112        3.0638955760878162E-002   971.18500081590889     
  -9073.2187658481562        2.3494752982514910E-002   971.18773494257164     
  -9017.5554319580297        1.7619799474687170E-002   971.18998589292585     
  -8961.8918285880536        1.2821222225738893E-002   971.19178472634883     
  -8906.2280136000445        8.9061483145087550E-003   971.19316250214933     
  -9843.7169120089875        7.0785148732284142E-002   914.03862169950855     
  -9785.1264459937265        5.7570751062030467E-002   914.04398456736476     
  -9726.5354242851336        4.6179441956155642E-002   914.04874872000448     
  -9667.9438934460995        3.6456011991049309E-002   914.05293018701411     
  -9609.3519000397591        2.8245250489362661E-002   914.05654499786874     
  -9550.7594906291415        2.1391947454958427E-002   914.05960918209462     
  -9492.1667117772449        1.5740892865323985E-002   914.06213876929712     
  -9433.5736100471368        1.1136876630189363E-002   914.06414978894475     
  -9374.9802320018680        7.4246883982596046E-003   914.06565827065208     
  -10335.905738676223        6.5158911992057256E-002   853.97968088174264     
  -10274.385627378002        5.3082523248122016E-002   853.98523742874852     
  -10212.865026378473        4.2551860246476281E-002   853.99024411927735     
  -10151.343968034405        3.3459067150033661E-002   853.99469741044379     
  -10089.822484702705        2.5696287595110334E-002   853.99859375921676     
  -10028.300608740010        1.9155666013830341E-002   854.00192962271626     
  -9966.7783725033569        1.3729345783758617E-002   854.00470145801785     
  -9905.2558083493059        9.3094714579819993E-003   854.00690572215967     
  -9843.7329486347553        5.7881869042830658E-003   854.00853887225787     
  -10828.096154423871        5.8795064778678352E-002   790.99184140269494     
  -10763.646021287614        4.8082778854677599E-002   790.99738246054824     
  -10699.195540317309        3.8575251439851854E-002   791.00246607311533     
  -10634.744726756302        3.0221671383969806E-002   791.00706458214631     
  -10570.293595847728        2.2971228433107171E-002   791.01115032957989     
  -10505.842162834788        1.6773111744896596E-002   791.01469565739387     
  -10441.390442960730        1.1576510641134519E-002   791.01767290738485     
  -10376.938451468670        7.3306144267917261E-003   791.02005442141012     
  -10312.486203601889        3.9846124413998041E-003   791.02181254147467     
  -11320.288465740565        5.1601660662527138E-002   725.07515575774164     
  -11252.907855485879        4.2503188918999513E-002   725.08045475377003     
  -11185.527128118891        3.4201010135348042E-002   725.08543565997240     
  -11118.146278862005        2.6711049903497042E-002   725.09004216023993     
  -11050.765302937296        2.0049234443376918E-002   725.09421793864226     
  -10983.384195567149        1.4231489207759296E-002   725.09790667904667     
  -10916.002951973753        9.2737402828788618E-003   725.10105206564731     
  -10848.621567379356        5.1919133834417153E-003   725.10359778228656     
  -10781.240037006248        2.0019343951389601E-003   725.10548751300746     
  -11812.482979115071        4.3486752812896157E-002   656.22967644212486     
  -11742.171357736237        3.6275424208270124E-002   656.23448939939226     
  -11671.859951800465        2.9380531232618523E-002   656.23917395852993     
  -11601.548733601709        2.2894427480423474E-002   656.24364060287269     
  -11531.237675433951        1.6909466457036615E-002   656.24779981579138     
  -11460.926749591057        1.1518001836520853E-002   656.25156208073042     
  -11390.615928366873        6.8123873174954497E-003   656.25483788106715     
  -11320.305184055544        2.8849760224147758E-003   656.25753770017377     
  -11249.994488950881       -1.7187818912134389E-004   656.25957202142217     
  -7499.9739467510417        1.2540585801161797E-002   1124.9979018489241     
  -7453.0993454522140        8.6629994930262910E-003   1124.9987095612655     
  -7406.2248959870631        5.3863933576394629E-003   1124.9994552234123     
  -7359.3506160764236        2.6516978914514766E-003   1125.0001299731384     
  -7312.4765234413262        3.9984310797080980E-004   1125.0007249482692     
  -7265.6026358027648       -1.4282408242252131E-003   1125.0012312867275     
  -7218.7289708814596       -2.8916235019096348E-003   1125.0016401263345     
  -7171.8555463985313       -4.0493748647350003E-003   1125.0019426049432     
  -7124.9823800748572       -4.9605646331656317E-003   1125.0021298604054     
  -7968.7249110777211        1.1452065989033144E-002   1076.6592925258969     
  -7918.9205297232456        7.7654626775256475E-003   1076.6602197203210     
  -7869.1163324483159        4.6372082661036984E-003   1076.6610529527684     
  -7819.3123348220988        2.0154056555838906E-003   1076.6617864436384     
  -7769.5085524137639       -1.5184245467025903E-004   1076.6624144132859     
  -7719.7050007924245       -1.9164331365573162E-003   1076.6629310821590     
  -7669.9016955271709       -3.3302635056315921E-003   1076.6633306706788     
  -7620.0986521872292       -4.4452307747633313E-003   1076.6636073992527     
  -7570.2958863417316       -5.3132320617805817E-003   1076.6637554882700     
  -8437.4762533263674        1.0244597157452517E-002   1025.3910433320941     
  -8384.7421302892617        6.7683413017221028E-003   1025.3920625603701     
  -8332.0082070363733        3.8277801490949059E-003   1025.3929527275895     
  -8279.2744989223484        1.3717317474402080E-003   1025.3937130854440     
  -8226.5410213017603       -6.5098580080302781E-004   1025.3943428856426     
  -8173.8077895293227       -2.2915549047866079E-003   1025.3948413799728     
  -8121.0748189594551       -3.6011570900882361E-003   1025.3952078201569     
  -8068.3421249467656       -4.6309745380312961E-003   1025.3954414579377     
  -8015.6097228460148       -5.4321892889674928E-003   1025.3955415450107     
  -8906.2280136000445        8.9061483145087550E-003   971.19316250214933     
  -8850.5642030879117        5.6548536499576585E-003   971.19425322109430     
  -8794.9005859554691        2.9382476141108782E-003   971.19517433237047     
  -8739.2371792801659        6.9940520279487828E-004   971.19593206783782     
  -8683.5740001392951       -1.1185976586602919E-003   971.19653265933607     
  -8627.9110656100584       -2.5726851845320198E-003   971.19698233866666     
  -8572.2483927698358       -3.7197818478489353E-003   971.19728733766794     
  -8516.5859986959676       -4.6168120657057443E-003   971.19745388819001     
  -8460.9239004656720       -5.3207001301416312E-003   971.19748822207146     
  -9374.9802320018680        7.4246883982596046E-003   914.06565827065208     
  -9316.3868040567122        4.4082188901484187E-003   914.06680684206640     
  -9257.7935354098790        1.9487490208121017E-003   914.06773755169036     
  -9199.2004467984716       -2.2844855266157538E-005   914.06846556025152     
  -9140.6075589598840       -1.5756874859107484E-003   914.06900602839630     
  -9082.0148926313377       -2.7789028849838360E-003   914.06937411679303     
  -9023.4224685500703       -3.7016152996329765E-003   914.06958498623192     
  -8964.8303074533960       -4.4129488323960686E-003   914.06965379733424     
  -8906.2384300784743       -4.9820275262391078E-003   914.06959571084053     
  -9843.7329486347553        5.7881869042830658E-003   854.00853887225787     
  -9782.2099891333455        3.0116554112282756E-003   854.00973856300425     
  -9720.6871216036798        8.3942381479573669E-004   854.01066217011896     
  -9659.1643723801935       -8.1628929638100090E-004   854.01133573195023     
  -9597.6417677974096       -2.0432658361642098E-003   854.01178528676860     
  -9536.1193341897615       -2.9292870535755355E-003   854.01203687290467     
  -9474.5970978917885       -3.5621347606138443E-003   854.01211652877134     
  -9413.0750852377914       -4.0295902613252110E-003   854.01205029258199     
  -9351.5533225623258       -4.4194350489306089E-003   854.01186420278270     
  -10312.486203601889        3.9846124413998041E-003   791.02181254147467     
  -10248.033814255392        1.4483819913948537E-003   791.02306352351764     
  -10183.581410741186       -4.0958961471915245E-004   791.02396797227152     
  -10119.129026928294       -1.7021990784087393E-003   791.02456475230849     
  -10054.676696685643       -2.5423427500754769E-003   791.02489272849471     
  -9990.2244538820541       -3.0429168705268239E-003   791.02499076555375     
  -9925.7723323865175       -3.3168178815685678E-003   791.02489772822594     
  -9861.3203660678937       -3.4769422004501394E-003   791.02465248116312     
  -9796.8685887950887       -3.6361860643410182E-003   791.02429388919688     
  -10781.240037006248        2.0019343951389601E-003   725.10548751300746     
  -10713.858335360408       -2.9838252021363587E-004   725.10679686325318     
  -10646.476469026662       -1.8181526438638684E-003   725.10767474254351     
  -10579.094481345761       -2.7018449995921401E-003   725.10817479066770     
  -10511.712415658259       -3.0939281946302799E-003   725.10835064764672     
  -10444.330315304787       -3.1388710076498683E-003   725.10825595328924     
  -10376.948223625925       -2.9811420477017236E-003   725.10794434757361     
  -10309.566183962321       -2.7652100757222797E-003   725.10746947035170     
  -10242.184239654609       -2.6355437776146573E-003   725.10688496160753     
  -11249.994488950881       -1.7187818912134389E-004   656.25957202142217     
  -11179.683608385953       -2.2454193594967364E-003   656.26095372187706     
  -11109.372362664273       -3.4061263841067557E-003   656.26180226560609     
  -11039.060806535432       -3.8364978850040643E-003   656.26218801641153     
  -10968.748994749072       -3.7190326197560353E-003   656.26218133807629     
  -10898.436982054627       -3.2362286260649853E-003   656.26185259461067     
  -10828.124823201681       -2.5705847524477576E-003   656.26127214978658     
  -10757.812572939842       -1.9045994790758414E-003   656.26051036742990     
  -10687.500286018818       -1.4207718481884513E-003   656.25963761138837     
  -7124.9823800748572       -4.9605646331656317E-003   1125.0021298604054     
  -7078.1092389418300       -5.6074857125167910E-003   1125.0022222787202     
  -7031.2358879605472       -5.9655301706698083E-003   1125.0022537853881     
  -6984.3623417463168       -6.0834156333839928E-003   1125.0022358274571     
  -6937.4886149147633       -6.0098607414147409E-003   1125.0021798518869     
  -6890.6147220812536       -5.7935834224736027E-003   1125.0020973056605     
  -6843.7406778611648       -5.4833017411510809E-003   1125.0019996359194     
  -6796.8664968700305       -5.1277340121487214E-003   1125.0018982896031     
  -6749.9921937232475       -4.7755982841408695E-003   1125.0018047137537     
  -7570.2958863417316       -5.3132320617805817E-003   1076.6637554882700     
  -7520.4931360736455       -5.9033721026935382E-003   1076.6637983969499     
  -7470.6901400641473       -6.1867498297942802E-003   1076.6637712627873     
  -7420.8869147795340       -6.2182526316973963E-003   1076.6636858233910     
  -7371.0834766862281       -6.0527686450768670E-003   1076.6635538165335     
  -7321.2798422505130       -5.7451855682302266E-003   1076.6633869798645     
  -7271.4760279386655       -5.3503910294239176E-003   1076.6631970511146     
  -7221.6720502170001       -4.9232726983063912E-003   1076.6629957679825     
  -7171.8679255519910       -4.5187186892690079E-003   1076.6627948681194     
  -8015.6097228460148       -5.4321892889674928E-003   1025.3955415450107     
  -7962.8773297412017       -5.9670228665709146E-003   1025.3955347337742     
  -7910.1446634029871       -6.1999855665817449E-003   1025.3954550025855     
  -7857.4117402160100       -6.1856926135988033E-003   1025.3953125923210     
  -7804.6785765647419       -5.9787588315884932E-003   1025.3951177438146     
  -7751.9451888338517       -5.6337999408242467E-003   1025.3948806978840     
  -7699.2115934078065       -5.2054307980142767E-003   1025.3946116954883     
  -7646.4778066710278       -4.7482664535891672E-003   1025.3943209774361     
  -7593.7438450083200       -4.3169222976757737E-003   1025.3940187844855     
  -8460.9239004656720       -5.3207001301416312E-003   971.19748822207146     
  -8405.2618074510974       -5.7946900255956280E-003   971.19742256202164     
  -8349.5994272197622       -5.9960102480545174E-003   971.19728961401847     
  -8293.9367741415754       -5.9725608934968477E-003   971.19709633438640     
  -8238.2738625867387       -5.7722422993720102E-003   971.19684967970773     
  -8182.6107069252857       -5.4429548686130147E-003   971.19655660645981     
  -8126.9473215273920       -5.0325989195698639E-003   971.19622407112388     
  -8071.2837207630755       -4.5890746441727970E-003   971.19585903015707     
  -8015.6199190024945       -4.1602825499467144E-003   971.19546844010733     
  -8906.2384300784743       -4.9820275262391078E-003   914.06959571084053     
  -8847.6465567101550       -5.3826256676074991E-003   914.06945315468886     
  -8789.0544007571189       -5.5655967557868280E-003   914.06925970619488     
  -8730.4619726421788       -5.5656834938417887E-003   914.06901724989802     
  -8671.8692827883897       -5.4176295716388267E-003   914.06872767039351     
  -8613.2763416188791       -5.1561785653575498E-003   914.06839285224100     
  -8554.6831595563453       -4.8160729575101868E-003   914.06801468013384     
  -8496.0897470239779       -4.4320565129964962E-003   914.06759503855642     
  -8437.4961144446679       -4.0388723755313549E-003   914.06713581216206     
  -9351.5533225623258       -4.4194350489306089E-003   854.01186420278270     
  -9290.0315650249431       -4.7270817235585127E-003   854.01161778468509     
  -9228.5095532576779       -4.8995174697665789E-003   854.01134988836850     
  -9166.9872918037381       -4.9518862456352508E-003   854.01105553905904     
  -9105.4647852062499       -4.8993320388035499E-003   854.01072976182979     
  -9043.9420380083993       -4.7569986550115573E-003   854.01036758196494     
  -8982.4190547535400       -4.5400305625662440E-003   854.00996402457531     
  -8920.8958399846342       -4.2635712102310208E-003   854.00951411482674     
  -8859.3723982449665       -3.9427646202057076E-003   854.00901287799320     
  -9796.8685887950887       -3.6361860643410182E-003   791.02429388919688     
  -9732.4168199021406       -3.8243101089392439E-003   791.02390772484353     
  -9667.9648539642385       -3.9885454334580572E-003   791.02354476980827     
  -9603.5126877121056       -4.1179946870215645E-003   791.02319140214786     
  -9539.0603178764904       -4.2017601044790354E-003   791.02283400020315     
  -9474.6077411881179       -4.2289442317269277E-003   791.02245894228702     
  -9410.1549543777674       -4.1886495368999022E-003   791.02205260657104     
  -9345.7019541759382       -4.0699779810893233E-003   791.02160137125861     
  -9281.2487373136300       -3.8620326276941341E-003   791.02109161471299     
  -10242.184239654609       -2.6355437776146573E-003   725.10688496160753     
  -10174.802308848441       -2.6705629011303245E-003   725.10631424813391     
  -10107.420272119467       -2.8234537271600857E-003   725.10582895948630     
  -10040.038116453323       -3.0508349072988494E-003   725.10540503937659     
  -9972.6558288355791       -3.3093249840021599E-003   725.10501843160728     
  -9905.2733962518505       -3.5555429094529245E-003   725.10464507993902     
  -9837.8908056877408       -3.7461070210156322E-003   725.10426092822820     
  -9770.5080441288064       -3.8376362167582556E-003   725.10384192019001     
  -9703.1250985607730       -3.7867492033001326E-003   725.10336399963739     
  -10687.500286018818       -1.4207718481884513E-003   656.25963761138837     
  -10617.188019370524       -1.2620922002497537E-003   656.25882862746653     
  -10546.875776966068       -1.3950148822914343E-003   656.25818706674454     
  -10476.563534113193       -1.7372324273310369E-003   656.25767665099954     
  -10406.251266119829       -2.2064375839363493E-003   656.25726110199673     
  -10335.938948293649       -2.7203229583392385E-003   656.25690414162170     
  -10265.626555942496       -3.1965812377166003E-003   656.25656949166671     
  -10195.314064374179       -3.5529051606317807E-003   656.25622087383670     
  -10125.001448896655       -3.7069876093482890E-003   656.25582201003601     
  -6749.9921937232475       -4.7755982841408695E-003   1125.0018047137537     
  -6703.1178312030715       -4.4797963719247491E-003   1125.0017277747440     
  -6656.2434585537731       -4.2481032869545743E-003   1125.0016644785057     
  -6609.3690700836105       -4.0615467396492022E-003   1125.0016084812523     
  -6562.4946601010070       -3.9011546550682397E-003   1125.0015534391139     
  -6515.6202229143328       -3.7479548491319292E-003   1125.0014930083444     
  -6468.7457528318055       -3.5829751227538509E-003   1125.0014208451657     
  -6421.8712441618500       -3.3872432695716270E-003   1125.0013306058206     
  -6374.9966912128921       -3.1417873260579654E-003   1125.0012159465275     
  -7171.8679255519910       -4.5187186892690079E-003   1076.6627948681194     
  -7122.0637449307942       -4.2014590953840525E-003   1076.6626165064931     
  -7072.2595828393714       -3.9812197483115597E-003   1076.6624697228885     
  -7022.4554309916912       -3.8303805599753105E-003   1076.6623465823102     
  -6972.6512811020084       -3.7213222808532009E-003   1076.6622391498438     
  -6922.8471248843580       -3.6264252703404054E-003   1076.6621394904193     
  -6873.0429540529612       -3.5180698541807942E-003   1076.6620396691937     
  -6823.2387603217730       -3.3686363549350062E-003   1076.6619317510790     
  -6773.4345354049292       -3.1505050110354205E-003   1076.6618078012359     
  -7593.7438450083200       -4.3169222976757737E-003   1025.3940187844855     
  -7541.0098269353148       -3.9836513333284529E-003   1025.3937408201812     
  -7488.2758538229964       -3.7635573994521110E-003   1025.3935102962384     
  -7435.5419163387523       -3.6255316126698744E-003   1025.3933187163443     
  -7382.8080051499655       -3.5384650577725552E-003   1025.3931575840420     
  -7330.0741109240425       -3.4712493884399009E-003   1025.3930184028441     
  -7277.3402243282435       -3.3927755721379071E-003   1025.3928926764224     
  -7224.6063360299913       -3.2719347927923081E-003   1025.3927719083269     
  -7171.8724366967308       -3.0776186054026766E-003   1025.3926476021434     
  -8015.6199190024945       -4.1602825499467144E-003   971.19546844010733     
  -7959.9560575885698       -3.8204848183340800E-003   971.19509978259271     
  -7904.2922623964487       -3.5923841123803868E-003   971.19479054971646     
  -7848.6285245940990       -3.4465404501133889E-003   971.19453271321913     
  -7792.9648353497068       -3.3535144548295648E-003   971.19431824497690     
  -7737.3011858314521       -3.2838665797498834E-003   971.19413911691765     
  -7681.6375672073109       -3.2081571043818258E-003   971.19398730083276     
  -7625.9739706455757       -3.0969465933594620E-003   971.19385476858463     
  -7570.3103873143309       -2.9207955649326323E-003   971.19373349209548     
  -8437.4961144446679       -4.0388723755313549E-003   914.06713581216206     
  -8378.9024172627342       -3.7060712925267580E-003   914.06669246079707     
  -8320.3087994514499       -3.4649673452804564E-003   914.06631483436468     
  -8261.7152542270560       -3.2929479925769556E-003   914.06599640287868     
  -8203.1217748060899       -3.1674016454417142E-003   914.06573063607129     
  -8144.5283544048843       -3.0657162783427339E-003   914.06551100391266     
  -8085.9349862398449       -2.9652794692083262E-003   914.06533097627971     
  -8027.3416635273625       -2.8434794608074299E-003   914.06518402297922     
  -7968.7483794836562       -2.6777037905958423E-003   914.06506361399158     
  -8859.3723982449665       -3.9427646202057076E-003   854.00901287799320     
  -8797.8488863296352       -3.6345220260045608E-003   854.00851792152605     
  -8736.3254558796471       -3.3785743912631006E-003   854.00808750139481     
  -8674.8021037070903       -3.1642952790207346E-003   854.00771761521401     
  -8613.2788266240950       -2.9810584760525671E-003   854.00740426065352     
  -8551.7556214428259       -2.8182379573991057E-003   854.00714343528023     
  -8490.2324849755551       -2.6652075921447249E-003   854.00693113669786     
  -8428.7094140341687       -2.5113407618846395E-003   854.00676336261893     
  -8367.1864054309026       -2.3460114571207669E-003   854.00663611060952     
  -9281.2487373136300       -3.8620326276941341E-003   791.02109161471299     
  -9216.7954451613405       -3.5999488936795387E-003   791.02057523171743     
  -9152.3422225728027       -3.3304728981420340E-003   791.02011290191126     
  -9087.8890715033904       -3.0601227235820261E-003   791.01970418027395     
  -9023.4359939085589       -2.7954162210335198E-003   791.01934862204041     
  -8958.9829917436000       -2.5428713015571702E-003   791.01904578224742     
  -8894.5300669639510       -2.3090061285984120E-003   791.01879521603109     
  -8830.0772215249071       -2.1003381602895388E-003   791.01859647849392     
  -8765.6244573820040       -1.9233859566156752E-003   791.01844912481806     
  -9703.1250985607730       -3.7867492033001326E-003   725.10336399963739     
  -9635.7420741298793       -3.5964633248113387E-003   725.10286345829866     
  -9568.3590904227149       -3.3179306014972099E-003   725.10239538696112     
  -9500.9761560854568       -2.9799713838656317E-003   725.10196392792545     
  -9433.5932797643654       -2.6114063384738984E-003   725.10157322358248     
  -9366.2104701054195       -2.2410557139664888E-003   725.10122741620273     
  -9298.8277357548068       -1.8977400909534481E-003   725.10093064818022     
  -9231.4450853586004       -1.6102796830637089E-003   725.10068706178652     
  -9164.0625275630482       -1.4074952482587832E-003   725.10050079945631     
  -10125.001448896655       -3.7069876093482890E-003   656.25582201003601     
  -10054.688753607115       -3.6181768209644360E-003   656.25538166811702     
  -9984.3760503209978       -3.3382145870746172E-003   656.25493930774337     
  -9914.0633559226080       -2.9233820532681420E-003   656.25450468814927     
  -9843.7506872963422       -2.4299603460349317E-003   656.25408756861486     
  -9773.4380613266221       -1.9142307241963863E-003   656.25369770852762     
  -9703.1254948976803       -1.4324743524412042E-003   656.25334486711836     
  -9632.8130048940075       -1.0409726992293145E-003   656.25303880359206     
  -9562.5006081999818       -7.9600694925829885E-004   656.25278927734655     
  -6374.9966912128921       -3.1417873260579654E-003   1125.0012159465275     
  -6328.1220957389769       -2.8359558914416994E-003   1125.0010928920740     
  -6281.2474675216581       -2.4858558590494795E-003   1125.0009844931146     
  -6234.3728129102419       -2.1126517881384643E-003   1125.0008949445546     
  -6187.4981382540418       -1.7375079080466094E-003   1125.0008284412179     
  -6140.6234499023813       -1.3815886068186956E-003   1125.0007891779978     
  -6093.7487542046838       -1.0660584318884503E-003   1125.0007813497550     
  -6046.8740575101929       -8.1208178312408563E-004   1125.0008091513798     
  -5999.9993661682774       -6.4082300832524197E-004   1125.0008767775817     
  -6773.4345354049292       -3.1505050110354205E-003   1076.6618078012359     
  -6723.6302618222053       -2.8425629661796847E-003   1076.6616737898732     
  -6673.8259343106147       -2.4644216982778744E-003   1076.6615449462004     
  -6624.0215629102777       -2.0495480780482467E-003   1076.6614272234663     
  -6574.2171576613155       -1.6314095578309207E-003   1076.6613265746803     
  -6524.4127286041285       -1.2434736331670138E-003   1076.6612489530546     
  -6474.6082857786078       -9.1920695558656007E-004   1076.6612003117691     
  -6424.8038392251574       -6.9207724345687893E-004   1076.6611866037335     
  -6374.9993989838586       -5.9555151074164314E-004   1076.6612137824452     
  -7171.8724366967308       -3.0776186054026766E-003   1025.3926476021434     
  -7119.1384872526232       -2.7805266540781304E-003   1025.3925136878065     
  -7066.4044627737976       -2.3985321136024140E-003   1025.3923742430836     
  -7013.6703751552359       -1.9712848388735438E-003   1025.3922359922296     
  -6960.9362362918864       -1.5384349876512715E-003   1025.3921056600545     
  -6908.2020580789831       -1.1396330060051696E-003   1025.3919899709772     
  -6855.4678524114788       -8.1452889889988001E-004   1025.3918956497664     
  -6802.7336311846175       -6.0277294096522382E-004   1025.3918294206310     
  -6749.9994062932219       -5.4401518082158873E-004   1025.3917980084809     
  -7570.3103873143309       -2.9207955649326323E-003   971.19373349209548     
  -7514.6467570622108       -2.6453567229509645E-003   971.19360534896691     
  -7458.9830335685901       -2.2823846888968546E-003   971.19346190843862     
  -7403.3192287474021       -1.8715928549681848E-003   971.19330967975418     
  -7347.6553545124425       -1.4526941954500217E-003   971.19315517193559     
  -7291.9914227780955       -1.0654025759322394E-003   971.19300489427224     
  -7236.3274454579241       -7.4943077743228059E-004   971.19286535569995     
  -7180.6634344664089       -5.4449251274490962E-004   971.19274306577358     
  -7124.9994017171193       -4.9030067611965933E-004   971.19264453352866     
  -7968.7483794836562       -2.6777037905958423E-003   914.06506361399158     
  -7910.1550562827888       -2.4325623667209584E-003   914.06494153597851     
  -7851.5616273522028       -2.1101764168633963E-003   914.06479746719936     
  -7792.9681027890074       -1.7442025623495283E-003   914.06463671460369     
  -7734.3744926899917       -1.3682973503819085E-003   914.06446458493508     
  -7675.7808071521713       -1.0161172281186737E-003   914.06428638532191     
  -7617.1870562724780       -7.2131887145587825E-004   914.06410742248261     
  -7558.5932501480429       -5.1755885397142265E-004   914.06393300358138     
  -7499.9993988756187       -4.3849354779013083E-004   914.06376843510759     
  -8367.1864054309026       -2.3460114571207669E-003   854.00663611060952     
  -8305.6633699463509       -2.1376535614763270E-003   854.00651501184245     
  -8244.1402247822189       -1.8761046826512029E-003   854.00637044414964     
  -8182.6169763825228       -1.5828450623303070E-003   854.00620552556813     
  -8121.0936311911692       -1.2793542687177251E-003   854.00602337376972     
  -8059.5701956522289       -9.8711257578543155E-004   854.00582710644017     
  -7998.0466762095666       -7.2759960949042579E-004   854.00561984173498     
  -7936.5230793073333       -5.2229554103178089E-004   854.00540469714610     
  -7874.9994113894572       -3.9268032105610473E-004   854.00518479060804     
  -8765.6244573820040       -1.9233859566156752E-003   791.01844912481806     
  -8701.1716830846872       -1.7561395711709338E-003   791.01831853930685     
  -8636.7188065157025       -1.5743665499030612E-003   791.01817036427258     
  -8572.2658286300721       -1.3812506081194442E-003   791.01800454142335     
  -8507.8127503827855       -1.1799750450336433E-003   791.01782101283493     
  -8443.3595727290249       -9.7372345999247045E-004   791.01761972028044     
  -8378.9062966236143       -7.6567918949876912E-004   791.01740060565476     
  -8314.4529230219705       -5.5902579515532125E-004   791.01716361096896     
  -8249.9994528787902       -3.5694687494469690E-004   791.01690867772129     
  -9164.0625275630482       -1.4074952482587832E-003   725.10050079945631     
  -9096.6799807297939       -1.2835301222366979E-003   725.10034488127530     
  -9029.2973532101169       -1.1991594278697448E-003   725.10018675203025     
  -8961.9146386340653       -1.1331503101246199E-003   725.10002219091984     
  -8894.5318306318259       -1.0642698875926726E-003   725.09984697690629     
  -8827.1489228336141       -9.7128550532943336E-004   725.09965688910131     
  -8759.7659088694218       -8.3296405546207097E-004   725.09944770667869     
  -8692.3827823695938       -6.2807301992506837E-004   725.09921520861462     
  -8624.9995369641947       -3.3537944636918837E-004   725.09895517400753     
  -9562.5006081999818       -7.9600694925829885E-004   656.25278927734655     
  -9492.1882479135747       -7.1533462823936134E-004   656.25258680058971     
  -9421.8758455227617       -7.4468024286034051E-004   656.25240913258824     
  -9351.5633854967291       -8.3227456980239367E-004   656.25224690276764     
  -9281.2508523049637       -9.2634862585327937E-004   656.25209074049917     
  -9210.9382304167775       -9.7513374430491240E-004   656.25193127535351     
  -9140.6255043010715       -9.2686054904334014E-004   656.25175913682415     
  -9070.3126584279253       -7.2976036608451977E-004   656.25156495423823     
  -8999.9996772661616       -3.3206424996023998E-004   656.25133935703366     
  -13500.162977117505      -0.53698238255219621        654.32461795181371     
  -13429.832727147355       -8.1195655649025866E-002   654.62326194004265     
  -13359.518579746009       0.23987840766858426        654.88077357641100     
  -13289.214285418069       0.44707145851316454        655.09988890206137     
  -13218.913594668287       0.56121514773440140        655.28334395788750     
  -13148.610258001614       0.60314112604555703        655.43387478529291     
  -13078.298025922606       0.59368104433178814        655.55421742535077     
  -13007.970648936018       0.55366655380657903        655.64710791918321     
  -12937.621877546590       0.50392930490306753        655.71528230809270     
  -14062.468673120120       -1.1493351557192000        582.71243053424951     
  -13989.209280980054      -0.50709368477600947        582.95138362591467     
  -13915.974281767629       -4.8744598625489743E-002   583.16003025220834     
  -13842.755148656357       0.25413485827812110        583.34059264448456     
  -13769.543354819247       0.42996744242100249        583.49529303410827     
  -13696.330373429564       0.50717590944441326        583.62635365249957     
  -13623.107677660453       0.51418301585545123        583.73599673102444     
  -13549.866740685195       0.47941151708801044        583.82644450110922     
  -13476.599035676942       0.43128416947638470        583.89991919407214     
  -14624.709577309852       -1.5813692614492538        508.25393942526262     
  -14548.533811126126      -0.81512786505118129        508.41955259527913     
  -14472.387215435705      -0.26544018338972819        508.56767504509014     
  -14396.259732870451       0.10121834314759326        508.69993302820018     
  -14320.141306062444       0.31837227492269449        508.81795279819681     
  -14244.021877643896       0.41954617111514381        508.92336060865540     
  -14167.891390246716       0.43826459190040623        509.01778271327009     
  -14091.739786502985       0.40805209726386238        509.10284536550893     
  -14015.557009044838       0.36243324639144703        509.18017481912273     
  -15186.878447799321       -1.8309121332158611        430.92333241460005     
  -15107.799619460086       -1.0032887589741222        431.00834017112680     
  -15028.751461151522      -0.40843246701115277        431.08979155564373     
  -14949.723131754792       -1.0206195278442465E-002   431.16863467578776     
  -14870.703790151374       0.22752711879729759        431.24581763942098     
  -14791.682595222412       0.34090453738735960        431.32228855422812     
  -14712.648705849455       0.36606312254571094        431.39899552813409     
  -14633.591280913693       0.33913993650821794        431.47688666880214     
  -14554.499479296483       0.29627204172629718        431.55691008403102     
  -15748.968042701325       -1.8957912048781509        350.69479729239043     
  -15667.000007856030       -1.0695669285596523        350.69831767656314     
  -15585.061099316545      -0.47594556980311609        350.71246338442540     
  -15503.140439003964       -7.8666865177183354E-002   350.73742220997593     
  -15421.227148839127       0.15852944865218888        350.77338194701434     
  -15339.310350743082       0.27190363500540116        350.82053038956451     
  -15257.379166636814       0.29771595722286293        350.87905533151724     
  -15175.422718441392       0.27222667846490367        350.94914456701275     
  -15093.430128077802       0.23169606214833038        351.03098588983329     
  -16310.971120128688       -1.7738339102133978        267.54252184864515     
  -16226.128278188369       -1.0119529363046240        267.47005643463535     
  -16141.310210332562      -0.46620361226359819        267.42177413217638     
  -16056.506748312459      -0.10269177515783667        267.39702025340034     
  -15971.707723879132       0.11247673820162163        267.39514011029593     
  -15886.902968783577       0.21319609078454960        267.41547901506510     
  -15802.082314777026       0.23336044541974843        267.45738227971611     
  -15717.235593610490       0.20686396522523864        267.52019521646366     
  -15632.352637035163       0.16760081334359711        267.60326313739938     
  -16872.880438194363       -1.4628676832871861        181.44069387341270     
  -16785.177732331293      -0.82843734436573868        181.30412776840618     
  -16697.492874600939      -0.37743071471140865        181.20380739942030     
  -16609.817153374857       -8.0809033497644123E-002   181.13815342868824     
  -16522.141857024617        9.0466461456344405E-002   181.10558651854350     
  -16434.458273921984       0.16543453096710437        181.10452733116668     
  -16346.757692438319       0.17313393668337085        181.13339652869550     
  -16259.031400945396       0.14260343950172683        181.19061477341486     
  -16171.270687814640       0.10288180145380466        181.27460272767053     
  -17434.688755011259      -0.96071995797592535        92.363501156682233     
  -17344.141672159163      -0.51701071510342445        92.181103000792675     
  -17253.603172523173      -0.20785099827662634        92.044646786674150     
  -17163.066747885536       -1.1546748215550906E-002   91.951546358625563     
  -17072.525890029054        9.3596092339794268E-002   91.899215561036286     
  -16981.974090735857       0.12927158272941597        91.885068238199821     
  -16891.404841788783       0.11717378063804063        91.906518234476650     
  -16800.811634970130        7.8996744414325804E-002   91.960979394084234     
  -16710.187962062319        3.6434533110877965E-002   92.045865561635352     
  -17996.388828692034      -0.26521816822878463       0.28513148853680176     
  -17903.013399546362       -7.5663611010895693E-002   8.1553455009358997E-002
  -17809.635184500759        4.4311417434983014E-002  -6.9624105389743327E-002
  -17716.250625539244       0.10656697168087703      -0.17207633418900448     
  -17622.856164645618       0.12296310500187246      -0.22947837289277603     
  -17529.448243803443       0.10535987207276776      -0.24550536336817766     
  -17436.023304996779        6.5617326171377499E-002 -0.22383244702586022     
  -17342.577790209132        1.5595521993418515E-002 -0.16813476537607033     
  -17249.108141424527       -3.2845486197402352E-002  -8.2087460082471850E-002
  -12937.621877546590       0.50392930490306753        655.71528230809270     
  -12867.264041592578       0.45662050243208796        655.77102845199215     
  -12796.913567588419       0.41023576351744850        655.82468282625143     
  -12726.570351053146       0.36512335804491158        655.87605439472350     
  -12656.234287506035       0.32163155518173880        655.92495212140420     
  -12585.905272465987       0.28010862500832445        655.97118497026213     
  -12515.583201452246       0.24090283688292402        656.01456190517672     
  -12445.267969983932       0.20436246045301232        656.05489189011769     
  -12374.959473580184       0.17083576518052723        656.09198388900825     
  -13476.599035676942       0.43128416947638470        583.89991919407214     
  -13403.318762824698       0.38709207577812776        583.96398544948420     
  -13330.045810513158       0.34516568663821090        584.02468899514599     
  -13256.780184208981       0.30548677974184102        584.08197369495281     
  -13183.521889378910       0.26803713271237939        584.13578341275831     
  -13110.270931489791       0.23279852275027224        584.18606201244745     
  -13037.027316008127       0.19975272806914290        584.23275335796848     
  -12963.791048400801       0.16888152576575521        584.27580131312686     
  -12890.562134134540       0.14016669351713062        584.31514974189361     
  -14015.557009044838       0.36243324639144703        509.18017481912273     
  -13939.358633059144       0.32210351775847812        509.25140190987554     
  -13863.167010851917       0.28516799238877866        509.31724815020254     
  -13786.982250733887       0.25126563431877003        509.37797580859109     
  -13710.804461015821       0.22003540779223840        509.43384715336947     
  -13634.633750008452       0.19111627701568068        509.48512445288935     
  -13558.470226022551       0.16414720618831780        509.53206997555708     
  -13482.313997368790       0.13876715952210361        509.57494598977144     
  -13406.165172357883       0.11461510144818021        509.61401476388392     
  -14554.499479296483       0.29627204172629718        431.55691008403102     
  -14475.389376297486       0.25993762794587383        431.63399199472099     
  -14396.284410662973       0.22807006311631994        431.70293600132965     
  -14317.184786444137       0.19998917654447723        431.76450628135024     
  -14238.090707692178       0.17501479771453887        431.81946701219982     
  -14159.002378458174       0.15246675628804951        431.86858237129996     
  -14079.920002793249       0.13166488177012070        431.91261653614771     
  -14000.843784748547       0.11192900366495451        431.95233368411550     
  -13921.773928375271        9.2578951490395411E-002   431.98849799265435     
  -15093.430128077802       0.23169606214833038        351.03098588983329     
  -15011.416716541187       0.19887720604947390        351.11246986573229     
  -14929.405252004552       0.17169928146813618        351.18232825840937     
  -14847.396027155919       0.14918666174708051        351.24201065890230     
  -14765.389334683237       0.13036372034821397        351.29296665832607     
  -14683.385467274526       0.11425483059338148        351.33664584764426     
  -14601.384717617761        9.9884365940852149E-002   351.37449781794066     
  -14519.387378400825        8.6276700055350375E-002   351.40797216022969     
  -14437.393742311786        7.2456206087736064E-002   351.43851846556629     
  -15632.352637035163       0.16760081334359711        267.60326313739938     
  -15547.446377791803       0.13720505154469720        267.68754968452600     
  -15462.536776934836       0.11388302989143995        267.75600063129775     
  -15377.624208685258        9.6387345098264632E-002   267.81093448696464     
  -15292.709047264514        8.3470592540834332E-002   267.85466976067880     
  -15207.791666893683        7.3885368569790444E-002   267.88952496166326     
  -15122.872441793888        6.6384269096488424E-002   267.91781859910867     
  -15037.951746186422        5.9719890202359238E-002   267.94186918222181     
  -14953.029954292482        5.2644827857875498E-002   267.96399522022676     
  -16171.270687814640       0.10288180145380466        181.27460272767053     
  -16083.484084050884        7.3203963870582811E-002   181.35994561276723     
  -15995.686227512000        5.2448691219979082E-002   181.42452882991785     
  -15907.877566848503        3.9120481632380688E-002   181.47172331111571     
  -15820.058550711314        3.1723832108582428E-002   181.50489998822403     
  -15732.229627751429        2.8763239542058727E-002   181.52742979321121     
  -15644.391246619338        2.8743201936777041E-002   181.54268365785168     
  -15556.543855966060        3.0168216025231231E-002   181.55403251418389     
  -15468.687904442491        3.1542779061055626E-002   181.56484729415979     
  -16710.187962062319        3.6434533110877965E-002   92.045865561635352     
  -16619.535559320171        5.1567423242886434E-003   92.130371812110795     
  -16528.860845794330       -1.4776352291846706E-002   92.188488564233339     
  -16438.164337461669       -2.5084673307901539E-002   92.224822677197622     
  -16347.446550299162       -2.7488143970913370E-002   92.243981010035000     
  -16256.708000283570       -2.3706686821242329E-002   92.250570422105525     
  -16165.949203391778       -1.5460224974958692E-002   92.249197772424196     
  -16075.170675600615       -4.4686810515486286E-003   92.244469920306457     
  -15984.372932886925        7.5480220739336801E-003   92.240993724814359     
  -17249.108141424527       -3.2845486197402352E-002  -8.2087460082471850E-002
  -17155.606527601016       -6.8653813416858611E-002  -4.5755594559985065E-004
  -17062.067873839966       -8.9964717943985306E-002   4.8455544037943041E-002
  -16968.492756341086       -9.8698864906509698E-002   7.0678130701845435E-002
  -16874.881751303314       -9.6776917886018055E-002   7.2236495083437977E-002
  -16781.235434926202       -8.6119541865627980E-002   5.9156928217193289E-002
  -16687.554383408838       -6.8647400616100640E-002   3.7465720978568019E-002
  -16593.839172950567       -4.6281158656711341E-002   1.3189164514583246E-002
  -16500.090379750742       -2.0941480182045780E-002  -7.6464502800388367E-003
  -12374.959473580184       0.17083576518052723        656.09198388900825     
  -12304.653517132443       0.14174009464886694        656.12448045668964     
  -12234.346114035106       0.11779778257960061        656.15151609950135     
  -12164.037472561451        9.8314584671243210E-002   656.17363770862198     
  -12093.727800984867        8.2596256369924959E-002   656.19139217523798     
  -12023.417307578575        6.9948553573794925E-002   656.20532639073599     
  -11953.106200615961        5.9677231616205972E-002   656.21598724621788     
  -11882.794688370355        5.1088046149288857E-002   656.22392163293193     
  -11812.482979115071        4.3486752812896157E-002   656.22967644212486     
  -12890.562134134540       0.14016669351713062        584.31514974189361     
  -12817.335426814068       0.11504605175105098        584.34942118816900     
  -12744.105898087084        9.4563944582660042E-002   584.37768384348271     
  -12670.873730484540        7.8111935420565715E-002   584.40055004322903     
  -12597.639106537614        6.5081587033091637E-002   584.41863212262081     
  -12524.402208777152        5.4864463229023386E-002   584.43254241684838     
  -12451.163219734242        4.6852127061356441E-002   584.44289326125352     
  -12377.922321939970        4.0436141747704824E-002   584.45029699114014     
  -12304.679697925236        3.5008070589810814E-002   584.45536594171529     
  -13406.165172357883       0.11461510144818021        509.61401476388392     
  -13330.017948105233        9.3087336737880833E-002   509.64809664613341     
  -13253.866542848593        7.5509762553338078E-002   509.67622065451388     
  -13177.711096582339        6.1415730791850365E-002   509.69896206228844     
  -13101.551749300788        5.0338593693595612E-002   509.71689614269650     
  -13025.388640998310        4.1811703497842245E-002   509.73059816894960     
  -12949.221911669358        3.5368412087336765E-002   509.74064341433427     
  -12873.051701308159        3.0542071861418663E-002   509.74760715199619     
  -12796.878149909135        2.6866034847444098E-002   509.75206465527037     
  -13921.773928375271        9.2578951490395411E-002   431.98849799265435     
  -13842.704677683312        7.4784946242289152E-002   432.02035108212874     
  -13763.630194423746        5.9991404796164716E-002   432.04691559124234     
  -13684.550559259967        4.7929449334333185E-002   432.06862722525614     
  -13605.465852855463        3.8330201838107314E-002   432.08592168925219     
  -13526.376155873455        3.0924784464332333E-002   432.09923468827816     
  -13447.281548977238        2.5444319770031143E-002   432.10900192759902     
  -13368.182112830220        2.1619929791995673E-002   432.11565911234692     
  -13289.077928095645        1.9182736844413739E-002   432.11964194757701     
  -14437.393742311786        7.2456206087736064E-002   351.43851846556629     
  -14355.399212225348        5.9059877516119741E-002   351.46602874744758     
  -14273.398998916378        4.7365040833028615E-002   351.48955771244670     
  -14191.393106922802        3.7356569519943150E-002   351.50929899159451     
  -14109.381540782531        2.9019337208410434E-002   351.52544621587970     
  -14027.364305033521        2.2338217486321810E-002   351.53819301613828     
  -13945.341404213763        1.7298083615060023E-002   351.54773302351009     
  -13863.312842861184        1.3883809202525299E-002   351.55425986879231     
  -13781.278625513620        1.2080268100362446E-002   351.55796718301445     
  -14953.029954292482        5.2644827857875498E-002   267.96399522022676     
  -14868.105148408997        4.4833126777120924E-002   267.98497389352991     
  -14783.175102430678        3.6986838938901201E-002   268.00393607681877     
  -14698.239727975992        2.9400569780591468E-002   268.02073082088310     
  -14613.298936663068        2.2368925608134305E-002   268.03520717629056     
  -14528.352640109999        1.6186512480999227E-002   268.04721419392519     
  -14443.400749934985        1.1147936335873965E-002   268.05660092427775     
  -14358.443177756189        7.5478035305422964E-003   268.06321641820199     
  -14273.479835191927        5.6807198616297683E-003   268.06690972640820     
  -15468.687904442491        3.1542779061055626E-002   181.56484729415979     
  -15380.826082911228        3.1025691470858874E-002   181.57703077177109     
  -15292.960651070738        2.8212967778017628E-002   181.58983974318770     
  -15205.091410824969        2.3764928210766811E-002   181.60267617246768     
  -15117.218164077938        1.8341892750868283E-002   181.61494202416756     
  -15029.340712733889        1.2604180376911245E-002   181.62603926263972     
  -14941.458858696718        7.2121116463677026E-003   181.63536985214688     
  -14853.572403870568        2.8260060853426694E-003   181.64233575724791     
  -14765.681150159580        1.0618307169352192E-004   181.64633894226762     
  -15984.372932886925        7.5480220739336801E-003   92.240993724814359     
  -15893.565612409653        1.6558567590436724E-002   92.242043633678421     
  -15802.757790940504        2.0399596331117209E-002   92.247057770220408     
  -15711.949143874865        2.0153123554337071E-002   92.254888505963365     
  -15621.139346608421        1.6901163516195084E-002   92.264388213135604     
  -15530.328074536548        1.1725731725164223E-002   92.274409263790730     
  -15439.515003054968        5.7088424609901267E-003   92.283804029595572     
  -15348.699807559296       -6.7489723733160645E-005   92.291424882704433     
  -15257.882163445222       -4.5212502845970448E-003   92.296124195198857     
  -16500.090379750742       -2.0941480182045780E-002  -7.6464502800388367E-003
  -16406.327333581521        3.5275239952170523E-004  -2.0143269201973346E-002
  -16312.568668143933        1.2902893580758246E-002  -2.4620783399478853E-002
  -16218.813915530833        1.8268634362357261E-002  -2.2878719085229860E-002
  -16125.062607834927        1.8009665400313679E-002  -1.6716803041902099E-002
  -16031.314277148995        1.3685677572539134E-002  -7.9347615779138299E-003
  -15937.568455565564        6.8563619925043895E-003   1.6676787045557765E-003
  -15843.824675177664       -9.1859050553466659E-004   1.0290791333500004E-002
  -15750.082468077866       -8.0794892855919898E-003   1.6134849778473504E-002
  -11812.482979115071        4.3486752812896157E-002   656.22967644212486     
  -11742.171357736237        3.6275424208270124E-002   656.23448939939226     
  -11671.859951800465        2.9380531232618523E-002   656.23917395852993     
  -11601.548733601709        2.2894427480423474E-002   656.24364060287269     
  -11531.237675433951        1.6909466457036615E-002   656.24779981579138     
  -11460.926749591057        1.1518001836520853E-002   656.25156208073042     
  -11390.615928366873        6.8123873174954497E-003   656.25483788106715     
  -11320.305184055544        2.8849760224147758E-003   656.25753770017377     
  -11249.994488950881       -1.7187818912134389E-004   656.25957202142217     
  -12304.679697925236        3.5008070589810814E-002   584.45536594171529     
  -12231.436593849223        2.9755956547433016E-002   584.45952604588126     
  -12158.194103473543        2.4375834069815028E-002   584.46372240473886     
  -12084.952180732997        1.9021253754999634E-002   584.46784610605835     
  -12011.710779562403        1.3845766301528784E-002   584.47178823738807     
  -11938.469853896644        9.0029221310032881E-003   584.47543988630775     
  -11865.229357670451        4.6462719378723705E-003   584.47869214064463     
  -11791.989244818758        9.2936629789619474E-004   584.48143608794737     
  -11718.749469276352       -1.9942444218941091E-003   584.48356281589452     
  -12796.878149909135        2.6866034847444098E-002   509.75206465527037     
  -12720.703477931613        2.3346768916781002E-002   509.75553728277418     
  -12644.529777586395        1.9418237153331575E-002   509.75909877373203     
  -12568.356996495009        1.5255034437359427E-002   509.76265297256788     
  -12492.185082278789        1.1031756158445205E-002   509.76610372357283     
  -12416.013982559434        6.9229968394211028E-003   509.76935487123421     
  -12339.843644958321        3.1033519094307849E-003   509.77231025979393     
  -12263.674017096931       -2.5258363257307792E-004   509.77487373371042     
  -12187.505046596816       -2.9702149722652393E-003   509.77694913731352     
  -13289.077928095645        1.9182736844413739E-002   432.11964194757701     
  -13209.972010191274        1.7047798737621633E-002   432.12245761261471     
  -13130.867289661695        1.4413083161343820E-002   432.12528865233162     
  -13051.763719860830        1.1434077392550535E-002   432.12808382036917     
  -12972.661254142771        8.2662677023108699E-003   432.13079187025130     
  -12893.559845861384        5.0651410911086714E-003   432.13336155529748     
  -12814.459448370519        1.9861848841173924E-003   432.13574162933901     
  -12735.360015024111       -8.1511423013580497E-004   432.13788084580511     
  -12656.261499176137       -3.1832693794058287E-003   432.13972795822951     
  -13781.278625513620        1.2080268100362446E-002   351.55796718301445     
  -13699.242190835837        1.0858983869184158E-002   351.56022153788280     
  -13617.206955221780        9.2657160403177841E-003   351.56227762765428     
  -13535.172889803758        7.3966903773907688E-003   351.56416126760979     
  -13453.139965713770        5.3481333916352014E-003   351.56589827292538     
  -13371.108154084111        3.2162708357645897E-003   351.56751445866058     
  -13289.077426046795        1.0973293674396700E-003   351.56903564012390     
  -13207.047752734066       -9.1246524334565038E-004   351.57048763243978     
  -13125.019105278012       -2.7168865271960385E-003   351.57189625073937     
  -14273.479835191927        5.6807198616297683E-003   268.06690972640820     
  -14188.514020073155        4.7802619947105995E-003   268.06876356104391     
  -14103.549089789347        3.8814783747511683E-003   268.07005128654868     
  -14018.585045296653        2.9811819231326808E-003   268.07090793229611     
  -13933.621887551366        2.0761852847499540E-003   268.07146852743125     
  -13848.659617509587        1.1633012045422220E-003   268.07186810129605     
  -13763.698236127331        2.3934279579407303E-004   268.07224168302633     
  -13678.737744360755       -6.9887688550807070E-004   268.07272430195610     
  -13593.778143166215       -1.6545455991945346E-003   268.07345098733907     
  -14765.681150159580        1.0618307169352192E-004   181.64633894226762     
  -14677.787498110958       -1.1884293371622334E-003   181.64801818452841     
  -14589.894008886682       -1.8342859839322045E-003   181.64859521605305     
  -14502.000725312784       -1.9741401192732155E-003   181.64834643242651     
  -14414.107690215011       -1.7507442153146258E-003   181.64754822945847     
  -14326.214946419501       -1.3068522384855896E-003   181.64647700302385     
  -14238.322536751903       -7.8521625709981890E-004   181.64540914879092     
  -14150.430504038215       -3.2858961913007079E-004   181.64462106259484     
  -14062.538891104532       -7.9725961768417619E-005   181.64438914028344     
  -15257.882163445222       -4.5212502845970448E-003   92.296124195198857     
  -15167.062625157032       -7.0471525250468403E-003   92.297919911048083     
  -15076.242028036544       -7.9762344430491794E-003   92.297895003157677     
  -14985.420468825221       -7.6309677851895685E-003   92.296499386092961     
  -14894.598044264563       -6.3338240106531885E-003   92.294182974723483     
  -14803.774851095784       -4.4072741820855299E-003   92.291395684002623     
  -14712.950986060552       -2.1737901288361172E-003   92.288587428316418     
  -14622.126545900373        4.4156183321319986E-005   92.286208122696522     
  -14531.301627356701        1.9240934680055943E-003   92.284707681904678     
  -15750.082468077866       -8.0794892855919898E-003   1.6134849778473504E-002
  -15656.339401419240       -1.2795969843864441E-002   1.8403243068460629E-002
  -15562.593462761333       -1.4639023469499080E-002   1.7936234730295677E-002
  -15468.844814807020       -1.4150992870781920E-002   1.5389411387733276E-002
  -15375.093620258946       -1.1874220193021756E-002   1.1418359057718905E-002
  -15281.340041820098       -8.3510487320381799E-003   6.6786640694855700E-003
  -15187.584242193248       -4.1238211460949969E-003   1.8259124752215503E-003
  -15093.826384081092        2.6512064960115822E-004  -2.4843094426107927E-003
  -15000.066630186342        4.2734337821457302E-003  -5.5964155593190498E-003
  -11249.994488950881       -1.7187818912134389E-004   656.25957202142217     
  -11179.683608385953       -2.2454193594967364E-003   656.26095372187706     
  -11109.372362664273       -3.4061263841067557E-003   656.26180226560609     
  -11039.060806535432       -3.8364978850040643E-003   656.26218801641153     
  -10968.748994749072       -3.7190326197560353E-003   656.26218133807629     
  -10898.436982054627       -3.2362286260649853E-003   656.26185259461067     
  -10828.124823201681       -2.5705847524477576E-003   656.26127214978658     
  -10757.812572939842       -1.9045994790758414E-003   656.26051036742990     
  -10687.500286018818       -1.4207718481884513E-003   656.25963761138837     
  -11718.749469276352       -1.9942444218941091E-003   584.48356281589452     
  -11645.509528131448       -3.8892177062734845E-003   584.48501356642112     
  -11572.268991346264       -4.7631243364776310E-003   584.48585479018141     
  -11499.027922165988       -4.8267817874148022E-003   584.48616538789997     
  -11425.786383836055       -4.2910079746434349E-003   584.48602426010939     
  -11352.544439601801       -3.3666208032627765E-003   584.48551030737485     
  -11279.302152708502       -2.2644379891971766E-003   584.48470243043403     
  -11206.059586401612       -1.1952773947996320E-003   584.48367952986587     
  -11132.816803926426       -3.6995690788899083E-004   584.48252050629060     
  -12187.505046596816       -2.9702149722652393E-003   509.77694913731352     
  -12111.335967196081       -4.7196062287184759E-003   509.77841992983906     
  -12035.166090203704       -5.4293909970510867E-003   509.77927975034419     
  -11958.995479597124       -5.3128273721085861E-003   509.77959771314943     
  -11882.824199353901       -4.5831740353605710E-003   509.77944293245378     
  -11806.652313451614       -3.4536895691417158E-003   509.77888452265910     
  -11730.479885867693       -2.1376317763497354E-003   509.77799159798946     
  -11654.306980579713       -8.4825959629597492E-004   509.77683327272058     
  -11578.133661565058        2.0116913719903096E-004   509.77547866119261     
  -12656.261499176137       -3.1832693794058287E-003   432.13972795822951     
  -12577.162948217270       -4.7433764329980477E-003   432.14113405063347     
  -12498.063478599384       -5.3507356033151154E-003   432.14201170799066     
  -12418.963147268651       -5.1951671557617374E-003   432.14240193526740     
  -12339.862011171206       -4.4664915685643791E-003   432.14234573717226     
  -12260.760127253183       -3.3545294299983652E-003   432.14188411853064     
  -12181.657552460503       -2.0491005261646933E-003   432.14105808429480     
  -12102.554343739321       -7.4002519841087633E-004   432.13990863934117     
  -12023.450558035780        3.8287598817987600E-004   432.13847678845769     
  -13125.019105278012       -2.7168865271960385E-003   351.57189625073937     
  -13042.990493832138       -3.9673188266533543E-003   351.57311716724985     
  -12960.960975895934       -4.4729665396516793E-003   351.57398522539432     
  -12878.930593620362       -4.3743326496041846E-003   351.57449499759565     
  -12796.899389156504       -3.8119209757496719E-003   351.57464105617220     
  -12714.867404655430       -2.9262349808050203E-003   351.57441797336895     
  -12632.834682268220       -1.8577782639113138E-003   351.57382032150974     
  -12550.801264145935       -7.4705429142341018E-004   351.57284267302458     
  -12468.767192439595        2.6543333387962775E-004   351.57147960009115     
  -13593.778143166215       -1.6545455991945346E-003   268.07345098733907     
  -13508.818626678369       -2.3982254651855328E-003   268.07433051803923     
  -13423.858401456146       -2.7418930449130130E-003   268.07513486445833     
  -13338.897487091932       -2.7508559651323594E-003   268.07579384341585     
  -13253.935903178304       -2.4904225574573502E-003   268.07623727149468     
  -13168.973669307627       -2.0259012744645588E-003   268.07639496534375     
  -13084.010805072334       -1.4225998538677231E-003   268.07619674164471     
  -12999.047330064785       -7.4582648903742665E-004   268.07557241712004     
  -12914.083263877488       -6.0889008636877406E-005   268.07445180839807     
  -14062.538891104532       -7.9725961768417619E-005   181.64438914028344     
  -13974.647369393071       -4.2887043491646182E-005   181.64473534144705     
  -13886.755574642621       -1.0332348756492138E-004   181.64539518736242     
  -13798.863496123266       -2.2526895008923020E-004   181.64621541591686     
  -13710.971123105277       -3.7295733000064502E-004   181.64704276502408     
  -13623.078444858817       -5.1062296006421093E-004   181.64772397265753     
  -13535.185450654026       -6.0249942089285469E-004   181.64810577660373     
  -13447.292129761194       -6.1282083424885059E-004   181.64803491497730     
  -13359.398471450597       -5.0582169660629006E-004   181.64735812556131     
  -14531.301627356701        1.9240934680055943E-003   92.284707681904678     
  -14440.476744613734        3.0919049904696294E-003   92.284292875888923     
  -14349.652314818062        3.4969330545209232E-003   92.284700756220857     
  -14258.828289154078        3.3018963013091707E-003   92.285676658488356     
  -14168.004618806062        2.6695137794376933E-003   92.286965918811731     
  -14077.181254958014        1.7625053569645388E-003   92.288313873647056     
  -13986.358148794825        7.4358834353915881E-004   92.289465858538648     
  -13895.535251500665       -2.2451811673818156E-004   92.290167209885240     
  -13804.712514259831       -9.7909463966061594E-004   92.290163263627349     
  -15000.066630186342        4.2734337821457302E-003  -5.5964155593190498E-003
  -14906.306774977773        6.9993593997423886E-003  -7.0356398635188682E-003
  -14812.548441345281        8.1130676007887814E-003  -7.0138670452939283E-003
  -14718.791534623982        7.9301082550955471E-003  -5.9054857811319883E-003
  -14625.035960148745        6.7660319564311067E-003  -4.0848849553436917E-003
  -14531.281623254417        4.9363887419531238E-003  -1.9264536965485377E-003
  -14437.528429275830        2.7567294255277375E-003   1.9541939984303293E-004
  -14343.776283548194        5.4260356228041928E-004   1.9063452837985255E-003
  -14250.025091406291       -1.3904385232308414E-003   2.8319349440689349E-003
  -10687.500286018818       -1.4207718481884513E-003   656.25963761138837     
  -10617.188019370524       -1.2620922002497537E-003   656.25882862746653     
  -10546.875776966068       -1.3950148822914343E-003   656.25818706674454     
  -10476.563534113193       -1.7372324273310369E-003   656.25767665099954     
  -10406.251266119829       -2.2064375839363493E-003   656.25726110199673     
  -10335.938948293649       -2.7203229583392385E-003   656.25690414162170     
  -10265.626555942496       -3.1965812377166003E-003   656.25656949166671     
  -10195.314064374179       -3.5529051606317807E-003   656.25622087383670     
  -10125.001448896655       -3.7069876093482890E-003   656.25582201003601     
  -11132.816803926426       -3.6995690788899083E-004   584.48252050629060     
  -11059.574035659882        2.2208951122593135E-008   584.48145807475237     
  -10986.331446762533       -7.9453218404523795E-005   584.48064219300920     
  -10913.089002654828       -4.9311817701891414E-004   584.48002762586350     
  -10839.846668757453       -1.1257081578150974E-003   584.47956913792223     
  -10766.604410490914       -1.8619582760948106E-003   584.47922149375893     
  -10693.362193275723       -2.5866035957733402E-003   584.47893945825706     
  -10620.119982532626       -3.1843796455177653E-003   584.47867779599358     
  -10546.877743682031       -3.5400215774643584E-003   584.47839127160717     
  -11578.133661565058        2.0116913719903096E-004   509.77547866119261     
  -11501.960333057477        7.4735576936291181E-004   509.77421141561194     
  -11425.787330670133        7.5573667982098414E-004   509.77323852845331     
  -11349.614615450233        3.5615467368188547E-004   509.77251412457485     
  -11273.442148444803       -3.2154721884580795E-004   509.77199232872294     
  -11197.269890701014       -1.1475262290332466E-003   509.77162726573886     
  -11121.097803265988       -1.9919390902032319E-003   509.77137306042175     
  -11044.925847186765       -2.7249429149378557E-003   509.77118383756800     
  -10968.753983510478       -3.2166947389669076E-003   509.77101372202424     
  -12023.450558035780        3.8287598817987600E-004   432.13847678845769     
  -11944.346735794197        1.0326389642614231E-003   432.13708234361854     
  -11865.243354286094        1.1328750592838333E-003   432.13599231491310     
  -11786.140375699073        8.0962588071997743E-004   432.13516850469961     
  -11707.037762220707        1.8893313472290174E-004   432.13457271516199     
  -11627.935476038259       -6.0316124381643021E-004   432.13416674827340     
  -11548.833479339224       -1.4406152945412032E-003   432.13391240644779     
  -11469.731734311059       -2.1973871685077029E-003   432.13377149189074     
  -11390.630203141147       -2.7474349981275736E-003   432.13370580666083     
  -12468.767192439595        2.6543333387962775E-004   351.57147960009115     
  -12386.733068100591        9.0860304408124648E-004   351.57006455209324     
  -12304.699443207217        1.0742834861048323E-003   351.56891979443441     
  -12222.666286601112        8.6633577575412346E-004   351.56802312407319     
  -12140.633567123727        3.8862168594278046E-004   351.56735233785628     
  -12058.601253616758       -2.5499761932223919E-004   351.56688523249954     
  -11976.569314921682       -9.6066032028829795E-004   351.56659960496796     
  -11894.537719879969       -1.6245050032921426E-003   351.56647325205080     
  -11812.506437333243       -2.1426701014206628E-003   351.56648397052794     
  -12914.083263877488       -6.0889008636877406E-005   268.07445180839807     
  -12829.119154207770        4.2797835158125963E-004   268.07315173442464     
  -12744.155523030700        6.0228221627767198E-004   268.07203720880909     
  -12659.192351355880        5.2532425888784928E-004   268.07111034028958     
  -12574.229620192727        2.6040655393444467E-004   268.07037323756930     
  -12489.267310550782       -1.2916955893160775E-004   268.06982800936424     
  -12404.305403439344       -5.8010189877677476E-004   268.06947676429405     
  -12319.343879867847       -1.0290884442838433E-003   268.06932161128100     
  -12234.382720845975       -1.4128279026408563E-003   268.06936465897923     
  -13359.398471450597       -5.0582169660629006E-004   181.64735812556131     
  -13271.504818346302       -3.5650411700771656E-004   181.64633758412123     
  -13183.611519353493       -2.6080752832058351E-004   181.64536080005828     
  -13095.718573163102       -2.1436830957100028E-004   181.64446251102780     
  -13007.825978466401       -2.1282389570842497E-004   181.64367745490358     
  -12919.933733954382       -2.5181129876727937E-004   181.64304036966902     
  -12832.041838318268       -3.2696756989025744E-004   181.64258599290093     
  -12744.150290249274       -4.3393012674641795E-004   181.64234906280282     
  -12656.259088438408       -5.6833583221305162E-004   181.64236431712339     
  -13804.712514259831       -9.7909463966061594E-004   92.290163263627349     
  -13713.889884747223       -1.3921140198362991E-003   92.289615794635608     
  -13623.067357772605       -1.4926650010238518E-003   92.288906810049156     
  -13532.244955222384       -1.3537021259253379E-003   92.288111993885153     
  -13441.422698983424       -1.0481814706508885E-003   92.287307030566126     
  -13350.600610941810       -6.4905696126515977E-004   92.286567604390342     
  -13259.778712984822       -2.2928602447791491E-004   92.285969399420722     
  -13168.957026998545        1.3817759554513032E-004   92.285588099913852     
  -13078.135574869782        3.8037808826629771E-004   92.285499390162244     
  -14250.025091406291       -1.3904385232308414E-003   2.8319349440689349E-003
  -14156.274177641375       -2.6261207749485038E-003   2.9800595787687020E-003
  -14062.522963885127       -3.0709693710377906E-003   2.6914807951182668E-003
  -13968.771500733488       -2.8936369471921353E-003   2.0911468438864784E-003
  -13875.019838782258       -2.2627766575169517E-003   1.3040054311666885E-003
  -13781.268028627384       -1.3470413423419814E-003   4.5500450331746188E-004
  -13687.516120864630       -3.1508392203249969E-004  -3.3090810824664470E-004
  -13593.764166089961        6.6444311141822254E-004  -9.2878443016990728E-004
  -13500.012214899309        1.4228860545699717E-003  -1.2136766430116577E-003
  -10125.001448896655       -3.7069876093482890E-003   656.25582201003601     
  -10054.688753607115       -3.6181768209644360E-003   656.25538166811702     
  -9984.3760503209978       -3.3382145870746172E-003   656.25493930774337     
  -9914.0633559226080       -2.9233820532681420E-003   656.25450468814927     
  -9843.7506872963422       -2.4299603460349317E-003   656.25408756861486     
  -9773.4380613266221       -1.9142307241963863E-003   656.25369770852762     
  -9703.1254948976803       -1.4324743524412042E-003   656.25334486711836     
  -9632.8130048940075       -1.0409726992293145E-003   656.25303880359206     
  -9562.5006081999818       -7.9600694925829885E-004   656.25278927734655     
  -10546.877743682031       -3.5400215774643584E-003   584.47839127160717     
  -10473.635437121038       -3.5664082965922717E-003   584.47805222545628     
  -10400.393062347024       -3.3067533827306761E-003   584.47767252108019     
  -10327.150643430943       -2.8412931942511932E-003   584.47726620785204     
  -10253.908204443735       -2.2502645456370374E-003   584.47684733522112     
  -10180.665769456353       -1.6139035619744391E-003   584.47642995253761     
  -10107.423362539765       -1.0124468412868737E-003   584.47602810926844     
  -10034.181007764797       -5.2613084017139045E-004   584.47565585491566     
  -9960.9387292024749       -2.3519211026723497E-004   584.47532723875929     
  -10968.753983510478       -3.2166947389669076E-003   509.77101372202424     
  -10892.582082567385       -3.3437860652156814E-003   509.77079765700461     
  -10816.410059060798       -3.1307185690820916E-003   509.77051093988302     
  -10740.237940597486       -2.6695148239923583E-003   509.77016822673568     
  -10664.065754783958       -2.0521967185231915E-003   509.76978417377836     
  -10587.893529227000       -1.3707863740819448E-003   509.76937343729514     
  -10511.721291533235       -7.1730642866896233E-004   509.76895067330440     
  -10435.549069309485       -1.8377907281319494E-004   509.76853053794110     
  -10359.376890162159        1.3777384629065637E-004   509.76812768756230     
  -11390.630203141147       -2.7474349981275736E-003   432.13370580666083     
  -11311.528676870346       -2.9463878649949038E-003   432.13361727328430     
  -11232.426990075452       -2.7949949467256374E-003   432.13344099910449     
  -11153.325170247925       -2.3848943737903028E-003   432.13318856377759     
  -11074.223244879659       -1.8077257000186364E-003   432.13287154668228     
  -10995.121241461973       -1.1551267457434733E-003   432.13250152747537     
  -10916.019187486367       -5.1873580468964064E-004   432.13209008562023     
  -10836.917110444645        9.8076316135120578E-006   432.13164880066159     
  -10757.815037828033        3.3886615528899711E-004   432.13118925223171     
  -11812.506437333243       -2.1426701014206628E-003   351.56648397052794     
  -11730.475206953924       -2.3702904049969220E-003   351.56651038476173     
  -11648.443805003821       -2.2844655049993889E-003   351.56644913409417     
  -11566.412255208361       -1.9642800866677135E-003   351.56630503801699     
  -11484.380581293384       -1.4888202158545027E-003   351.56608291614322     
  -11402.348806984330       -9.3717071285936981E-004   351.56578758794581     
  -11320.316956006953       -3.8841738569317386E-004   351.56542387301999     
  -11238.285052086660        7.8354753441089997E-005   351.56499659084881     
  -11156.253118949284        3.8406011390179629E-004   351.56451056096114     
  -12234.382720845975       -1.4128279026408563E-003   268.06936465897923     
  -12149.421659742442       -1.6115716675813019E-003   268.06947630191593     
  -12064.460453458858       -1.5840143178138533E-003   268.06952177970624     
  -11979.499118304386       -1.3845194598616217E-003   268.06949546852030     
  -11894.537670587662       -1.0674489449229441E-003   268.06939174438628     
  -11809.576126617600       -6.8716623081854777E-004   268.06920498363633     
  -11724.614502702891       -2.9803344204992754E-004   268.06892956215734     
  -11639.652815152376        4.5586480155179743E-005   268.06855985632609     
  -11554.691080274908        2.8933088833582588E-004   268.06809024218228     
  -12656.259088438408       -5.6833583221305162E-004   181.64236431712339     
  -12568.368022159633       -6.6630783749133116E-004   181.64251433526425     
  -12480.476885053700       -6.7852570009563351E-004   181.64264537111032     
  -12392.585682361885       -6.2245995013654465E-004   181.64273767417387     
  -12304.694419325184       -5.1558108725657803E-004   181.64277149368340     
  -12216.803101184711       -3.7535920046138926E-004   181.64272707899130     
  -12128.911733181967       -2.1926593899479485E-004   181.64258467962674     
  -12041.020320558024       -6.4771216329972958E-005   181.64232454484565     
  -11953.128868553860        7.0654183673468651E-005   181.64192692406255     
  -13078.135574869782        3.8037808826629771E-004   92.285499390162244     
  -12987.314281129902        4.6942306471464690E-004   92.285623795315431     
  -12896.493049401321        4.4711644841299858E-004   92.285806343474832     
  -12805.671870206585        3.4505018629715778E-004   92.286009473988656     
  -12714.850734068290        1.9481536855892045E-004   92.286195626132965     
  -12624.029631509409        2.8002169528917875E-005   92.286327239178163     
  -12533.208553052560       -1.2379807776596863E-004   92.286366752043449     
  -12442.387489220173       -2.2899395025888225E-004   92.286276604257409     
  -12351.566430535386       -2.5599525270081358E-004   92.286019235068764     
  -13500.012214899309        1.4228860545699717E-003  -1.2136766430116577E-003
  -13406.260423577403        1.7995436037381296E-003  -1.1960075836903953E-003
  -13312.508896114621        1.8080288318742532E-003  -1.0088682032078215E-003
  -13218.757604664366        1.5411636632052250E-003  -7.1131278473232141E-004
  -13125.006521380028        1.0917702429651399E-003  -3.6239577238370414E-004
  -13031.255618414742        5.5267145035031717E-004  -2.1171399383172741E-005
  -12937.504867922029        1.6688390132912900E-005   2.5330616687579228E-004
  -12843.754242055555       -4.2335689522587927E-004   4.0198244855686846E-004
  -12750.003712968552       -6.7464226685842732E-004   3.6580327177654012E-004
  -9562.5006081999818       -7.9600694925829885E-004   656.25278927734655     
  -9492.1882479135747       -7.1533462823936134E-004   656.25258680058971     
  -9421.8758455227617       -7.4468024286034051E-004   656.25240913258824     
  -9351.5633854967291       -8.3227456980239367E-004   656.25224690276764     
  -9281.2508523049637       -9.2634862585327937E-004   656.25209074049917     
  -9210.9382304167775       -9.7513374430491240E-004   656.25193127535351     
  -9140.6255043010715       -9.2686054904334014E-004   656.25175913682415     
  -9070.3126584279253       -7.2976036608451977E-004   656.25156495423823     
  -8999.9996772661616       -3.3206424996023998E-004   656.25133935703366     
  -9960.9387292024749       -2.3519211026723497E-004   584.47532723875929     
  -9887.6965089080713       -1.8314888166059973E-004   584.47505933450293     
  -9814.4542971388728       -3.0752622024010634E-004   584.47485060277268     
  -9741.2120702688499       -5.2957073285142542E-004   584.47468717282959     
  -9667.9698046719077       -7.7052904407537426E-004   584.47455517412902     
  -9594.7274767220151       -9.5164736831065966E-004   584.47444073593169     
  -9521.4850627932501       -9.9417236515364493E-004   584.47432998783813     
  -9448.2425392593123       -8.1935073194472352E-004   584.47420905911849     
  -9374.9998824946069       -3.4842903096432565E-004   584.47406407909818     
  -10359.376890162159        1.3777384629065637E-004   509.76812768756230     
  -10283.204781016257        1.8352250299358275E-004   509.76778976131402     
  -10207.032731889592        1.2661266737268306E-005   509.76754390458109     
  -10130.860715027400       -2.8229430972714908E-004   509.76737403274961     
  -10054.688702675456       -6.0882991920152563E-004   509.76726406086311     
  -9978.5166670793096       -8.7443082611571299E-004   509.76719790443184     
  -9902.3445804845796       -9.8658266051643295E-004   509.76715947876903     
  -9826.1724151368435       -8.5277000107453205E-004   509.76713269904127     
  -9750.0001432816334       -3.8047882026148727E-004   509.76710148032748     
  -10757.815037828033        3.3886615528899711E-004   432.13118925223171     
  -10678.713038816302        3.9230537413459388E-004   432.13078920537345     
  -10599.611145650284        2.1711984118155669E-004   432.13050803040124     
  -10520.509330414128       -9.3637659119849559E-005   432.13032971443880     
  -10441.407565192121       -4.4691462971968576E-004   432.13023824464892     
  -10362.305822068654       -7.4965875182897435E-004   432.13021760812239     
  -10283.204073127501       -9.0881663163600024E-004   432.13025179214918     
  -10204.102290453360       -8.3133623320463812E-004   432.13032478375851     
  -10125.000446129994       -4.2416421365487622E-004   432.13042057007152     
  -11156.253118949284        3.8406011390179629E-004   351.56451056096114     
  -11074.221256885656        4.5082744372848538E-004   351.56406879110375     
  -10992.189534296271        3.0708689155289903E-004   351.56376197257015     
  -10910.157927070512        3.3206908028660109E-005   351.56357645031233     
  -10828.126411098579       -2.9044633038211032E-004   351.56349856927449     
  -10746.094962269988       -5.8350429981146590E-004   351.56351467447200     
  -10664.063556474619       -7.6560033812711481E-004   351.56361111095339     
  -10582.032169602260       -7.5636667634171317E-004   351.56377422360691     
  -10500.000777542604       -4.7543636674163281E-004   351.56399035742351     
  -11554.691080274908        2.8933088833582588E-004   268.06809024218228     
  -11469.729409802630        3.6671426050816081E-004   268.06763964288677     
  -11384.767893702912        2.8379995910654543E-004   268.06732472335699     
  -11299.806515638236        9.5046550995903090E-005   268.06713647233551     
  -11214.845259270956       -1.4508711910821148E-004   268.06706587857894     
  -11129.884108263574       -3.8214220739973825E-004   268.06710393088696     
  -11044.923046277858       -5.6165956948461826E-004   268.06724161785587     
  -10959.962056976628       -6.2918033290770836E-004   268.06746992845405     
  -10875.001124022248       -5.3024566250314820E-004   268.06777985129833     
  -11953.128868553860        7.0654183673468651E-005   181.64192692406255     
  -11865.237472144727        1.4759369105377118E-004   181.64151288506227     
  -11777.346219745727        1.4849643002889934E-004   181.64121527510926     
  -11689.455106759013        8.8689243966655340E-005   181.64103201275304     
  -11601.564128586218       -1.6500845958944410E-005   181.64096101631210     
  -11513.673280629235       -1.5174606005530222E-004   181.64100020458565     
  -11425.782558289953       -3.0171990601957077E-004   181.64114749582779     
  -11337.891956970167       -4.5109450411473517E-004   181.64140080843691     
  -11250.001472071914       -5.8454335703572724E-004   181.64175806128100     
  -12351.566430535386       -2.5599525270081358E-004   92.286019235068764     
  -12260.745418490140       -1.9890854264303925E-004   92.285699642090279     
  -12169.924508300277       -9.7586862921161810E-005   92.285452620396001     
  -12079.103711074373        1.0941917025775183E-005   92.285285303728870     
  -11988.283037920626        8.9650068275659578E-005   92.285204826634313     
  -11897.462499947347        1.0150981916012825E-004   92.285218323002184     
  -11806.642108263011        9.4930283012217842E-006   92.285332927322372     
  -11715.821873975901       -2.2342768806993263E-004   92.285555773739432     
  -11625.001808194089       -6.3428013027078123E-004   92.285893996194716     
  -12750.003712968552       -6.7464226685842732E-004   3.6580327177654012E-004
  -12656.253223416827       -6.6516617243905785E-004   2.1103848949257878E-004
  -12562.502755241987       -4.5321224115468794E-004   5.5751163718045633E-005
  -12468.752339226145       -1.4138774531602394E-004  -8.1422736592464927E-005
  -12375.002006150908        1.6770200545579428E-004  -1.8184714141040680E-004
  -12281.251786798015        3.7145108262848225E-004  -2.2688634362309892E-004
  -12187.501711949251        3.6725393965753028E-004  -1.9790464285746422E-004
  -12093.751812386728        5.2502805829135468E-005  -7.6265813107799952E-005
  -12000.002118892173       -6.7540701593316044E-004   1.5666574138995478E-004
 </DataArray>
 <DataArray  type="Float64" Name="VM" NumberOfComponents="1" format="ascii">
   17996.256227841561     
   17902.975568414477     
   17809.657340659804     
   17716.303911775965     
   17622.917651007065     
   17529.500929139340     
   17436.056118065928     
   17342.585590420356     
   17249.091719285214     
   17434.942388851458     
   17344.618057810658     
   17254.235797347359     
   17163.799907816421     
   17073.314692633296     
   16982.784457182923     
   16892.213507914868     
   16801.606151631680     
   16710.966694977022     
   16875.075579275202     
   16787.700863561346     
   16700.253613420115     
   16612.739591760666     
   16525.164566560255     
   16437.534309042490     
   16349.854592188909     
   16262.131189595772     
   16174.369874690456     
   16316.665899550168     
   16232.234613243927     
   16147.721622637831     
   16063.133679242463     
   15978.477541931872     
   15893.759974459825     
   15808.987743442252     
   15724.167616823808     
   15639.306362846512     
   15759.730383848488     
   15678.236553105595     
   15596.657005622654     
   15514.999004580310     
   15433.269822567792     
   15351.476738674901     
   15269.627036135515     
   15187.728000544619     
   15105.786918670561     
   15204.294105804858     
   15125.731632906884     
   15047.084356875819     
   14968.359573143473     
   14889.564587997173     
   14810.706715596036     
   14731.793275557387     
   14652.831591134745     
   14573.828988010457     
   14650.391525693251     
   14574.753827320517     
   14499.036984265191     
   14423.247842894363     
   14347.393261148991     
   14271.480105876961     
   14195.515250679542     
   14119.505574289075     
   14043.457959499197     
   14098.068142266282     
   14025.347755814168     
   13952.558501837715     
   13879.706295085780     
   13806.797062002654     
   13733.836738730020     
   13660.831269496110     
   13587.786605409816     
   13514.708703672115     
   13547.382531854590     
   13477.570681946692     
   13407.704795486143     
   13337.789372504076     
   13267.828924708421     
   13197.827974358390     
   13127.791053364952     
   13057.722702627607     
   12987.627471614962     
   17249.091719285214     
   17155.572200785984     
   17062.022891849756     
   16968.443407547427     
   16874.833363497557     
   16781.192375616411     
   16687.520059926548     
   16593.816032427079     
   16500.079909025731     
   16710.966694977022     
   16620.304206788307     
   16529.624701593970     
   16438.927905841389     
   16348.213547981877     
   16257.481358354853     
   16166.731069108086     
   16075.962414157648     
   15985.175129187333     
   16174.369874690456     
   16086.587952438884     
   15998.798749387777     
   15911.002072972367     
   15823.197733322495     
   15735.385543232338     
   15647.565318152658     
   15559.736876205081     
   15471.900038220512     
   15639.306362846512     
   15554.426763787436     
   15469.546998511289     
   15384.666932080931     
   15299.786432334444     
   15214.905369903123     
   15130.023618240974     
   15045.141053667146     
   14960.257555421220     
   15105.786918670561     
   15023.829645110191     
   14941.877112976106     
   14859.929229074598     
   14777.985902624603     
   14696.047045294892     
   14614.112571246613     
   14532.182397182920     
   14450.256442404478     
   14573.828988010457     
   14494.812315808660     
   14415.803498976902     
   14336.802478164549     
   14257.809195806196     
   14178.823596158365     
   14099.845625339134     
   14020.875231370381     
   13941.912364223368     
   14043.457959499197     
   13967.398472596893     
   13891.348572454875     
   13815.308234231357     
   13739.277434167952     
   13663.256149616007     
   13587.244359064307     
   13511.242042167689     
   13435.249179776749     
   13514.708703672115     
   13441.621335803669     
   13368.544311780852     
   13295.477651175150     
   13222.421374069116     
   13149.375501071116     
   13076.340053330170     
   13003.315052551186     
   12930.300521011202     
   12987.627471614962     
   12917.525556638677     
   12847.434172630459     
   12777.353403500661     
   12707.283333446750     
   12637.224046962603     
   12567.175628847754     
   12497.138164217409     
   12427.111738513166     
   16500.079909025731     
   16406.327510002891     
   16312.575119664532     
   16218.823049922044     
   16125.071612720045     
   16031.321120014783     
   15937.571883759379     
   15843.824215894943     
   15750.078428349423     
   15985.175129187333     
   15894.376893570010     
   15803.575694399480     
   15712.771729983440     
   15621.965198211152     
   15531.156296533718     
   15440.345221947713     
   15349.532170980790     
   15258.717339680930     
   15471.900038220512     
   15384.056644746279     
   15296.208731103299     
   15208.356412051588     
   15120.499801942833     
   15032.639014707827     
   14944.774163845337     
   14856.905362410820     
   14769.032723006036     
   14960.257555421220     
   14875.371092123267     
   14790.479749572925     
   14705.583584979942     
   14620.682655514640     
   14535.777018307501     
   14450.866730448959     
   14365.951848988840     
   14281.032430936422     
   14450.256442404478     
   14368.330434740583     
   14286.400168410746     
   14204.465664711313     
   14122.526945517708     
   14040.584033299428     
   13958.636951136305     
   13876.685722735236     
   13794.730372447500     
   13941.912364223368     
   13862.951806023793     
   13783.988372148955     
   13705.022064915929     
   13626.052887972170     
   13547.080846329514     
   13468.105946400146     
   13389.128196033702     
   13310.147604556902     
   13435.249179776749     
   13359.260567426994     
   13283.271008570306     
   13207.280498385331     
   13131.289034142548     
   13055.296615257514     
   12979.303243347180     
   12903.308922289065     
   12827.313658283156     
   12930.300521011202     
   12857.291891316090     
   12784.284575815695     
   12711.278568849435     
   12638.273867487702     
   12565.270471602493     
   12492.268383941355     
   12419.267610205721     
   12346.268159132560     
   12427.111738513166     
   12357.092710704677     
   12287.077376935242     
   12217.065730940489     
   12147.057769562458     
   12077.053492831315     
   12007.052904051281     
   11937.056009890179     
   11867.062820473815     
   15750.078428349423     
   15656.333003447011     
   15562.586143251570     
   15468.837739296932     
   15375.087683120084     
   15281.335866257707     
   15187.582180245045     
   15093.826516614557     
   15000.068766896096     
   15258.717339680930     
   15167.901585535250     
   15077.085598351048     
   14986.269322448459     
   14895.452702363978     
   14804.635682855935     
   14713.818208910150     
   14623.000225747135     
   14532.181678829269     
   14769.032723006036     
   14681.158551132186     
   14593.285067614490     
   14505.412257946178     
   14417.540107963610     
   14329.668603855769     
   14241.797732175824     
   14153.927479851740     
   14066.057834198034     
   14281.032430936422     
   14196.111457316703     
   14111.191881902772     
   14026.273721099540     
   13941.356991727052     
   13856.441711033141     
   13771.527896706797     
   13686.615566891318     
   13601.704740198953     
   13794.730372447500     
   13712.773940063171     
   13630.819474259955     
   13548.867013557308     
   13466.916596942849     
   13384.968263886460     
   13303.022054355319     
   13221.078008828972     
   13139.136168315481     
   13310.147604556902     
   13231.166810470117     
   13152.188480655203     
   13073.212668538854     
   12994.239428088078     
   12915.268813826089     
   12836.300880850293     
   12757.335684848998     
   12678.373282120354     
   12827.313658283156     
   12751.319386041279     
   12675.328076531623     
   12599.339792612634     
   12523.354597816435     
   12447.372556369051     
   12371.393733211700     
   12295.418194022834     
   12219.446005241038     
   12346.268159132560     
   12273.271117401135     
   12200.277609674007     
   12127.287704660315     
   12054.301471983285     
   11981.318982207809     
   11908.340306869128     
   11835.365518502882     
   11762.394690675907     
   11867.062820473815     
   11797.073588961381     
   11727.088608059203     
   11657.107950826547     
   11587.131691633906     
   11517.159906202962     
   11447.192671647499     
   11377.230066516047     
   11307.272170836102     
   15000.068766896096     
   14906.310274672345     
   14812.552497912493     
   14718.795499726119     
   14625.039343223480     
   14531.284091515161     
   14437.529807710845     
   14343.776554919990     
   14250.024396251049     
   14532.181678829269     
   14441.362900801854     
   14350.544280075794     
   14259.725845886464     
   14168.907627384353     
   14078.089653632489     
   13987.271953602958     
   13896.454556174149     
   13805.637490128116     
   14066.057834198034     
   13978.188470946974     
   13890.319078554146     
   13802.449663708692     
   13714.580233087649     
   13626.710793355511     
   13538.841351164190     
   13450.971913152403     
   13363.102485945212     
   13601.704740198953     
   13516.794732162167     
   13431.884842023679     
   13346.975064465971     
   13262.065394370127     
   13177.155826822302     
   13092.246357120352     
   13007.336980780679     
   12922.427693545660     
   13139.136168315481     
   13057.195726749191     
   12975.255845103584     
   12893.316515734718     
   12811.377731523004     
   12729.439485890009     
   12647.501772816113     
   12565.564586858321     
   12483.627923169692     
   12678.373282120354     
   12599.412924694241     
   12520.453825476703     
   12441.495983236544     
   12362.539397682687     
   12283.584069494238     
   12204.630000352097     
   12125.677192971028     
   12046.725651133926     
   12219.446005241038     
   12143.476596993667     
   12067.509362626024     
   11991.544315025305     
   11915.581468497056     
   11839.620838810722     
   11763.662443246665     
   11687.706300644886     
   11611.752431456343     
   11762.394690675907     
   11689.427491155238     
   11616.463559575433     
   11543.502929508079     
   11470.545636453398     
   11397.591717901701     
   11324.641213397166     
   11251.694164604260     
   11178.750615376663     
   11307.272170836102     
   11237.318888350570     
   11167.370107209914     
   11097.425886972887     
   11027.486289634675     
   10957.551379704761     
   10887.621224287008     
   10817.695893162974     
   10747.775458878989     
   14250.024396251049     
   14156.272864633247     
   14062.521428437243     
   13968.770053933713     
   13875.018707393299     
   13781.267355086437     
   13687.515963283808     
   13593.764498255759     
   13500.012926272546     
   13805.637490128116     
   13714.820771701250     
   13624.004390307215     
   13533.188334479917     
   13442.372592837821     
   13351.557154087026     
   13260.742007023347     
   13169.927140536336     
   13079.112543612182     
   13363.102485945212     
   13275.233391094305     
   13187.364951579850     
   13099.497176318677     
   13011.630074444882     
   12923.763655316838     
   12835.897928525381     
   12748.032903901640     
   12660.168591525191     
   12922.427693545660     
   12837.518973977245     
   12752.611321683484     
   12667.704764447444     
   12582.799330459704     
   12497.895048332572     
   12412.991947114448     
   12328.090056304361     
   12243.189405868081     
   12483.627923169692     
   12401.692299254444     
   12319.758265571540     
   12237.825867651114     
   12155.895151689565     
   12073.966164572166     
   11992.038953896388     
   11910.113567996326     
   11828.190055968076     
   12046.725651133926     
   11967.775844003007     
   11888.828278909745     
   11809.883018446015     
   11730.940126207526     
   11651.999666827425     
   11573.061706012022     
   11494.126310576727     
   11415.193548484953     
   11611.752431456343     
   11535.801200548065     
   11459.853010590268     
   11383.907941024319     
   11307.966072723881     
   11232.027488042428     
   11156.092270863919     
   11080.160506654640     
   11004.232282517534     
   11178.750615376663     
   11105.810802208729     
   11032.874994676695     
   10959.943289376064     
   10887.015784866027     
   10814.092581735051     
   10741.173782669272     
   10668.259492524194     
   10595.349818398199     
   10747.775458878989     
   10677.860037892877     
   10607.949772020553     
   10538.044775880764     
   10468.145166703594     
   10398.251064418197     
   10328.362591743053     
   10258.479874280314     
   10188.603040614089     
   13500.012926272546     
   13406.261323271096     
   13312.509800050531     
   13218.758375173986     
   13125.007067205068     
   13031.255894707130     
   12937.504876243373     
   12843.754030377560     
   12750.003375672542     
   13079.112543612182     
   12988.298127212420     
   12897.483814626832     
   12806.669613434047     
   12715.855531248666     
   12625.041575723155     
   12534.227754547890     
   12443.414075453780     
   12352.600546213107     
   12660.168591525191     
   12572.304815534175     
   12484.441395654374     
   12396.578335690916     
   12308.715639657548     
   12220.853311783558     
   12132.991356522283     
   12045.129778558883     
   11957.268582818588     
   12243.189405868081     
   12158.289798284157     
   12073.391020274996     
   11988.493078904277     
   11903.595981747723     
   11818.699736911047     
   11733.804353049291     
   11648.909839386848     
   11564.016205738244     
   11828.190055968076     
   11746.268250404528     
   11664.347961750351     
   11582.429207151408     
   11500.512004692971     
   11418.596373433122     
   11336.682333437939     
   11254.769905818028     
   11172.859112767001     
   11415.193548484953     
   11336.263320410520     
   11257.335502946851     
   11178.410129901986     
   11099.487236566350     
   11020.566859765917     
   10941.649037917350     
   10862.733811085762     
   10783.821221044835     
   11004.232282517534     
   10928.307590937324     
   10852.386402296794     
   10776.468773361876     
   10700.554763030037     
   10624.644432406230     
   10548.737844881953     
   10472.835066218000     
   10396.936164630770     
   10595.349818398199     
   10522.444853632065     
   10449.544674742685     
   10376.649367418160     
   10303.759020220908     
   10230.873724689423     
   10157.993575444967     
   10085.118670302167     
   10012.249110384826     
   10188.603040614089     
   10118.732278835125     
   10048.867768105400     
   9979.0096286099397     
   9909.1579842306091     
   9839.3129626759110     
   9769.4746956173149     
   9699.6433188308856     
   9629.8189723451706     
   12750.003375672542     
   12656.252890877890     
   12562.502528686748     
   12468.752268579712     
   12375.002090037036     
   12281.251972538968     
   12187.501895565743     
   12093.751838597431     
   12000.001781114564     
   12352.600546213107     
   12261.787215974151     
   12170.974125556180     
   12080.161270331340     
   11989.348645755474     
   11898.536247372498     
   11807.724070816592     
   11716.912111816027     
   11626.100366197363     
   11957.268582818588     
   11869.407859674078     
   11781.547704863729     
   11693.688131775818     
   11605.829154111392     
   11517.970785895088     
   11430.113041489381     
   11342.255935605712     
   11254.399483319725     
   11564.016205738244     
   11479.123560545133     
   11394.232027477667     
   11309.341640148641     
   11224.452432857683     
   11139.564440617178     
   11054.677699179902     
   10969.792245067538     
   10884.908115599679     
   11172.859112767001     
   11090.950063995848     
   11009.042890698565     
   10927.137649008908     
   10845.234396268945     
   10763.333191075028     
   10681.434093326239     
   10599.537164273250     
   10517.642466572543     
   10783.821221044835     
   10704.911368676298     
   10626.004379249325     
   10547.100333805587     
   10468.199315265065     
   10389.301408497533     
   10310.406700396667     
   10231.515279957433     
   10152.627238358364     
   10396.936164630770     
   10321.041229136485     
   10245.150372986496     
   10169.263704608817     
   10093.381335128694     
   10017.503378470356     
   9941.6299514631919     
   9865.7611739529748     
   9789.8971689181944     
   10012.249110384826     
   9939.3849772482772     
   9866.5263738054673     
   9793.6734384382016     
   9720.8263131929543     
   9647.9851439169452     
   9575.1500804033039     
   9502.3212765400422     
   9429.4988904679140     
   9629.8189723451706     
   9560.0017424953494     
   9490.1917317477382     
   9420.3891110880031     
   9350.5940562788765     
   9280.8067480383852     
   9211.0273722260699     
   9141.2561200375330     
   9071.4931882075798     
   13547.382531854590     
   13477.570681946692     
   13407.704795486143     
   13337.789372504076     
   13267.828924708421     
   13197.827974358390     
   13127.791053364952     
   13057.722702627607     
   12987.627471614962     
   12998.379733297121     
   12931.475077490024     
   12864.533403728734     
   12797.557667827414     
   12730.550838103070     
   12663.515894936161     
   12596.455830432895     
   12529.373648192875     
   12462.272363185824     
   12451.110022121526     
   12387.121020595403     
   12323.111683834433     
   12259.083643717035     
   12195.038546404812     
   12130.978052247456     
   12066.903835728401     
   12002.817585455236     
   11938.721004194822     
   11905.666122466591     
   11844.603260472590     
   11783.536151411476     
   11722.465316549331     
   11661.391293641083     
   11600.314636935180     
   11539.235917208629     
   11478.155721834526     
   11417.074654881804     
   11362.164584205560     
   11304.040569680488     
   11245.927532106471     
   11187.825086743733     
   11129.732867475577     
   11071.650526758238     
   11013.577735621078     
   10955.514183718436     
   10897.459579436349     
   10820.751663253606     
   10765.581645704233     
   10710.436684585484     
   10655.315683008930     
   10600.217564300590     
   10545.141271815060     
   10490.085768834380     
   10435.050038555517     
   10380.033084169201     
   10281.610968361478     
   10229.412782709966     
   10177.252297518789     
   10125.127884460704     
   10073.037936009645     
   10020.980865097705     
   9968.9551048933645     
   9916.9591087049976     
   9864.9913500151288     
   9744.9735121027097     
   9695.7679513363109     
   9646.6109986531173     
   9597.5006589487712     
   9548.4349570396644     
   9499.4119371840115     
   9450.4296627505300     
   9401.4862160392386     
   9352.5796982600150     
   9211.1310737397380     
   9164.9421937732386     
   9118.8107828911980     
   9072.7346242444692     
   9026.7115180782512     
   8980.7392811641585     
   8934.8157463862935     
   8888.9387624870778     
   8843.1061939788997     
   12987.627471614962     
   12917.525556638677     
   12847.434172630459     
   12777.353403500661     
   12707.283333446750     
   12637.224046962603     
   12567.175628847754     
   12497.138164217409     
   12427.111738513166     
   12462.272363185824     
   12395.167797725924     
   12328.073859202908     
   12260.990698960037     
   12193.918468682075     
   12126.857320405677     
   12059.807406529924     
   11992.768879828263     
   11925.741893460721     
   11938.721004194822     
   11874.625197394078     
   11810.540260441312     
   11746.466392023161     
   11682.403791294249     
   11618.352657890102     
   11554.313191941412     
   11490.285594089133     
   11426.270065500945     
   11417.074654881804     
   11355.998932447865     
   11294.934510671033     
   11233.881616791477     
   11172.840478743732     
   11111.811325175644     
   11050.794385468605     
   10989.789889759459     
   10928.798068963384     
   10897.459579436349     
   10839.415258271167     
   10781.382899196997     
   10723.362740731518     
   10665.355022446862     
   10607.359984998398     
   10549.377870154805     
   10491.408920830218     
   10433.453381117886     
   10380.033084169201     
   10325.031562061144     
   10270.042938511984     
   10215.067447811807     
   10160.105325838304     
   10105.156810099708     
   10050.222139779717     
   9995.3015557843664     
   9940.3953007908021     
   9864.9913500151288     
   9813.0442126519229     
   9761.1112312566493     
   9709.1926224684357     
   9657.2886052657122     
   9605.3994010289771     
   9553.5252336053327     
   9501.6663293758138     
   9449.8229173243053     
   9352.5796982600150     
   9303.6988456050112     
   9254.8337743291067     
   9205.9846724580639     
   9157.1517313806216     
   9108.3351459360983     
   9059.5351145043787     
   9010.7518390994683     
   8961.9855254653303     
   8843.1061939788997     
   8797.3039871866586     
   8751.5196027938873     
   8705.7531921799782     
   8660.0049114431495     
   8614.2749215181429     
   8568.5633882982220     
   8522.8704827604906     
   8477.1963810962407     
   12427.111738513166     
   12357.092710704677     
   12287.077376935242     
   12217.065730940489     
   12147.057769562458     
   12077.053492831315     
   12007.052904051281     
   11937.056009890179     
   11867.062820473815     
   11925.741893460721     
   11858.723720789687     
   11791.711526083829     
   11724.705301576721     
   11657.705042791980     
   11590.710748631498     
   11523.722421467426     
   11456.740067238408     
   11389.763695549940     
   11426.270065500945     
   11362.264696530783     
   11298.267437005985     
   11234.278280250315     
   11170.297223047659     
   11106.324265735504     
   11042.359412302669     
   10978.402670491003     
   10914.454051901501     
   10928.798068963384     
   10867.817722538750     
   10806.847492125904     
   10745.887375173181     
   10684.937372754377     
   10623.997489667157     
   10563.067734535765     
   10502.148119918045     
   10441.238662416497     
   10433.453381117886     
   10375.510639631300     
   10317.579923171139     
   10259.661236803220     
   10201.754589388322     
   10143.859993685657     
   10085.977466460414     
   10028.107028595079     
   9970.2487052058950     
   9940.3953007908021     
   9885.5032188080550     
   9830.6250003074820     
   9775.7606619389862     
   9720.9102243305115     
   9666.0737121958064     
   9611.2511544468198     
   9556.4425843099907     
   9501.6480394475002     
   9449.8229173243053     
   9397.9951473240726     
   9346.1830350068667     
   9294.3866130603656     
   9242.6059183542020     
   9190.8409920528884     
   9139.0918797326303     
   9087.3586315033608     
   9035.6413021340959     
   8961.9855254653303     
   8913.2364618077245     
   8864.5048308861933     
   8815.7906863738681     
   8767.0940863580690     
   8718.4150934580739     
   8669.7537749476051     
   8621.1102028816458     
   8572.4844542277260     
   8477.1963810962407     
   8431.5413217499536     
   8385.9054741519867     
   8340.2889184003725     
   8294.6917392725172     
   8249.1140263489069     
   8203.5558741409386     
   8158.0173822232855     
   8112.4986553709978     
   11867.062820473815     
   11797.073588961381     
   11727.088608059203     
   11657.107950826547     
   11587.131691633906     
   11517.159906202962     
   11447.192671647499     
   11377.230066516047     
   11307.272170836102     
   11389.763695549940     
   11322.792874907036     
   11255.827217870856     
   11188.866804290539     
   11121.911715853561     
   11054.962036141180     
   10988.017850685737     
   10921.079247030193     
   10854.146314789494     
   10914.454051901501     
   10850.512605272432     
   10786.577429366182     
   10722.648615558006     
   10658.726257650429     
   10594.810451945948     
   10530.901297322118     
   10466.998895309538     
   10403.103350172896     
   10441.238662416497     
   10380.338037391131     
   10319.444977152029     
   10258.559589077351     
   10197.681983614164     
   10136.812274369709     
   10075.950578205737     
   10015.097015336471     
   9954.2517094299874     
   9970.2487052058950     
   9912.4009261979627     
   9854.5621857659789     
   9796.7326114576117     
   9738.9123345731332     
   9681.1014902759489     
   9623.3002177070648     
   9565.5086601039020     
   9507.7269649228565     
   9501.6480394475002     
   9446.8658138254377     
   9392.0942728572718     
   9337.3335680505115     
   9282.5838553777012     
   9227.8452954066561     
   9173.1180534351861     
   9118.4022996309250     
   9063.6982091759091     
   9035.6413021340959     
   8983.9381408509762     
   8932.2474746445005     
   8880.5694823081212     
   8828.9043478252315     
   8777.2522605187987     
   8725.6134152060840     
   8673.9880123591556     
   8622.3762582704749     
   8572.4844542277260     
   8523.8748064860029     
   8475.2796196612671     
   8426.6991025766001     
   8378.1334699623312     
   8329.5829426238633     
   8281.0477476153974     
   8232.5281184197665     
   8184.0242951338587     
   8112.4986553709978     
   8066.9980543768452     
   8021.5140248711759     
   7976.0468077072328     
   7930.5966503300588     
   7885.1638069609189     
   7839.7485387875658     
   7794.3511141609215     
   7748.9718087984011     
   11307.272170836102     
   11237.318888350570     
   11167.370107209914     
   11097.425886972887     
   11027.486289634675     
   10957.551379704761     
   10887.621224287008     
   10817.695893162974     
   10747.775458878989     
   10854.146314789494     
   10787.219142749398     
   10720.297816208697     
   10653.382423306020     
   10586.473055134538     
   10519.569805835272     
   10452.672772694052     
   10385.782056241951     
   10318.897760359961     
   10403.103350172896     
   10339.214881317268     
   10275.333713876755     
   10211.459965383558     
   10147.593756886943     
   10083.735213063695     
   10019.884462332599     
   9956.0416369733666     
   9892.2068732503049     
   9954.2517094299874     
   9893.4149631271539     
   9832.5870913476774     
   9771.7682418475342     
   9710.9585665046870     
   9650.1582214471873     
   9589.3673671864926     
   9528.5861687557699     
   9467.8147958531572     
   9507.7269649228565     
   9449.9554778534948     
   9392.1945610002185     
   9334.4443931706428     
   9276.7051579373729     
   9218.9770437851876     
   9161.2602442633761     
   9103.5549581441428     
   9045.8613895863637     
   9063.6982091759091     
   9009.0061379685849     
   8954.3264603322586     
   8899.6593869206972     
   8845.0051338290687     
   8790.3639227599706     
   8735.7359811954448     
   8681.1215425753708     
   8626.5208464826774     
   8622.3762582704749     
   8570.7784936973439     
   8519.1950780339648     
   8467.6262544958281     
   8416.0722724412462     
   8364.5333875563701     
   8313.0098620466069     
   8261.5019648353791     
   8210.0099717694902     
   8184.0242951338587     
   8135.5365856391008     
   8087.0653152474233     
   8038.6107603027240     
   7990.1732040074885     
   7941.7529366258796     
   7893.3502556940493     
   7844.9654662381781     
   7796.5988809996679     
   7748.9718087984011     
   7703.6108876869912     
   7658.2686310596055     
   7612.9453487045421     
   7567.6413579833124     
   7522.3569840506661     
   7477.0925600820910     
   7431.8484275094179     
   7386.6249362643593     
   10747.775458878989     
   10677.860037892877     
   10607.949772020553     
   10538.044775880764     
   10468.145166703594     
   10398.251064418197     
   10328.362591743053     
   10258.479874280314     
   10188.603040614089     
   10318.897760359961     
   10252.019915718613     
   10185.148570777621     
   10118.283861136406     
   10051.425925756888     
   9984.5749070753427     
   9917.7309511183776     
   9850.8942076236872     
   9784.0648301657657     
   9892.2068732503049     
   9828.3801515876639     
   9764.5614648794235     
   9700.7509742197399     
   9636.9488448906650     
   9573.1552465000823     
   9509.3703531254923     
   9445.5943434631863     
   9381.8274009836532     
   9467.8147958531572     
   9407.0532099193188     
   9346.3013816427610     
   9285.5595018919976     
   9224.8277666115864     
   9164.1063769885513     
   9103.3955396246402     
   9042.6954667161099     
   8982.0063762398913     
   9045.8613895863637     
   8988.1795077998377     
   8930.5092899431238     
   8872.8509606377156     
   8815.2047505191058     
   8757.5708964316327     
   8699.9496416309539     
   8642.3412359941794     
   8584.7459362384361     
   8626.5208464826774     
   8571.9338918762842     
   8517.3606860837135     
   8462.8014910699931     
   8408.2565757840948     
   8353.7262163823962     
   8299.2106964605682     
   8244.7103072946466     
   8190.2253480912905     
   8210.0099717694902     
   8158.5339284601378     
   8107.0738907857085     
   8055.6301611405461     
   8004.2030498821923     
   7952.7928755831572     
   7901.3999652906887     
   7850.0246547980714     
   7798.6672889243191     
   7796.5988809996679     
   7748.2506037074936     
   7699.9207514544396     
   7651.6096694866037     
   7603.3177119751053     
   7555.0452422924436     
   7506.7926332992984     
   7458.5602676416929     
   7410.3485380590755     
   7386.6249362643593     
   7341.4222537900350     
   7296.2405648543008     
   7251.0802591025104     
   7205.9417360132511     
   7160.8254051963804     
   7115.7316867018799     
   7070.6610113391826     
   7025.6138210088657     
   10188.603040614089     
   10118.732278835125     
   10048.867768105400     
   9979.0096286099397     
   9909.1579842306091     
   9839.3129626759110     
   9769.4746956173149     
   9699.6433188308856     
   9629.8189723451706     
   9784.0648301657657     
   9717.2430839609478     
   9650.4292333519134     
   9583.6234369115755     
   9516.8258578083678     
   9450.0366639676358     
   9383.2560282389641     
   9316.4841285715793     
   9249.7211481963968     
   9381.8274009836532     
   9318.0698510797902     
   9254.3220245909906     
   9190.5841209031678     
   9126.8563449767280     
   9063.1389075405514     
   8999.4320252936650     
   8935.7359211155181     
   8872.0508242854467     
   8982.0063762398913     
   8921.3286396701787     
   8860.6626386245844     
   8800.0086155817426     
   8739.3668196433628     
   8678.7375067622852     
   8618.1209399796389     
   8557.5173896722972     
   8496.9271338103081     
   8584.7459362384361     
   8527.1641487754732     
   8469.5962933628034     
   8412.0426576449117     
   8354.5035369940979     
   8296.9792347732200     
   8239.4700626094855     
   8181.9763406791963     
   8124.4983980042580     
   8190.2253480912905     
   8135.7562520936017     
   8081.3034677466558     
   8026.8673296431616     
   7972.4481812473223     
   7918.0463751917532     
   7863.6622735876854     
   7809.2962483465762     
   7754.9486815152504     
   7798.6672889243191     
   7747.3283227437332     
   7696.0082272137079     
   7644.7073852520634     
   7593.4261898071509     
   7542.1650441889578     
   7490.9243624129622     
   7439.7045695577008     
   7388.5061021363663     
   7410.3485380590755     
   7362.1579196044240     
   7313.9889029192746     
   7265.8419200593926     
   7217.7174142571985     
   7169.6158402834708     
   7121.5376648224465     
   7073.4833668620531     
   7025.4534380983105     
   7025.6138210088657     
   6980.5906120416921     
   6935.5918953190148     
   6890.6181520689870     
   6845.6698757918448     
   6800.7475726476441     
   6755.8517618580800     
   6710.9829761233868     
   6666.1417620546472     
   9629.8189723451706     
   9560.0017424953494     
   9490.1917317477382     
   9420.3891110880031     
   9350.5940562788765     
   9280.8067480383852     
   9211.0273722260699     
   9141.2561200375330     
   9071.4931882075798     
   9249.7211481963968     
   9182.9671961848890     
   9116.2223923829843     
   9049.4869446447265     
   8982.7610668445286     
   8916.0449791007522     
   8849.3389080081215     
   8782.6430868815787     
   8715.9577560103626     
   8872.0508242854467     
   8808.3768833269896     
   8744.7142539280849     
   8681.0631864202223     
   8617.4239385044038     
   8553.7967755213667     
   8490.1819707346076     
   8426.5798056250860     
   8362.9905702000560     
   8496.9271338103081     
   8436.3503746131664     
   8375.7873194818658     
   8315.2382664294146     
   8254.7035222707382     
   8194.1834029420716     
   8133.6782338352959     
   8073.1883501453713     
   8012.7140972358684     
   8124.4983980042580     
   8067.0365019952051     
   8009.5909247476147     
   7952.1620166334333     
   7894.7501383151903     
   7837.3556611153426     
   7779.9789674011417     
   7722.6204509865101     
   7665.2805175510930     
   7754.9486815152504     
   7700.6199141204133     
   7646.3102926939900     
   7592.0202239599648     
   7537.7501264445327     
   7483.5004308929410     
   7429.2715807043369     
   7375.0640323843836     
   7320.8782560181635     
   7388.5061021363663     
   7337.3293797649649     
   7286.1748294979625     
   7235.0429175155796     
   7183.9341232924980     
   7132.8489400578519     
   7081.7878752764564     
   7030.7514511476120     
   6979.7402051270428     
   7025.4534380983105     
   6977.4483777982805     
   6929.4686954703948     
   6881.5149186999306     
   6833.5875897859223     
   6785.6872662397018     
   6737.8145213039479     
   6689.9699444925018     
   6642.1541421522325     
   6666.1417620546472     
   6621.3286951638565     
   6576.5443645855485     
   6531.7893597555667     
   6487.0642861059932     
   6442.3697655928145     
   6397.7064372444393     
   6353.0749577306333     
   6308.4760019548294     
   9211.1310737397380     
   9164.9421937732386     
   9118.8107828911980     
   9072.7346242444692     
   9026.7115180782512     
   8980.7392811641585     
   8934.8157463862935     
   8888.9387624870778     
   8843.1061939788997     
   8680.4563351881916     
   8637.3108106713571     
   8594.2294907673077     
   8551.2100313691717     
   8508.2501014966128     
   8465.3473826643276     
   8422.4995683992001     
   8379.7043639117819     
   8336.9594859282661     
   8153.4321419668358     
   8113.3568496818498     
   8073.3506735486799     
   8033.4112046919645     
   7993.5360434350023     
   7953.7227986141252     
   7913.9690870324703     
   7874.2725330595986     
   7834.6307683812383     
   7630.6803607613811     
   7593.7022744977021     
   7556.7966352568765     
   7519.9610371117242     
   7483.1930795154358     
   7446.4903665841994     
   7409.8505065055178     
   7373.2711110787386     
   7336.7497953914390     
   7113.0083912612236     
   7079.1548526007700     
   7045.3757352603243     
   7011.6687095735952     
   6978.0314476149479     
   6944.4616224832453     
   6910.9569076932603     
   6877.5149766798640     
   6844.1335024186628     
   6601.4768809986999     
   6570.7758056428138     
   6540.1499650968681     
   6509.5971852579705     
   6479.1152903722814     
   6448.7021023589969     
   6418.3554402199406     
   6388.0731195380749     
   6357.8529520677093     
   6097.4973452187805     
   6069.9772379430169     
   6042.5321711192410     
   6015.1602118875080     
   5987.8594226607447     
   5960.6278605295674     
   5933.4635767254031     
   5906.3646161468087     
   5879.3290169489492     
   5602.9747485828193     
   5578.6642589674848     
   5554.4276946422506     
   5530.2634563543861     
   5506.1699374327745     
   5482.1455232999178     
   5458.1885910181318     
   5434.2975088706762     
   5410.4706359778766     
   5120.5179023164137     
   5099.4443654435154     
   5078.4427024477282     
   5057.5117468457311     
   5036.6503224957205     
   5015.8572432173960     
   4995.1313124248218     
   4974.4713227721059     
   4953.8760558120748     
   8843.1061939788997     
   8797.3039871866586     
   8751.5196027938873     
   8705.7531921799782     
   8660.0049114431495     
   8614.2749215181429     
   8568.5633882982220     
   8522.8704827604906     
   8477.1963810962407     
   8336.9594859282661     
   8294.2491059865552     
   8251.5589889553721     
   8208.8892547560135     
   8166.2400295330390     
   8123.6114458023831     
   8081.0036426051838     
   8038.4167656668151     
   7995.8509675620808     
   7834.6307683812383     
   7795.0270853357779     
   7755.4464161580536     
   7715.8888633886218     
   7676.3545371613109     
   7636.8435553755044     
   7597.3560438761933     
   7557.8921366405430     
   7518.4519759724026     
   7336.7497953914390     
   7300.2697014470323     
   7263.8156189889687     
   7227.3876434988133     
   7190.9858791925863     
   7154.6104392098496     
   7118.2614458116268     
   7081.9390305873512     
   7045.6433346706863     
   6844.1335024186628     
   6810.7960455322318     
   6777.4877762763481     
   6744.2087886019963     
   6710.9591859949469     
   6677.7390816719408     
   6644.5485987868769     
   6611.3878706473224     
   6578.2570409415193     
   6357.8529520677093     
   6327.6793355960081     
   6297.5381850805243     
   6267.4295922474103     
   6237.3536586842456     
   6207.3104960319079     
   6177.3002261864995     
   6147.3229815122995     
   6117.3789050655932     
   5879.3290169489492     
   5852.3422958523579     
   5825.3913300104232     
   5798.4762000294068     
   5771.5969960777311     
   5744.7538180584506     
   5717.9467757924049     
   5691.1759892116925     
   5664.4415885635199     
   5410.4706359778766     
   5386.6947730886959     
   5362.9578485259553     
   5339.2599119604602     
   5315.6010215316164     
   5291.9812439855914     
   5268.4006548224688     
   5244.8593384526775     
   5221.3573883633017     
   4953.8760558120748     
   4933.3336751504148     
   4912.8331487521073     
   4892.3744609520800     
   4871.9576025071801     
   4851.5825706842425     
   4831.2493693551687     
   4810.9580091000053     
   4790.7085073179478     
   8477.1963810962407     
   8431.5413217499536     
   8385.9054741519867     
   8340.2889184003725     
   8294.6917392725172     
   8249.1140263489069     
   8203.5558741409386     
   8158.0173822232855     
   8112.4986553709978     
   7995.8509675620808     
   7953.3062439854784     
   7910.7825555885165     
   7868.2800112607738     
   7825.7987248460031     
   7783.3388152706129     
   7740.9004066763227     
   7698.4836285579477     
   7656.0886159052634     
   7518.4519759724026     
   7479.0351601823804     
   7439.6412768977289     
   7400.2704625882852     
   7360.9228589267132     
   7321.5986129204639     
   7282.2978770480031     
   7243.0208093993106     
   7203.7675738213493     
   7045.6433346706863     
   7009.3734466515089     
   6973.1284617898673     
   6936.9085424964205     
   6900.7138565903560     
   6864.5445774325035     
   6828.4008840624911     
   6792.2829613403246     
   6756.1910000925254     
   6578.2570409415193     
   6545.1546184845865     
   6512.0791322993437     
   6479.0307683958481     
   6446.0097183311545     
   6413.0161793404859     
   6380.0503544726434     
   6347.1124527288703     
   6314.2026892067297     
   6117.3789050655932     
   6087.4658977221306     
   6057.5818942516289     
   6027.7271008258249     
   5997.9017292019762     
   5968.1059968481277     
   5938.3401270726345     
   5908.6043491566788     
   5878.8988984912185     
   5664.4415885635199     
   5637.7408795241890     
   5611.0712205014543     
   5584.4328327479370     
   5557.8259429982591     
   5531.2507835836468     
   5504.7075925506551     
   5478.1966137824129     
   5451.7180971233265     
   5221.3573883633017     
   5197.8915667709734     
   5174.4587190060856     
   5151.0590739697955     
   5127.6928657499066     
   5104.3603337204231     
   5081.0617226432660     
   5057.7972827728736     
   5034.5672699630068     
   4790.7085073179478     
   4770.4971701715749     
   4750.3204371169040     
   4730.1785341216701     
   4710.0716918064145     
   4690.0001455229685     
   4669.9641354345558     
   4649.9639065973979     
   4629.9997090445295     
   8112.4986553709978     
   8066.9980543768452     
   8021.5140248711759     
   7976.0468077072328     
   7930.5966503300588     
   7885.1638069609189     
   7839.7485387875658     
   7794.3511141609215     
   7748.9718087984011     
   7656.0886159052634     
   7613.7138486450222     
   7571.3578929594159     
   7529.0210227361658     
   7486.7035190909446     
   7444.4056705651765     
   7402.1277733300385     
   7359.8701313973679     
   7317.6330568371895     
   7203.7675738213493     
   7164.5367923612439     
   7125.3271756856957     
   7086.1390307046013     
   7046.9726721249453     
   7007.8284226585474     
   6968.7066132362297     
   6929.6075832286951     
   6890.5316806746732     
   6756.1910000925254     
   6720.1237787559548     
   6684.0801672791422     
   6648.0605043909500     
   6612.0651370797459     
   6576.0944208062165     
   6540.1487197225752     
   6504.2284068986055     
   6468.3338645544591     
   6314.2026892067297     
   6281.3200036449398     
   6248.4634302061395     
   6215.6333365839046     
   6182.8300990366779     
   6150.0541025992998     
   6117.3057413009183     
   6084.5854183887304     
   6051.8935465586846     
   5878.8988984912185     
   5849.2228708578396     
   5819.5754587694619     
   5789.9570537497630     
   5760.3680559733893     
   5730.8088744682418     
   5701.2799273236133     
   5671.7816419035889     
   5642.3144550663219     
   5451.7180971233265     
   5425.2712779610383     
   5398.8554893417286     
   5372.4711383702852     
   5346.1186405961016     
   5319.7984201969894     
   5293.5109101677135     
   5267.2565525130040     
   5241.0357984454840     
   5034.5672699630068     
   5011.3710304312845     
   4988.2080066354283     
   4965.0786088632676     
   4941.9832552701782     
   4918.9223720342980     
   4895.8963935156953     
   4872.9057624184052     
   4849.9509299561696     
   4629.9997090445295     
   4610.0709575906931     
   4590.1771583291138     
   4570.3187070651775     
   4550.4960064582574     
   4530.7094661398496     
   4510.9595028338026     
   4491.2465404779059     
   4471.5710103482015     
   7748.9718087984011     
   7703.6108876869912     
   7658.2686310596055     
   7612.9453487045421     
   7567.6413579833124     
   7522.3569840506661     
   7477.0925600820910     
   7431.8484275094179     
   7386.6249362643593     
   7317.6330568371895     
   7275.4167685704415     
   7233.2214984050042     
   7191.0475899747180     
   7148.8953951696667     
   7106.7652743702010     
   7064.6575966889895     
   7022.5727402215307     
   6980.5110923043858     
   6890.5316806746732     
   6851.4790779712894     
   6812.4499584410287     
   6773.4446996581910     
   6734.4636880621947     
   6695.5073192020427     
   6656.5759979882896     
   6617.6701389533291     
   6578.7901665201716     
   6468.3338645544591     
   6432.4652193652255     
   6396.6226075304876     
   6360.8064394349240     
   6325.0171348191516     
   6289.2551230283261     
   6253.5208432685276     
   6217.8147448705477     
   6182.1372875623465     
   6051.8935465586846     
   6019.2302082838360     
   5986.5954949151210     
   5953.9898468041147     
   5921.4137139751101     
   5888.8675563703000     
   5856.3518441023016     
   5823.8670577138309     
   5791.4136884451509     
   5642.3144550663219     
   5612.8784065828322     
   5583.4735454427155     
   5554.1003367606108     
   5524.7592553979221     
   5495.4507861957291     
   5466.1754242137240     
   5436.9336749758177     
   5407.7260547218575     
   5241.0357984454840     
   5214.8486455428692     
   5188.6951022195281     
   5162.5756499720083     
   5136.4907797976830     
   5110.4409924040810     
   5084.4267984239623     
   5058.4487186346360     
   5032.5072841834699     
   4849.9509299561696     
   4827.0318498358893     
   4804.1484898677081     
   4781.3013354419827     
   4758.4908808052078     
   4735.7176292353279     
   4712.9820932209541     
   4690.2847946438160     
   4667.6262649650507     
   4471.5710103482015     
   4451.9328171343122     
   4432.3318850351316     
   4412.7686859089854     
   4393.2436993707297     
   4373.7574129235454     
   4354.3103220925395     
   4334.9029305605163     
   4315.5357503057139     
   7386.6249362643593     
   7341.4222537900350     
   7296.2405648543008     
   7251.0802591025104     
   7205.9417360132511     
   7160.8254051963804     
   7115.7316867018799     
   7070.6610113391826     
   7025.6138210088657     
   6980.5110923043858     
   6938.4728844605861     
   6896.4583694789753     
   6854.4679814941737     
   6812.5021652970026     
   6770.5613766488659     
   6728.6460826071179     
   6686.7567618615531     
   6644.8939050828467     
   6578.7901665201716     
   6539.9363742385221     
   6501.1090801567734     
   6462.3087613570478     
   6423.5359062770167     
   6384.7910150343705     
   6346.0745997616896     
   6307.3871849524439     
   6268.7293078186749     
   6182.1372875623465     
   6146.4888225274490     
   6110.8697278735208     
   6075.2805203939333     
   6039.7217287537242     
   6004.1938938152825     
   5968.6975689737064     
   5933.2333205025816     
   5897.8017279116193     
   5791.4136884451509     
   5758.9921378580284     
   5726.6028359411448     
   5694.2463336765350     
   5661.9231941782300     
   5629.6339930078830     
   5597.3793184996475     
   5565.1597720942809     
   5532.9759686835896     
   5407.7260547218575     
   5378.5530046062131     
   5349.4149946582229     
   5320.3126014893551     
   5291.2464137635479     
   5262.2170324902545     
   5233.2250713253488     
   5204.2711568798895     
   5175.3559290375524     
   5032.5072841834699     
   5006.6029607102782     
   4980.7362419812544     
   4954.9077177549025     
   4929.1179893342487     
   4903.3676698230156     
   4877.6573843888236     
   4851.9877705318422     
   4826.3594783602457     
   4667.6262649650507     
   4645.0069740856625     
   4622.4274179479899     
   4599.8881821478371     
   4577.3898628105298     
   4554.9330667980803     
   4532.5184119205906     
   4510.1465271513443     
   4487.8180528461553     
   4315.5357503057139     
   4296.2092296676192     
   4276.9238395014108     
   4257.6801385050057     
   4238.4786943487052     
   4219.3200838231242     
   4200.2048929896318     
   4181.1337173316651     
   4162.1071619089798     
   7025.6138210088657     
   6980.5906120416921     
   6935.5918953190148     
   6890.6181520689870     
   6845.6698757918448     
   6800.7475726476441     
   6755.8517618580800     
   6710.9829761233868     
   6666.1417620546472     
   6644.8939050828467     
   6603.0580333375110     
   6561.2496811108649     
   6519.4693781103542     
   6477.7176673027534     
   6435.9951053207560     
   6394.3022628838598     
   6352.6397252347197     
   6311.0080925908360     
   6268.7293078186749     
   6230.1015164238252     
   6191.5043714547910     
   6152.9384491239343     
   6114.4043397081159     
   6075.9026479644508     
   6037.4339935602720     
   5998.9990115176070     
   5960.5983526732007     
   5897.8017279116193     
   5862.4033661610638     
   5827.0388222922620     
   5791.7087147977891     
   5756.4136767787886     
   5721.1543563571813     
   5685.9314171018987     
   5650.7455384679915     
   5615.5974162509774     
   5532.9759686835896     
   5500.8285069343628     
   5468.7179972039257     
   5436.6450930877909     
   5404.6104629803631     
   5372.6147904691497     
   5340.6587747413178     
   5308.7431310017910     
   5276.8685909043052     
   5175.3559290375524     
   5146.4800030041906     
   5117.6440053214164     
   5088.8486137153604     
   5060.0945204472991     
   5031.3824326727690     
   5002.7130728112143     
   4974.0871789244948     
   4945.5055051061609     
   4826.3594783602457     
   4800.7731274821526     
   4775.2293483969897     
   4749.7288272816286     
   4724.2722640320826     
   4698.8603725704897     
   4673.4938811595375     
   4648.1735327239476     
   4622.9000851787268     
   4487.8180528461553     
   4465.5335949847558     
   4443.2937697877860     
   4421.0992507116907     
   4398.9507234927205     
   4376.8488863868824     
   4354.7944504140360     
   4332.7881396061275     
   4310.8306912597773     
   4162.1071619089798     
   4143.1257947026170     
   4124.1901930078766     
   4105.3009906957250     
   4086.4588318515334     
   4067.6643709388027     
   4048.9182729637873     
   4030.2212136422895     
   4011.5738795672660     
   6666.1417620546472     
   6621.3286951638565     
   6576.5443645855485     
   6531.7893597555667     
   6487.0642861059932     
   6442.3697655928145     
   6397.7064372444393     
   6353.0749577306333     
   6308.4760019548294     
   6311.0080925908360     
   6269.4080090779207     
   6227.8401355510250     
   6186.3051213226508     
   6144.8036327821965     
   6103.3363539408410     
   6061.9039869961571     
   6020.5072529183408     
   5979.1468920586431     
   5960.5983526732007     
   5922.2327201958942     
   5883.9028361600376     
   5845.6094049965759     
   5807.3531490170581     
   5769.1348089606481     
   5730.9551445609959     
   5692.8149351320362     
   5654.7149801763308     
   5615.5974162509774     
   5580.4878011347146     
   5545.4174639121238     
   5510.3871564973215     
   5475.3976491122066     
   5440.4497308186938     
   5405.5442100684895     
   5370.6819152700182     
   5335.8636953760197     
   5276.8685909043052     
   5245.0359384897229     
   5213.2459781024845     
   5181.4994978492687     
   5149.7973040864426     
   5118.1402219172114     
   5086.5290957028055     
   5054.9647895896906     
   5023.4481880528729     
   4945.5055051061609     
   4916.9688512095854     
   4888.4780365545703     
   4860.0338696361950     
   4831.6371765455660     
   4803.2888014097143     
   4774.9896068437301     
   4746.7404744134892     
   4718.5423051120060     
   4622.9000851787268     
   4597.6743325370526     
   4572.4970864282150     
   4547.3691546137325     
   4522.2913611100685     
   4497.2645465516134     
   4472.2895685620742     
   4447.3673021321165     
   4422.4986400083817     
   4310.8306912597773     
   4288.9228673866328     
   4267.0654448448049     
   4245.2592037835966     
   4223.5049385394304     
   4201.8034579062505     
   4180.1555854104072     
   4158.5621595899584     
   4137.0240342781435     
   4011.5738795672660     
   3992.9769705554500     
   3974.4311978078536     
   3955.9372817418252     
   3937.4959542292008     
   3919.1079587686745     
   3900.7740506601644     
   3882.4949971795136     
   3864.2715777543513     
   5120.5179023164137     
   5099.4443654435154     
   5078.4427024477282     
   5057.5117468457311     
   5036.6503224957205     
   5015.8572432173960     
   4995.1313124248218     
   4974.4713227721059     
   4953.8760558120748     
   4653.7526006392027     
   4635.9361268015591     
   4618.1891850544152     
   4600.5110106490383     
   4582.9008270994655     
   4565.3578458447982     
   4547.8812659165360     
   4530.4702736105783     
   4513.1240421647926     
   4207.7824108375617     
   4193.2273536554685     
   4178.7396681511673     
   4164.3188188543381     
   4149.9642564024261     
   4135.6754171787861     
   4121.4517229608464     
   4107.2925805800214     
   4093.1973815932597     
   3789.8396865257296     
   3778.5189737611195     
   3767.2631374550006     
   3756.0716910402389     
   3744.9441322446901     
   3733.8799426955602     
   3722.8785875477211     
   3711.9395151359004     
   3701.0621566528084     
   3410.1371282261211     
   3401.9573241585726     
   3393.8388917956854     
   3385.7812155687607     
   3377.7836636322404     
   3369.8455874831720     
   3361.9663216153081     
   3354.1451832103844     
   3346.3814718670983     
   3082.7410112292564     
   3077.4797343737487     
   3072.2747063675788     
   3067.1250336769817     
   3062.0298084104620     
   3056.9881080267187     
   3051.9989950823428     
   3047.0615170205228     
   3042.1747059996455     
   2825.8105232152861     
   2823.0218680320913     
   2820.2828603773673     
   2817.5922543940696     
   2814.9487948794849     
   2812.3512171296161     
   2809.7982468114046     
   2807.2885998673032     
   2804.8209824495038     
   2659.7864768454697     
   2658.7046319598226     
   2657.6661957732522     
   2656.6696164831310     
   2655.7133392149522     
   2654.7958059767543     
   2653.9154556253216     
   2653.0707238440882     
   2652.2600431313749     
   2602.0950303400209     
   2601.6300390551864     
   2601.2057981002067     
   2600.8206281810617     
   2600.4728500044253     
   2600.1607842768867     
   2599.8827517047162     
   2599.6370729944701     
   2599.4220688527312     
   4953.8760558120748     
   4933.3336751504148     
   4912.8331487521073     
   4892.3744609520800     
   4871.9576025071801     
   4851.5825706842425     
   4831.2493693551687     
   4810.9580091000053     
   4790.7085073179478     
   4513.1240421647926     
   4495.8320324165807     
   4478.5841833994409     
   4461.3803784470711     
   4444.2205046318750     
   4427.1044527979484     
   4410.0321176004991     
   4393.0033975507940     
   4376.0181950677161     
   4093.1973815932597     
   4079.1567376336620     
   4065.1615086940192     
   4051.2114479340589     
   4037.3063094493646     
   4023.4458482594291     
   4009.6298203022416     
   3995.8579824328804     
   3982.1300924275874     
   3701.0621566528084     
   3690.2381620082865     
   3679.4592960703744     
   3668.7251482103998     
   3658.0353061414144     
   3647.3893558834170     
   3636.7868817332351     
   3626.2274662396353     
   3615.7106901821749     
   3346.3814718670983     
   3338.6677862169736     
   3330.9967991116378     
   3323.3679055648781     
   3315.7804971195615     
   3308.2339618170854     
   3300.7276841716102     
   3293.2610451485648     
   3285.8334221478644     
   3042.1747059996455     
   3037.3320275848610     
   3032.5270615336699     
   3027.7589968670991     
   3023.0270187569636     
   3018.3303085201442     
   3013.6680436163024     
   3009.0393976497876     
   3004.4435403740517     
   2804.8209824495038     
   2802.3896231507015     
   2799.9889588773158     
   2797.6179988934396     
   2795.2757498168598     
   2792.9612156313492     
   2790.6733977019358     
   2788.4112947917415     
   2786.1739030805898     
   2652.2600431313749     
   2651.4782178152600     
   2650.7203624882782     
   2649.9853720209476     
   2649.2721404422314     
   2648.5795609474617     
   2647.9065259071867     
   2647.2519268764427     
   2646.6146546044820     
   2599.4220688527312     
   2599.2327747060931     
   2599.0645842981207     
   2598.9163558104356     
   2598.7869474246759     
   2598.6752173226591     
   2598.5800236859995     
   2598.5002246963622     
   2598.4346785354933     
   4790.7085073179478     
   4770.4971701715749     
   4750.3204371169040     
   4730.1785341216701     
   4710.0716918064145     
   4690.0001455229685     
   4669.9641354345558     
   4649.9639065973979     
   4629.9997090445295     
   4376.0181950677161     
   4359.0724822346192     
   4342.1624307543379     
   4325.2882482633222     
   4308.4501462043518     
   4291.6483398792379     
   4274.8830485023000     
   4258.1544952550421     
   4241.4629073414590     
   3982.1300924275874     
   3968.4418990347381     
   3954.7894227361899     
   3941.1728315640698     
   3927.5922961836818     
   3914.0479899190395     
   3900.5400887786259     
   3887.0687714818523     
   3873.6342194857430     
   3615.7106901821749     
   3605.2321542321306     
   3594.7878082261436     
   3584.3777563295898     
   3574.0021040100428     
   3563.6609580416007     
   3553.3544265092883     
   3543.0826188139167     
   3532.8456456765925     
   3285.8334221478644     
   3278.4403141265511     
   3271.0776503527823     
   3263.7454511298088     
   3256.4437369159064     
   3249.1725283198493     
   3241.9318460964173     
   3234.7217111422101     
   3227.5421444919407     
   3004.4435403740517     
   2999.8759006140654     
   2995.3324183377240     
   2990.8130268115951     
   2986.3176588755873     
   2981.8462469405572     
   2977.3987229870550     
   2972.9750185637090     
   2968.5750647860023     
   2786.1739030805898     
   2783.9566133046937     
   2781.7553997768364     
   2779.5701318325678     
   2777.4006784303310     
   2775.2469081529744     
   2773.1086892107728     
   2770.9858894434979     
   2768.8783763233287     
   2646.6146546044820     
   2645.9900926082796     
   2645.3742597579462     
   2644.7669991518064     
   2644.1681537801123     
   2643.5775665268807     
   2642.9950801706045     
   2642.4205373863674     
   2641.8537807470980     
   2598.4346785354933     
   2598.3787717411697     
   2598.3285451440593     
   2598.2838383650874     
   2598.2444910251506     
   2598.2103427452398     
   2598.1812331462884     
   2598.1570018492353     
   2598.1374884749971     
   4629.9997090445295     
   4610.0709575906931     
   4590.1771583291138     
   4570.3187070651775     
   4550.4960064582574     
   4530.7094661398496     
   4510.9595028338026     
   4491.2465404779059     
   4471.5710103482015     
   4241.4629073414590     
   4224.8077130508445     
   4208.1884238293587     
   4191.6053986831030     
   4175.0590020319187     
   4158.5496037847015     
   4142.0775794159736     
   4125.6433100424365     
   4109.2471825010989     
   3873.6342194857430     
   3860.2358146264623     
   3846.8730122240049     
   3833.5461087559775     
   3820.2554043619334     
   3807.0012028784881     
   3793.7838118741643     
   3780.6035426845842     
   3767.4607104473525     
   3532.8456456765925     
   3522.6427846029478     
   3512.4733760493627     
   3502.3376275420123     
   3492.2357484592185     
   3482.1679500373962     
   3472.1344453769411     
   3462.1354494476682     
   3452.1711790939953     
   3227.5421444919407     
   3220.3922739747495     
   3213.2712800270315     
   3206.1792629984220     
   3199.1163236375569     
   3192.0825630870659     
   3185.0780828777110     
   3178.1029849227311     
   3171.1573715121867     
   2968.5750647860023     
   2964.1978234305343     
   2959.8422999390059     
   2955.5084903636930     
   2951.1963904398249     
   2946.9059955829739     
   2942.6373008860487     
   2938.3903011169491     
   2934.1649907157957     
   2768.8783763233287     
   2766.7849707505743     
   2764.7045306270761     
   2762.6369784124477     
   2760.5822362461472     
   2758.5402259490725     
   2756.5108690251409     
   2754.4940866630523     
   2752.4897997379835     
   2641.8537807470980     
   2641.2935470075977     
   2640.7386057884146     
   2640.1888488165896     
   2639.6441677280141     
   2639.1044540687308     
   2638.5695992957949     
   2638.0394947787236     
   2637.5140318004446     
   2598.1374884749971     
   2598.1214041388048     
   2598.1074913455564     
   2598.0956368011734     
   2598.0857272113485     
   2598.0776492818018     
   2598.0712897184103     
   2598.0665352269184     
   2598.0632725130649     
   4471.5710103482015     
   4451.9328171343122     
   4432.3318850351316     
   4412.7686859089854     
   4393.2436993707297     
   4373.7574129235454     
   4354.3103220925395     
   4334.9029305605163     
   4315.5357503057139     
   4109.2471825010989     
   4092.8890434516284     
   4076.5687658918973     
   4060.2867851057435     
   4044.0435425791247     
   4027.8394860833473     
   4011.6750697584957     
   3995.5507541980396     
   3979.4670065334039     
   3767.4607104473525     
   3754.3550894358491     
   3741.2864874429679     
   3728.2552759720966     
   3715.2618308420447     
   3702.3065322250468     
   3689.3897646839187     
   3676.5119172092936     
   3663.6733832565774     
   3452.1711790939953     
   3442.2413193893781     
   3432.3455965985545     
   3422.4842925560938     
   3412.6576914939551     
   3402.8660800471889     
   3393.1097472591882     
   3383.3889845867070     
   3373.7040859038939     
   3171.1573715121867     
   3164.2408288038455     
   3157.3529924205063     
   3150.4940397940936     
   3143.6641492379817     
   3136.8634999401770     
   3130.0922719558298     
   3123.3506462000123     
   3116.6388044398636     
   2934.1649907157957     
   2929.9608666328627     
   2925.7774839171543     
   2921.6149239866827     
   2917.4732683579787     
   2913.3525986411314     
   2909.2529965343547     
   2905.1745438188100     
   2901.1173223529699     
   2752.4897997379835     
   2750.4974492540714     
   2748.5165422990763     
   2746.5470986040955     
   2744.5891378517440     
   2742.6426796750661     
   2740.7077436568084     
   2738.7843493278542     
   2736.8725161667567     
   2637.5140318004446     
   2636.9926342834319     
   2636.4747979237195     
   2635.9605215967899     
   2635.4498041732913     
   2634.9426445190607     
   2634.4390414948884     
   2633.9389939568532     
   2633.4425007559826     
   2598.0632725130649     
   2598.0609254114070     
   2598.0589915728533     
   2598.0574684273615     
   2598.0563534049897     
   2598.0556439357915     
   2598.0553374498363     
   2598.0554313771431     
   2598.0559231479110     
   4315.5357503057139     
   4296.2092296676192     
   4276.9238395014108     
   4257.6801385050057     
   4238.4786943487052     
   4219.3200838231242     
   4200.2048929896318     
   4181.1337173316651     
   4162.1071619089798     
   3979.4670065334039     
   3963.4242223051838     
   3947.4228150514305     
   3931.4632889993536     
   3915.5461553048940     
   3899.6719321392911     
   3883.8411447758417     
   3868.0543256770161     
   3852.3120145818143     
   3663.6733832565774     
   3650.8744717210561     
   3638.1155046670970     
   3625.3969021089370     
   3612.7190886675480     
   3600.0824936043277     
   3587.4875508538257     
   3574.9346990559743     
   3562.4243815877635     
   3373.7040859038939     
   3364.0552437935889     
   3354.4426593290045     
   3344.8666427317889     
   3335.3275066194201     
   3325.8255660052168     
   3316.3611382974727     
   3306.9345432982486     
   3297.5461032009316     
   3116.6388044398636     
   3109.9568084167945     
   3103.3047244240070     
   3096.6827422762212     
   3090.0910525604568     
   3083.5298466265472     
   3076.9993165757191     
   3070.4996552496568     
   3064.0310562192758     
   2901.1173223529699     
   2897.0812753976670     
   2893.0663480045628     
   2889.0726247893504     
   2885.1001903841643     
   2881.1491294311227     
   2877.2195265763021     
   2873.3114664633440     
   2869.4250337271596     
   2736.8725161667567     
   2734.9721089761570     
   2733.0829927253571     
   2731.2051870441746     
   2729.3387114833240     
   2727.4835855126057     
   2725.6398285205883     
   2723.8074598129538     
   2721.9864986115931     
   2633.4425007559826     
   2632.9493948664431     
   2632.4595085519477     
   2631.9728395857951     
   2631.4893857295551     
   2631.0091447336799     
   2630.5321143367005     
   2630.0582922660910     
   2629.5876762374260     
   2598.0559231479110     
   2598.0566402292825     
   2598.0574090698974     
   2598.0582255713452     
   2598.0590856354365     
   2598.0599851637708     
   2598.0609200583081     
   2598.0618862206297     
   2598.0628795524935     
   4162.1071619089798     
   4143.1257947026170     
   4124.1901930078766     
   4105.3009906957250     
   4086.4588318515334     
   4067.6643709388027     
   4048.9182729637873     
   4030.2212136422895     
   4011.5738795672660     
   3852.3120145818143     
   3836.6147118841159     
   3820.9629259765129     
   3805.3572197905260     
   3789.7981639070395     
   3774.2863366447968     
   3758.8223241480218     
   3743.4067204742901     
   3728.0401276818866     
   3562.4243815877635     
   3549.9570005034175     
   3537.5329642574375     
   3525.1527330496938     
   3512.8167719713592     
   3500.5255510326915     
   3488.2795451898505     
   3476.0792343710455     
   3463.9251035015527     
   3297.5461032009316     
   3288.1960973833220     
   3278.8848101833473     
   3269.6125748407753     
   3260.3797270106970     
   3251.1866047573599     
   3242.0335485474775     
   3232.9209012418823     
   3223.8490080870520     
   3064.0310562192758     
   3057.5936694955808     
   3051.1876492390629     
   3044.8131963304781     
   3038.4705123677654     
   3032.1597996524847     
   3025.8812611762451     
   3019.6351006057835     
   3013.4215222688040     
   2869.4250337271596     
   2865.5602694903077     
   2861.7172190326214     
   2857.8959732143462     
   2854.0966228890825     
   2850.3192588970687     
   2846.5639720580612     
   2842.8308531641301     
   2839.1199929723371     
   2721.9864986115931     
   2720.1769210726752     
   2718.3787080060615     
   2716.5918854974125     
   2714.8164795597036     
   2713.0525161318992     
   2711.3000210779328     
   2709.5590201846958     
   2707.8295391615161     
   2629.5876762374260     
   2629.1202212092608     
   2628.6558872162909     
   2628.1946795749491     
   2627.7366035943028     
   2627.2816645767493     
   2626.8298678171072     
   2626.3812186028745     
   2625.9357222144290     
   2598.0628795524935     
   2598.0638532530361     
   2598.0647657237223     
   2598.0656206700332     
   2598.0664217970811     
   2598.0671728103798     
   2598.0678774152034     
   2598.0685393170297     
   2598.0691622210106     
   4011.5738795672660     
   3992.9769705554500     
   3974.4311978078536     
   3955.9372817418252     
   3937.4959542292008     
   3919.1079587686745     
   3900.7740506601644     
   3882.4949971795136     
   3864.2715777543513     
   3728.0401276818866     
   3712.7231511222449     
   3697.4564038273020     
   3682.2405115813222     
   3667.0761084386427     
   3651.9638368075166     
   3636.9043475320491     
   3621.8982999747491     
   3606.9463620968309     
   3463.9251035015527     
   3451.8176330378697     
   3439.7573076575823     
   3427.7446261486730     
   3415.7800923410996     
   3403.8642151244217     
   3391.9975084649213     
   3380.1804914200929     
   3368.4136881529694     
   3223.8490080870520     
   3214.8182046147699     
   3205.8288278698296     
   3196.8812289036960     
   3187.9757610935330     
   3179.1127801280081     
   3170.2926439926655     
   3161.5157129531367     
   3152.7823495388666     
   3013.4215222688040     
   3007.2407182536185     
   3001.0928806432116     
   2994.9782147042583     
   2988.8969263048730     
   2982.8492218980859     
   2976.8353085041072     
   2970.8553936926660     
   2964.9096855659059     
   2839.1199929723371     
   2835.4314698994799     
   2831.7653620595361     
   2828.1217596898787     
   2824.5007529758404     
   2820.9024320426197     
   2817.3268869481558     
   2813.7742076748150     
   2810.2444841226261     
   2707.8295391615161     
   2706.1115927117653     
   2704.4051956438398     
   2702.7103737111984     
   2701.0271525947769     
   2699.3555579010349     
   2697.6956151617460     
   2696.0473498313672     
   2694.4107872867908     
   2625.9357222144290     
   2625.4933744067375     
   2625.0541714767928     
   2624.6181195091622     
   2624.1852245847999     
   2623.7554927806527     
   2623.3289301701466     
   2622.9055428224860     
   2622.4853368026897     
   2598.0691622210106     
   2598.0697409527775     
   2598.0702710376786     
   2598.0707572308220     
   2598.0712042872724     
   2598.0716169620455     
   2598.0720000102556     
   2598.0723581870079     
   2598.0726962471176     
   2602.0950303400209     
   2601.6300390551864     
   2601.2057981002067     
   2600.8206281810617     
   2600.4728500044253     
   2600.1607842768867     
   2599.8827517047162     
   2599.6370729944701     
   2599.4220688527312     
   2659.7864768445020     
   2658.7046319593173     
   2657.6661957730598     
   2656.6696164831578     
   2655.7133392150486     
   2654.7958059768944     
   2653.9154556255944     
   2653.0707238442974     
   2652.2600431316177     
   2825.8105232133939     
   2823.0218680310713     
   2820.2828603769553     
   2817.5922543940251     
   2814.9487948797710     
   2812.3512171300094     
   2809.7982468118817     
   2807.2885998678075     
   2804.8209824499727     
   3082.7410112264929     
   3077.4797343722430     
   3072.2747063668949     
   3067.1250336769276     
   3062.0298084108590     
   3056.9881080273653     
   3051.9989950831250     
   3047.0615170211922     
   3042.1747060003636     
   3410.1371282224309     
   3401.9573241563025     
   3393.8388917946968     
   3385.7812155686333     
   3377.7836636326656     
   3369.8455874840415     
   3361.9663216163453     
   3354.1451832114549     
   3346.3814718678905     
   3789.8396865210880     
   3778.5189737583196     
   3767.2631374536513     
   3756.0716910399437     
   3744.9441322452330     
   3733.8799426965593     
   3722.8785875489134     
   3711.9395151371095     
   3701.0621566537338     
   4207.7824108323630     
   4193.2273536522607     
   4178.7396681495457     
   4164.3188188539198     
   4149.9642564029555     
   4135.6754171798875     
   4121.4517229622033     
   4107.2925805813820     
   4093.1973815942670     
   4653.7526006335993     
   4635.9361267979593     
   4618.1891850526290     
   4600.5110106486381     
   4582.9008271000366     
   4565.3578458460306     
   4547.8812659180148     
   4530.4702736120989     
   4513.1240421658213     
   5120.5179023108476     
   5099.4443654399283     
   5078.4427024458828     
   5057.5117468452891     
   5036.6503224962853     
   5015.8572432186202     
   4995.1313124263606     
   4974.4713227736374     
   4953.8760558131680     
   2599.4220688527312     
   2599.2327747060931     
   2599.0645842981207     
   2598.9163558104356     
   2598.7869474246759     
   2598.6752173226591     
   2598.5800236859995     
   2598.5002246963622     
   2598.4346785354933     
   2652.2600431316177     
   2651.4782178155024     
   2650.7203624885860     
   2649.9853720212982     
   2649.2721404426020     
   2648.5795609478228     
   2647.9065259075569     
   2647.2519268767705     
   2646.6146546046398     
   2804.8209824499727     
   2802.3896231511840     
   2799.9889588778060     
   2797.6179988940030     
   2795.2757498174597     
   2792.9612156319827     
   2790.6733977026038     
   2788.4112947922540     
   2786.1739030809185     
   3042.1747060003636     
   3037.3320275854721     
   3032.5270615343002     
   3027.7589968676939     
   3023.0270187576016     
   3018.3303085208026     
   3013.6680436170250     
   3009.0393976503565     
   3004.4435403745224     
   3346.3814718678905     
   3338.6677862175970     
   3330.9967991121553     
   3323.3679055653829     
   3315.7804971200630     
   3308.2339618176366     
   3300.7276841721514     
   3293.2610451491541     
   3285.8334221484547     
   3701.0621566537338     
   3690.2381620088831     
   3679.4592960707218     
   3668.7251482107454     
   3658.0353061417227     
   3647.3893558837058     
   3636.7868817336657     
   3626.2274662401996     
   3615.7106901828806     
   4093.1973815942670     
   4079.1567376342141     
   4065.1615086941952     
   4051.2114479341471     
   4037.3063094493450     
   4023.4458482594973     
   4009.6298203024635     
   3995.8579824333187     
   3982.1300924283491     
   4513.1240421658213     
   4495.8320324170918     
   4478.5841833995364     
   4461.3803784469183     
   4444.2205046316385     
   4427.1044527977301     
   4410.0321176004818     
   4393.0033975511069     
   4376.0181950685092     
   4953.8760558131680     
   4933.3336751509269     
   4912.8331487521200     
   4892.3744609518126     
   4871.9576025067636     
   4851.5825706838259     
   4831.2493693549450     
   4810.9580091001590     
   4790.7085073186781     
   2598.4346785354933     
   2598.3787717411697     
   2598.3285451440593     
   2598.2838383650874     
   2598.2444910251506     
   2598.2103427452398     
   2598.1812331462884     
   2598.1570018492353     
   2598.1374884749971     
   2646.6146546046398     
   2645.9900926083342     
   2645.3742597578057     
   2644.7669991514908     
   2644.1681537798299     
   2643.5775665264987     
   2642.9950801702666     
   2642.4205373862460     
   2641.8537807473313     
   2786.1739030809185     
   2783.9566133047992     
   2781.7553997766868     
   2779.5701318322708     
   2777.4006784298626     
   2775.2469081524710     
   2773.1086892103672     
   2770.9858894434365     
   2768.8783763238007     
   3004.4435403745224     
   2999.8759006143418     
   2995.3324183377645     
   2990.8130268114483     
   2986.3176588753431     
   2981.8462469402716     
   2977.3987229868371     
   2972.9750185638259     
   2968.5750647866644     
   3285.8334221484547     
   3278.4403141270232     
   3271.0776503530792     
   3263.7454511300152     
   3256.4437369160482     
   3249.1725283199739     
   3241.9318460965851     
   3234.7217111425689     
   3227.5421444927642     
   3615.7106901828806     
   3605.2321542329182     
   3594.7878082269121     
   3584.3777563303256     
   3574.0021040107686     
   3563.6609580422646     
   3553.3544265099627     
   3543.0826188147093     
   3532.8456456775616     
   3982.1300924283491     
   3968.4418990357931     
   3954.7894227374227     
   3941.1728315653595     
   3927.5922961850756     
   3914.0479899203906     
   3900.5400887799092     
   3887.0687714830106     
   3873.6342194867880     
   4376.0181950685092     
   4359.0724822358825     
   4342.1624307559578     
   4325.2882482651785     
   4308.4501462062990     
   4291.6483398811688     
   4274.8830485041299     
   4258.1544952565964     
   4241.4629073426859     
   4790.7085073186781     
   4770.4971701729246     
   4750.3204371187348     
   4730.1785341238747     
   4710.0716918088319     
   4690.0001455254596     
   4669.9641354368960     
   4649.9639065993961     
   4629.9997090459638     
   2598.1374884749971     
   2598.1214041388048     
   2598.1074913455564     
   2598.0956368011734     
   2598.0857272113485     
   2598.0776492818018     
   2598.0712897184103     
   2598.0665352269184     
   2598.0632725130649     
   2641.8537807473313     
   2641.2935470082452     
   2640.7386057894519     
   2640.1888488179561     
   2639.6441677298021     
   2639.1044540706248     
   2638.5695992977248     
   2638.0394947805275     
   2637.5140318019553     
   2768.8783763238007     
   2766.7849707516798     
   2764.7045306288305     
   2762.6369784148242     
   2760.5822362490308     
   2758.5402259522430     
   2756.5108690284569     
   2754.4940866662278     
   2752.4897997406283     
   2968.5750647866644     
   2964.1978234319172     
   2959.8422999411400     
   2955.5084903664469     
   2951.1963904432150     
   2946.9059955867351     
   2942.6373008899432     
   2938.3903011207663     
   2934.1649907190927     
   3227.5421444927642     
   3220.3922739761260     
   3213.2712800290433     
   3206.1792630010495     
   3199.1163236407892     
   3192.0825630907707     
   3185.0780828816169     
   3178.1029849265524     
   3171.1573715157542     
   3532.8456456775616     
   3522.6427846041965     
   3512.4733760510217     
   3502.3376275441506     
   3492.2357484618237     
   3482.1679500404216     
   3472.1344453802712     
   3462.1354494512270     
   3452.1711790975237     
   3873.6342194867880     
   3860.2358146275192     
   3846.8730122251650     
   3833.5461087573635     
   3820.2554043637501     
   3807.0012028806732     
   3793.7838118767604     
   3780.6035426874996     
   3767.4607104506267     
   4241.4629073426859     
   4224.8077130516658     
   4208.1884238300418     
   4191.6053986838142     
   4175.0590020327745     
   4158.5496037859202     
   4142.0775794176297     
   4125.6433100446466     
   4109.2471825040247     
   4629.9997090459638     
   4610.0709575915444     
   4590.1771583295276     
   4570.3187070653403     
   4550.4960064583693     
   4530.7094661402007     
   4510.9595028345739     
   4491.2465404793684     
   4471.5710103506362     
   2598.0632725130649     
   2598.0609254114070     
   2598.0589915728533     
   2598.0574684273615     
   2598.0563534049897     
   2598.0556439357915     
   2598.0553374498363     
   2598.0554313771431     
   2598.0559231479110     
   2637.5140318019553     
   2636.9926342845447     
   2636.4747979243393     
   2635.9605215969605     
   2635.4498041730744     
   2634.9426445184040     
   2634.4390414939994     
   2633.9389939557595     
   2633.4425007549617     
   2752.4897997406283     
   2750.4974492560141     
   2748.5165423002427     
   2746.5470986045793     
   2744.5891378514493     
   2742.6426796741616     
   2740.7077436554109     
   2738.7843493262721     
   2736.8725161652014     
   2934.1649907190927     
   2929.9608666354702     
   2925.7774839188969     
   2921.6149239874649     
   2917.4732683580141     
   2913.3525986404670     
   2909.2529965331191     
   2905.1745438172265     
   2901.1173223513847     
   3171.1573715157542     
   3164.2408288067841     
   3157.3529924227228     
   3150.4940397955661     
   3143.6641492387153     
   3136.8634999402157     
   3130.0922719552632     
   3123.3506461989773     
   3116.6388044387263     
   3452.1711790975237     
   3442.2413193925963     
   3432.3455966013489     
   3422.4842925583944     
   3412.6576914957436     
   3402.8660800483322     
   3393.1097472597721     
   3383.3889845868307     
   3373.7040859036106     
   3767.4607104506267     
   3754.3550894393179     
   3741.2864874463753     
   3728.2552759753212     
   3715.2618308450442     
   3702.3065322276084     
   3689.3897646859587     
   3676.5119172107534     
   3663.6733832573991     
   4109.2471825040247     
   4092.8890434551377     
   4076.5687658958482     
   4060.2867851099336     
   4044.0435425832907     
   4027.8394860872759     
   4011.6750697620246     
   3995.5507542008841     
   3979.4670065354098     
   4471.5710103506362     
   4451.9328171377683     
   4432.3318850394016     
   4412.7686859138621     
   4393.2436993759175     
   4373.7574129287450     
   4354.3103220974572     
   4334.9029305647500     
   4315.5357503088344     
   2598.0559231479110     
   2598.0566402292825     
   2598.0574090698974     
   2598.0582255713452     
   2598.0590856354365     
   2598.0599851637708     
   2598.0609200583081     
   2598.0618862206297     
   2598.0628795524935     
   2633.4425007549617     
   2632.9493948655636     
   2632.4595085512210     
   2631.9728395851466     
   2631.4893857291509     
   2631.0091447332202     
   2630.5321143363490     
   2630.0582922656577     
   2629.5876762368976     
   2736.8725161652014     
   2734.9721089748009     
   2733.0829927241630     
   2731.2051870433002     
   2729.3387114825387     
   2727.4835855118854     
   2725.6398285198666     
   2723.8074598120738     
   2721.9864986104176     
   2901.1173223513847     
   2897.0812753963278     
   2893.0663480033181     
   2889.0726247882094     
   2885.1001903831680     
   2881.1491294300845     
   2877.2195265751052     
   2873.3114664618993     
   2869.4250337252620     
   3116.6388044387263     
   3109.9568084156140     
   3103.3047244228883     
   3096.6827422749939     
   3090.0910525591985     
   3083.5298466250779     
   3076.9993165738902     
   3070.4996552473253     
   3064.0310562164536     
   3373.7040859036106     
   3364.0552437930510     
   3354.4426593281169     
   3344.8666427305479     
   3335.3275066178626     
   3325.8255660032332     
   3316.3611382949598     
   3306.9345432951518     
   3297.5461031971331     
   3663.6733832573991     
   3650.8744717212321     
   3638.1155046665881     
   3625.3969021077228     
   3612.7190886657390     
   3600.0824936018198     
   3587.4875508505888     
   3574.9346990519753     
   3562.4243815829477     
   3979.4670065354098     
   3963.4242223061419     
   3947.4228150513254     
   3931.4632889982786     
   3915.5461553027903     
   3899.6719321361884     
   3883.8411447717926     
   3868.0543256720607     
   3852.3120145761200     
   4315.5357503088344     
   4296.2092296694182     
   4276.9238395017819     
   4257.6801385040344     
   4238.4786943463396     
   4219.3200838195380     
   4200.2048929849007     
   4181.1337173259690     
   4162.1071619025352     
   2598.0628795524935     
   2598.0638532530361     
   2598.0647657237223     
   2598.0656206700332     
   2598.0664217970811     
   2598.0671728103798     
   2598.0678774152034     
   2598.0685393170297     
   2598.0691622210106     
   2629.5876762368976     
   2629.1202212086387     
   2628.6558872155479     
   2628.1946795741328     
   2627.7366035936138     
   2627.2816645760909     
   2626.8298678165061     
   2626.3812186024479     
   2625.9357222141093     
   2721.9864986104176     
   2720.1769210712082     
   2718.3787080044794     
   2716.5918854957258     
   2714.8164795579974     
   2713.0525161303694     
   2711.3000210766149     
   2709.5590201837640     
   2707.8295391609290     
   2869.4250337252620     
   2865.5602694879681     
   2861.7172190300776     
   2857.8959732116145     
   2854.0966228864499     
   2850.3192588946745     
   2846.5639720560312     
   2842.8308531626221     
   2839.1199929713907     
   3064.0310562164536     
   3057.5936694922066     
   3051.1876492353590     
   3044.8131963267133     
   3038.4705123641183     
   3032.1597996491523     
   3025.8812611734584     
   3019.6351006036834     
   3013.4215222675675     
   3297.5461031971331     
   3288.1960973789319     
   3278.8848101786020     
   3269.6125748359709     
   3260.3797270061427     
   3251.1866047532808     
   3242.0335485440191     
   3232.9209012393130     
   3223.8490080855872     
   3562.4243815829477     
   3549.9570004980055     
   3537.5329642516781     
   3525.1527330440063     
   3512.8167719660905     
   3500.5255510279962     
   3488.2795451859483     
   3476.0792343681196     
   3463.9251034997919     
   3852.3120145761200     
   3836.6147118778181     
   3820.9629259700732     
   3805.3572197841795     
   3789.7981639011314     
   3774.2863366395968     
   3758.8223241438186     
   3743.4067204711423     
   3728.0401276799762     
   4162.1071619025352     
   4143.1257946957212     
   4124.1901930009435     
   4105.3009906889974     
   4086.4588318453325     
   4067.6643709333848     
   4048.9182729593690     
   4030.2212136388930     
   4011.5738795650982     
   2598.0691622210106     
   2598.0697409527775     
   2598.0702710376786     
   2598.0707572308220     
   2598.0712042872724     
   2598.0716169620455     
   2598.0720000102556     
   2598.0723581870079     
   2598.0726962471176     
   2625.9357222141093     
   2625.4933744065684     
   2625.0541714767091     
   2624.6181195089212     
   2624.1852245844034     
   2623.7554927801120     
   2623.3289301693503     
   2622.9055428212341     
   2622.4853368016725     
   2707.8295391609290     
   2706.1115927113815     
   2704.4051956436156     
   2702.7103737108096     
   2701.0271525940125     
   2699.3555578998639     
   2697.6956151602121     
   2696.0473498293850     
   2694.4107872845921     
   2839.1199929713907     
   2835.4314698990288     
   2831.7653620591095     
   2828.1217596892875     
   2824.5007529749587     
   2820.9024320411513     
   2817.3268869459853     
   2813.7742076720260     
   2810.2444841190718     
   3013.4215222675675     
   3007.2407182530183     
   3001.0928806428783     
   2994.9782147038482     
   2988.8969263038989     
   2982.8492218964625     
   2976.8353085014483     
   2970.8553936891271     
   2964.9096855613361     
   3223.8490080855872     
   3214.8182046141378     
   3205.8288278695209     
   3196.8812289032849     
   3187.9757610925831     
   3179.1127801262783     
   3170.2926439898242     
   3161.5157129488962     
   3152.7823495333237     
   3463.9251034997919     
   3451.8176330372266     
   3439.7573076573358     
   3427.7446261483956     
   3415.7800923403202     
   3403.8642151226713     
   3391.9975084619878     
   3380.1804914155641     
   3368.4136881467375     
   3728.0401276799762     
   3712.7231511214195     
   3697.4564038269782     
   3682.2405115810534     
   3667.0761084378860     
   3651.9638368057394     
   3636.9043475290050     
   3621.8982999703371     
   3606.9463620904385     
   4011.5738795650982     
   3992.9769705542903     
   3974.4311978072628     
   3955.9372817412877     
   3937.4959542282322     
   3919.1079587669851     
   3900.7740506574592     
   3882.4949971755791     
   3864.2715777488625     
   5120.5179023108476     
   5099.4443654399283     
   5078.4427024458828     
   5057.5117468452891     
   5036.6503224962853     
   5015.8572432186202     
   4995.1313124263606     
   4974.4713227736374     
   4953.8760558131680     
   5602.9747485778398     
   5578.6642589642752     
   5554.4276946405625     
   5530.2634563540068     
   5506.1699374333366     
   5482.1455233010456     
   5458.1885910196843     
   5434.2975088721732     
   5410.4706359789407     
   6097.4973452145887     
   6069.9772379402930     
   6042.5321711177930     
   6015.1602118870596     
   5987.8594226612422     
   5960.6278605305988     
   5933.4635767267628     
   5906.3646161482193     
   5879.3290169500733     
   6601.4768809956649     
   6570.7758056407465     
   6540.1499650958385     
   6509.5971852576959     
   6479.1152903727070     
   6448.7021023598927     
   6418.3554402211212     
   6388.0731195392973     
   6357.8529520687771     
   7113.0083912594155     
   7079.1548525995104     
   7045.3757352596740     
   7011.6687095734696     
   6978.0314476152944     
   6944.4616224839483     
   6910.9569076942289     
   6877.5149766809245     
   6844.1335024196997     
   7630.6803607608899     
   7593.7022744973319     
   7556.7966352567428     
   7519.9610371117033     
   7483.1930795157195     
   7446.4903665846741     
   7409.8505065062063     
   7373.2711110796372     
   7336.7497953924649     
   8153.4321419676635     
   8113.3568496823846     
   8073.3506735490055     
   8033.4112046921928     
   7993.5360434352333     
   7953.7227986144408     
   7913.9690870329696     
   7874.2725330603253     
   7834.6307683822497     
   8680.4563351899724     
   8637.3108106725831     
   8594.2294907681116     
   8551.2100313695919     
   8508.2501014968348     
   8465.3473826645441     
   8422.4995683994985     
   8379.7043639123876     
   8336.9594859292374     
   9211.1310737423009     
   9164.9421937750558     
   9118.8107828924167     
   9072.7346242451476     
   9026.7115180785840     
   8980.7392811643203     
   8934.8157463864663     
   8888.9387624875708     
   8843.1061939798547     
   4953.8760558131680     
   4933.3336751509269     
   4912.8331487521200     
   4892.3744609518126     
   4871.9576025067636     
   4851.5825706838259     
   4831.2493693549450     
   4810.9580091001590     
   4790.7085073186781     
   5410.4706359789407     
   5386.6947730892080     
   5362.9578485260017     
   5339.2599119601891     
   5315.6010215312017     
   5291.9812439851239     
   5268.4006548221605     
   5244.8593384527603     
   5221.3573883639465     
   5879.3290169500733     
   5852.3422958529472     
   5825.3913300106333     
   5798.4762000293358     
   5771.5969960774837     
   5744.7538180581460     
   5717.9467757922457     
   5691.1759892117425     
   5664.4415885640983     
   6357.8529520687771     
   6327.6793355967447     
   6297.5381850809927     
   6267.4295922476267     
   6237.3536586842920     
   6207.3104960318542     
   6177.3002261865040     
   6147.3229815124423     
   6117.3789050660816     
   6844.1335024196997     
   6810.7960455331604     
   6777.4877762770711     
   6744.2087886025929     
   6710.9591859954235     
   6677.7390816722454     
   6644.5485987871425     
   6611.3878706476680     
   6578.2570409419495     
   7336.7497953924649     
   7300.2697014481128     
   7263.8156189900419     
   7227.3876434998783     
   7190.9858791935221     
   7154.6104392106672     
   7118.2614458122871     
   7081.9390305878505     
   7045.6433346710837     
   7834.6307683822497     
   7795.0270853370230     
   7755.4464161594615     
   7715.8888633901106     
   7676.3545371627006     
   7636.8435553768013     
   7597.3560438773002     
   7557.8921366413133     
   7518.4519759728400     
   8336.9594859292374     
   8294.2491059879758     
   8251.5589889570510     
   8208.8892547578598     
   8166.2400295349298     
   8123.6114458041357     
   8081.0036426066863     
   8038.4167656679356     
   7995.8509675626374     
   8843.1061939798547     
   8797.3039871881829     
   8751.5196027957390     
   8705.7531921821392     
   8660.0049114454250     
   8614.2749215203839     
   8568.5633883001283     
   8522.8704827619767     
   8477.1963810970501     
   4790.7085073186781     
   4770.4971701729246     
   4750.3204371187348     
   4730.1785341238747     
   4710.0716918088319     
   4690.0001455254596     
   4669.9641354368960     
   4649.9639065993961     
   4629.9997090459638     
   5221.3573883639465     
   5197.8915667722576     
   5174.4587190079246     
   5151.0590739720928     
   5127.6928657525486     
   5104.3603337231625     
   5081.0617226459390     
   5057.7972827751655     
   5034.5672699647212     
   5664.4415885640983     
   5637.7408795253550     
   5611.0712205031323     
   5584.4328327500816     
   5557.8259430007292     
   5531.2507835863571     
   5504.7075925533527     
   5478.1966137848349     
   5451.7180971252319     
   6117.3789050660816     
   6087.4658977230201     
   6057.5818942529750     
   6027.7271008276139     
   5997.9017292040671     
   5968.1059968505051     
   5938.3401270750510     
   5908.6043491589917     
   5878.8988984932084     
   6578.2570409419495     
   6545.1546184852132     
   6512.0791323002386     
   6479.0307683970668     
   6446.0097183326670     
   6413.0161793422640     
   6380.0503544746234     
   6347.1124527309430     
   6314.2026892087924     
   7045.6433346710837     
   7009.3734466518581     
   6973.1284617902829     
   6936.9085424970017     
   6900.7138565911619     
   6864.5445774336258     
   6828.4008840638753     
   6792.2829613420436     
   6756.1910000945127     
   7518.4519759728400     
   7479.0351601825132     
   7439.6412768976897     
   7400.2704625881906     
   7360.9228589268023     
   7321.5986129208513     
   7282.2978770487580     
   7243.0208094005084     
   7203.7675738231083     
   7995.8509675626374     
   7953.3062439855075     
   7910.7825555881291     
   7868.2800112602117     
   7825.7987248454701     
   7783.3388152702219     
   7740.9004066763546     
   7698.4836285585443     
   7656.0886159066586     
   8477.1963810970501     
   8431.5413217500118     
   8385.9054741515083     
   8340.2889183994575     
   8294.6917392714258     
   8249.1140263478992     
   8203.5558741402419     
   8158.0173822231855     
   8112.4986553717927     
   4629.9997090459638     
   4610.0709575915444     
   4590.1771583295276     
   4570.3187070653403     
   4550.4960064583693     
   4530.7094661402007     
   4510.9595028345739     
   4491.2465404793684     
   4471.5710103506362     
   5034.5672699647212     
   5011.3710304322713     
   4988.2080066357748     
   4965.0786088632676     
   4941.9832552700782     
   4918.9223720342088     
   4895.8963935159991     
   4872.9057624194320     
   4849.9509299583269     
   5451.7180971252319     
   5425.2712779622907     
   5398.8554893423852     
   5372.4711383705144     
   5346.1186405961444     
   5319.7984201971285     
   5293.5109101681692     
   5267.2565525141363     
   5241.0357984477278     
   5878.8988984932084     
   5849.2228708593593     
   5819.5754587706160     
   5789.9570537505997     
   5760.3680559740269     
   5730.8088744689485     
   5701.2799273245892     
   5671.7816419051751     
   5642.3144550689176     
   6314.2026892087924     
   6281.3200036468288     
   6248.4634302078412     
   6215.6333365854853     
   6182.8300990382249     
   6150.0541026009205     
   6117.3057413028027     
   6084.5854183911379     
   6051.8935465618715     
   6756.1910000945127     
   6720.1237787581358     
   6684.0801672814960     
   6648.0605043934293     
   6612.0651370823416     
   6576.0944208090159     
   6540.1487197256074     
   6504.2284069020252     
   6468.3338645584163     
   7203.7675738231083     
   7164.5367923636359     
   7125.3271756885433     
   7086.1390307078354     
   7046.9726721286079     
   7007.8284226625583     
   6968.7066132405480     
   6929.6075832332781     
   6890.5316806795463     
   7656.0886159066586     
   7613.7138486473023     
   7571.3578929624937     
   7529.0210227400221     
   7486.7035190955175     
   7444.4056705702569     
   7402.1277733355864     
   7359.8701314031414     
   7317.6330568431058     
   8112.4986553717927     
   8066.9980543787333     
   8021.5140248742155     
   7976.0468077113183     
   7930.5966503351292     
   7885.1638069668652     
   7839.7485387941524     
   7794.3511141678773     
   7748.9718088054678     
   4471.5710103506362     
   4451.9328171377683     
   4432.3318850394016     
   4412.7686859138621     
   4393.2436993759175     
   4373.7574129287450     
   4354.3103220974572     
   4334.9029305647500     
   4315.5357503088344     
   4849.9509299583269     
   4827.0318498392762     
   4804.1484898721537     
   4781.3013354473233     
   4758.4908808110868     
   4735.7176292413924     
   4712.9820932268294     
   4690.2847946489528     
   4667.6262649689397     
   5241.0357984477278     
   5214.8486455463772     
   5188.6951022241919     
   5162.5756499775962     
   5136.4907798038357     
   5110.4409924105685     
   5084.4267984302041     
   5058.4487186400884     
   5032.5072841875453     
   5642.3144550689176     
   5612.8784065865757     
   5583.4735454475185     
   5554.1003367662388     
   5524.7592554040593     
   5495.4507862020264     
   5466.1754242197494     
   5436.9336749809972     
   5407.7260547256592     
   6051.8935465618715     
   6019.2302082879269     
   5986.5954949199786     
   5953.9898468095926     
   5921.4137139809145     
   5888.8675563761044     
   5856.3518441077304     
   5823.8670577184448     
   5791.4136884483733     
   6468.3338645584163     
   6432.4652193697457     
   6396.6226075354853     
   6360.8064394402254     
   6325.0171348244439     
   6289.2551230334702     
   6253.5208432731470     
   6217.8147448742611     
   6182.1372875647321     
   6890.5316806795463     
   6851.4790779764235     
   6812.4499584461464     
   6773.4446996632332     
   6734.4636880670369     
   6695.5073192064228     
   6656.5759979920058     
   6617.6701389560449     
   6578.7901665216423     
   7317.6330568431058     
   7275.4167685762641     
   7233.2214984105076     
   7191.0475899798139     
   7148.8953951741669     
   7106.7652743738690     
   7064.6575966917680     
   7022.5727402231978     
   6980.5110923049269     
   7748.9718088054678     
   7703.6108876938133     
   7658.2686310658428     
   7612.9453487099663     
   7567.6413579877344     
   7522.3569840539858     
   7477.0925600841765     
   7431.8484275102701     
   7386.6249362640256     
   4315.5357503088344     
   4296.2092296694182     
   4276.9238395017819     
   4257.6801385040344     
   4238.4786943463396     
   4219.3200838195380     
   4200.2048929849007     
   4181.1337173259690     
   4162.1071619025352     
   4667.6262649689397     
   4645.0069740879453     
   4622.4274179485528     
   4599.8881821468231     
   4577.3898628079933     
   4554.9330667940312     
   4532.5184119153437     
   4510.1465271451189     
   4487.8180528393577     
   5032.5072841875453     
   5006.6029607126166     
   4980.7362419817737     
   4954.9077177536747     
   4929.1179893313820     
   4903.3676698187592     
   4877.6573843833812     
   4851.9877705255603     
   4826.3594783535091     
   5407.7260547256592     
   5378.5530046082449     
   5349.4149946584657     
   5320.3126014878744     
   5291.2464137604748     
   5262.2170324858698     
   5233.2250713198473     
   5204.2711568737523     
   5175.3559290312514     
   5791.4136884483733     
   5758.9921378595609     
   5726.6028359409847     
   5694.2463336748115     
   5661.9231941750822     
   5629.6339930035538     
   5597.3793184944361     
   5565.1597720886721     
   5532.9759686780080     
   6182.1372875647321     
   6146.4888225283012     
   6110.8697278729351     
   6075.2805203919588     
   6039.7217287505864     
   6004.1938938113208     
   5968.6975689690889     
   5933.2333204977504     
   5897.8017279069245     
   6578.7901665216423     
   6539.9363742386868     
   6501.1090801557039     
   6462.3087613549023     
   6423.5359062741099     
   6384.7910150308735     
   6346.0745997578269     
   6307.3871849484985     
   6268.7293078149805     
   6980.5110923049269     
   6938.4728844600286     
   6896.4583694774728     
   6854.4679814919946     
   6812.5021652943315     
   6770.5613766458791     
   6728.6460826040084     
   6686.7567618585808     
   6644.8939050801328     
   7386.6249362640256     
   7341.4222537887626     
   7296.2405648523345     
   7251.0802591001830     
   7205.9417360107827     
   7160.8254051939894     
   7115.7316866996143     
   7070.6610113371089     
   7025.6138210069630     
   4162.1071619025352     
   4143.1257946957212     
   4124.1901930009435     
   4105.3009906889974     
   4086.4588318453325     
   4067.6643709333848     
   4048.9182729593690     
   4030.2212136388930     
   4011.5738795650982     
   4487.8180528393577     
   4465.5335949776427     
   4443.2937697807893     
   4421.0992507050496     
   4398.9507234866833     
   4376.8488863816392     
   4354.7944504097013     
   4332.7881396027287     
   4310.8306912573562     
   4826.3594783535091     
   4800.7731274754096     
   4775.2293483904541     
   4749.7288272755450     
   4724.2722640265620     
   4698.8603725657022     
   4673.4938811554966     
   4648.1735327205652     
   4622.9000851759893     
   5175.3559290312514     
   5146.4800029981379     
   5117.6440053156812     
   5088.8486137101190     
   5060.0945204425498     
   5031.3824326685881     
   5002.7130728075390     
   4974.0871789212642     
   4945.5055051031341     
   5532.9759686780080     
   5500.8285069291060     
   5468.7179971990545     
   5436.6450930834408     
   5404.6104629764150     
   5372.6147904655800     
   5340.6587747379144     
   5308.7431309985377     
   5276.8685909008636     
   5897.8017279069245     
   5862.4033661568019     
   5827.0388222883639     
   5791.7087147942739     
   5756.4136767754926     
   5721.1543563540909     
   5685.9314170987309     
   5650.7455384646237     
   5615.5974162472476     
   6268.7293078149805     
   6230.1015164205446     
   6191.5043714517569     
   6152.9384491210585     
   6114.4043397052947     
   6075.9026479615886     
   6037.4339935571770     
   5998.9990115140408     
   5960.5983526690497     
   6644.8939050801328     
   6603.0580333350254     
   6561.2496811084966     
   6519.4693781079259     
   6477.7176673000913     
   6435.9951053177710     
   6394.3022628804829     
   6352.6397252308352     
   6311.0080925863085     
   7025.6138210069630     
   6980.5906120397985     
   6935.5918953169703     
   6890.6181520665614     
   6845.6698757889371     
   6800.7475726442663     
   6755.8517618541764     
   6710.9829761189812     
   6666.1417620498351     
   4011.5738795650982     
   3992.9769705542903     
   3974.4311978072628     
   3955.9372817412877     
   3937.4959542282322     
   3919.1079587669851     
   3900.7740506574592     
   3882.4949971755791     
   3864.2715777488625     
   4310.8306912573562     
   4288.9228673849284     
   4267.0654448435907     
   4245.2592037825443     
   4223.5049385381153     
   4201.8034579044506     
   4180.1555854080034     
   4158.5621595870307     
   4137.0240342741181     
   4622.9000851759893     
   4597.6743325347679     
   4572.4970864262723     
   4547.3691546118453     
   4522.2913611082759     
   4497.2645465498808     
   4472.2895685601752     
   4447.3673021304285     
   4422.4986400064681     
   4945.5055051031341     
   4916.9688512066004     
   4888.4780365517972     
   4860.0338696336448     
   4831.6371765432887     
   4803.2888014079808     
   4774.9896068424887     
   4746.7404744130481     
   4718.5423051124953     
   5276.8685909008636     
   5245.0359384861404     
   5213.2459780989302     
   5181.4994978460245     
   5149.7973040837824     
   5118.1402219154843     
   5086.5290957022798     
   5054.9647895908493     
   5023.4481880558506     
   5615.5974162472476     
   5580.4878011305354     
   5545.4174639080438     
   5510.3871564936617     
   5475.3976491094236     
   5440.4497308172131     
   5405.5442100686460     
   5370.6819152724429     
   5335.8636953811601     
   5960.5983526690497     
   5922.2327201912958     
   5883.9028361555793     
   5845.6094049927597     
   5807.3531490144060     
   5769.1348089595995     
   5730.9551445619791     
   5692.8149351356778     
   5654.7149801829046     
   6311.0080925863085     
   6269.4080090731059     
   6227.8401355464775     
   6186.3051213190283     
   6144.8036327799609     
   6103.3363539404363     
   6061.9039869979770     
   6020.5072529229392     
   5979.1468920662028     
   6666.1417620498351     
   6621.3286951591408     
   6576.5443645815267     
   6531.7893597526636     
   6487.0642861045853     
   6442.3697655933165     
   6397.7064372470786     
   6353.0749577356592     
   6308.4760019622399     
   9211.1310737423009     
   9164.9421937750558     
   9118.8107828924167     
   9072.7346242451476     
   9026.7115180785840     
   8980.7392811643203     
   8934.8157463864663     
   8888.9387624875708     
   8843.1061939798547     
   9744.9735121056838     
   9695.7679513386356     
   9646.6109986546126     
   9597.5006589496752     
   9548.4349570401355     
   9499.4119371842171     
   9450.4296627507811     
   9401.4862160397388     
   9352.5796982609736     
   10281.610968364599     
   10229.412782712325     
   10177.252297520547     
   10125.127884461876     
   10073.037936010347     
   10020.980865098147     
   9968.9551048937356     
   9916.9591087055360     
   9864.9913500161092     
   10820.751663256564     
   10765.581645706543     
   10710.436684587417     
   10655.315683010362     
   10600.217564301653     
   10545.141271815823     
   10490.085768835044     
   10435.050038556170     
   10380.033084170123     
   11362.164584208123     
   11304.040569682778     
   11245.927532108568     
   11187.825086745443     
   11129.732867476969     
   11071.650526759404     
   11013.577735622071     
   10955.514183719317     
   10897.459579437238     
   11905.666122468472     
   11844.603260474678     
   11783.536151413628     
   11722.465316551357     
   11661.391293642931     
   11600.314636936795     
   11539.235917210039     
   11478.155721835637     
   11417.074654882706     
   12451.110022122633     
   12387.121020597084     
   12323.111683836620     
   12259.083643719347     
   12195.038546407175     
   12130.978052249631     
   12066.903835730285     
   12002.817585456696     
   11938.721004195768     
   12998.379733297283     
   12931.475077491281     
   12864.533403730860     
   12797.557667830082     
   12730.550838105968     
   12663.515894938952     
   12596.455830435330     
   12529.373648194718     
   12462.272363186732     
   13547.382531853797     
   13477.570681947709     
   13407.704795488478     
   13337.789372507130     
   13267.828924711846     
   13197.827974361906     
   13127.791053368077     
   13057.722702629933     
   12987.627471615971     
   8843.1061939798547     
   8797.3039871881829     
   8751.5196027957390     
   8705.7531921821392     
   8660.0049114454250     
   8614.2749215203839     
   8568.5633883001283     
   8522.8704827619767     
   8477.1963810970501     
   9352.5796982609736     
   9303.6988456065628     
   9254.8337743310531     
   9205.9846724603340     
   9157.1517313831573     
   9108.3351459385667     
   9059.5351145066361     
   9010.7518391013145     
   8961.9855254664672     
   9864.9913500161092     
   9813.0442126533653     
   9761.1112312585374     
   9709.1926224706476     
   9657.2886052681242     
   9605.3994010314709     
   9553.5252336077847     
   9501.6663293778438     
   9449.8229173258205     
   10380.033084170123     
   10325.031562062401     
   10270.042938513605     
   10215.067447813764     
   10160.105325840526     
   10105.156810102051     
   10050.222139782127     
   9995.3015557865856     
   9940.3953007927103     
   10897.459579437238     
   10839.415258272198     
   10781.382899198215     
   10723.362740733020     
   10665.355022448646     
   10607.359985000357     
   10549.377870156979     
   10491.408920832535     
   10433.453381120196     
   11417.074654882706     
   11355.998932448603     
   11294.934510671774     
   11233.881616792369     
   11172.840478744787     
   11111.811325177088     
   11050.794385470423     
   10989.789889761701     
   10928.798068966113     
   11938.721004195768     
   11874.625197394465     
   11810.540260441474     
   11746.466392023318     
   11682.403791294562     
   11618.352657890855     
   11554.313191942734     
   11490.285594091205     
   11426.270065504006     
   12462.272363186732     
   12395.167797725973     
   12328.073859202428     
   12260.990698959327     
   12193.918468681482     
   12126.857320405539     
   12059.807406530610     
   11992.768879830084     
   11925.741893464050     
   12987.627471615971     
   12917.525556638398     
   12847.434172629275     
   12777.353403499030     
   12707.283333445166     
   12637.224046961508     
   12567.175628847604     
   12497.138164218804     
   12427.111738516631     
   8477.1963810970501     
   8431.5413217500118     
   8385.9054741515083     
   8340.2889183994575     
   8294.6917392714258     
   8249.1140263478992     
   8203.5558741402419     
   8158.0173822231855     
   8112.4986553717927     
   8961.9855254664672     
   8913.2364618080701     
   8864.5048308858095     
   8815.7906863729586     
   8767.0940863568121     
   8718.4150934566715     
   8669.7537749463590     
   8621.1102028808691     
   8572.4844542278151     
   9449.8229173258205     
   9397.9951473249166     
   9346.1830350069631     
   9294.3866130597962     
   9242.6059183531979     
   9190.8409920515405     
   9139.0918797312588     
   9087.3586315021566     
   9035.6413021334592     
   9940.3953007927103     
   9885.5032188094410     
   9830.6250003083096     
   9775.7606619392172     
   9720.9102243301768     
   9666.0737121949824     
   9611.2511544456047     
   9556.4425843086246     
   9501.6480394462196     
   10433.453381120196     
   10375.510639633445     
   10317.579923172907     
   10259.661236804508     
   10201.754589389013     
   10143.859993685694     
   10085.977466459752     
   10028.107028593793     
   9970.2487052040487     
   10928.798068966113     
   10867.817722541737     
   10806.847492128805     
   10745.887375175836     
   10684.937372756454     
   10623.997489668454     
   10563.067734536058     
   10502.148119917169     
   10441.238662414282     
   11426.270065504006     
   11362.264696534656     
   11298.267437010245     
   11234.278280254490     
   11170.297223051366     
   11106.324265738336     
   11042.359412304217     
   10978.402670490779     
   10914.454051899142     
   11925.741893464050     
   11858.723720794425     
   11791.711526089422     
   11724.705301582599     
   11657.705042797577     
   11590.710748636191     
   11523.722421470527     
   11456.740067239147     
   11389.763695547725     
   12427.111738516631     
   12357.092710710229     
   12287.077376942199     
   12217.065730948176     
   12147.057769570085     
   12077.053492838111     
   12007.052904056221     
   11937.056009892307     
   11867.062820472123     
   8112.4986553717927     
   8066.9980543787333     
   8021.5140248742155     
   7976.0468077113183     
   7930.5966503351292     
   7885.1638069668652     
   7839.7485387941524     
   7794.3511141678773     
   7748.9718088054678     
   8572.4844542278151     
   8523.8748064872161     
   8475.2796196636846     
   8426.6991025803272     
   8378.1334699673553     
   8329.5829426299733     
   8281.0477476224751     
   8232.5281184274590     
   8184.0242951418722     
   9035.6413021334592     
   8983.9381408512982     
   8932.2474746459429     
   8880.5694823108170     
   8828.9043478293679     
   8777.2522605242557     
   8725.6134152128379     
   8673.9880123668954     
   8622.3762582790132     
   9501.6480394462196     
   9446.8658138245864     
   9392.0942728572936     
   9337.3335680516502     
   9282.5838553802550     
   9227.8452954107033     
   9173.1180534407595     
   9118.4022996380390     
   9063.6982091844784     
   9970.2487052040487     
   9912.4009261959491     
   9854.5621857642163     
   9796.7326114567222     
   9738.9123345734715     
   9681.1014902778388     
   9623.3002177108447     
   9565.5086601097919     
   9507.7269649310601     
   10441.238662414282     
   10380.338037387897     
   10319.444977148396     
   10258.559589074042     
   10197.681983611819     
   10136.812274368966     
   10075.950578207148     
   10015.097015340589     
   9954.2517094373961     
   10914.454051899142     
   10850.512605268115     
   10786.577429360681     
   10722.648615552098     
   10658.726257645101     
   10594.810451942069     
   10530.901297320599     
   10466.998895311302     
   10403.103350178986     
   11389.763695547725     
   11322.792874901872     
   11255.827217863583     
   11188.866804282121     
   11121.911715845135     
   11054.962036133882     
   10988.017850680901     
   10921.079247029087     
   10854.146314793723     
   11867.062820472123     
   11797.073588955700     
   11727.088608050419     
   11657.107950815711     
   11587.131691622359     
   11517.159906192153     
   11447.192671639012     
   11377.230066511665     
   11307.272170837923     
   7748.9718088054678     
   7703.6108876938133     
   7658.2686310658428     
   7612.9453487099663     
   7567.6413579877344     
   7522.3569840539858     
   7477.0925600841765     
   7431.8484275102701     
   7386.6249362640256     
   8184.0242951418722     
   8135.5365856468889     
   8087.0653152545847     
   8038.6107603089858     
   7990.1732040125471     
   7941.7529366295475     
   7893.3502556962840     
   7844.9654662389858     
   7796.5988809992195     
   8622.3762582790132     
   8570.7784937061242     
   8519.1950780424067     
   8467.6262545034970     
   8416.0722724478346     
   8364.5333875615634     
   8313.0098620503140     
   8261.5019648374564     
   8210.0099717701287     
   9063.6982091844784     
   9009.0061379781218     
   8954.3264603421521     
   8899.6593869302960     
   8845.0051338379344     
   8790.3639227676649     
   8735.7359812016439     
   8681.1215425799219     
   8626.5208464854022     
   9507.7269649310601     
   9449.9554778636466     
   9392.1945610115763     
   9334.4443931825863     
   9276.7051579492017     
   9218.9770437962670     
   9161.2602442731641     
   9103.5549581521464     
   9045.8613895922281     
   9954.2517094373961     
   9893.4149631376677     
   9832.5870913605104     
   9771.7682418620152     
   9710.9585665198938     
   9650.1582214623231     
   9589.3673672007353     
   9528.5861687681554     
   9467.8147958629197     
   10403.103350178986     
   10339.214881327789     
   10275.333713890961     
   10211.459965400554     
   10147.593756905810     
   10083.735213083326     
   10019.884462351818     
   9956.0416369908489     
   9892.2068732646712     
   10854.146314793723     
   10787.219142759435     
   10720.297816223856     
   10653.382423325413     
   10586.473055157086     
   10519.569805859634     
   10452.672772718628     
   10385.782056264990     
   10318.897760379616     
   11307.272170837923     
   11237.318888359467     
   11167.370107225459     
   11097.425886994166     
   11027.486289660537     
   10957.551379733770     
   10887.621224317158     
   10817.695893192094     
   10747.775458904429     
   7386.6249362640256     
   7341.4222537887626     
   7296.2405648523345     
   7251.0802591001830     
   7205.9417360107827     
   7160.8254051939894     
   7115.7316866996143     
   7070.6610113371089     
   7025.6138210069630     
   7796.5988809992195     
   7748.2506037060994     
   7699.9207514524724     
   7651.6096694844291     
   7603.3177119729098     
   7555.0452422903645     
   7506.7926332974039     
   7458.5602676399330     
   7410.3485380572947     
   8210.0099717701287     
   8158.5339284596193     
   8107.0738907844134     
   8055.6301611387180     
   8004.2030498802296     
   7952.7928755810044     
   7901.3999652885268     
   7850.0246547956394     
   7798.6672889215652     
   8626.5208464854022     
   8571.9338918773901     
   8517.3606860835498     
   8462.8014910687962     
   8408.2565757821430     
   8353.7262163797241     
   8299.2106964572413     
   8244.7103072906448     
   8190.2253480865220     
   9045.8613895922281     
   8988.1795078033520     
   8930.5092899445481     
   8872.8509606373209     
   8815.2047505170085     
   8757.5708964279402     
   8699.9496416258498     
   8642.3412359877584     
   8584.7459362307727     
   9467.8147958629197     
   9407.0532099259108     
   9346.3013816462681     
   9285.5595018925105     
   9224.8277666092345     
   9164.1063769835455     
   9103.3955396172278     
   9042.6954667065165     
   8982.0063762285754     
   9892.2068732646712     
   9828.3801515980012     
   9764.5614648855171     
   9700.7509742214406     
   9636.9488448880766     
   9573.1552464934593     
   9509.3703531152114     
   9445.5943434498186     
   9381.8274009679644     
   10318.897760379616     
   10252.019915733321     
   10185.148570786738     
   10118.283861139600     
   10051.425925754225     
   9984.5749070670117     
   9917.7309511050171     
   9850.8942076060885     
   9784.0648301451820     
   10747.775458904429     
   10677.860037912600     
   10607.949772033391     
   10538.044775885968     
   10468.145166701157     
   10398.251064408363     
   10328.362591726516     
   10258.479874258244     
   10188.603040588263     
   7025.6138210069630     
   6980.5906120397985     
   6935.5918953169703     
   6890.6181520665614     
   6845.6698757889371     
   6800.7475726442663     
   6755.8517618541764     
   6710.9829761189812     
   6666.1417620498351     
   7410.3485380572947     
   7362.1579196023513     
   7313.9889029167271     
   7265.8419200562703     
   7217.7174142534996     
   7169.6158402791207     
   7121.5376648177671     
   7073.4833668571318     
   7025.4534380935265     
   7798.6672889215652     
   7747.3283227404672     
   7696.0082272097143     
   7644.7073852473768     
   7593.4261898020241     
   7542.1650441835036     
   7490.9243624074306     
   7439.7045695524830     
   7388.5061021319680     
   8190.2253480865220     
   8135.7562520880292     
   8081.3034677403402     
   8026.8673296364177     
   7972.4481812403201     
   7918.0463751849766     
   7863.6622735814826     
   7809.2962483414676     
   7754.9486815118080     
   8584.7459362307727     
   8527.1641487668094     
   8469.5962933535120     
   8412.0426576355494     
   8354.5035369850793     
   8296.9792347650182     
   8239.4700626027934     
   8181.9763406745487     
   8124.4983980022898     
   8982.0063762285754     
   8921.3286396577041     
   8860.6626386117441     
   8800.0086155693425     
   8739.3668196321887     
   8678.7375067529319     
   8618.1209399728068     
   8557.5173896685901     
   8496.9271338102535     
   9381.8274009679644     
   9318.0698510628790     
   9254.3220245741559     
   9190.5841208874535     
   9126.8563449632711     
   9063.1389075301940     
   8999.4320252870239     
   8935.7359211132516     
   8872.0508242877968     
   9784.0648301451820     
   9717.2430839391382     
   9650.4292333306239     
   9583.6234368923633     
   9516.8258577926536     
   9450.0366639563563     
   9383.2560282328905     
   9316.4841285711427     
   9249.7211482017992     
   10188.603040588263     
   10118.732278807944     
   10048.867768079264     
   9979.0096285869749     
   9909.1579842124229     
   9839.3129626638292     
   9769.4746956120853     
   9699.6433188327937     
   9629.8189723541327     
   6666.1417620498351     
   6621.3286951591408     
   6576.5443645815267     
   6531.7893597526636     
   6487.0642861045853     
   6442.3697655933165     
   6397.7064372470786     
   6353.0749577356592     
   6308.4760019622399     
   7025.4534380935265     
   6977.4483777940677     
   6929.4686954671643     
   6881.5149186982426     
   6833.5875897858386     
   6785.6872662413034     
   6737.8145213072776     
   6689.9699444974458     
   6642.1541421586162     
   7388.5061021319680     
   7337.3293797618198     
   7286.1748294962545     
   7235.0429175155159     
   7183.9341232938550     
   7132.8489400605449     
   7081.7878752800762     
   7030.7514511519048     
   6979.7402051312911     
   7754.9486815118080     
   7700.6199141188272     
   7646.3102926942302     
   7592.0202239618211     
   7537.7501264475231     
   7483.5004308966736     
   7429.2715807079703     
   7375.0640323875568     
   7320.8782560199443     
   8124.4983980022898     
   8067.0365019957662     
   8009.5909247501586     
   7952.1620166374632     
   7894.7501383199042     
   7837.3556611199465     
   7779.9789674046624     
   7722.6204509881800     
   7665.2805175499516     
   8496.9271338102535     
   8436.3503746164006     
   8375.7873194872373     
   8315.2382664358829     
   8254.7035222772010     
   8194.1834029474139     
   8133.6782338383409     
   8073.1883501454004     
   8012.7140972316538     
   8872.0508242877968     
   8808.3768833332888     
   8744.7142539366396     
   8681.0631864293809     
   8617.4239385126129     
   8553.7967755273639     
   8490.1819707370250     
   8426.5798056231979     
   8362.9905701926455     
   9249.7211482017992     
   9182.9671961948061     
   9116.2223923950605     
   9049.4869446567136     
   8982.7610668546276     
   8916.0449791072642     
   8849.3389080097440     
   8782.6430868772695     
   8715.9577559995341     
   9629.8189723541327     
   9560.0017425095448     
   9490.1917317637999     
   9420.3891111031153     
   9350.5940562908800     
   9280.8067480454265     
   9211.0273722264792     
   9141.2561200306809     
   9071.4931881932589     
   13547.382531853797     
   13477.570681947709     
   13407.704795488478     
   13337.789372507130     
   13267.828924711846     
   13197.827974361906     
   13127.791053368077     
   13057.722702629933     
   12987.627471615971     
   14098.068142264430     
   14025.347755814657     
   13952.558501839887     
   13879.706295089063     
   13806.797062006717     
   13733.836738734119     
   13660.831269499857     
   13587.786605412564     
   13514.708703673257     
   14650.391525690635     
   14574.753827320446     
   14499.036984267303     
   14423.247842897892     
   14347.393261153427     
   14271.480105881681     
   14195.515250683791     
   14119.505574292236     
   14043.457959500467     
   15204.294105801588     
   15125.731632906451     
   15047.084356877785     
   14968.359573146932     
   14889.564588001671     
   14810.706715600872     
   14731.793275561875     
   14652.831591138120     
   14573.828988012025     
   15759.730383845230     
   15678.236553105060     
   15596.657005624256     
   15514.999004583444     
   15433.269822571938     
   15351.476738679468     
   15269.627036139822     
   15187.728000548086     
   15105.786918672562     
   16316.665899547887     
   16232.234613243625     
   16147.721622639068     
   16063.133679244827     
   15978.477541935072     
   15893.759974463412     
   15808.987743445854     
   15724.167616827048     
   15639.306362849091     
   16875.075579275093     
   16787.700863561720     
   16700.253613421013     
   16612.739591761729     
   16525.164566561605     
   16437.534309044258     
   16349.854592191090     
   16262.131189598453     
   16174.369874693730     
   17434.942388854877     
   17344.618057812364     
   17254.235797347465     
   17163.799907815588     
   17073.314692632022     
   16982.784457181897     
   16892.213507914905     
   16801.606151633368     
   16710.966694981398     
   17996.256227850063     
   17902.975568418024     
   17809.657340659098     
   17716.303911772502     
   17622.917651002117     
   17529.500929134505     
   17436.056118062581     
   17342.585590420462     
   17249.091719290856     
   12987.627471615971     
   12917.525556638398     
   12847.434172629275     
   12777.353403499030     
   12707.283333445166     
   12637.224046961508     
   12567.175628847604     
   12497.138164218804     
   12427.111738516631     
   13514.708703673257     
   13441.621335803104     
   13368.544311779107     
   13295.477651172690     
   13222.421374066580     
   13149.375501069086     
   13076.340053329302     
   13003.315052552172     
   12930.300521014797     
   14043.457959500467     
   13967.398472596236     
   13891.348572452864     
   13815.308234228536     
   13739.277434164947     
   13663.256149613535     
   13587.244359063128     
   13511.242042168491     
   13435.249179780427     
   14573.828988012025     
   14494.812315808289     
   14415.803498975156     
   14336.802478162002     
   14257.809195803460     
   14178.823596156115     
   14099.845625338063     
   14020.875231371290     
   13941.912364227057     
   15105.786918672562     
   15023.829645110643     
   14941.877112975439     
   14859.929229073270     
   14777.985902623168     
   14696.047045293793     
   14614.112571246438     
   14532.182397184255     
   14450.256442407988     
   15639.306362849091     
   15554.426763789357     
   15469.546998512653     
   15384.666932081995     
   15299.786432335481     
   15214.905369904376     
   15130.023618242582     
   15045.141053669367     
   14960.257555424330     
   16174.369874693730     
   16086.587952442951     
   15998.798749392383     
   15911.002072977331     
   15823.197733327519     
   15735.385543237206     
   15647.565318157065     
   15559.736876208659     
   15471.900038222979     
   16710.966694981398     
   16620.304206795594     
   16529.624701603228     
   16438.927905851928     
   16348.213547992851     
   16257.481358365143     
   16166.731069116589     
   16075.962414163325     
   15985.175129188761     
   17249.091719290856     
   17155.572200797353     
   17062.022891865297     
   16968.443407565508     
   16874.833363516336     
   16781.192375633815     
   16687.520059940602     
   16593.816032435370     
   16500.079909025932     
   12427.111738516631     
   12357.092710710229     
   12287.077376942199     
   12217.065730948176     
   12147.057769570085     
   12077.053492838111     
   12007.052904056221     
   11937.056009892307     
   11867.062820472123     
   12930.300521014797     
   12857.291891322302     
   12784.284575823829     
   12711.278568858748     
   12638.273867497237     
   12565.270471611188     
   12492.268383948125     
   12419.267610209366     
   12346.268159131678     
   13435.249179780427     
   13359.260567433641     
   13283.271008579199     
   13207.280498395592     
   13131.289034153153     
   13055.296615267414     
   12979.303243355203     
   12903.308922293823     
   12827.313658283207     
   13941.912364227057     
   13862.951806030373     
   13783.988372157683     
   13705.022064926023     
   13626.052887982771     
   13547.080846339557     
   13468.105946408479     
   13389.128196039139     
   13310.147604558048     
   14450.256442407988     
   14368.330434746336     
   14286.400168418200     
   14204.465664719930     
   14122.526945526764     
   14040.584033308205     
   13958.636951143955     
   13876.685722740813     
   13794.730372450003     
   14960.257555424330     
   14875.371092127327     
   14790.479749577727     
   14705.583584985270     
   14620.682655520339     
   14535.777018313327     
   14450.866730454474     
   14365.951848993778     
   14281.032430940490     
   15471.900038222979     
   15384.056644747550     
   15296.208731103725     
   15208.356412051660     
   15120.499801942988     
   15032.639014708469     
   14944.774163847109     
   14856.905362414385     
   14769.032723011915     
   15985.175129188761     
   15894.376893567311     
   15803.575694393614     
   15712.771729975853     
   15621.965198203165     
   15531.156296527028     
   15440.345221944015     
   15349.532170982018     
   15258.717339688830     
   16500.079909025932     
   16406.327509994822     
   16312.575119650292     
   16218.823049904142     
   16125.071612701166     
   16031.321119998052     
   15937.571883747929     
   15843.824215892457     
   15750.078428359571     
   11867.062820472123     
   11797.073588955700     
   11727.088608050419     
   11657.107950815711     
   11587.131691622359     
   11517.159906192153     
   11447.192671639012     
   11377.230066511665     
   11307.272170837923     
   12346.268159131678     
   12273.271117395412     
   12200.277609664325     
   12127.287704647837     
   12054.301471969409     
   11981.318982194129     
   11908.340306857535     
   11835.365518495566     
   11762.394690675190     
   12827.313658283207     
   12751.319386036193     
   12675.328076522195     
   12599.339792599985     
   12523.354597801928     
   12447.372556354308     
   12371.393733198700     
   12295.418194013808     
   12219.446005238411     
   13310.147604558048     
   13231.166810466535     
   13152.188480647470     
   13073.212668528016     
   12994.239428075172     
   12915.268813812654     
   12836.300880838011     
   12757.335684839845     
   12678.373282116601     
   13794.730372450003     
   13712.773940062159     
   13630.819474255808     
   13548.867013550609     
   13466.916596934361     
   13384.968263877134     
   13303.022054346351     
   13221.078008821713     
   13139.136168311548     
   14281.032430940490     
   14196.111457319610     
   14111.191881904380     
   14026.273721099811     
   13941.356991726125     
   13856.441711031246     
   13771.527896704112     
   13686.615566888346     
   13601.704740196108     
   14769.032723011915     
   14681.158551140357     
   14593.285067624241     
   14505.412257956677     
   14417.540107973906     
   14329.668603864920     
   14241.797732182897     
   14153.927479855676     
   14066.057834197771     
   15258.717339688830     
   15167.901585550357     
   15077.085598371596     
   14986.269322472490     
   14895.452702389413     
   14804.635682880300     
   14713.818208930878     
   14623.000225761150     
   14532.181678833414     
   15750.078428359571     
   15656.333003470689     
   15562.586143285769     
   15468.837739338403     
   15375.087683165008     
   15281.335866301823     
   15187.582180283425     
   15093.826516642031     
   15000.068766906821     
   11307.272170837923     
   11237.318888359467     
   11167.370107225459     
   11097.425886994166     
   11027.486289660537     
   10957.551379733770     
   10887.621224317158     
   10817.695893192094     
   10747.775458904429     
   11762.394690675190     
   11689.427491162467     
   11616.463559590342     
   11543.502929529985     
   11470.545636481183     
   11397.591717933690     
   11324.641213431227     
   11251.694164637853     
   11178.750615406734     
   12219.446005238411     
   12143.476596998964     
   12067.509362639190     
   11991.544315045829     
   11915.581468523887     
   11839.620838842258     
   11763.662443280902     
   11687.706300679220     
   11611.752431487757     
   12678.373282116601     
   12599.412924697293     
   12520.453825486687     
   12441.495983253204     
   12362.539397705243     
   12283.584069521428     
   12204.630000382147     
   12125.677193001853     
   12046.725651162837     
   13139.136168311548     
   13057.195726749815     
   12975.255845108964     
   12893.316515744951     
   12811.377731537728     
   12729.439485908555     
   12647.501772837313     
   12565.564586880822     
   12483.627923191601     
   13601.704740196108     
   13516.794732160188     
   13431.884842022957     
   13346.975064466991     
   13262.065394373272     
   13177.155826827502     
   13092.246357127493     
   13007.336980789396     
   12922.427693555574     
   14066.057834197771     
   13978.188470942332     
   13890.319078545972     
   13802.449663697837     
   13714.580233075147     
   13626.710793342385     
   13538.841351151585     
   13450.971913141531     
   13363.102485937357     
   14532.181678833414     
   14441.362900794942     
   14350.544280058859     
   14259.725845860883     
   14168.907627352086     
   14078.089653595927     
   13987.271953564719     
   13896.454556137302     
   13805.637490096160     
   15000.068766906821     
   14906.310274663687     
   14812.552497885728     
   14718.795499683267     
   14625.039343167608     
   14531.284091449801     
   14437.529807640743     
   14343.776554850363     
   14250.024396187924     
   10747.775458904429     
   10677.860037912600     
   10607.949772033391     
   10538.044775885968     
   10468.145166701157     
   10398.251064408363     
   10328.362591726516     
   10258.479874258244     
   10188.603040588263     
   11178.750615406734     
   11105.810802232649     
   11032.874994692860     
   10959.943289383573     
   10887.015784864485     
   10814.092581724624     
   10741.173782650894     
   10668.259492499208     
   10595.349818368595     
   11611.752431487757     
   11535.801200573711     
   11459.853010608324     
   11383.907941033722     
   11307.966072723966     
   11232.027488033289     
   11156.092270846357     
   11080.160506629980     
   11004.232282487845     
   12046.725651162837     
   11967.775844027401     
   11888.828278927736     
   11809.883018456389     
   11730.940126209669     
   11651.999666821275     
   11573.061705998010     
   11494.126310556061     
   11415.193548459238     
   12483.627923191601     
   12401.692299273853     
   12319.758265586905     
   12237.825867661271     
   12155.895151693871     
   12073.966164570338     
   11992.038953888659     
   11910.113567983246     
   11828.190055950814     
   12922.427693555574     
   12837.518973987484     
   12752.611321692993     
   12667.704764455380     
   12582.799330465667     
   12497.895048336186     
   12412.991947115401     
   12328.090056302777     
   12243.189405864197     
   13363.102485937357     
   13275.233391090203     
   13187.364951579433     
   13099.497176321875     
   13011.630074451366     
   12923.763655326236     
   12835.897928537279     
   12748.032903915382     
   12660.168591540110     
   13805.637490096160     
   13714.820771677125     
   13624.004390292026     
   13533.188334474658     
   13442.372592842923     
   13351.557154102311     
   13260.742007048004     
   13169.927140569229     
   13079.112543651576     
   14250.024396187924     
   14156.272864582112     
   14062.521428401466     
   13968.770053915709     
   13875.018707394252     
   13781.267355106786     
   13687.515963322683     
   13593.764498311624     
   13500.012926342555     
   10188.603040588263     
   10118.732278807944     
   10048.867768079264     
   9979.0096285869749     
   9909.1579842124229     
   9839.3129626638292     
   9769.4746956120853     
   9699.6433188327937     
   9629.8189723541327     
   10595.349818368595     
   10522.444853600791     
   10449.544674712821     
   10376.649367392289     
   10303.759020200843     
   10230.873724676714     
   10157.993575440476     
   10085.118670306118     
   10012.249110396937     
   11004.232282487845     
   10928.307590905675     
   10852.386402266431     
   10776.468773335457     
   10700.554763009681     
   10624.644432393614     
   10548.737844877940     
   10472.835066223042     
   10396.936164644625     
   11415.193548459238     
   11336.263320382566     
   11257.335502919675     
   11178.410129878221     
   11099.487236547993     
   11020.566859754546     
   10941.649037914080     
   10862.733811090924     
   10783.821221058524     
   11828.190055950814     
   11746.268250385136     
   11664.347961731050     
   11582.429207134355     
   11500.512004679784     
   11418.596373425127     
   11336.682333435996     
   11254.769905822654     
   11172.859112778408     
   12243.189405864197     
   12158.289798278869     
   12073.391020269275     
   11988.493078899035     
   11903.595981743878     
   11818.699736909157     
   11733.804353049934     
   11648.909839390371     
   11564.016205744954     
   12660.168591540110     
   12572.304815549345     
   12484.441395668777     
   12396.578335703860     
   12308.715639668200     
   12220.853311791658     
   12132.991356527429     
   12045.129778561037     
   11957.268582817913     
   13079.112543651576     
   12988.298127255306     
   12897.483814668982     
   12806.669613472259     
   12715.855531280416     
   12625.041575745949     
   12534.227754560216     
   12443.414075454522     
   12352.600546201806     
   13500.012926342555     
   13406.261323349456     
   13312.509800129244     
   13218.758375246322     
   13125.007067265198     
   13031.255894750475     
   12937.504876266230     
   12843.754030377131     
   12750.003375647448     
   9629.8189723541327     
   9560.0017425095448     
   9490.1917317637999     
   9420.3891111031153     
   9350.5940562908800     
   9280.8067480454265     
   9211.0273722264792     
   9141.2561200306809     
   9071.4931881932589     
   10012.249110396937     
   9939.3849772661761     
   9866.5263738251433     
   9793.6734384564970     
   9720.8263132068569     
   9647.9851439245540     
   9575.1500804030657     
   9502.3212765308745     
   9429.4988904498696     
   10396.936164644625     
   10321.041229156557     
   10245.150373008442     
   10169.263704629060     
   10093.381335144273     
   10017.503378478879     
   9941.6299514627372     
   9865.7611739425611     
   9789.8971688970487     
   10783.821221058524     
   10704.911368696135     
   10626.004379271237     
   10547.100333825985     
   10468.199315281010     
   10389.301408506512     
   10310.406700396537     
   10231.515279947022     
   10152.627238336692     
   11172.859112778408     
   11090.950064012373     
   11009.042890717012     
   10927.137649026470     
   10845.234396283000     
   10763.333191083650     
   10681.434093327176     
   10599.537164265250     
   10517.642466554062     
   11564.016205744954     
   11479.123560554439     
   11394.232027488224     
   11309.341640159140     
   11224.452432866778     
   11139.564440623762     
   11054.677699182332     
   10969.792245064476     
   10884.908115590433     
   11957.268582817913     
   11869.407859671479     
   11781.547704860881     
   11693.688131774137     
   11605.829154111294     
   11517.970785897445     
   11430.113041493849     
   11342.255935612246     
   11254.399483327474     
   12352.600546201806     
   12261.787215954095     
   12170.974125533217     
   12080.161270310509     
   11989.348645741164     
   11898.536247367800     
   11807.724070823750     
   11716.912111836747     
   11626.100366232035     
   12750.003375647448     
   12656.252890833757     
   12562.502528635872     
   12468.752268532273     
   12375.002090001915     
   12281.251972523565     
   12187.501895576230     
   12093.751838638133     
   12000.001781188681     
 </DataArray>
 </PointData>
 </Piece>
 <Piece  NumberOfPoints="          1296 "  NumberOfCells="         1024 ">
 <Points>
 <DataArray  type="Float64" NumberOfComponents="3"  format="ascii" >
   0.0000000000000000        0.0000000000000000        0.0000000000000000     
  0.15624999999999997        0.0000000000000000        0.0000000000000000     
  0.31250000000000000        0.0000000000000000        0.0000000000000000     
  0.46875000000000000        0.0000000000000000        0.0000000000000000     
  0.62499999999999989        0.0000000000000000        0.0000000000000000     
  0.78125000000000011        0.0000000000000000        0.0000000000000000     
  0.93750000000000000        0.0000000000000000        0.0000000000000000     
   1.0937499999999998        0.0000000000000000        0.0000000000000000     
   1.2500000000000002        0.0000000000000000        0.0000000000000000     
   0.0000000000000000       0.15624999999999997        0.0000000000000000     
  0.15625000000000000       0.15625000000000000        0.0000000000000000     
  0.31249999999999994       0.15624999999999997        0.0000000000000000     
  0.46875000000000000       0.15625000000000000        0.0000000000000000     
  0.62499999999999989       0.15624999999999997        0.0000000000000000     
  0.78125000000000000       0.15625000000000000        0.0000000000000000     
  0.93750000000000000       0.15625000000000000        0.0000000000000000     
   1.0937499999999998       0.15624999999999997        0.0000000000000000     
   1.2499999999999998       0.15625000000000000        0.0000000000000000     
   0.0000000000000000       0.31250000000000000        0.0000000000000000     
  0.15625000000000000       0.31249999999999994        0.0000000000000000     
  0.31249999999999994       0.31249999999999994        0.0000000000000000     
  0.46875000000000000       0.31250000000000000        0.0000000000000000     
  0.62499999999999989       0.31249999999999994        0.0000000000000000     
  0.78125000000000000       0.31250000000000000        0.0000000000000000     
  0.93750000000000000       0.31250000000000000        0.0000000000000000     
   1.0937499999999998       0.31249999999999994        0.0000000000000000     
   1.2499999999999998       0.31249999999999994        0.0000000000000000     
   0.0000000000000000       0.46875000000000000        0.0000000000000000     
  0.15625000000000000       0.46875000000000000        0.0000000000000000     
  0.31250000000000000       0.46875000000000000        0.0000000000000000     
  0.46875000000000000       0.46875000000000000        0.0000000000000000     
  0.62500000000000000       0.46875000000000000        0.0000000000000000     
  0.78124999999999989       0.46875000000000000        0.0000000000000000     
  0.93750000000000000       0.46875000000000000        0.0000000000000000     
   1.0937500000000000       0.46875000000000000        0.0000000000000000     
   1.2500000000000002       0.46875000000000000        0.0000000000000000     
   0.0000000000000000       0.62499999999999989        0.0000000000000000     
  0.15624999999999994       0.62499999999999989        0.0000000000000000     
  0.31249999999999989       0.62500000000000000        0.0000000000000000     
  0.46875000000000000       0.62499999999999989        0.0000000000000000     
  0.62499999999999978       0.62499999999999989        0.0000000000000000     
  0.78125000000000011       0.62500000000000000        0.0000000000000000     
  0.93750000000000000       0.62499999999999989        0.0000000000000000     
   1.0937500000000000       0.62499999999999978        0.0000000000000000     
   1.2499999999999998       0.62500000000000000        0.0000000000000000     
   0.0000000000000000       0.78125000000000011        0.0000000000000000     
  0.15625000000000000       0.78125000000000000        0.0000000000000000     
  0.31250000000000000       0.78125000000000000        0.0000000000000000     
  0.46875000000000000       0.78125000000000011        0.0000000000000000     
  0.62500000000000000       0.78124999999999989        0.0000000000000000     
  0.78125000000000011       0.78125000000000011        0.0000000000000000     
  0.93750000000000000       0.78125000000000000        0.0000000000000000     
   1.0937500000000000       0.78125000000000000        0.0000000000000000     
   1.2500000000000000       0.78124999999999989        0.0000000000000000     
   0.0000000000000000       0.93750000000000000        0.0000000000000000     
  0.15625000000000003       0.93750000000000000        0.0000000000000000     
  0.31250000000000006       0.93750000000000000        0.0000000000000000     
  0.46875000000000000       0.93750000000000000        0.0000000000000000     
  0.62500000000000000       0.93750000000000000        0.0000000000000000     
  0.78125000000000000       0.93750000000000000        0.0000000000000000     
  0.93750000000000000       0.93750000000000000        0.0000000000000000     
   1.0937499999999998       0.93750000000000000        0.0000000000000000     
   1.2500000000000002       0.93750000000000000        0.0000000000000000     
   0.0000000000000000        1.0937499999999998        0.0000000000000000     
  0.15624999999999994        1.0937499999999998        0.0000000000000000     
  0.31249999999999994        1.0937500000000000        0.0000000000000000     
  0.46875000000000000        1.0937500000000002        0.0000000000000000     
  0.62499999999999989        1.0937500000000002        0.0000000000000000     
  0.78125000000000022        1.0937499999999998        0.0000000000000000     
  0.93750000000000011        1.0937500000000002        0.0000000000000000     
   1.0937500000000004        1.0937500000000004        0.0000000000000000     
   1.2500000000000000        1.0937500000000000        0.0000000000000000     
   0.0000000000000000        1.2500000000000002        0.0000000000000000     
  0.15624999999999997        1.2499999999999998        0.0000000000000000     
  0.31249999999999994        1.2500000000000000        0.0000000000000000     
  0.46875000000000000        1.2500000000000002        0.0000000000000000     
  0.62500000000000000        1.2499999999999998        0.0000000000000000     
  0.78124999999999989        1.2500000000000000        0.0000000000000000     
  0.93750000000000000        1.2500000000000002        0.0000000000000000     
   1.0937500000000000        1.2499999999999998        0.0000000000000000     
   1.2500000000000002        1.2500000000000002        0.0000000000000000     
   1.2500000000000002        0.0000000000000000        0.0000000000000000     
   1.4062499999999998        0.0000000000000000        0.0000000000000000     
   1.5624999999999998        0.0000000000000000        0.0000000000000000     
   1.7187500000000004        0.0000000000000000        0.0000000000000000     
   1.8749999999999998        0.0000000000000000        0.0000000000000000     
   2.0312500000000004        0.0000000000000000        0.0000000000000000     
   2.1874999999999996        0.0000000000000000        0.0000000000000000     
   2.3437500000000000        0.0000000000000000        0.0000000000000000     
   2.5000000000000004        0.0000000000000000        0.0000000000000000     
   1.2499999999999998       0.15625000000000000        0.0000000000000000     
   1.4062500000000000       0.15624999999999997        0.0000000000000000     
   1.5625000000000000       0.15625000000000000        0.0000000000000000     
   1.7187500000000002       0.15625000000000003        0.0000000000000000     
   1.8749999999999998       0.15624999999999997        0.0000000000000000     
   2.0312500000000000       0.15625000000000000        0.0000000000000000     
   2.1875000000000004       0.15625000000000003        0.0000000000000000     
   2.3437499999999996       0.15624999999999997        0.0000000000000000     
   2.5000000000000004       0.15625000000000000        0.0000000000000000     
   1.2499999999999998       0.31249999999999994        0.0000000000000000     
   1.4062500000000000       0.31249999999999994        0.0000000000000000     
   1.5624999999999998       0.31249999999999994        0.0000000000000000     
   1.7187500000000000       0.31249999999999994        0.0000000000000000     
   1.8749999999999996       0.31249999999999994        0.0000000000000000     
   2.0312500000000004       0.31250000000000000        0.0000000000000000     
   2.1875000000000000       0.31250000000000000        0.0000000000000000     
   2.3437500000000000       0.31249999999999994        0.0000000000000000     
   2.5000000000000000       0.31250000000000000        0.0000000000000000     
   1.2500000000000002       0.46875000000000000        0.0000000000000000     
   1.4062500000000000       0.46875000000000000        0.0000000000000000     
   1.5625000000000000       0.46875000000000006        0.0000000000000000     
   1.7187499999999998       0.46875000000000000        0.0000000000000000     
   1.8749999999999998       0.46875000000000000        0.0000000000000000     
   2.0312500000000004       0.46875000000000006        0.0000000000000000     
   2.1874999999999996       0.46875000000000000        0.0000000000000000     
   2.3437500000000000       0.46875000000000000        0.0000000000000000     
   2.5000000000000004       0.46875000000000011        0.0000000000000000     
   1.2499999999999998       0.62500000000000000        0.0000000000000000     
   1.4062500000000000       0.62499999999999989        0.0000000000000000     
   1.5624999999999998       0.62499999999999989        0.0000000000000000     
   1.7187500000000000       0.62500000000000000        0.0000000000000000     
   1.8749999999999998       0.62499999999999989        0.0000000000000000     
   2.0312500000000000       0.62500000000000000        0.0000000000000000     
   2.1875000000000004       0.62500000000000011        0.0000000000000000     
   2.3437499999999996       0.62499999999999989        0.0000000000000000     
   2.4999999999999996       0.62499999999999978        0.0000000000000000     
   1.2500000000000000       0.78124999999999989        0.0000000000000000     
   1.4062500000000000       0.78125000000000011        0.0000000000000000     
   1.5624999999999998       0.78125000000000000        0.0000000000000000     
   1.7187499999999998       0.78124999999999989        0.0000000000000000     
   1.8749999999999998       0.78125000000000000        0.0000000000000000     
   2.0312500000000004       0.78125000000000022        0.0000000000000000     
   2.1874999999999996       0.78124999999999989        0.0000000000000000     
   2.3437500000000000       0.78125000000000000        0.0000000000000000     
   2.5000000000000004       0.78125000000000022        0.0000000000000000     
   1.2500000000000002       0.93750000000000000        0.0000000000000000     
   1.4062500000000000       0.93750000000000000        0.0000000000000000     
   1.5625000000000000       0.93750000000000000        0.0000000000000000     
   1.7187500000000002       0.93750000000000000        0.0000000000000000     
   1.8750000000000000       0.93750000000000000        0.0000000000000000     
   2.0312500000000004       0.93750000000000011        0.0000000000000000     
   2.1874999999999996       0.93750000000000000        0.0000000000000000     
   2.3437500000000000       0.93750000000000000        0.0000000000000000     
   2.5000000000000004       0.93750000000000011        0.0000000000000000     
   1.2500000000000000        1.0937500000000000        0.0000000000000000     
   1.4062500000000000        1.0937500000000000        0.0000000000000000     
   1.5625000000000002        1.0937500000000000        0.0000000000000000     
   1.7187499999999998        1.0937500000000000        0.0000000000000000     
   1.8749999999999998        1.0937500000000000        0.0000000000000000     
   2.0312500000000000        1.0937499999999998        0.0000000000000000     
   2.1875000000000009        1.0937500000000000        0.0000000000000000     
   2.3437499999999996        1.0937500000000000        0.0000000000000000     
   2.4999999999999996        1.0937499999999998        0.0000000000000000     
   1.2500000000000002        1.2500000000000002        0.0000000000000000     
   1.4062500000000000        1.2499999999999998        0.0000000000000000     
   1.5625000000000004        1.2500000000000002        0.0000000000000000     
   1.7187500000000000        1.2500000000000000        0.0000000000000000     
   1.8750000000000000        1.2499999999999998        0.0000000000000000     
   2.0312500000000000        1.2500000000000002        0.0000000000000000     
   2.1875000000000000        1.2500000000000002        0.0000000000000000     
   2.3437500000000004        1.2499999999999998        0.0000000000000000     
   2.5000000000000004        1.2500000000000002        0.0000000000000000     
   2.5000000000000004        0.0000000000000000        0.0000000000000000     
   2.6562499999999996        0.0000000000000000        0.0000000000000000     
   2.8125000000000000        0.0000000000000000        0.0000000000000000     
   2.9687500000000004        0.0000000000000000        0.0000000000000000     
   3.1249999999999996        0.0000000000000000        0.0000000000000000     
   3.2812500000000004        0.0000000000000000        0.0000000000000000     
   3.4375000000000004        0.0000000000000000        0.0000000000000000     
   3.5937499999999996        0.0000000000000000        0.0000000000000000     
   3.7500000000000000        0.0000000000000000        0.0000000000000000     
   2.5000000000000004       0.15625000000000000        0.0000000000000000     
   2.6562500000000004       0.15625000000000000        0.0000000000000000     
   2.8125000000000000       0.15624999999999997        0.0000000000000000     
   2.9687500000000004       0.15625000000000000        0.0000000000000000     
   3.1250000000000009       0.15625000000000000        0.0000000000000000     
   3.2812500000000000       0.15625000000000000        0.0000000000000000     
   3.4375000000000009       0.15625000000000000        0.0000000000000000     
   3.5937500000000009       0.15625000000000000        0.0000000000000000     
   3.7500000000000004       0.15625000000000000        0.0000000000000000     
   2.5000000000000000       0.31250000000000000        0.0000000000000000     
   2.6562500000000000       0.31249999999999994        0.0000000000000000     
   2.8125000000000000       0.31249999999999994        0.0000000000000000     
   2.9687500000000000       0.31250000000000000        0.0000000000000000     
   3.1250000000000000       0.31249999999999994        0.0000000000000000     
   3.2812499999999996       0.31249999999999994        0.0000000000000000     
   3.4375000000000000       0.31250000000000000        0.0000000000000000     
   3.5937499999999996       0.31249999999999994        0.0000000000000000     
   3.7500000000000000       0.31249999999999994        0.0000000000000000     
   2.5000000000000004       0.46875000000000011        0.0000000000000000     
   2.6562499999999996       0.46875000000000000        0.0000000000000000     
   2.8125000000000000       0.46875000000000000        0.0000000000000000     
   2.9687500000000004       0.46875000000000000        0.0000000000000000     
   3.1249999999999996       0.46875000000000000        0.0000000000000000     
   3.2812500000000000       0.46875000000000000        0.0000000000000000     
   3.4375000000000004       0.46875000000000006        0.0000000000000000     
   3.5937499999999996       0.46875000000000000        0.0000000000000000     
   3.7500000000000000       0.46875000000000000        0.0000000000000000     
   2.4999999999999996       0.62499999999999978        0.0000000000000000     
   2.6562500000000009       0.62500000000000022        0.0000000000000000     
   2.8125000000000000       0.62499999999999989        0.0000000000000000     
   2.9687499999999996       0.62499999999999978        0.0000000000000000     
   3.1250000000000013       0.62500000000000022        0.0000000000000000     
   3.2812500000000000       0.62500000000000000        0.0000000000000000     
   3.4374999999999996       0.62499999999999978        0.0000000000000000     
   3.5937500000000013       0.62500000000000011        0.0000000000000000     
   3.7500000000000004       0.62500000000000000        0.0000000000000000     
   2.5000000000000004       0.78125000000000022        0.0000000000000000     
   2.6562499999999996       0.78125000000000000        0.0000000000000000     
   2.8125000000000000       0.78125000000000000        0.0000000000000000     
   2.9687500000000004       0.78125000000000011        0.0000000000000000     
   3.1250000000000000       0.78125000000000000        0.0000000000000000     
   3.2812500000000009       0.78125000000000022        0.0000000000000000     
   3.4375000000000000       0.78125000000000000        0.0000000000000000     
   3.5937500000000000       0.78125000000000000        0.0000000000000000     
   3.7500000000000004       0.78125000000000022        0.0000000000000000     
   2.5000000000000004       0.93750000000000011        0.0000000000000000     
   2.6562499999999996       0.93750000000000000        0.0000000000000000     
   2.8125000000000000       0.93750000000000000        0.0000000000000000     
   2.9687500000000000       0.93750000000000000        0.0000000000000000     
   3.1249999999999996       0.93750000000000000        0.0000000000000000     
   3.2812500000000000       0.93750000000000000        0.0000000000000000     
   3.4375000000000009       0.93750000000000000        0.0000000000000000     
   3.5937499999999996       0.93750000000000000        0.0000000000000000     
   3.7500000000000000       0.93750000000000000        0.0000000000000000     
   2.4999999999999996        1.0937499999999998        0.0000000000000000     
   2.6562500000000009        1.0937500000000002        0.0000000000000000     
   2.8125000000000000        1.0937499999999998        0.0000000000000000     
   2.9687499999999996        1.0937499999999998        0.0000000000000000     
   3.1250000000000009        1.0937500000000002        0.0000000000000000     
   3.2812500000000000        1.0937500000000000        0.0000000000000000     
   3.4374999999999996        1.0937499999999998        0.0000000000000000     
   3.5937500000000013        1.0937500000000002        0.0000000000000000     
   3.7500000000000000        1.0937500000000000        0.0000000000000000     
   2.5000000000000004        1.2500000000000002        0.0000000000000000     
   2.6562500000000004        1.2500000000000000        0.0000000000000000     
   2.8125000000000000        1.2500000000000002        0.0000000000000000     
   2.9687500000000004        1.2500000000000000        0.0000000000000000     
   3.1249999999999996        1.2500000000000000        0.0000000000000000     
   3.2812500000000000        1.2500000000000000        0.0000000000000000     
   3.4375000000000000        1.2500000000000000        0.0000000000000000     
   3.5937500000000000        1.2500000000000000        0.0000000000000000     
   3.7500000000000000        1.2500000000000002        0.0000000000000000     
   3.7500000000000000        0.0000000000000000        0.0000000000000000     
   3.9062500000000000        0.0000000000000000        0.0000000000000000     
   4.0625000000000000        0.0000000000000000        0.0000000000000000     
   4.2187500000000000        0.0000000000000000        0.0000000000000000     
   4.3749999999999991        0.0000000000000000        0.0000000000000000     
   4.5312500000000000        0.0000000000000000        0.0000000000000000     
   4.6875000000000000        0.0000000000000000        0.0000000000000000     
   4.8437499999999991        0.0000000000000000        0.0000000000000000     
   5.0000000000000000        0.0000000000000000        0.0000000000000000     
   3.7500000000000004       0.15625000000000000        0.0000000000000000     
   3.9062500000000004       0.15625000000000000        0.0000000000000000     
   4.0625000000000000       0.15624999999999997        0.0000000000000000     
   4.2187499999999991       0.15625000000000000        0.0000000000000000     
   4.3750000000000009       0.15625000000000000        0.0000000000000000     
   4.5312500000000000       0.15625000000000000        0.0000000000000000     
   4.6874999999999991       0.15625000000000000        0.0000000000000000     
   4.8437500000000000       0.15624999999999997        0.0000000000000000     
   5.0000000000000000       0.15624999999999997        0.0000000000000000     
   3.7500000000000000       0.31249999999999994        0.0000000000000000     
   3.9062500000000000       0.31250000000000000        0.0000000000000000     
   4.0625000000000000       0.31250000000000000        0.0000000000000000     
   4.2187500000000000       0.31250000000000000        0.0000000000000000     
   4.3750000000000000       0.31250000000000000        0.0000000000000000     
   4.5312500000000000       0.31250000000000000        0.0000000000000000     
   4.6874999999999991       0.31250000000000000        0.0000000000000000     
   4.8437500000000000       0.31249999999999994        0.0000000000000000     
   5.0000000000000000       0.31250000000000000        0.0000000000000000     
   3.7500000000000000       0.46875000000000000        0.0000000000000000     
   3.9062500000000000       0.46875000000000000        0.0000000000000000     
   4.0625000000000000       0.46875000000000000        0.0000000000000000     
   4.2187500000000000       0.46875000000000000        0.0000000000000000     
   4.3750000000000000       0.46875000000000000        0.0000000000000000     
   4.5312500000000000       0.46875000000000000        0.0000000000000000     
   4.6875000000000000       0.46875000000000000        0.0000000000000000     
   4.8437500000000000       0.46875000000000000        0.0000000000000000     
   5.0000000000000000       0.46875000000000000        0.0000000000000000     
   3.7500000000000004       0.62500000000000000        0.0000000000000000     
   3.9062500000000004       0.62500000000000000        0.0000000000000000     
   4.0625000000000000       0.62499999999999989        0.0000000000000000     
   4.2187499999999991       0.62500000000000000        0.0000000000000000     
   4.3750000000000000       0.62500000000000000        0.0000000000000000     
   4.5312500000000000       0.62500000000000000        0.0000000000000000     
   4.6874999999999991       0.62500000000000000        0.0000000000000000     
   4.8437500000000000       0.62499999999999989        0.0000000000000000     
   5.0000000000000000       0.62499999999999989        0.0000000000000000     
   3.7500000000000004       0.78125000000000022        0.0000000000000000     
   3.9062500000000004       0.78125000000000000        0.0000000000000000     
   4.0625000000000000       0.78125000000000000        0.0000000000000000     
   4.2187500000000000       0.78125000000000000        0.0000000000000000     
   4.3749999999999991       0.78125000000000000        0.0000000000000000     
   4.5312500000000000       0.78125000000000011        0.0000000000000000     
   4.6875000000000000       0.78125000000000011        0.0000000000000000     
   4.8437500000000000       0.78125000000000011        0.0000000000000000     
   5.0000000000000000       0.78125000000000011        0.0000000000000000     
   3.7500000000000000       0.93750000000000000        0.0000000000000000     
   3.9062500000000000       0.93750000000000000        0.0000000000000000     
   4.0625000000000000       0.93750000000000000        0.0000000000000000     
   4.2187500000000000       0.93750000000000000        0.0000000000000000     
   4.3750000000000000       0.93750000000000000        0.0000000000000000     
   4.5312500000000000       0.93750000000000000        0.0000000000000000     
   4.6875000000000000       0.93750000000000000        0.0000000000000000     
   4.8437500000000000       0.93750000000000000        0.0000000000000000     
   5.0000000000000000       0.93750000000000000        0.0000000000000000     
   3.7500000000000000        1.0937500000000000        0.0000000000000000     
   3.9062500000000000        1.0937500000000000        0.0000000000000000     
   4.0625000000000000        1.0937500000000000        0.0000000000000000     
   4.2187500000000000        1.0937500000000000        0.0000000000000000     
   4.3750000000000009        1.0937500000000000        0.0000000000000000     
   4.5312500000000000        1.0937500000000000        0.0000000000000000     
   4.6874999999999991        1.0937499999999998        0.0000000000000000     
   4.8437500000000000        1.0937500000000000        0.0000000000000000     
   5.0000000000000000        1.0937499999999998        0.0000000000000000     
   3.7500000000000000        1.2500000000000002        0.0000000000000000     
   3.9062500000000000        1.2500000000000000        0.0000000000000000     
   4.0624999999999991        1.2500000000000000        0.0000000000000000     
   4.2187500000000000        1.2499999999999998        0.0000000000000000     
   4.3750000000000000        1.2500000000000000        0.0000000000000000     
   4.5312499999999991        1.2500000000000000        0.0000000000000000     
   4.6874999999999991        1.2499999999999998        0.0000000000000000     
   4.8437500000000009        1.2500000000000000        0.0000000000000000     
   5.0000000000000009        1.2500000000000002        0.0000000000000000     
   0.0000000000000000        1.2500000000000002        0.0000000000000000     
  0.15624999999999997        1.2499999999999998        0.0000000000000000     
  0.31249999999999994        1.2500000000000000        0.0000000000000000     
  0.46875000000000000        1.2500000000000002        0.0000000000000000     
  0.62500000000000000        1.2499999999999998        0.0000000000000000     
  0.78124999999999989        1.2500000000000000        0.0000000000000000     
  0.93750000000000000        1.2500000000000002        0.0000000000000000     
   1.0937500000000000        1.2499999999999998        0.0000000000000000     
   1.2500000000000002        1.2500000000000002        0.0000000000000000     
   0.0000000000000000        1.4062499999999998        0.0000000000000000     
  0.15624999999999997        1.4062500000000000        0.0000000000000000     
  0.31249999999999994        1.4062499999999998        0.0000000000000000     
  0.46875000000000000        1.4062499999999998        0.0000000000000000     
  0.62499999999999989        1.4062500000000000        0.0000000000000000     
  0.78125000000000011        1.4062500000000000        0.0000000000000000     
  0.93750000000000000        1.4062499999999998        0.0000000000000000     
   1.0937500000000000        1.4062500000000000        0.0000000000000000     
   1.2499999999999998        1.4062499999999998        0.0000000000000000     
   0.0000000000000000        1.5624999999999998        0.0000000000000000     
  0.15625000000000000        1.5624999999999996        0.0000000000000000     
  0.31250000000000000        1.5625000000000000        0.0000000000000000     
  0.46875000000000000        1.5625000000000000        0.0000000000000000     
  0.62500000000000000        1.5625000000000002        0.0000000000000000     
  0.78124999999999989        1.5624999999999998        0.0000000000000000     
  0.93750000000000000        1.5625000000000000        0.0000000000000000     
   1.0937500000000000        1.5625000000000002        0.0000000000000000     
   1.2500000000000000        1.5625000000000000        0.0000000000000000     
   0.0000000000000000        1.7187500000000004        0.0000000000000000     
  0.15625000000000003        1.7187500000000004        0.0000000000000000     
  0.31250000000000000        1.7187499999999998        0.0000000000000000     
  0.46875000000000000        1.7187500000000002        0.0000000000000000     
  0.62500000000000011        1.7187499999999998        0.0000000000000000     
  0.78124999999999978        1.7187499999999998        0.0000000000000000     
  0.93749999999999989        1.7187500000000000        0.0000000000000000     
   1.0937499999999998        1.7187500000000000        0.0000000000000000     
   1.2500000000000002        1.7187500000000000        0.0000000000000000     
   0.0000000000000000        1.8749999999999998        0.0000000000000000     
  0.15624999999999994        1.8750000000000000        0.0000000000000000     
  0.31249999999999994        1.8749999999999998        0.0000000000000000     
  0.46875000000000000        1.8749999999999998        0.0000000000000000     
  0.62499999999999978        1.8749999999999998        0.0000000000000000     
  0.78125000000000011        1.8749999999999998        0.0000000000000000     
  0.93750000000000000        1.8749999999999998        0.0000000000000000     
   1.0937500000000002        1.8750000000000002        0.0000000000000000     
   1.2499999999999998        1.8750000000000000        0.0000000000000000     
   0.0000000000000000        2.0312500000000004        0.0000000000000000     
  0.15624999999999997        2.0312500000000000        0.0000000000000000     
  0.31250000000000000        2.0312500000000004        0.0000000000000000     
  0.46875000000000000        2.0312500000000000        0.0000000000000000     
  0.62499999999999989        2.0312499999999991        0.0000000000000000     
  0.78125000000000011        2.0312500000000004        0.0000000000000000     
  0.93750000000000000        2.0312500000000000        0.0000000000000000     
   1.0937500000000000        2.0312499999999996        0.0000000000000000     
   1.2500000000000000        2.0312500000000004        0.0000000000000000     
   0.0000000000000000        2.1874999999999996        0.0000000000000000     
  0.15625000000000003        2.1875000000000004        0.0000000000000000     
  0.31250000000000000        2.1874999999999996        0.0000000000000000     
  0.46875000000000000        2.1874999999999996        0.0000000000000000     
  0.62500000000000022        2.1875000000000009        0.0000000000000000     
  0.78124999999999978        2.1874999999999996        0.0000000000000000     
  0.93750000000000000        2.1875000000000000        0.0000000000000000     
   1.0937499999999998        2.1875000000000009        0.0000000000000000     
   1.2500000000000002        2.1875000000000000        0.0000000000000000     
   0.0000000000000000        2.3437500000000000        0.0000000000000000     
  0.15624999999999994        2.3437499999999996        0.0000000000000000     
  0.31249999999999989        2.3437500000000000        0.0000000000000000     
  0.46875000000000011        2.3437500000000004        0.0000000000000000     
  0.62500000000000000        2.3437500000000000        0.0000000000000000     
  0.78125000000000011        2.3437500000000000        0.0000000000000000     
  0.93750000000000011        2.3437500000000004        0.0000000000000000     
   1.0937500000000002        2.3437500000000000        0.0000000000000000     
   1.2500000000000000        2.3437500000000004        0.0000000000000000     
   0.0000000000000000        2.5000000000000004        0.0000000000000000     
  0.15624999999999997        2.4999999999999996        0.0000000000000000     
  0.31250000000000000        2.5000000000000004        0.0000000000000000     
  0.46875000000000011        2.5000000000000004        0.0000000000000000     
  0.62499999999999989        2.4999999999999996        0.0000000000000000     
  0.78125000000000011        2.5000000000000004        0.0000000000000000     
  0.93750000000000011        2.5000000000000004        0.0000000000000000     
   1.0937500000000002        2.5000000000000000        0.0000000000000000     
   1.2500000000000000        2.5000000000000004        0.0000000000000000     
   1.2500000000000002        1.2500000000000002        0.0000000000000000     
   1.4062500000000000        1.2499999999999998        0.0000000000000000     
   1.5625000000000004        1.2500000000000002        0.0000000000000000     
   1.7187500000000000        1.2500000000000000        0.0000000000000000     
   1.8750000000000000        1.2499999999999998        0.0000000000000000     
   2.0312500000000000        1.2500000000000002        0.0000000000000000     
   2.1875000000000000        1.2500000000000002        0.0000000000000000     
   2.3437500000000004        1.2499999999999998        0.0000000000000000     
   2.5000000000000004        1.2500000000000002        0.0000000000000000     
   1.2499999999999998        1.4062499999999998        0.0000000000000000     
   1.4062500000000000        1.4062500000000000        0.0000000000000000     
   1.5625000000000000        1.4062499999999998        0.0000000000000000     
   1.7187500000000000        1.4062500000000000        0.0000000000000000     
   1.8750000000000000        1.4062500000000000        0.0000000000000000     
   2.0312500000000000        1.4062499999999998        0.0000000000000000     
   2.1875000000000004        1.4062499999999998        0.0000000000000000     
   2.3437500000000000        1.4062500000000000        0.0000000000000000     
   2.5000000000000000        1.4062499999999998        0.0000000000000000     
   1.2500000000000000        1.5625000000000000        0.0000000000000000     
   1.4062500000000000        1.5625000000000002        0.0000000000000000     
   1.5625000000000000        1.5625000000000000        0.0000000000000000     
   1.7187500000000004        1.5625000000000004        0.0000000000000000     
   1.8750000000000000        1.5625000000000000        0.0000000000000000     
   2.0312500000000000        1.5625000000000000        0.0000000000000000     
   2.1875000000000000        1.5624999999999998        0.0000000000000000     
   2.3437500000000004        1.5625000000000002        0.0000000000000000     
   2.5000000000000004        1.5625000000000002        0.0000000000000000     
   1.2500000000000002        1.7187500000000000        0.0000000000000000     
   1.4062500000000000        1.7187500000000002        0.0000000000000000     
   1.5625000000000004        1.7187500000000004        0.0000000000000000     
   1.7187500000000000        1.7187500000000002        0.0000000000000000     
   1.8750000000000000        1.7187500000000000        0.0000000000000000     
   2.0312500000000000        1.7187500000000002        0.0000000000000000     
   2.1874999999999996        1.7187500000000004        0.0000000000000000     
   2.3437500000000000        1.7187500000000000        0.0000000000000000     
   2.5000000000000000        1.7187500000000000        0.0000000000000000     
   1.2499999999999998        1.8750000000000000        0.0000000000000000     
   1.4062500000000000        1.8750000000000000        0.0000000000000000     
   1.5624999999999998        1.8749999999999998        0.0000000000000000     
   1.7187499999999996        1.8749999999999998        0.0000000000000000     
   1.8750000000000000        1.8749999999999998        0.0000000000000000     
   2.0312500000000000        1.8749999999999998        0.0000000000000000     
   2.1875000000000004        1.8749999999999998        0.0000000000000000     
   2.3437500000000000        1.8750000000000000        0.0000000000000000     
   2.5000000000000000        1.8749999999999998        0.0000000000000000     
   1.2500000000000000        2.0312500000000004        0.0000000000000000     
   1.4062500000000000        2.0312499999999996        0.0000000000000000     
   1.5625000000000000        2.0312500000000000        0.0000000000000000     
   1.7187500000000000        2.0312500000000000        0.0000000000000000     
   1.8749999999999998        2.0312499999999996        0.0000000000000000     
   2.0312500000000004        2.0312500000000004        0.0000000000000000     
   2.1875000000000000        2.0312500000000000        0.0000000000000000     
   2.3437499999999996        2.0312499999999996        0.0000000000000000     
   2.5000000000000004        2.0312500000000004        0.0000000000000000     
   1.2500000000000002        2.1875000000000000        0.0000000000000000     
   1.4062500000000000        2.1875000000000009        0.0000000000000000     
   1.5625000000000004        2.1875000000000009        0.0000000000000000     
   1.7187500000000002        2.1875000000000000        0.0000000000000000     
   1.8750000000000000        2.1875000000000009        0.0000000000000000     
   2.0312500000000004        2.1875000000000009        0.0000000000000000     
   2.1874999999999991        2.1874999999999996        0.0000000000000000     
   2.3437500000000004        2.1875000000000004        0.0000000000000000     
   2.5000000000000004        2.1875000000000004        0.0000000000000000     
   1.2500000000000000        2.3437500000000004        0.0000000000000000     
   1.4062500000000000        2.3437499999999996        0.0000000000000000     
   1.5625000000000000        2.3437499999999996        0.0000000000000000     
   1.7187499999999998        2.3437500000000000        0.0000000000000000     
   1.8750000000000000        2.3437499999999996        0.0000000000000000     
   2.0312500000000000        2.3437499999999996        0.0000000000000000     
   2.1875000000000009        2.3437500000000000        0.0000000000000000     
   2.3437500000000000        2.3437500000000000        0.0000000000000000     
   2.5000000000000000        2.3437499999999996        0.0000000000000000     
   1.2500000000000000        2.5000000000000004        0.0000000000000000     
   1.4062499999999998        2.4999999999999996        0.0000000000000000     
   1.5625000000000004        2.5000000000000004        0.0000000000000000     
   1.7187500000000000        2.5000000000000000        0.0000000000000000     
   1.8749999999999998        2.4999999999999996        0.0000000000000000     
   2.0312500000000004        2.5000000000000000        0.0000000000000000     
   2.1875000000000004        2.5000000000000004        0.0000000000000000     
   2.3437500000000000        2.5000000000000000        0.0000000000000000     
   2.5000000000000004        2.5000000000000004        0.0000000000000000     
   2.5000000000000004        1.2500000000000002        0.0000000000000000     
   2.6562500000000004        1.2500000000000000        0.0000000000000000     
   2.8125000000000000        1.2500000000000002        0.0000000000000000     
   2.9687500000000004        1.2500000000000000        0.0000000000000000     
   3.1249999999999996        1.2500000000000000        0.0000000000000000     
   3.2812500000000000        1.2500000000000000        0.0000000000000000     
   3.4375000000000000        1.2500000000000000        0.0000000000000000     
   3.5937500000000000        1.2500000000000000        0.0000000000000000     
   3.7500000000000000        1.2500000000000002        0.0000000000000000     
   2.5000000000000000        1.4062499999999998        0.0000000000000000     
   2.6562500000000004        1.4062500000000000        0.0000000000000000     
   2.8125000000000000        1.4062499999999998        0.0000000000000000     
   2.9687499999999996        1.4062499999999998        0.0000000000000000     
   3.1250000000000004        1.4062500000000000        0.0000000000000000     
   3.2812499999999996        1.4062499999999998        0.0000000000000000     
   3.4375000000000000        1.4062499999999998        0.0000000000000000     
   3.5937500000000004        1.4062500000000000        0.0000000000000000     
   3.7500000000000000        1.4062499999999998        0.0000000000000000     
   2.5000000000000004        1.5625000000000002        0.0000000000000000     
   2.6562500000000000        1.5625000000000000        0.0000000000000000     
   2.8125000000000000        1.5625000000000000        0.0000000000000000     
   2.9687500000000000        1.5625000000000000        0.0000000000000000     
   3.1250000000000000        1.5624999999999998        0.0000000000000000     
   3.2812500000000000        1.5625000000000000        0.0000000000000000     
   3.4375000000000000        1.5625000000000000        0.0000000000000000     
   3.5937500000000004        1.5625000000000002        0.0000000000000000     
   3.7500000000000000        1.5625000000000000        0.0000000000000000     
   2.5000000000000000        1.7187500000000000        0.0000000000000000     
   2.6562499999999996        1.7187500000000000        0.0000000000000000     
   2.8125000000000000        1.7187500000000002        0.0000000000000000     
   2.9687500000000000        1.7187500000000002        0.0000000000000000     
   3.1250000000000000        1.7187500000000000        0.0000000000000000     
   3.2812500000000000        1.7187500000000002        0.0000000000000000     
   3.4375000000000000        1.7187500000000002        0.0000000000000000     
   3.5937500000000000        1.7187500000000002        0.0000000000000000     
   3.7499999999999996        1.7187500000000000        0.0000000000000000     
   2.5000000000000000        1.8749999999999998        0.0000000000000000     
   2.6562500000000004        1.8750000000000000        0.0000000000000000     
   2.8125000000000000        1.8750000000000000        0.0000000000000000     
   2.9687499999999996        1.8749999999999998        0.0000000000000000     
   3.1250000000000004        1.8750000000000000        0.0000000000000000     
   3.2812500000000004        1.8750000000000000        0.0000000000000000     
   3.4374999999999996        1.8749999999999998        0.0000000000000000     
   3.5937500000000004        1.8750000000000002        0.0000000000000000     
   3.7499999999999991        1.8749999999999998        0.0000000000000000     
   2.5000000000000004        2.0312500000000004        0.0000000000000000     
   2.6562500000000000        2.0312500000000004        0.0000000000000000     
   2.8125000000000000        2.0312500000000000        0.0000000000000000     
   2.9687500000000000        2.0312500000000000        0.0000000000000000     
   3.1250000000000000        2.0312500000000004        0.0000000000000000     
   3.2812500000000000        2.0312500000000000        0.0000000000000000     
   3.4375000000000000        2.0312500000000000        0.0000000000000000     
   3.5937500000000000        2.0312500000000004        0.0000000000000000     
   3.7500000000000004        2.0312500000000004        0.0000000000000000     
   2.5000000000000004        2.1875000000000004        0.0000000000000000     
   2.6562500000000000        2.1875000000000009        0.0000000000000000     
   2.8124999999999996        2.1874999999999996        0.0000000000000000     
   2.9687500000000004        2.1875000000000004        0.0000000000000000     
   3.1250000000000000        2.1875000000000004        0.0000000000000000     
   3.2812500000000000        2.1875000000000000        0.0000000000000000     
   3.4375000000000004        2.1875000000000004        0.0000000000000000     
   3.5937500000000000        2.1875000000000009        0.0000000000000000     
   3.7500000000000000        2.1875000000000000        0.0000000000000000     
   2.5000000000000000        2.3437499999999996        0.0000000000000000     
   2.6562500000000009        2.3437500000000000        0.0000000000000000     
   2.8125000000000000        2.3437500000000004        0.0000000000000000     
   2.9687499999999996        2.3437499999999996        0.0000000000000000     
   3.1250000000000009        2.3437500000000000        0.0000000000000000     
   3.2812500000000000        2.3437500000000000        0.0000000000000000     
   3.4375000000000000        2.3437499999999996        0.0000000000000000     
   3.5937500000000013        2.3437500000000000        0.0000000000000000     
   3.7499999999999996        2.3437500000000000        0.0000000000000000     
   2.5000000000000004        2.5000000000000004        0.0000000000000000     
   2.6562500000000004        2.5000000000000000        0.0000000000000000     
   2.8125000000000004        2.5000000000000004        0.0000000000000000     
   2.9687500000000000        2.5000000000000000        0.0000000000000000     
   3.1250000000000000        2.5000000000000000        0.0000000000000000     
   3.2812500000000004        2.5000000000000000        0.0000000000000000     
   3.4375000000000009        2.5000000000000004        0.0000000000000000     
   3.5937500000000004        2.5000000000000000        0.0000000000000000     
   3.7500000000000004        2.5000000000000004        0.0000000000000000     
   3.7500000000000000        1.2500000000000002        0.0000000000000000     
   3.9062500000000000        1.2500000000000000        0.0000000000000000     
   4.0624999999999991        1.2500000000000000        0.0000000000000000     
   4.2187500000000000        1.2499999999999998        0.0000000000000000     
   4.3750000000000000        1.2500000000000000        0.0000000000000000     
   4.5312499999999991        1.2500000000000000        0.0000000000000000     
   4.6874999999999991        1.2499999999999998        0.0000000000000000     
   4.8437500000000009        1.2500000000000000        0.0000000000000000     
   5.0000000000000009        1.2500000000000002        0.0000000000000000     
   3.7500000000000000        1.4062499999999998        0.0000000000000000     
   3.9062500000000000        1.4062500000000000        0.0000000000000000     
   4.0625000000000000        1.4062500000000000        0.0000000000000000     
   4.2187500000000000        1.4062499999999998        0.0000000000000000     
   4.3750000000000000        1.4062500000000000        0.0000000000000000     
   4.5312500000000000        1.4062499999999998        0.0000000000000000     
   4.6875000000000000        1.4062499999999998        0.0000000000000000     
   4.8437500000000000        1.4062500000000000        0.0000000000000000     
   5.0000000000000000        1.4062499999999998        0.0000000000000000     
   3.7500000000000000        1.5625000000000000        0.0000000000000000     
   3.9062500000000000        1.5625000000000000        0.0000000000000000     
   4.0625000000000000        1.5625000000000000        0.0000000000000000     
   4.2187500000000000        1.5625000000000000        0.0000000000000000     
   4.3750000000000000        1.5625000000000000        0.0000000000000000     
   4.5312500000000000        1.5624999999999998        0.0000000000000000     
   4.6875000000000000        1.5625000000000000        0.0000000000000000     
   4.8437500000000000        1.5624999999999996        0.0000000000000000     
   4.9999999999999991        1.5624999999999998        0.0000000000000000     
   3.7499999999999996        1.7187500000000000        0.0000000000000000     
   3.9062500000000000        1.7187500000000000        0.0000000000000000     
   4.0625000000000000        1.7187500000000002        0.0000000000000000     
   4.2187500000000000        1.7187499999999998        0.0000000000000000     
   4.3750000000000009        1.7187500000000000        0.0000000000000000     
   4.5312499999999991        1.7187499999999998        0.0000000000000000     
   4.6874999999999991        1.7187499999999998        0.0000000000000000     
   4.8437500000000009        1.7187500000000004        0.0000000000000000     
   5.0000000000000009        1.7187500000000004        0.0000000000000000     
   3.7499999999999991        1.8749999999999998        0.0000000000000000     
   3.9062499999999996        1.8750000000000000        0.0000000000000000     
   4.0625000000000000        1.8749999999999998        0.0000000000000000     
   4.2187500000000000        1.8749999999999998        0.0000000000000000     
   4.3750000000000000        1.8750000000000000        0.0000000000000000     
   4.5312500000000000        1.8749999999999998        0.0000000000000000     
   4.6875000000000000        1.8749999999999998        0.0000000000000000     
   4.8437500000000000        1.8750000000000000        0.0000000000000000     
   5.0000000000000000        1.8749999999999998        0.0000000000000000     
   3.7500000000000004        2.0312500000000004        0.0000000000000000     
   3.9062500000000000        2.0312500000000004        0.0000000000000000     
   4.0625000000000009        2.0312500000000004        0.0000000000000000     
   4.2187499999999991        2.0312500000000000        0.0000000000000000     
   4.3749999999999991        2.0312500000000000        0.0000000000000000     
   4.5312500000000000        2.0312500000000004        0.0000000000000000     
   4.6875000000000009        2.0312500000000004        0.0000000000000000     
   4.8437500000000000        2.0312500000000004        0.0000000000000000     
   5.0000000000000009        2.0312500000000004        0.0000000000000000     
   3.7500000000000000        2.1875000000000000        0.0000000000000000     
   3.9062500000000009        2.1875000000000004        0.0000000000000000     
   4.0625000000000000        2.1875000000000000        0.0000000000000000     
   4.2187500000000000        2.1874999999999996        0.0000000000000000     
   4.3750000000000000        2.1875000000000004        0.0000000000000000     
   4.5312500000000000        2.1874999999999996        0.0000000000000000     
   4.6875000000000000        2.1874999999999996        0.0000000000000000     
   4.8437500000000000        2.1875000000000009        0.0000000000000000     
   5.0000000000000000        2.1874999999999996        0.0000000000000000     
   3.7499999999999996        2.3437500000000000        0.0000000000000000     
   3.9062500000000000        2.3437500000000000        0.0000000000000000     
   4.0625000000000000        2.3437500000000004        0.0000000000000000     
   4.2187500000000000        2.3437500000000000        0.0000000000000000     
   4.3750000000000009        2.3437500000000000        0.0000000000000000     
   4.5312500000000000        2.3437500000000000        0.0000000000000000     
   4.6875000000000000        2.3437500000000000        0.0000000000000000     
   4.8437500000000000        2.3437499999999996        0.0000000000000000     
   5.0000000000000000        2.3437500000000000        0.0000000000000000     
   3.7500000000000004        2.5000000000000004        0.0000000000000000     
   3.9062500000000000        2.5000000000000000        0.0000000000000000     
   4.0625000000000000        2.5000000000000000        0.0000000000000000     
   4.2187500000000000        2.5000000000000004        0.0000000000000000     
   4.3750000000000000        2.5000000000000000        0.0000000000000000     
   4.5312500000000009        2.5000000000000004        0.0000000000000000     
   4.6875000000000009        2.5000000000000004        0.0000000000000000     
   4.8437500000000000        2.4999999999999996        0.0000000000000000     
   5.0000000000000018        2.5000000000000004        0.0000000000000000     
   0.0000000000000000        2.5000000000000004        0.0000000000000000     
  0.15624999999999997        2.4999999999999996        0.0000000000000000     
  0.31250000000000000        2.5000000000000004        0.0000000000000000     
  0.46875000000000011        2.5000000000000004        0.0000000000000000     
  0.62499999999999989        2.4999999999999996        0.0000000000000000     
  0.78125000000000011        2.5000000000000004        0.0000000000000000     
  0.93750000000000011        2.5000000000000004        0.0000000000000000     
   1.0937500000000002        2.5000000000000000        0.0000000000000000     
   1.2500000000000000        2.5000000000000004        0.0000000000000000     
   0.0000000000000000        2.6562499999999996        0.0000000000000000     
  0.15625000000000003        2.6562500000000009        0.0000000000000000     
  0.31250000000000000        2.6562499999999996        0.0000000000000000     
  0.46875000000000000        2.6562499999999996        0.0000000000000000     
  0.62500000000000011        2.6562500000000009        0.0000000000000000     
  0.78124999999999989        2.6562499999999996        0.0000000000000000     
  0.93750000000000000        2.6562500000000000        0.0000000000000000     
   1.0937500000000000        2.6562500000000009        0.0000000000000000     
   1.2500000000000002        2.6562500000000004        0.0000000000000000     
   0.0000000000000000        2.8125000000000000        0.0000000000000000     
  0.15624999999999997        2.8125000000000000        0.0000000000000000     
  0.31249999999999994        2.8125000000000000        0.0000000000000000     
  0.46875000000000000        2.8125000000000000        0.0000000000000000     
  0.62500000000000000        2.8125000000000004        0.0000000000000000     
  0.78124999999999989        2.8125000000000000        0.0000000000000000     
  0.93750000000000011        2.8125000000000000        0.0000000000000000     
   1.0937500000000000        2.8125000000000004        0.0000000000000000     
   1.2500000000000000        2.8125000000000000        0.0000000000000000     
   0.0000000000000000        2.9687500000000004        0.0000000000000000     
  0.15624999999999997        2.9687499999999996        0.0000000000000000     
  0.31250000000000000        2.9687500000000004        0.0000000000000000     
  0.46875000000000000        2.9687500000000004        0.0000000000000000     
  0.62499999999999989        2.9687500000000000        0.0000000000000000     
  0.78125000000000011        2.9687500000000004        0.0000000000000000     
  0.93750000000000000        2.9687500000000000        0.0000000000000000     
   1.0937500000000002        2.9687500000000000        0.0000000000000000     
   1.2500000000000000        2.9687500000000004        0.0000000000000000     
   0.0000000000000000        3.1249999999999996        0.0000000000000000     
  0.15625000000000000        3.1250000000000009        0.0000000000000000     
  0.31250000000000000        3.1249999999999996        0.0000000000000000     
  0.46875000000000000        3.1249999999999996        0.0000000000000000     
  0.62500000000000011        3.1250000000000009        0.0000000000000000     
  0.78125000000000000        3.1249999999999996        0.0000000000000000     
  0.93750000000000000        3.1249999999999996        0.0000000000000000     
   1.0937500000000000        3.1250000000000009        0.0000000000000000     
   1.2500000000000000        3.1250000000000004        0.0000000000000000     
   0.0000000000000000        3.2812500000000004        0.0000000000000000     
  0.15624999999999997        3.2812500000000000        0.0000000000000000     
  0.31250000000000000        3.2812500000000004        0.0000000000000000     
  0.46875000000000000        3.2812500000000000        0.0000000000000000     
  0.62500000000000000        3.2812500000000000        0.0000000000000000     
  0.78125000000000011        3.2812500000000009        0.0000000000000000     
  0.93749999999999989        3.2812499999999996        0.0000000000000000     
   1.0937500000000002        3.2812500000000013        0.0000000000000000     
   1.2500000000000000        3.2812500000000004        0.0000000000000000     
   0.0000000000000000        3.4375000000000004        0.0000000000000000     
  0.15624999999999997        3.4375000000000000        0.0000000000000000     
  0.31250000000000000        3.4375000000000004        0.0000000000000000     
  0.46875000000000000        3.4375000000000004        0.0000000000000000     
  0.62500000000000000        3.4375000000000000        0.0000000000000000     
  0.78125000000000022        3.4375000000000004        0.0000000000000000     
  0.93750000000000011        3.4375000000000009        0.0000000000000000     
   1.0937500000000002        3.4375000000000000        0.0000000000000000     
   1.2500000000000000        3.4375000000000000        0.0000000000000000     
   0.0000000000000000        3.5937499999999996        0.0000000000000000     
  0.15625000000000000        3.5937500000000000        0.0000000000000000     
  0.31250000000000000        3.5937499999999996        0.0000000000000000     
  0.46875000000000000        3.5937499999999996        0.0000000000000000     
  0.62500000000000011        3.5937500000000009        0.0000000000000000     
  0.78125000000000000        3.5937500000000000        0.0000000000000000     
  0.93750000000000000        3.5937499999999996        0.0000000000000000     
   1.0937500000000000        3.5937500000000004        0.0000000000000000     
   1.2500000000000000        3.5937499999999991        0.0000000000000000     
   0.0000000000000000        3.7500000000000000        0.0000000000000000     
  0.15624999999999997        3.7500000000000000        0.0000000000000000     
  0.31250000000000000        3.7500000000000004        0.0000000000000000     
  0.46875000000000000        3.7500000000000000        0.0000000000000000     
  0.62499999999999989        3.7500000000000000        0.0000000000000000     
  0.78125000000000011        3.7500000000000004        0.0000000000000000     
  0.93750000000000000        3.7499999999999996        0.0000000000000000     
   1.0937499999999998        3.7500000000000000        0.0000000000000000     
   1.2500000000000000        3.7500000000000004        0.0000000000000000     
   1.2500000000000000        2.5000000000000004        0.0000000000000000     
   1.4062499999999998        2.4999999999999996        0.0000000000000000     
   1.5625000000000004        2.5000000000000004        0.0000000000000000     
   1.7187500000000000        2.5000000000000000        0.0000000000000000     
   1.8749999999999998        2.4999999999999996        0.0000000000000000     
   2.0312500000000004        2.5000000000000000        0.0000000000000000     
   2.1875000000000004        2.5000000000000004        0.0000000000000000     
   2.3437500000000000        2.5000000000000000        0.0000000000000000     
   2.5000000000000004        2.5000000000000004        0.0000000000000000     
   1.2500000000000002        2.6562500000000004        0.0000000000000000     
   1.4062500000000004        2.6562500000000009        0.0000000000000000     
   1.5625000000000002        2.6562500000000004        0.0000000000000000     
   1.7187500000000000        2.6562500000000000        0.0000000000000000     
   1.8750000000000004        2.6562500000000009        0.0000000000000000     
   2.0312500000000000        2.6562500000000000        0.0000000000000000     
   2.1875000000000004        2.6562500000000000        0.0000000000000000     
   2.3437500000000004        2.6562500000000013        0.0000000000000000     
   2.5000000000000000        2.6562499999999996        0.0000000000000000     
   1.2500000000000000        2.8125000000000000        0.0000000000000000     
   1.4062500000000000        2.8125000000000000        0.0000000000000000     
   1.5624999999999998        2.8124999999999996        0.0000000000000000     
   1.7187500000000004        2.8125000000000004        0.0000000000000000     
   1.8750000000000000        2.8125000000000004        0.0000000000000000     
   2.0312500000000000        2.8125000000000000        0.0000000000000000     
   2.1875000000000000        2.8125000000000000        0.0000000000000000     
   2.3437500000000004        2.8125000000000004        0.0000000000000000     
   2.5000000000000004        2.8125000000000004        0.0000000000000000     
   1.2500000000000000        2.9687500000000004        0.0000000000000000     
   1.4062499999999996        2.9687499999999996        0.0000000000000000     
   1.5625000000000000        2.9687500000000000        0.0000000000000000     
   1.7187500000000000        2.9687500000000000        0.0000000000000000     
   1.8749999999999996        2.9687499999999996        0.0000000000000000     
   2.0312500000000000        2.9687500000000004        0.0000000000000000     
   2.1875000000000004        2.9687500000000000        0.0000000000000000     
   2.3437499999999996        2.9687499999999996        0.0000000000000000     
   2.4999999999999996        2.9687499999999996        0.0000000000000000     
   1.2500000000000000        3.1250000000000004        0.0000000000000000     
   1.4062500000000004        3.1250000000000009        0.0000000000000000     
   1.5624999999999998        3.1250000000000000        0.0000000000000000     
   1.7187500000000002        3.1250000000000000        0.0000000000000000     
   1.8750000000000004        3.1250000000000009        0.0000000000000000     
   2.0312500000000000        3.1250000000000000        0.0000000000000000     
   2.1875000000000004        3.1250000000000000        0.0000000000000000     
   2.3437500000000000        3.1250000000000009        0.0000000000000000     
   2.5000000000000000        3.1249999999999996        0.0000000000000000     
   1.2500000000000000        3.2812500000000004        0.0000000000000000     
   1.4062500000000000        3.2812500000000000        0.0000000000000000     
   1.5625000000000000        3.2812500000000000        0.0000000000000000     
   1.7187500000000000        3.2812499999999996        0.0000000000000000     
   1.8750000000000000        3.2812500000000000        0.0000000000000000     
   2.0312500000000004        3.2812500000000000        0.0000000000000000     
   2.1874999999999996        3.2812499999999996        0.0000000000000000     
   2.3437500000000000        3.2812499999999996        0.0000000000000000     
   2.5000000000000000        3.2812500000000004        0.0000000000000000     
   1.2500000000000000        3.4375000000000000        0.0000000000000000     
   1.4062499999999998        3.4375000000000000        0.0000000000000000     
   1.5625000000000000        3.4375000000000000        0.0000000000000000     
   1.7187500000000004        3.4375000000000004        0.0000000000000000     
   1.8749999999999996        3.4375000000000000        0.0000000000000000     
   2.0312500000000004        3.4375000000000000        0.0000000000000000     
   2.1875000000000004        3.4375000000000004        0.0000000000000000     
   2.3437499999999996        3.4375000000000000        0.0000000000000000     
   2.4999999999999996        3.4374999999999996        0.0000000000000000     
   1.2500000000000000        3.5937499999999991        0.0000000000000000     
   1.4062500000000004        3.5937500000000009        0.0000000000000000     
   1.5625000000000000        3.5937499999999996        0.0000000000000000     
   1.7187499999999998        3.5937499999999991        0.0000000000000000     
   1.8750000000000004        3.5937500000000009        0.0000000000000000     
   2.0312500000000000        3.5937499999999996        0.0000000000000000     
   2.1875000000000000        3.5937499999999996        0.0000000000000000     
   2.3437500000000000        3.5937500000000009        0.0000000000000000     
   2.5000000000000000        3.5937499999999996        0.0000000000000000     
   1.2500000000000000        3.7500000000000004        0.0000000000000000     
   1.4062499999999998        3.7500000000000000        0.0000000000000000     
   1.5625000000000004        3.7500000000000000        0.0000000000000000     
   1.7187500000000000        3.7499999999999996        0.0000000000000000     
   1.8750000000000000        3.7500000000000004        0.0000000000000000     
   2.0312500000000004        3.7500000000000004        0.0000000000000000     
   2.1875000000000004        3.7499999999999996        0.0000000000000000     
   2.3437500000000000        3.7500000000000004        0.0000000000000000     
   2.5000000000000000        3.7500000000000009        0.0000000000000000     
   2.5000000000000004        2.5000000000000004        0.0000000000000000     
   2.6562500000000004        2.5000000000000000        0.0000000000000000     
   2.8125000000000004        2.5000000000000004        0.0000000000000000     
   2.9687500000000000        2.5000000000000000        0.0000000000000000     
   3.1250000000000000        2.5000000000000000        0.0000000000000000     
   3.2812500000000004        2.5000000000000000        0.0000000000000000     
   3.4375000000000009        2.5000000000000004        0.0000000000000000     
   3.5937500000000004        2.5000000000000000        0.0000000000000000     
   3.7500000000000004        2.5000000000000004        0.0000000000000000     
   2.5000000000000000        2.6562499999999996        0.0000000000000000     
   2.6562500000000009        2.6562500000000009        0.0000000000000000     
   2.8124999999999996        2.6562500000000004        0.0000000000000000     
   2.9687500000000000        2.6562500000000000        0.0000000000000000     
   3.1250000000000009        2.6562500000000009        0.0000000000000000     
   3.2812499999999996        2.6562500000000000        0.0000000000000000     
   3.4375000000000004        2.6562500000000004        0.0000000000000000     
   3.5937500000000009        2.6562500000000004        0.0000000000000000     
   3.7499999999999996        2.6562500000000000        0.0000000000000000     
   2.5000000000000004        2.8125000000000004        0.0000000000000000     
   2.6562500000000000        2.8125000000000000        0.0000000000000000     
   2.8124999999999996        2.8125000000000000        0.0000000000000000     
   2.9687500000000000        2.8125000000000000        0.0000000000000000     
   3.1250000000000000        2.8125000000000000        0.0000000000000000     
   3.2812500000000000        2.8125000000000000        0.0000000000000000     
   3.4375000000000000        2.8125000000000000        0.0000000000000000     
   3.5937500000000004        2.8125000000000000        0.0000000000000000     
   3.7500000000000000        2.8125000000000004        0.0000000000000000     
   2.4999999999999996        2.9687499999999996        0.0000000000000000     
   2.6562500000000000        2.9687499999999996        0.0000000000000000     
   2.8125000000000004        2.9687500000000000        0.0000000000000000     
   2.9687499999999996        2.9687500000000000        0.0000000000000000     
   3.1249999999999996        2.9687499999999996        0.0000000000000000     
   3.2812500000000004        2.9687500000000000        0.0000000000000000     
   3.4374999999999996        2.9687500000000000        0.0000000000000000     
   3.5937499999999996        2.9687499999999996        0.0000000000000000     
   3.7500000000000004        2.9687500000000004        0.0000000000000000     
   2.5000000000000000        3.1249999999999996        0.0000000000000000     
   2.6562500000000004        3.1250000000000009        0.0000000000000000     
   2.8124999999999996        3.1250000000000000        0.0000000000000000     
   2.9687500000000004        3.1250000000000000        0.0000000000000000     
   3.1250000000000009        3.1250000000000009        0.0000000000000000     
   3.2812499999999996        3.1250000000000000        0.0000000000000000     
   3.4375000000000004        3.1250000000000000        0.0000000000000000     
   3.5937500000000009        3.1250000000000009        0.0000000000000000     
   3.7499999999999996        3.1250000000000000        0.0000000000000000     
   2.5000000000000000        3.2812500000000004        0.0000000000000000     
   2.6562500000000000        3.2812499999999996        0.0000000000000000     
   2.8125000000000000        3.2812500000000000        0.0000000000000000     
   2.9687500000000000        3.2812500000000000        0.0000000000000000     
   3.1250000000000000        3.2812500000000000        0.0000000000000000     
   3.2812500000000000        3.2812500000000000        0.0000000000000000     
   3.4375000000000000        3.2812500000000000        0.0000000000000000     
   3.5937500000000000        3.2812500000000000        0.0000000000000000     
   3.7500000000000000        3.2812500000000000        0.0000000000000000     
   2.4999999999999996        3.4374999999999996        0.0000000000000000     
   2.6562499999999996        3.4375000000000000        0.0000000000000000     
   2.8125000000000004        3.4375000000000000        0.0000000000000000     
   2.9687499999999996        3.4374999999999996        0.0000000000000000     
   3.1249999999999996        3.4375000000000000        0.0000000000000000     
   3.2812500000000009        3.4375000000000009        0.0000000000000000     
   3.4374999999999996        3.4374999999999996        0.0000000000000000     
   3.5937499999999996        3.4375000000000000        0.0000000000000000     
   3.7500000000000004        3.4375000000000000        0.0000000000000000     
   2.5000000000000000        3.5937499999999996        0.0000000000000000     
   2.6562500000000009        3.5937500000000013        0.0000000000000000     
   2.8125000000000000        3.5937500000000000        0.0000000000000000     
   2.9687500000000000        3.5937499999999996        0.0000000000000000     
   3.1250000000000009        3.5937500000000009        0.0000000000000000     
   3.2812499999999996        3.5937500000000000        0.0000000000000000     
   3.4375000000000000        3.5937499999999996        0.0000000000000000     
   3.5937500000000013        3.5937500000000009        0.0000000000000000     
   3.7499999999999996        3.5937500000000000        0.0000000000000000     
   2.5000000000000000        3.7500000000000009        0.0000000000000000     
   2.6562500000000000        3.7500000000000000        0.0000000000000000     
   2.8125000000000004        3.7500000000000000        0.0000000000000000     
   2.9687500000000000        3.7500000000000004        0.0000000000000000     
   3.1250000000000000        3.7500000000000000        0.0000000000000000     
   3.2812500000000004        3.7500000000000000        0.0000000000000000     
   3.4375000000000000        3.7500000000000004        0.0000000000000000     
   3.5937500000000000        3.7500000000000000        0.0000000000000000     
   3.7500000000000004        3.7500000000000000        0.0000000000000000     
   3.7500000000000004        2.5000000000000004        0.0000000000000000     
   3.9062500000000000        2.5000000000000000        0.0000000000000000     
   4.0625000000000000        2.5000000000000000        0.0000000000000000     
   4.2187500000000000        2.5000000000000004        0.0000000000000000     
   4.3750000000000000        2.5000000000000000        0.0000000000000000     
   4.5312500000000009        2.5000000000000004        0.0000000000000000     
   4.6875000000000009        2.5000000000000004        0.0000000000000000     
   4.8437500000000000        2.4999999999999996        0.0000000000000000     
   5.0000000000000018        2.5000000000000004        0.0000000000000000     
   3.7499999999999996        2.6562500000000000        0.0000000000000000     
   3.9062500000000009        2.6562500000000009        0.0000000000000000     
   4.0625000000000000        2.6562500000000000        0.0000000000000000     
   4.2187499999999991        2.6562499999999996        0.0000000000000000     
   4.3750000000000009        2.6562500000000009        0.0000000000000000     
   4.5312500000000000        2.6562499999999996        0.0000000000000000     
   4.6874999999999991        2.6562499999999996        0.0000000000000000     
   4.8437500000000009        2.6562500000000009        0.0000000000000000     
   5.0000000000000000        2.6562499999999996        0.0000000000000000     
   3.7500000000000000        2.8125000000000004        0.0000000000000000     
   3.9062500000000000        2.8125000000000000        0.0000000000000000     
   4.0625000000000000        2.8125000000000000        0.0000000000000000     
   4.2187500000000000        2.8125000000000000        0.0000000000000000     
   4.3750000000000000        2.8125000000000000        0.0000000000000000     
   4.5312500000000000        2.8125000000000000        0.0000000000000000     
   4.6875000000000009        2.8125000000000000        0.0000000000000000     
   4.8437499999999991        2.8125000000000000        0.0000000000000000     
   5.0000000000000000        2.8125000000000000        0.0000000000000000     
   3.7500000000000004        2.9687500000000004        0.0000000000000000     
   3.9062500000000000        2.9687499999999996        0.0000000000000000     
   4.0625000000000009        2.9687500000000004        0.0000000000000000     
   4.2187500000000009        2.9687500000000004        0.0000000000000000     
   4.3750000000000009        2.9687500000000000        0.0000000000000000     
   4.5312500000000000        2.9687500000000004        0.0000000000000000     
   4.6875000000000000        2.9687500000000004        0.0000000000000000     
   4.8437500000000000        2.9687499999999991        0.0000000000000000     
   5.0000000000000009        2.9687500000000004        0.0000000000000000     
   3.7499999999999996        3.1250000000000000        0.0000000000000000     
   3.9062500000000009        3.1250000000000004        0.0000000000000000     
   4.0625000000000000        3.1250000000000000        0.0000000000000000     
   4.2187499999999991        3.1249999999999996        0.0000000000000000     
   4.3750000000000000        3.1250000000000009        0.0000000000000000     
   4.5312500000000000        3.1249999999999996        0.0000000000000000     
   4.6875000000000000        3.1249999999999996        0.0000000000000000     
   4.8437500000000009        3.1250000000000009        0.0000000000000000     
   5.0000000000000000        3.1249999999999996        0.0000000000000000     
   3.7500000000000000        3.2812500000000000        0.0000000000000000     
   3.9062499999999991        3.2812500000000000        0.0000000000000000     
   4.0625000000000009        3.2812500000000000        0.0000000000000000     
   4.2187500000000009        3.2812500000000009        0.0000000000000000     
   4.3749999999999991        3.2812499999999987        0.0000000000000000     
   4.5312500000000000        3.2812500000000000        0.0000000000000000     
   4.6875000000000000        3.2812500000000004        0.0000000000000000     
   4.8437500000000009        3.2812500000000004        0.0000000000000000     
   5.0000000000000009        3.2812500000000004        0.0000000000000000     
   3.7500000000000004        3.4375000000000000        0.0000000000000000     
   3.9062499999999996        3.4375000000000004        0.0000000000000000     
   4.0624999999999991        3.4375000000000000        0.0000000000000000     
   4.2187500000000000        3.4375000000000004        0.0000000000000000     
   4.3750000000000000        3.4375000000000004        0.0000000000000000     
   4.5312500000000009        3.4375000000000004        0.0000000000000000     
   4.6875000000000009        3.4375000000000004        0.0000000000000000     
   4.8437499999999991        3.4374999999999982        0.0000000000000000     
   5.0000000000000009        3.4375000000000004        0.0000000000000000     
   3.7499999999999996        3.5937500000000000        0.0000000000000000     
   3.9062500000000004        3.5937500000000004        0.0000000000000000     
   4.0625000000000009        3.5937500000000000        0.0000000000000000     
   4.2187499999999991        3.5937499999999991        0.0000000000000000     
   4.3750000000000009        3.5937500000000009        0.0000000000000000     
   4.5312500000000009        3.5937499999999996        0.0000000000000000     
   4.6875000000000000        3.5937499999999996        0.0000000000000000     
   4.8437500000000000        3.5937500000000013        0.0000000000000000     
   5.0000000000000000        3.5937499999999996        0.0000000000000000     
   3.7500000000000004        3.7500000000000000        0.0000000000000000     
   3.9062499999999991        3.7499999999999991        0.0000000000000000     
   4.0625000000000009        3.7500000000000000        0.0000000000000000     
   4.2187500000000009        3.7500000000000009        0.0000000000000000     
   4.3749999999999991        3.7499999999999991        0.0000000000000000     
   4.5312500000000009        3.7500000000000000        0.0000000000000000     
   4.6875000000000009        3.7500000000000004        0.0000000000000000     
   4.8437500000000000        3.7500000000000000        0.0000000000000000     
   5.0000000000000000        3.7500000000000000        0.0000000000000000     
   0.0000000000000000        3.7500000000000000        0.0000000000000000     
  0.15624999999999997        3.7500000000000000        0.0000000000000000     
  0.31250000000000000        3.7500000000000004        0.0000000000000000     
  0.46875000000000000        3.7500000000000000        0.0000000000000000     
  0.62499999999999989        3.7500000000000000        0.0000000000000000     
  0.78125000000000011        3.7500000000000004        0.0000000000000000     
  0.93750000000000000        3.7499999999999996        0.0000000000000000     
   1.0937499999999998        3.7500000000000000        0.0000000000000000     
   1.2500000000000000        3.7500000000000004        0.0000000000000000     
   0.0000000000000000        3.9062500000000000        0.0000000000000000     
  0.15625000000000000        3.9062500000000000        0.0000000000000000     
  0.31250000000000000        3.9062500000000000        0.0000000000000000     
  0.46875000000000000        3.9062500000000000        0.0000000000000000     
  0.62500000000000011        3.9062500000000000        0.0000000000000000     
  0.78125000000000000        3.9062500000000004        0.0000000000000000     
  0.93750000000000000        3.9062500000000000        0.0000000000000000     
   1.0937500000000000        3.9062500000000000        0.0000000000000000     
   1.2500000000000002        3.9062500000000004        0.0000000000000000     
   0.0000000000000000        4.0625000000000000        0.0000000000000000     
  0.15624999999999997        4.0625000000000000        0.0000000000000000     
  0.31250000000000000        4.0625000000000000        0.0000000000000000     
  0.46875000000000000        4.0625000000000000        0.0000000000000000     
  0.62499999999999989        4.0625000000000000        0.0000000000000000     
  0.78125000000000011        4.0625000000000000        0.0000000000000000     
  0.93750000000000000        4.0625000000000000        0.0000000000000000     
   1.0937500000000000        4.0625000000000000        0.0000000000000000     
   1.2500000000000000        4.0624999999999991        0.0000000000000000     
   0.0000000000000000        4.2187500000000000        0.0000000000000000     
  0.15625000000000000        4.2187499999999991        0.0000000000000000     
  0.31249999999999994        4.2187500000000000        0.0000000000000000     
  0.46875000000000000        4.2187500000000000        0.0000000000000000     
  0.62499999999999989        4.2187499999999991        0.0000000000000000     
  0.78125000000000011        4.2187500000000009        0.0000000000000000     
  0.93750000000000000        4.2187500000000009        0.0000000000000000     
   1.0937500000000000        4.2187499999999991        0.0000000000000000     
   1.2499999999999998        4.2187500000000000        0.0000000000000000     
   0.0000000000000000        4.3749999999999991        0.0000000000000000     
  0.15624999999999997        4.3750000000000000        0.0000000000000000     
  0.31250000000000000        4.3749999999999991        0.0000000000000000     
  0.46875000000000000        4.3749999999999991        0.0000000000000000     
  0.62500000000000011        4.3750000000000009        0.0000000000000000     
  0.78124999999999989        4.3749999999999991        0.0000000000000000     
  0.93750000000000000        4.3749999999999991        0.0000000000000000     
   1.0937500000000002        4.3750000000000009        0.0000000000000000     
   1.2499999999999998        4.3749999999999991        0.0000000000000000     
   0.0000000000000000        4.5312500000000000        0.0000000000000000     
  0.15625000000000000        4.5312500000000000        0.0000000000000000     
  0.31250000000000000        4.5312500000000000        0.0000000000000000     
  0.46875000000000000        4.5312500000000000        0.0000000000000000     
  0.62500000000000000        4.5312500000000000        0.0000000000000000     
  0.78125000000000011        4.5312500000000000        0.0000000000000000     
  0.93750000000000000        4.5312500000000000        0.0000000000000000     
   1.0937500000000000        4.5312500000000000        0.0000000000000000     
   1.2500000000000000        4.5312499999999991        0.0000000000000000     
   0.0000000000000000        4.6875000000000000        0.0000000000000000     
  0.15624999999999997        4.6874999999999991        0.0000000000000000     
  0.31250000000000000        4.6875000000000000        0.0000000000000000     
  0.46875000000000000        4.6875000000000000        0.0000000000000000     
  0.62499999999999989        4.6874999999999991        0.0000000000000000     
  0.78125000000000000        4.6875000000000000        0.0000000000000000     
  0.93750000000000000        4.6875000000000000        0.0000000000000000     
   1.0937499999999998        4.6874999999999991        0.0000000000000000     
   1.2499999999999998        4.6875000000000000        0.0000000000000000     
   0.0000000000000000        4.8437499999999991        0.0000000000000000     
  0.15625000000000000        4.8437500000000009        0.0000000000000000     
  0.31249999999999994        4.8437500000000000        0.0000000000000000     
  0.46875000000000000        4.8437500000000000        0.0000000000000000     
  0.62500000000000000        4.8437500000000000        0.0000000000000000     
  0.78125000000000011        4.8437500000000000        0.0000000000000000     
  0.93750000000000000        4.8437500000000000        0.0000000000000000     
   1.0937499999999998        4.8437500000000000        0.0000000000000000     
   1.2499999999999998        4.8437499999999991        0.0000000000000000     
   0.0000000000000000        5.0000000000000000        0.0000000000000000     
  0.15624999999999997        5.0000000000000000        0.0000000000000000     
  0.31250000000000000        5.0000000000000000        0.0000000000000000     
  0.46875000000000000        5.0000000000000000        0.0000000000000000     
  0.62499999999999989        5.0000000000000000        0.0000000000000000     
  0.78125000000000011        5.0000000000000000        0.0000000000000000     
  0.93750000000000000        5.0000000000000000        0.0000000000000000     
   1.0937499999999998        5.0000000000000000        0.0000000000000000     
   1.2500000000000002        5.0000000000000009        0.0000000000000000     
   1.2500000000000000        3.7500000000000004        0.0000000000000000     
   1.4062499999999998        3.7500000000000000        0.0000000000000000     
   1.5625000000000004        3.7500000000000000        0.0000000000000000     
   1.7187500000000000        3.7499999999999996        0.0000000000000000     
   1.8750000000000000        3.7500000000000004        0.0000000000000000     
   2.0312500000000004        3.7500000000000004        0.0000000000000000     
   2.1875000000000004        3.7499999999999996        0.0000000000000000     
   2.3437500000000000        3.7500000000000004        0.0000000000000000     
   2.5000000000000000        3.7500000000000009        0.0000000000000000     
   1.2500000000000002        3.9062500000000004        0.0000000000000000     
   1.4062500000000004        3.9062500000000004        0.0000000000000000     
   1.5625000000000000        3.9062500000000000        0.0000000000000000     
   1.7187500000000002        3.9062500000000004        0.0000000000000000     
   1.8750000000000002        3.9062500000000004        0.0000000000000000     
   2.0312500000000004        3.9062500000000000        0.0000000000000000     
   2.1875000000000000        3.9062500000000009        0.0000000000000000     
   2.3437500000000000        3.9062500000000004        0.0000000000000000     
   2.5000000000000004        3.9062499999999996        0.0000000000000000     
   1.2500000000000000        4.0624999999999991        0.0000000000000000     
   1.4062500000000000        4.0625000000000000        0.0000000000000000     
   1.5625000000000000        4.0625000000000000        0.0000000000000000     
   1.7187500000000000        4.0625000000000000        0.0000000000000000     
   1.8749999999999998        4.0625000000000000        0.0000000000000000     
   2.0312500000000000        4.0625000000000000        0.0000000000000000     
   2.1875000000000000        4.0625000000000000        0.0000000000000000     
   2.3437500000000000        4.0625000000000000        0.0000000000000000     
   2.5000000000000000        4.0625000000000000        0.0000000000000000     
   1.2499999999999998        4.2187500000000000        0.0000000000000000     
   1.4062499999999998        4.2187499999999991        0.0000000000000000     
   1.5624999999999998        4.2187500000000009        0.0000000000000000     
   1.7187499999999998        4.2187500000000009        0.0000000000000000     
   1.8749999999999998        4.2187499999999991        0.0000000000000000     
   2.0312499999999996        4.2187499999999991        0.0000000000000000     
   2.1875000000000000        4.2187500000000000        0.0000000000000000     
   2.3437500000000000        4.2187499999999991        0.0000000000000000     
   2.5000000000000000        4.2187500000000009        0.0000000000000000     
   1.2499999999999998        4.3749999999999991        0.0000000000000000     
   1.4062500000000002        4.3750000000000018        0.0000000000000000     
   1.5624999999999998        4.3750000000000000        0.0000000000000000     
   1.7187499999999998        4.3749999999999991        0.0000000000000000     
   1.8750000000000002        4.3750000000000018        0.0000000000000000     
   2.0312500000000000        4.3750000000000000        0.0000000000000000     
   2.1875000000000000        4.3750000000000000        0.0000000000000000     
   2.3437500000000004        4.3750000000000018        0.0000000000000000     
   2.5000000000000009        4.3750000000000000        0.0000000000000000     
   1.2500000000000000        4.5312499999999991        0.0000000000000000     
   1.4062500000000000        4.5312500000000000        0.0000000000000000     
   1.5625000000000000        4.5312499999999991        0.0000000000000000     
   1.7187500000000002        4.5312500000000000        0.0000000000000000     
   1.8750000000000000        4.5312500000000000        0.0000000000000000     
   2.0312500000000000        4.5312500000000000        0.0000000000000000     
   2.1875000000000000        4.5312500000000000        0.0000000000000000     
   2.3437500000000000        4.5312500000000000        0.0000000000000000     
   2.5000000000000000        4.5312500000000000        0.0000000000000000     
   1.2499999999999998        4.6875000000000000        0.0000000000000000     
   1.4062499999999998        4.6874999999999991        0.0000000000000000     
   1.5625000000000000        4.6875000000000000        0.0000000000000000     
   1.7187499999999998        4.6874999999999991        0.0000000000000000     
   1.8749999999999998        4.6874999999999991        0.0000000000000000     
   2.0312500000000004        4.6875000000000000        0.0000000000000000     
   2.1874999999999996        4.6875000000000000        0.0000000000000000     
   2.3437500000000000        4.6874999999999991        0.0000000000000000     
   2.5000000000000004        4.6875000000000000        0.0000000000000000     
   1.2499999999999998        4.8437499999999991        0.0000000000000000     
   1.4062500000000000        4.8437500000000009        0.0000000000000000     
   1.5625000000000000        4.8437500000000000        0.0000000000000000     
   1.7187499999999996        4.8437499999999991        0.0000000000000000     
   1.8750000000000000        4.8437500000000000        0.0000000000000000     
   2.0312500000000004        4.8437500000000000        0.0000000000000000     
   2.1875000000000004        4.8437500000000009        0.0000000000000000     
   2.3437499999999996        4.8437500000000000        0.0000000000000000     
   2.4999999999999991        4.8437499999999991        0.0000000000000000     
   1.2500000000000002        5.0000000000000009        0.0000000000000000     
   1.4062499999999998        5.0000000000000000        0.0000000000000000     
   1.5624999999999998        4.9999999999999991        0.0000000000000000     
   1.7187500000000004        5.0000000000000009        0.0000000000000000     
   1.8749999999999998        5.0000000000000000        0.0000000000000000     
   2.0312500000000004        5.0000000000000009        0.0000000000000000     
   2.1874999999999996        5.0000000000000000        0.0000000000000000     
   2.3437500000000000        5.0000000000000000        0.0000000000000000     
   2.5000000000000004        5.0000000000000018        0.0000000000000000     
   2.5000000000000000        3.7500000000000009        0.0000000000000000     
   2.6562500000000000        3.7500000000000000        0.0000000000000000     
   2.8125000000000004        3.7500000000000000        0.0000000000000000     
   2.9687500000000000        3.7500000000000004        0.0000000000000000     
   3.1250000000000000        3.7500000000000000        0.0000000000000000     
   3.2812500000000004        3.7500000000000000        0.0000000000000000     
   3.4375000000000000        3.7500000000000004        0.0000000000000000     
   3.5937500000000000        3.7500000000000000        0.0000000000000000     
   3.7500000000000004        3.7500000000000000        0.0000000000000000     
   2.5000000000000004        3.9062499999999996        0.0000000000000000     
   2.6562500000000004        3.9062500000000009        0.0000000000000000     
   2.8124999999999996        3.9062500000000004        0.0000000000000000     
   2.9687500000000004        3.9062500000000004        0.0000000000000000     
   3.1250000000000009        3.9062500000000004        0.0000000000000000     
   3.2812499999999996        3.9062500000000004        0.0000000000000000     
   3.4375000000000004        3.9062499999999996        0.0000000000000000     
   3.5937500000000009        3.9062500000000009        0.0000000000000000     
   3.7499999999999987        3.9062499999999991        0.0000000000000000     
   2.5000000000000000        4.0625000000000000        0.0000000000000000     
   2.6562500000000000        4.0625000000000000        0.0000000000000000     
   2.8125000000000000        4.0625000000000000        0.0000000000000000     
   2.9687500000000000        4.0625000000000000        0.0000000000000000     
   3.1250000000000000        4.0625000000000000        0.0000000000000000     
   3.2812500000000000        4.0624999999999991        0.0000000000000000     
   3.4375000000000000        4.0625000000000000        0.0000000000000000     
   3.5937500000000000        4.0625000000000000        0.0000000000000000     
   3.7500000000000000        4.0624999999999991        0.0000000000000000     
   2.5000000000000000        4.2187500000000009        0.0000000000000000     
   2.6562499999999996        4.2187499999999982        0.0000000000000000     
   2.8125000000000004        4.2187500000000000        0.0000000000000000     
   2.9687500000000000        4.2187500000000009        0.0000000000000000     
   3.1249999999999991        4.2187499999999982        0.0000000000000000     
   3.2812500000000000        4.2187500000000000        0.0000000000000000     
   3.4375000000000004        4.2187500000000000        0.0000000000000000     
   3.5937499999999996        4.2187499999999991        0.0000000000000000     
   3.7500000000000004        4.2187500000000009        0.0000000000000000     
   2.5000000000000009        4.3750000000000000        0.0000000000000000     
   2.6562500000000004        4.3750000000000009        0.0000000000000000     
   2.8125000000000004        4.3750000000000000        0.0000000000000000     
   2.9687500000000004        4.3750000000000000        0.0000000000000000     
   3.1250000000000004        4.3750000000000009        0.0000000000000000     
   3.2812499999999991        4.3749999999999991        0.0000000000000000     
   3.4375000000000004        4.3750000000000009        0.0000000000000000     
   3.5937500000000009        4.3750000000000018        0.0000000000000000     
   3.7499999999999987        4.3749999999999991        0.0000000000000000     
   2.5000000000000000        4.5312500000000000        0.0000000000000000     
   2.6562500000000000        4.5312500000000000        0.0000000000000000     
   2.8125000000000000        4.5312500000000000        0.0000000000000000     
   2.9687500000000000        4.5312500000000000        0.0000000000000000     
   3.1250000000000000        4.5312500000000000        0.0000000000000000     
   3.2812499999999996        4.5312499999999991        0.0000000000000000     
   3.4375000000000000        4.5312500000000000        0.0000000000000000     
   3.5937500000000000        4.5312500000000000        0.0000000000000000     
   3.7500000000000000        4.5312499999999991        0.0000000000000000     
   2.5000000000000004        4.6875000000000000        0.0000000000000000     
   2.6562499999999996        4.6874999999999991        0.0000000000000000     
   2.8125000000000004        4.6875000000000009        0.0000000000000000     
   2.9687500000000004        4.6874999999999991        0.0000000000000000     
   3.1250000000000000        4.6874999999999991        0.0000000000000000     
   3.2812500000000004        4.6875000000000009        0.0000000000000000     
   3.4375000000000004        4.6875000000000000        0.0000000000000000     
   3.5937499999999996        4.6874999999999991        0.0000000000000000     
   3.7500000000000004        4.6875000000000009        0.0000000000000000     
   2.4999999999999991        4.8437499999999991        0.0000000000000000     
   2.6562500000000004        4.8437500000000018        0.0000000000000000     
   2.8125000000000000        4.8437499999999991        0.0000000000000000     
   2.9687499999999991        4.8437499999999991        0.0000000000000000     
   3.1250000000000009        4.8437500000000009        0.0000000000000000     
   3.2812500000000000        4.8437499999999991        0.0000000000000000     
   3.4374999999999996        4.8437499999999991        0.0000000000000000     
   3.5937500000000013        4.8437500000000009        0.0000000000000000     
   3.7500000000000000        4.8437499999999991        0.0000000000000000     
   2.5000000000000004        5.0000000000000018        0.0000000000000000     
   2.6562499999999996        5.0000000000000000        0.0000000000000000     
   2.8125000000000000        5.0000000000000000        0.0000000000000000     
   2.9687500000000004        5.0000000000000009        0.0000000000000000     
   3.1249999999999996        5.0000000000000000        0.0000000000000000     
   3.2812500000000004        5.0000000000000009        0.0000000000000000     
   3.4375000000000004        5.0000000000000009        0.0000000000000000     
   3.5937499999999996        5.0000000000000000        0.0000000000000000     
   3.7500000000000000        5.0000000000000000        0.0000000000000000     
   3.7500000000000004        3.7500000000000000        0.0000000000000000     
   3.9062499999999991        3.7499999999999991        0.0000000000000000     
   4.0625000000000009        3.7500000000000000        0.0000000000000000     
   4.2187500000000009        3.7500000000000009        0.0000000000000000     
   4.3749999999999991        3.7499999999999991        0.0000000000000000     
   4.5312500000000009        3.7500000000000000        0.0000000000000000     
   4.6875000000000009        3.7500000000000004        0.0000000000000000     
   4.8437500000000000        3.7500000000000000        0.0000000000000000     
   5.0000000000000000        3.7500000000000000        0.0000000000000000     
   3.7499999999999987        3.9062499999999991        0.0000000000000000     
   3.9062500000000009        3.9062500000000009        0.0000000000000000     
   4.0625000000000000        3.9062500000000000        0.0000000000000000     
   4.2187500000000000        3.9062499999999996        0.0000000000000000     
   4.3750000000000000        3.9062500000000000        0.0000000000000000     
   4.5312500000000000        3.9062500000000000        0.0000000000000000     
   4.6874999999999991        3.9062500000000000        0.0000000000000000     
   4.8437500000000009        3.9062500000000000        0.0000000000000000     
   5.0000000000000000        3.9062500000000000        0.0000000000000000     
   3.7500000000000000        4.0624999999999991        0.0000000000000000     
   3.9062500000000000        4.0625000000000000        0.0000000000000000     
   4.0625000000000000        4.0625000000000000        0.0000000000000000     
   4.2187500000000000        4.0625000000000000        0.0000000000000000     
   4.3750000000000000        4.0625000000000000        0.0000000000000000     
   4.5312500000000000        4.0625000000000000        0.0000000000000000     
   4.6875000000000000        4.0625000000000000        0.0000000000000000     
   4.8437500000000000        4.0625000000000000        0.0000000000000000     
   5.0000000000000000        4.0625000000000000        0.0000000000000000     
   3.7500000000000004        4.2187500000000009        0.0000000000000000     
   3.9062499999999996        4.2187499999999991        0.0000000000000000     
   4.0625000000000000        4.2187500000000000        0.0000000000000000     
   4.2187499999999991        4.2187500000000000        0.0000000000000000     
   4.3750000000000009        4.2187499999999991        0.0000000000000000     
   4.5312500000000000        4.2187500000000000        0.0000000000000000     
   4.6875000000000000        4.2187500000000000        0.0000000000000000     
   4.8437499999999991        4.2187499999999991        0.0000000000000000     
   5.0000000000000000        4.2187500000000000        0.0000000000000000     
   3.7499999999999987        4.3749999999999991        0.0000000000000000     
   3.9062500000000009        4.3750000000000018        0.0000000000000000     
   4.0625000000000000        4.3749999999999991        0.0000000000000000     
   4.2187499999999991        4.3749999999999991        0.0000000000000000     
   4.3750000000000000        4.3750000000000009        0.0000000000000000     
   4.5312500000000000        4.3749999999999991        0.0000000000000000     
   4.6875000000000000        4.3749999999999991        0.0000000000000000     
   4.8437500000000000        4.3750000000000018        0.0000000000000000     
   5.0000000000000000        4.3749999999999991        0.0000000000000000     
   3.7500000000000000        4.5312499999999991        0.0000000000000000     
   3.9062500000000000        4.5312500000000000        0.0000000000000000     
   4.0625000000000000        4.5312500000000000        0.0000000000000000     
   4.2187500000000000        4.5312500000000000        0.0000000000000000     
   4.3750000000000000        4.5312500000000000        0.0000000000000000     
   4.5312500000000000        4.5312500000000000        0.0000000000000000     
   4.6875000000000000        4.5312500000000000        0.0000000000000000     
   4.8437500000000000        4.5312500000000000        0.0000000000000000     
   5.0000000000000000        4.5312500000000000        0.0000000000000000     
   3.7500000000000004        4.6875000000000009        0.0000000000000000     
   3.9062500000000000        4.6874999999999991        0.0000000000000000     
   4.0624999999999991        4.6875000000000009        0.0000000000000000     
   4.2187500000000000        4.6875000000000000        0.0000000000000000     
   4.3750000000000000        4.6874999999999991        0.0000000000000000     
   4.5312500000000000        4.6875000000000000        0.0000000000000000     
   4.6875000000000000        4.6875000000000000        0.0000000000000000     
   4.8437500000000000        4.6874999999999991        0.0000000000000000     
   5.0000000000000000        4.6875000000000000        0.0000000000000000     
   3.7500000000000000        4.8437499999999991        0.0000000000000000     
   3.9062500000000004        4.8437500000000018        0.0000000000000000     
   4.0625000000000000        4.8437499999999991        0.0000000000000000     
   4.2187499999999991        4.8437499999999991        0.0000000000000000     
   4.3750000000000009        4.8437500000000009        0.0000000000000000     
   4.5312500000000000        4.8437499999999991        0.0000000000000000     
   4.6875000000000000        4.8437500000000000        0.0000000000000000     
   4.8437500000000000        4.8437500000000000        0.0000000000000000     
   5.0000000000000000        4.8437499999999991        0.0000000000000000     
   3.7500000000000000        5.0000000000000000        0.0000000000000000     
   3.9062500000000000        5.0000000000000000        0.0000000000000000     
   4.0625000000000000        5.0000000000000000        0.0000000000000000     
   4.2187500000000000        5.0000000000000000        0.0000000000000000     
   4.3749999999999991        5.0000000000000000        0.0000000000000000     
   4.5312500000000000        5.0000000000000000        0.0000000000000000     
   4.6875000000000000        5.0000000000000000        0.0000000000000000     
   4.8437499999999991        5.0000000000000000        0.0000000000000000     
   5.0000000000000000        5.0000000000000000        0.0000000000000000     
 </DataArray>
 </Points>
 <Cells>
 <DataArray  type="Int32"  Name="connectivity"  format="ascii">
           0           1          10           9
           1           2          11          10
           2           3          12          11
           3           4          13          12
           4           5          14          13
           5           6          15          14
           6           7          16          15
           7           8          17          16
           9          10          19          18
          10          11          20          19
          11          12          21          20
          12          13          22          21
          13          14          23          22
          14          15          24          23
          15          16          25          24
          16          17          26          25
          18          19          28          27
          19          20          29          28
          20          21          30          29
          21          22          31          30
          22          23          32          31
          23          24          33          32
          24          25          34          33
          25          26          35          34
          27          28          37          36
          28          29          38          37
          29          30          39          38
          30          31          40          39
          31          32          41          40
          32          33          42          41
          33          34          43          42
          34          35          44          43
          36          37          46          45
          37          38          47          46
          38          39          48          47
          39          40          49          48
          40          41          50          49
          41          42          51          50
          42          43          52          51
          43          44          53          52
          45          46          55          54
          46          47          56          55
          47          48          57          56
          48          49          58          57
          49          50          59          58
          50          51          60          59
          51          52          61          60
          52          53          62          61
          54          55          64          63
          55          56          65          64
          56          57          66          65
          57          58          67          66
          58          59          68          67
          59          60          69          68
          60          61          70          69
          61          62          71          70
          63          64          73          72
          64          65          74          73
          65          66          75          74
          66          67          76          75
          67          68          77          76
          68          69          78          77
          69          70          79          78
          70          71          80          79
          81          82          91          90
          82          83          92          91
          83          84          93          92
          84          85          94          93
          85          86          95          94
          86          87          96          95
          87          88          97          96
          88          89          98          97
          90          91         100          99
          91          92         101         100
          92          93         102         101
          93          94         103         102
          94          95         104         103
          95          96         105         104
          96          97         106         105
          97          98         107         106
          99         100         109         108
         100         101         110         109
         101         102         111         110
         102         103         112         111
         103         104         113         112
         104         105         114         113
         105         106         115         114
         106         107         116         115
         108         109         118         117
         109         110         119         118
         110         111         120         119
         111         112         121         120
         112         113         122         121
         113         114         123         122
         114         115         124         123
         115         116         125         124
         117         118         127         126
         118         119         128         127
         119         120         129         128
         120         121         130         129
         121         122         131         130
         122         123         132         131
         123         124         133         132
         124         125         134         133
         126         127         136         135
         127         128         137         136
         128         129         138         137
         129         130         139         138
         130         131         140         139
         131         132         141         140
         132         133         142         141
         133         134         143         142
         135         136         145         144
         136         137         146         145
         137         138         147         146
         138         139         148         147
         139         140         149         148
         140         141         150         149
         141         142         151         150
         142         143         152         151
         144         145         154         153
         145         146         155         154
         146         147         156         155
         147         148         157         156
         148         149         158         157
         149         150         159         158
         150         151         160         159
         151         152         161         160
         162         163         172         171
         163         164         173         172
         164         165         174         173
         165         166         175         174
         166         167         176         175
         167         168         177         176
         168         169         178         177
         169         170         179         178
         171         172         181         180
         172         173         182         181
         173         174         183         182
         174         175         184         183
         175         176         185         184
         176         177         186         185
         177         178         187         186
         178         179         188         187
         180         181         190         189
         181         182         191         190
         182         183         192         191
         183         184         193         192
         184         185         194         193
         185         186         195         194
         186         187         196         195
         187         188         197         196
         189         190         199         198
         190         191         200         199
         191         192         201         200
         192         193         202         201
         193         194         203         202
         194         195         204         203
         195         196         205         204
         196         197         206         205
         198         199         208         207
         199         200         209         208
         200         201         210         209
         201         202         211         210
         202         203         212         211
         203         204         213         212
         204         205         214         213
         205         206         215         214
         207         208         217         216
         208         209         218         217
         209         210         219         218
         210         211         220         219
         211         212         221         220
         212         213         222         221
         213         214         223         222
         214         215         224         223
         216         217         226         225
         217         218         227         226
         218         219         228         227
         219         220         229         228
         220         221         230         229
         221         222         231         230
         222         223         232         231
         223         224         233         232
         225         226         235         234
         226         227         236         235
         227         228         237         236
         228         229         238         237
         229         230         239         238
         230         231         240         239
         231         232         241         240
         232         233         242         241
         243         244         253         252
         244         245         254         253
         245         246         255         254
         246         247         256         255
         247         248         257         256
         248         249         258         257
         249         250         259         258
         250         251         260         259
         252         253         262         261
         253         254         263         262
         254         255         264         263
         255         256         265         264
         256         257         266         265
         257         258         267         266
         258         259         268         267
         259         260         269         268
         261         262         271         270
         262         263         272         271
         263         264         273         272
         264         265         274         273
         265         266         275         274
         266         267         276         275
         267         268         277         276
         268         269         278         277
         270         271         280         279
         271         272         281         280
         272         273         282         281
         273         274         283         282
         274         275         284         283
         275         276         285         284
         276         277         286         285
         277         278         287         286
         279         280         289         288
         280         281         290         289
         281         282         291         290
         282         283         292         291
         283         284         293         292
         284         285         294         293
         285         286         295         294
         286         287         296         295
         288         289         298         297
         289         290         299         298
         290         291         300         299
         291         292         301         300
         292         293         302         301
         293         294         303         302
         294         295         304         303
         295         296         305         304
         297         298         307         306
         298         299         308         307
         299         300         309         308
         300         301         310         309
         301         302         311         310
         302         303         312         311
         303         304         313         312
         304         305         314         313
         306         307         316         315
         307         308         317         316
         308         309         318         317
         309         310         319         318
         310         311         320         319
         311         312         321         320
         312         313         322         321
         313         314         323         322
         324         325         334         333
         325         326         335         334
         326         327         336         335
         327         328         337         336
         328         329         338         337
         329         330         339         338
         330         331         340         339
         331         332         341         340
         333         334         343         342
         334         335         344         343
         335         336         345         344
         336         337         346         345
         337         338         347         346
         338         339         348         347
         339         340         349         348
         340         341         350         349
         342         343         352         351
         343         344         353         352
         344         345         354         353
         345         346         355         354
         346         347         356         355
         347         348         357         356
         348         349         358         357
         349         350         359         358
         351         352         361         360
         352         353         362         361
         353         354         363         362
         354         355         364         363
         355         356         365         364
         356         357         366         365
         357         358         367         366
         358         359         368         367
         360         361         370         369
         361         362         371         370
         362         363         372         371
         363         364         373         372
         364         365         374         373
         365         366         375         374
         366         367         376         375
         367         368         377         376
         369         370         379         378
         370         371         380         379
         371         372         381         380
         372         373         382         381
         373         374         383         382
         374         375         384         383
         375         376         385         384
         376         377         386         385
         378         379         388         387
         379         380         389         388
         380         381         390         389
         381         382         391         390
         382         383         392         391
         383         384         393         392
         384         385         394         393
         385         386         395         394
         387         388         397         396
         388         389         398         397
         389         390         399         398
         390         391         400         399
         391         392         401         400
         392         393         402         401
         393         394         403         402
         394         395         404         403
         405         406         415         414
         406         407         416         415
         407         408         417         416
         408         409         418         417
         409         410         419         418
         410         411         420         419
         411         412         421         420
         412         413         422         421
         414         415         424         423
         415         416         425         424
         416         417         426         425
         417         418         427         426
         418         419         428         427
         419         420         429         428
         420         421         430         429
         421         422         431         430
         423         424         433         432
         424         425         434         433
         425         426         435         434
         426         427         436         435
         427         428         437         436
         428         429         438         437
         429         430         439         438
         430         431         440         439
         432         433         442         441
         433         434         443         442
         434         435         444         443
         435         436         445         444
         436         437         446         445
         437         438         447         446
         438         439         448         447
         439         440         449         448
         441         442         451         450
         442         443         452         451
         443         444         453         452
         444         445         454         453
         445         446         455         454
         446         447         456         455
         447         448         457         456
         448         449         458         457
         450         451         460         459
         451         452         461         460
         452         453         462         461
         453         454         463         462
         454         455         464         463
         455         456         465         464
         456         457         466         465
         457         458         467         466
         459         460         469         468
         460         461         470         469
         461         462         471         470
         462         463         472         471
         463         464         473         472
         464         465         474         473
         465         466         475         474
         466         467         476         475
         468         469         478         477
         469         470         479         478
         470         471         480         479
         471         472         481         480
         472         473         482         481
         473         474         483         482
         474         475         484         483
         475         476         485         484
         486         487         496         495
         487         488         497         496
         488         489         498         497
         489         490         499         498
         490         491         500         499
         491         492         501         500
         492         493         502         501
         493         494         503         502
         495         496         505         504
         496         497         506         505
         497         498         507         506
         498         499         508         507
         499         500         509         508
         500         501         510         509
         501         502         511         510
         502         503         512         511
         504         505         514         513
         505         506         515         514
         506         507         516         515
         507         508         517         516
         508         509         518         517
         509         510         519         518
         510         511         520         519
         511         512         521         520
         513         514         523         522
         514         515         524         523
         515         516         525         524
         516         517         526         525
         517         518         527         526
         518         519         528         527
         519         520         529         528
         520         521         530         529
         522         523         532         531
         523         524         533         532
         524         525         534         533
         525         526         535         534
         526         527         536         535
         527         528         537         536
         528         529         538         537
         529         530         539         538
         531         532         541         540
         532         533         542         541
         533         534         543         542
         534         535         544         543
         535         536         545         544
         536         537         546         545
         537         538         547         546
         538         539         548         547
         540         541         550         549
         541         542         551         550
         542         543         552         551
         543         544         553         552
         544         545         554         553
         545         546         555         554
         546         547         556         555
         547         548         557         556
         549         550         559         558
         550         551         560         559
         551         552         561         560
         552         553         562         561
         553         554         563         562
         554         555         564         563
         555         556         565         564
         556         557         566         565
         567         568         577         576
         568         569         578         577
         569         570         579         578
         570         571         580         579
         571         572         581         580
         572         573         582         581
         573         574         583         582
         574         575         584         583
         576         577         586         585
         577         578         587         586
         578         579         588         587
         579         580         589         588
         580         581         590         589
         581         582         591         590
         582         583         592         591
         583         584         593         592
         585         586         595         594
         586         587         596         595
         587         588         597         596
         588         589         598         597
         589         590         599         598
         590         591         600         599
         591         592         601         600
         592         593         602         601
         594         595         604         603
         595         596         605         604
         596         597         606         605
         597         598         607         606
         598         599         608         607
         599         600         609         608
         600         601         610         609
         601         602         611         610
         603         604         613         612
         604         605         614         613
         605         606         615         614
         606         607         616         615
         607         608         617         616
         608         609         618         617
         609         610         619         618
         610         611         620         619
         612         613         622         621
         613         614         623         622
         614         615         624         623
         615         616         625         624
         616         617         626         625
         617         618         627         626
         618         619         628         627
         619         620         629         628
         621         622         631         630
         622         623         632         631
         623         624         633         632
         624         625         634         633
         625         626         635         634
         626         627         636         635
         627         628         637         636
         628         629         638         637
         630         631         640         639
         631         632         641         640
         632         633         642         641
         633         634         643         642
         634         635         644         643
         635         636         645         644
         636         637         646         645
         637         638         647         646
         648         649         658         657
         649         650         659         658
         650         651         660         659
         651         652         661         660
         652         653         662         661
         653         654         663         662
         654         655         664         663
         655         656         665         664
         657         658         667         666
         658         659         668         667
         659         660         669         668
         660         661         670         669
         661         662         671         670
         662         663         672         671
         663         664         673         672
         664         665         674         673
         666         667         676         675
         667         668         677         676
         668         669         678         677
         669         670         679         678
         670         671         680         679
         671         672         681         680
         672         673         682         681
         673         674         683         682
         675         676         685         684
         676         677         686         685
         677         678         687         686
         678         679         688         687
         679         680         689         688
         680         681         690         689
         681         682         691         690
         682         683         692         691
         684         685         694         693
         685         686         695         694
         686         687         696         695
         687         688         697         696
         688         689         698         697
         689         690         699         698
         690         691         700         699
         691         692         701         700
         693         694         703         702
         694         695         704         703
         695         696         705         704
         696         697         706         705
         697         698         707         706
         698         699         708         707
         699         700         709         708
         700         701         710         709
         702         703         712         711
         703         704         713         712
         704         705         714         713
         705         706         715         714
         706         707         716         715
         707         708         717         716
         708         709         718         717
         709         710         719         718
         711         712         721         720
         712         713         722         721
         713         714         723         722
         714         715         724         723
         715         716         725         724
         716         717         726         725
         717         718         727         726
         718         719         728         727
         729         730         739         738
         730         731         740         739
         731         732         741         740
         732         733         742         741
         733         734         743         742
         734         735         744         743
         735         736         745         744
         736         737         746         745
         738         739         748         747
         739         740         749         748
         740         741         750         749
         741         742         751         750
         742         743         752         751
         743         744         753         752
         744         745         754         753
         745         746         755         754
         747         748         757         756
         748         749         758         757
         749         750         759         758
         750         751         760         759
         751         752         761         760
         752         753         762         761
         753         754         763         762
         754         755         764         763
         756         757         766         765
         757         758         767         766
         758         759         768         767
         759         760         769         768
         760         761         770         769
         761         762         771         770
         762         763         772         771
         763         764         773         772
         765         766         775         774
         766         767         776         775
         767         768         777         776
         768         769         778         777
         769         770         779         778
         770         771         780         779
         771         772         781         780
         772         773         782         781
         774         775         784         783
         775         776         785         784
         776         777         786         785
         777         778         787         786
         778         779         788         787
         779         780         789         788
         780         781         790         789
         781         782         791         790
         783         784         793         792
         784         785         794         793
         785         786         795         794
         786         787         796         795
         787         788         797         796
         788         789         798         797
         789         790         799         798
         790         791         800         799
         792         793         802         801
         793         794         803         802
         794         795         804         803
         795         796         805         804
         796         797         806         805
         797         798         807         806
         798         799         808         807
         799         800         809         808
         810         811         820         819
         811         812         821         820
         812         813         822         821
         813         814         823         822
         814         815         824         823
         815         816         825         824
         816         817         826         825
         817         818         827         826
         819         820         829         828
         820         821         830         829
         821         822         831         830
         822         823         832         831
         823         824         833         832
         824         825         834         833
         825         826         835         834
         826         827         836         835
         828         829         838         837
         829         830         839         838
         830         831         840         839
         831         832         841         840
         832         833         842         841
         833         834         843         842
         834         835         844         843
         835         836         845         844
         837         838         847         846
         838         839         848         847
         839         840         849         848
         840         841         850         849
         841         842         851         850
         842         843         852         851
         843         844         853         852
         844         845         854         853
         846         847         856         855
         847         848         857         856
         848         849         858         857
         849         850         859         858
         850         851         860         859
         851         852         861         860
         852         853         862         861
         853         854         863         862
         855         856         865         864
         856         857         866         865
         857         858         867         866
         858         859         868         867
         859         860         869         868
         860         861         870         869
         861         862         871         870
         862         863         872         871
         864         865         874         873
         865         866         875         874
         866         867         876         875
         867         868         877         876
         868         869         878         877
         869         870         879         878
         870         871         880         879
         871         872         881         880
         873         874         883         882
         874         875         884         883
         875         876         885         884
         876         877         886         885
         877         878         887         886
         878         879         888         887
         879         880         889         888
         880         881         890         889
         891         892         901         900
         892         893         902         901
         893         894         903         902
         894         895         904         903
         895         896         905         904
         896         897         906         905
         897         898         907         906
         898         899         908         907
         900         901         910         909
         901         902         911         910
         902         903         912         911
         903         904         913         912
         904         905         914         913
         905         906         915         914
         906         907         916         915
         907         908         917         916
         909         910         919         918
         910         911         920         919
         911         912         921         920
         912         913         922         921
         913         914         923         922
         914         915         924         923
         915         916         925         924
         916         917         926         925
         918         919         928         927
         919         920         929         928
         920         921         930         929
         921         922         931         930
         922         923         932         931
         923         924         933         932
         924         925         934         933
         925         926         935         934
         927         928         937         936
         928         929         938         937
         929         930         939         938
         930         931         940         939
         931         932         941         940
         932         933         942         941
         933         934         943         942
         934         935         944         943
         936         937         946         945
         937         938         947         946
         938         939         948         947
         939         940         949         948
         940         941         950         949
         941         942         951         950
         942         943         952         951
         943         944         953         952
         945         946         955         954
         946         947         956         955
         947         948         957         956
         948         949         958         957
         949         950         959         958
         950         951         960         959
         951         952         961         960
         952         953         962         961
         954         955         964         963
         955         956         965         964
         956         957         966         965
         957         958         967         966
         958         959         968         967
         959         960         969         968
         960         961         970         969
         961         962         971         970
         972         973         982         981
         973         974         983         982
         974         975         984         983
         975         976         985         984
         976         977         986         985
         977         978         987         986
         978         979         988         987
         979         980         989         988
         981         982         991         990
         982         983         992         991
         983         984         993         992
         984         985         994         993
         985         986         995         994
         986         987         996         995
         987         988         997         996
         988         989         998         997
         990         991        1000         999
         991         992        1001        1000
         992         993        1002        1001
         993         994        1003        1002
         994         995        1004        1003
         995         996        1005        1004
         996         997        1006        1005
         997         998        1007        1006
         999        1000        1009        1008
        1000        1001        1010        1009
        1001        1002        1011        1010
        1002        1003        1012        1011
        1003        1004        1013        1012
        1004        1005        1014        1013
        1005        1006        1015        1014
        1006        1007        1016        1015
        1008        1009        1018        1017
        1009        1010        1019        1018
        1010        1011        1020        1019
        1011        1012        1021        1020
        1012        1013        1022        1021
        1013        1014        1023        1022
        1014        1015        1024        1023
        1015        1016        1025        1024
        1017        1018        1027        1026
        1018        1019        1028        1027
        1019        1020        1029        1028
        1020        1021        1030        1029
        1021        1022        1031        1030
        1022        1023        1032        1031
        1023        1024        1033        1032
        1024        1025        1034        1033
        1026        1027        1036        1035
        1027        1028        1037        1036
        1028        1029        1038        1037
        1029        1030        1039        1038
        1030        1031        1040        1039
        1031        1032        1041        1040
        1032        1033        1042        1041
        1033        1034        1043        1042
        1035        1036        1045        1044
        1036        1037        1046        1045
        1037        1038        1047        1046
        1038        1039        1048        1047
        1039        1040        1049        1048
        1040        1041        1050        1049
        1041        1042        1051        1050
        1042        1043        1052        1051
        1053        1054        1063        1062
        1054        1055        1064        1063
        1055        1056        1065        1064
        1056        1057        1066        1065
        1057        1058        1067        1066
        1058        1059        1068        1067
        1059        1060        1069        1068
        1060        1061        1070        1069
        1062        1063        1072        1071
        1063        1064        1073        1072
        1064        1065        1074        1073
        1065        1066        1075        1074
        1066        1067        1076        1075
        1067        1068        1077        1076
        1068        1069        1078        1077
        1069        1070        1079        1078
        1071        1072        1081        1080
        1072        1073        1082        1081
        1073        1074        1083        1082
        1074        1075        1084        1083
        1075        1076        1085        1084
        1076        1077        1086        1085
        1077        1078        1087        1086
        1078        1079        1088        1087
        1080        1081        1090        1089
        1081        1082        1091        1090
        1082        1083        1092        1091
        1083        1084        1093        1092
        1084        1085        1094        1093
        1085        1086        1095        1094
        1086        1087        1096        1095
        1087        1088        1097        1096
        1089        1090        1099        1098
        1090        1091        1100        1099
        1091        1092        1101        1100
        1092        1093        1102        1101
        1093        1094        1103        1102
        1094        1095        1104        1103
        1095        1096        1105        1104
        1096        1097        1106        1105
        1098        1099        1108        1107
        1099        1100        1109        1108
        1100        1101        1110        1109
        1101        1102        1111        1110
        1102        1103        1112        1111
        1103        1104        1113        1112
        1104        1105        1114        1113
        1105        1106        1115        1114
        1107        1108        1117        1116
        1108        1109        1118        1117
        1109        1110        1119        1118
        1110        1111        1120        1119
        1111        1112        1121        1120
        1112        1113        1122        1121
        1113        1114        1123        1122
        1114        1115        1124        1123
        1116        1117        1126        1125
        1117        1118        1127        1126
        1118        1119        1128        1127
        1119        1120        1129        1128
        1120        1121        1130        1129
        1121        1122        1131        1130
        1122        1123        1132        1131
        1123        1124        1133        1132
        1134        1135        1144        1143
        1135        1136        1145        1144
        1136        1137        1146        1145
        1137        1138        1147        1146
        1138        1139        1148        1147
        1139        1140        1149        1148
        1140        1141        1150        1149
        1141        1142        1151        1150
        1143        1144        1153        1152
        1144        1145        1154        1153
        1145        1146        1155        1154
        1146        1147        1156        1155
        1147        1148        1157        1156
        1148        1149        1158        1157
        1149        1150        1159        1158
        1150        1151        1160        1159
        1152        1153        1162        1161
        1153        1154        1163        1162
        1154        1155        1164        1163
        1155        1156        1165        1164
        1156        1157        1166        1165
        1157        1158        1167        1166
        1158        1159        1168        1167
        1159        1160        1169        1168
        1161        1162        1171        1170
        1162        1163        1172        1171
        1163        1164        1173        1172
        1164        1165        1174        1173
        1165        1166        1175        1174
        1166        1167        1176        1175
        1167        1168        1177        1176
        1168        1169        1178        1177
        1170        1171        1180        1179
        1171        1172        1181        1180
        1172        1173        1182        1181
        1173        1174        1183        1182
        1174        1175        1184        1183
        1175        1176        1185        1184
        1176        1177        1186        1185
        1177        1178        1187        1186
        1179        1180        1189        1188
        1180        1181        1190        1189
        1181        1182        1191        1190
        1182        1183        1192        1191
        1183        1184        1193        1192
        1184        1185        1194        1193
        1185        1186        1195        1194
        1186        1187        1196        1195
        1188        1189        1198        1197
        1189        1190        1199        1198
        1190        1191        1200        1199
        1191        1192        1201        1200
        1192        1193        1202        1201
        1193        1194        1203        1202
        1194        1195        1204        1203
        1195        1196        1205        1204
        1197        1198        1207        1206
        1198        1199        1208        1207
        1199        1200        1209        1208
        1200        1201        1210        1209
        1201        1202        1211        1210
        1202        1203        1212        1211
        1203        1204        1213        1212
        1204        1205        1214        1213
        1215        1216        1225        1224
        1216        1217        1226        1225
        1217        1218        1227        1226
        1218        1219        1228        1227
        1219        1220        1229        1228
        1220        1221        1230        1229
        1221        1222        1231        1230
        1222        1223        1232        1231
        1224        1225        1234        1233
        1225        1226        1235        1234
        1226        1227        1236        1235
        1227        1228        1237        1236
        1228        1229        1238        1237
        1229        1230        1239        1238
        1230        1231        1240        1239
        1231        1232        1241        1240
        1233        1234        1243        1242
        1234        1235        1244        1243
        1235        1236        1245        1244
        1236        1237        1246        1245
        1237        1238        1247        1246
        1238        1239        1248        1247
        1239        1240        1249        1248
        1240        1241        1250        1249
        1242        1243        1252        1251
        1243        1244        1253        1252
        1244        1245        1254        1253
        1245        1246        1255        1254
        1246        1247        1256        1255
        1247        1248        1257        1256
        1248        1249        1258        1257
        1249        1250        1259        1258
        1251        1252        1261        1260
        1252        1253        1262        1261
        1253        1254        1263        1262
        1254        1255        1264        1263
        1255        1256        1265        1264
        1256        1257        1266        1265
        1257        1258        1267        1266
        1258        1259        1268        1267
        1260        1261        1270        1269
        1261        1262        1271        1270
        1262        1263        1272        1271
        1263        1264        1273        1272
        1264        1265        1274        1273
        1265        1266        1275        1274
        1266        1267        1276        1275
        1267        1268        1277        1276
        1269        1270        1279        1278
        1270        1271        1280        1279
        1271        1272        1281        1280
        1272        1273        1282        1281
        1273        1274        1283        1282
        1274        1275        1284        1283
        1275        1276        1285        1284
        1276        1277        1286        1285
        1278        1279        1288        1287
        1279        1280        1289        1288
        1280        1281        1290        1289
        1281        1282        1291        1290
        1282        1283        1292        1291
        1283        1284        1293        1292
        1284        1285        1294        1293
        1285        1286        1295        1294
 </DataArray>
 <DataArray  type="Int32"  Name="offsets"  format="ascii"> 
           4
           8
          12
          16
          20
          24
          28
          32
          36
          40
          44
          48
          52
          56
          60
          64
          68
          72
          76
          80
          84
          88
          92
          96
         100
         104
         108
         112
         116
         120
         124
         128
         132
         136
         140
         144
         148
         152
         156
         160
         164
         168
         172
         176
         180
         184
         188
         192
         196
         200
         204
         208
         212
         216
         220
         224
         228
         232
         236
         240
         244
         248
         252
         256
         260
         264
         268
         272
         276
         280
         284
         288
         292
         296
         300
         304
         308
         312
         316
         320
         324
         328
         332
         336
         340
         344
         348
         352
         356
         360
         364
         368
         372
         376
         380
         384
         388
         392
         396
         400
         404
         408
         412
         416
         420
         424
         428
         432
         436
         440
         444
         448
         452
         456
         460
         464
         468
         472
         476
         480
         484
         488
         492
         496
         500
         504
         508
         512
         516
         520
         524
         528
         532
         536
         540
         544
         548
         552
         556
         560
         564
         568
         572
         576
         580
         584
         588
         592
         596
         600
         604
         608
         612
         616
         620
         624
         628
         632
         636
         640
         644
         648
         652
         656
         660
         664
         668
         672
         676
         680
         684
         688
         692
         696
         700
         704
         708
         712
         716
         720
         724
         728
         732
         736
         740
         744
         748
         752
         756
         760
         764
         768
         772
         776
         780
         784
         788
         792
         796
         800
         804
         808
         812
         816
         820
         824
         828
         832
         836
         840
         844
         848
         852
         856
         860
         864
         868
         872
         876
         880
         884
         888
         892
         896
         900
         904
         908
         912
         916
         920
         924
         928
         932
         936
         940
         944
         948
         952
         956
         960
         964
         968
         972
         976
         980
         984
         988
         992
         996
        1000
        1004
        1008
        1012
        1016
        1020
        1024
        1028
        1032
        1036
        1040
        1044
        1048
        1052
        1056
        1060
        1064
        1068
        1072
        1076
        1080
        1084
        1088
        1092
        1096
        1100
        1104
        1108
        1112
        1116
        1120
        1124
        1128
        1132
        1136
        1140
        1144
        1148
        1152
        1156
        1160
        1164
        1168
        1172
        1176
        1180
        1184
        1188
        1192
        1196
        1200
        1204
        1208
        1212
        1216
        1220
        1224
        1228
        1232
        1236
        1240
        1244
        1248
        1252
        1256
        1260
        1264
        1268
        1272
        1276
        1280
        1284
        1288
        1292
        1296
        1300
        1304
        1308
        1312
        1316
        1320
        1324
        1328
        1332
        1336
        1340
        1344
        1348
        1352
        1356
        1360
        1364
        1368
        1372
        1376
        1380
        1384
        1388
        1392
        1396
        1400
        1404
        1408
        1412
        1416
        1420
        1424
        1428
        1432
        1436
        1440
        1444
        1448
        1452
        1456
        1460
        1464
        1468
        1472
        1476
        1480
        1484
        1488
        1492
        1496
        1500
        1504
        1508
        1512
        1516
        1520
        1524
        1528
        1532
        1536
        1540
        1544
        1548
        1552
        1556
        1560
        1564
        1568
        1572
        1576
        1580
        1584
        1588
        1592
        1596
        1600
        1604
        1608
        1612
        1616
        1620
        1624
        1628
        1632
        1636
        1640
        1644
        1648
        1652
        1656
        1660
        1664
        1668
        1672
        1676
        1680
        1684
        1688
        1692
        1696
        1700
        1704
        1708
        1712
        1716
        1720
        1724
        1728
        1732
        1736
        1740
        1744
        1748
        1752
        1756
        1760
        1764
        1768
        1772
        1776
        1780
        1784
        1788
        1792
        1796
        1800
        1804
        1808
        1812
        1816
        1820
        1824
        1828
        1832
        1836
        1840
        1844
        1848
        1852
        1856
        1860
        1864
        1868
        1872
        1876
        1880
        1884
        1888
        1892
        1896
        1900
        1904
        1908
        1912
        1916
        1920
        1924
        1928
        1932
        1936
        1940
        1944
        1948
        1952
        1956
        1960
        1964
        1968
        1972
        1976
        1980
        1984
        1988
        1992
        1996
        2000
        2004
        2008
        2012
        2016
        2020
        2024
        2028
        2032
        2036
        2040
        2044
        2048
        2052
        2056
        2060
        2064
        2068
        2072
        2076
        2080
        2084
        2088
        2092
        2096
        2100
        2104
        2108
        2112
        2116
        2120
        2124
        2128
        2132
        2136
        2140
        2144
        2148
        2152
        2156
        2160
        2164
        2168
        2172
        2176
        2180
        2184
        2188
        2192
        2196
        2200
        2204
        2208
        2212
        2216
        2220
        2224
        2228
        2232
        2236
        2240
        2244
        2248
        2252
        2256
        2260
        2264
        2268
        2272
        2276
        2280
        2284
        2288
        2292
        2296
        2300
        2304
        2308
        2312
        2316
        2320
        2324
        2328
        2332
        2336
        2340
        2344
        2348
        2352
        2356
        2360
        2364
        2368
        2372
        2376
        2380
        2384
        2388
        2392
        2396
        2400
        2404
        2408
        2412
        2416
        2420
        2424
        2428
        2432
        2436
        2440
        2444
        2448
        2452
        2456
        2460
        2464
        2468
        2472
        2476
        2480
        2484
        2488
        2492
        2496
        2500
        2504
        2508
        2512
        2516
        2520
        2524
        2528
        2532
        2536
        2540
        2544
        2548
        2552
        2556
        2560
        2564
        2568
        2572
        2576
        2580
        2584
        2588
        2592
        2596
        2600
        2604
        2608
        2612
        2616
        2620
        2624
        2628
        2632
        2636
        2640
        2644
        2648
        2652
        2656
        2660
        2664
        2668
        2672
        2676
        2680
        2684
        2688
        2692
        2696
        2700
        2704
        2708
        2712
        2716
        2720
        2724
        2728
        2732
        2736
        2740
        2744
        2748
        2752
        2756
        2760
        2764
        2768
        2772
        2776
        2780
        2784
        2788
        2792
        2796
        2800
        2804
        2808
        2812
        2816
        2820
        2824
        2828
        2832
        2836
        2840
        2844
        2848
        2852
        2856
        2860
        2864
        2868
        2872
        2876
        2880
        2884
        2888
        2892
        2896
        2900
        2904
        2908
        2912
        2916
        2920
        2924
        2928
        2932
        2936
        2940
        2944
        2948
        2952
        2956
        2960
        2964
        2968
        2972
        2976
        2980
        2984
        2988
        2992
        2996
        3000
        3004
        3008
        3012
        3016
        3020
        3024
        3028
        3032
        3036
        3040
        3044
        3048
        3052
        3056
        3060
        3064
        3068
        3072
        3076
        3080
        3084
        3088
        3092
        3096
        3100
        3104
        3108
        3112
        3116
        3120
        3124
        3128
        3132
        3136
        3140
        3144
        3148
        3152
        3156
        3160
        3164
        3168
        3172
        3176
        3180
        3184
        3188
        3192
        3196
        3200
        3204
        3208
        3212
        3216
        3220
        3224
        3228
        3232
        3236
        3240
        3244
        3248
        3252
        3256
        3260
        3264
        3268
        3272
        3276
        3280
        3284
        3288
        3292
        3296
        3300
        3304
        3308
        3312
        3316
        3320
        3324
        3328
        3332
        3336
        3340
        3344
        3348
        3352
        3356
        3360
        3364
        3368
        3372
        3376
        3380
        3384
        3388
        3392
        3396
        3400
        3404
        3408
        3412
        3416
        3420
        3424
        3428
        3432
        3436
        3440
        3444
        3448
        3452
        3456
        3460
        3464
        3468
        3472
        3476
        3480
        3484
        3488
        3492
        3496
        3500
        3504
        3508
        3512
        3516
        3520
        3524
        3528
        3532
        3536
        3540
        3544
        3548
        3552
        3556
        3560
        3564
        3568
        3572
        3576
        3580
        3584
        3588
        3592
        3596
        3600
        3604
        3608
        3612
        3616
        3620
        3624
        3628
        3632
        3636
        3640
        3644
        3648
        3652
        3656
        3660
        3664
        3668
        3672
        3676
        3680
        3684
        3688
        3692
        3696
        3700
        3704
        3708
        3712
        3716
        3720
        3724
        3728
        3732
        3736
        3740
        3744
        3748
        3752
        3756
        3760
        3764
        3768
        3772
        3776
        3780
        3784
        3788
        3792
        3796
        3800
        3804
        3808
        3812
        3816
        3820
        3824
        3828
        3832
        3836
        3840
        3844
        3848
        3852
        3856
        3860
        3864
        3868
        3872
        3876
        3880
        3884
        3888
        3892
        3896
        3900
        3904
        3908
        3912
        3916
        3920
        3924
        3928
        3932
        3936
        3940
        3944
        3948
        3952
        3956
        3960
        3964
        3968
        3972
        3976
        3980
        3984
        3988
        3992
        3996
        4000
        4004
        4008
        4012
        4016
        4020
        4024
        4028
        4032
        4036
        4040
        4044
        4048
        4052
        4056
        4060
        4064
        4068
        4072
        4076
        4080
        4084
        4088
        4092
        4096
 </DataArray>
 <DataArray  type="UInt8"  Name="types"  format="ascii">
 9
 9
 9
 9
 9
 9
 9
 9
 9
 9
 9
 9
 9
 9
 9
 9
 9
 9
 9
 9
 9
 9
 9
 9
 9
 9
 9
 9
 9
 9
 9
 9
 9
 9
 9
 9
 9
 9
 9
 9
 9
 9
 9
 9
 9
 9
 9
 9
 9
 9
 9
 9
 9
 9
 9
 9
 9
 9
 9
 9
 9
 9
 9
 9
 9
 9
 9
 9
 9
 9
 9
 9
 9
 9
 9
 9
 9
 9
 9
 9
 9
 9
 9
 9
 9
 9
 9
 9
 9
 9
 9
 9
 9
 9
 9
 9
 9
 9
 9
 9
 9
 9
 9
 9
 9
 9
 9
 9
 9
 9
 9
 9
 9
 9
 9
 9
 9
 9
 9
 9
 9
 9
 9
 9
 9
 9
 9
 9
 9
 9
 9
 9
 9
 9
 9
 9
 9
 9
 9
 9
 9
 9
 9
 9
 9
 9
 9
 9
 9
 9
 9
 9
 9
 9
 9
 9
 9
 9
 9
 9
 9
 9
 9
 9
 9
 9
 9
 9
 9
 9
 9
 9
 9
 9
 9
 9
 9
 9
 9
 9
 9
 9
 9
 9
 9
 9
 9
 9
 9
 9
 9
 9
 9
 9
 9
 9
 9
 9
 9
 9
 9
 9
 9
 9
 9
 9
 9
 9
 9
 9
 9
 9
 9
 9
 9
 9
 9
 9
 9
 9
 9
 9
 9
 9
 9
 9
 9
 9
 9
 9
 9
 9
 9
 9
 9
 9
 9
 9
 9
 9
 9
 9
 9
 9
 9
 9
 9
 9
 9
 9
 9
 9
 9
 9
 9
 9
 9
 9
 9
 9
 9
 9
 9
 9
 9
 9
 9
 9
 9
 9
 9
 9
 9
 9
 9
 9
 9
 9
 9
 9
 9
 9
 9
 9
 9
 9
 9
 9
 9
 9
 9
 9
 9
 9
 9
 9
 9
 9
 9
 9
 9
 9
 9
 9
 9
 9
 9
 9
 9
 9
 9
 9
 9
 9
 9
 9
 9
 9
 9
 9
 9
 9
 9
 9
 9
 9
 9
 9
 9
 9
 9
 9
 9
 9
 9
 9
 9
 9
 9
 9
 9
 9
 9
 9
 9
 9
 9
 9
 9
 9
 9
 9
 9
 9
 9
 9
 9
 9
 9
 9
 9
 9
 9
 9
 9
 9
 9
 9
 9
 9
 9
 9
 9
 9
 9
 9
 9
 9
 9
 9
 9
 9
 9
 9
 9
 9
 9
 9
 9
 9
 9
 9
 9
 9
 9
 9
 9
 9
 9
 9
 9
 9
 9
 9
 9
 9
 9
 9
 9
 9
 9
 9
 9
 9
 9
 9
 9
 9
 9
 9
 9
 9
 9
 9
 9
 9
 9
 9
 9
 9
 9
 9
 9
 9
 9
 9
 9
 9
 9
 9
 9
 9
 9
 9
 9
 9
 9
 9
 9
 9
 9
 9
 9
 9
 9
 9
 9
 9
 9
 9
 9
 9
 9
 9
 9
 9
 9
 9
 9
 9
 9
 9
 9
 9
 9
 9
 9
 9
 9
 9
 9
 9
 9
 9
 9
 9
 9
 9
 9
 9
 9
 9
 9
 9
 9
 9
 9
 9
 9
 9
 9
 9
 9
 9
 9
 9
 9
 9
 9
 9
 9
 9
 9
 9
 9
 9
 9
 9
 9
 9
 9
 9
 9
 9
 9
 9
 9
 9
 9
 9
 9
 9
 9
 9
 9
 9
 9
 9
 9
 9
 9
 9
 9
 9
 9
 9
 9
 9
 9
 9
 9
 9
 9
 9
 9
 9
 9
 9
 9
 9
 9
 9
 9
 9
 9
 9
 9
 9
 9
 9
 9
 9
 9
 9
 9
 9
 9
 9
 9
 9
 9
 9
 9
 9
 9
 9
 9
 9
 9
 9
 9
 9
 9
 9
 9
 9
 9
 9
 9
 9
 9
 9
 9
 9
 9
 9
 9
 9
 9
 9
 9
 9
 9
 9
 9
 9
 9
 9
 9
 9
 9
 9
 9
 9
 9
 9
 9
 9
 9
 9
 9
 9
 9
 9
 9
 9
 9
 9
 9
 9
 9
 9
 9
 9
 9
 9
 9
 9
 9
 9
 9
 9
 9
 9
 9
 9
 9
 9
 9
 9
 9
 9
 9
 9
 9
 9
 9
 9
 9
 9
 9
 9
 9
 9
 9
 9
 9
 9
 9
 9
 9
 9
 9
 9
 9
 9
 9
 9
 9
 9
 9
 9
 9
 9
 9
 9
 9
 9
 9
 9
 9
 9
 9
 9
 9
 9
 9
 9
 9
 9
 9
 9
 9
 9
 9
 9
 9
 9
 9
 9
 9
 9
 9
 9
 9
 9
 9
 9
 9
 9
 9
 9
 9
 9
 9
 9
 9
 9
 9
 9
 9
 9
 9
 9
 9
 9
 9
 9
 9
 9
 9
 9
 9
 9
 9
 9
 9
 9
 9
 9
 9
 9
 9
 9
 9
 9
 9
 9
 9
 9
 9
 9
 9
 9
 9
 9
 9
 9
 9
 9
 9
 9
 9
 9
 9
 9
 9
 9
 9
 9
 9
 9
 9
 9
 9
 9
 9
 9
 9
 9
 9
 9
 9
 9
 9
 9
 9
 9
 9
 9
 9
 9
 9
 9
 9
 9
 9
 9
 9
 9
 9
 9
 9
 9
 9
 9
 9
 9
 9
 9
 9
 9
 9
 9
 9
 9
 9
 9
 9
 9
 9
 9
 9
 9
 9
 9
 9
 9
 9
 9
 9
 9
 9
 9
 9
 9
 9
 9
 9
 9
 9
 9
 9
 9
 9
 9
 9
 9
 9
 9
 9
 9
 9
 9
 9
 9
 9
 9
 9
 9
 9
 9
 9
 9
 9
 9
 9
 9
 9
 9
 9
 9
 9
 9
 9
 9
 9
 9
 9
 9
 9
 9
 9
 9
 9
 9
 9
 9
 9
 9
 9
 9
 9
 9
 9
 9
 9
 9
 9
 9
 9
 9
 9
 9
 9
 9
 9
 9
 9
 9
 9
 9
 9
 9
 9
 9
 9
 9
 9
 9
 9
 9
 9
 9
 9
 9
 9
 9
 9
 9
 9
 9
 9
 9
 9
 9
 9
 9
 9
 9
 9
 9
 9
 9
 9
 9
 9
 9
 9
 9
 9
 9
 9
 9
 9
 9
 9
 9
 9
 9
 9
 9
 9
 9
 9
 9
 9
 9
 9
 9
 9
 9
 9
 9
 9
 9
 9
 9
 9
 9
 9
 9
 9
 9
 9
 9
 9
 9
 9
 9
 9
 9
 9
 9
 9
 9
 9
 9
 9
 9
 9
 9
 9
 9
 </DataArray>
 </Cells> 
 <PointData>
 <DataArray  type="Float64" Name="disp" NumberOfComponents="3" format="ascii">
   3.0059841930439562E-006   7.1812055320371544E-006   0.0000000000000000     
   3.0369900472713986E-006   7.3760406021331806E-006   0.0000000000000000     
   3.0675076249551596E-006   7.5727982837894215E-006   0.0000000000000000     
   3.0975369243436803E-006   7.7714480585249142E-006   0.0000000000000000     
   3.1270779436854015E-006   7.9719594078586956E-006   0.0000000000000000     
   3.1561306812287645E-006   8.1743018133098060E-006   0.0000000000000000     
   3.1846951352222081E-006   8.3784447563972773E-006   0.0000000000000000     
   3.2127713039141761E-006   8.5843577186401516E-006   0.0000000000000000     
   3.2403591855531079E-006   8.7920101815574657E-006   0.0000000000000000     
   2.8126704160867832E-006   7.1721234966768895E-006   0.0000000000000000     
   2.8417384081161501E-006   7.3671004771550935E-006   0.0000000000000000     
   2.8703486382583856E-006   7.5640000674391157E-006   0.0000000000000000     
   2.8985011055369108E-006   7.7627917494998207E-006   0.0000000000000000     
   2.9261958089751463E-006   7.9634450053080798E-006   0.0000000000000000     
   2.9534327475965114E-006   8.1659293168347595E-006   0.0000000000000000     
   2.9802119204244261E-006   8.3702141660507244E-006   0.0000000000000000     
   3.0065333264823115E-006   8.5762690349268426E-006   0.0000000000000000     
   3.0323969647935877E-006   8.7840634054339837E-006   0.0000000000000000     
   2.6204095004161910E-006   7.1636274008938279E-006   0.0000000000000000     
   2.6475396287095398E-006   7.3587371343862112E-006   0.0000000000000000     
   2.6742425107306290E-006   7.5557694770125131E-006   0.0000000000000000     
   2.7005181461088905E-006   7.7546939109071323E-006   0.0000000000000000     
   2.7263665344737568E-006   7.9554799182044717E-006   0.0000000000000000     
   2.7517876754546635E-006   8.1580969810389312E-006   0.0000000000000000     
   2.7767815686810406E-006   8.3625145815449118E-006   0.0000000000000000     
   2.8013482137823222E-006   8.5687022018568150E-006   0.0000000000000000     
   2.8254876103879424E-006   8.7766293241090403E-006   0.0000000000000000     
   2.4291312545428582E-006   7.1557172443463842E-006   0.0000000000000000     
   2.4543235178349729E-006   7.3509505739355739E-006   0.0000000000000000     
   2.4791190512711737E-006   7.5481065127966147E-006   0.0000000000000000     
   2.5035178549375041E-006   7.7471545430102085E-006   0.0000000000000000     
   2.5275199289200072E-006   7.9480641466570658E-006   0.0000000000000000     
   2.5511252733047266E-006   8.1508048058178835E-006   0.0000000000000000     
   2.5743338881777047E-006   8.3553460025733745E-006   0.0000000000000000     
   2.5971457736249850E-006   8.5616572190042365E-006   0.0000000000000000     
   2.6195609297326106E-006   8.7697079371911757E-006   0.0000000000000000     
   2.2387654869774625E-006   7.1483930266929771E-006   0.0000000000000000     
   2.2620198842758505E-006   7.3437407959122167E-006   0.0000000000000000     
   2.2849080687793050E-006   7.5410111750784156E-006   0.0000000000000000     
   2.3074300409006398E-006   7.7401736460724157E-006   0.0000000000000000     
   2.3295858010526695E-006   7.9411976907750565E-006   0.0000000000000000     
   2.3513753496482096E-006   8.1440527910671909E-006   0.0000000000000000     
   2.3727986871000727E-006   8.3487084288296492E-006   0.0000000000000000     
   2.3938558138210754E-006   8.5551340859432800E-006   0.0000000000000000     
   2.4145467302240316E-006   8.7632992442889287E-006   0.0000000000000000     
   2.0492420062306813E-006   7.1416547475920244E-006   0.0000000000000000     
   2.0705585368155776E-006   7.3371078004251783E-006   0.0000000000000000     
   2.0915393721543081E-006   7.5344834641449135E-006   0.0000000000000000     
   2.1121845128761840E-006   7.7337512203571100E-006   0.0000000000000000     
   2.1324939596105173E-006   7.9348805506676466E-006   0.0000000000000000     
   2.1524677129866188E-006   8.1378409366824092E-006   0.0000000000000000     
   2.1721057736337988E-006   8.3426018600072760E-006   0.0000000000000000     
   2.1914081421813696E-006   8.5491328022481216E-006   0.0000000000000000     
   2.2103748192586422E-006   8.7574032450108395E-006   0.0000000000000000     
   1.8604906208131930E-006   7.1355024067019398E-006   0.0000000000000000     
   1.8798692842375554E-006   7.3310515875834963E-006   0.0000000000000000     
   1.8989427702954670E-006   7.5285233802831069E-006   0.0000000000000000     
   1.9177110797420241E-006   7.7278872661276558E-006   0.0000000000000000     
   1.9361742133323234E-006   7.9291127264440272E-006   0.0000000000000000     
   1.9543321718214627E-006   8.1321692425591111E-006   0.0000000000000000     
   1.9721849559645373E-006   8.3370262957997831E-006   0.0000000000000000     
   1.9897325665166456E-006   8.5436533674929325E-006   0.0000000000000000     
   2.0069750042328828E-006   8.7520199389654451E-006   0.0000000000000000     
   1.6724411392356754E-006   7.1299360036811428E-006   0.0000000000000000     
   1.6898819353251886E-006   7.3255721574962100E-006   0.0000000000000000     
   1.7070480721020675E-006   7.5231309237799967E-006   0.0000000000000000     
   1.7239395503760467E-006   7.7225817836474178E-006   0.0000000000000000     
   1.7405563709568616E-006   7.9238942182133977E-006   0.0000000000000000     
   1.7568985346542479E-006   8.1270377085928556E-006   0.0000000000000000     
   1.7729660422779419E-006   8.3319817359007140E-006   0.0000000000000000     
   1.7887588946376781E-006   8.5386957812518821E-006   0.0000000000000000     
   1.8042770925431926E-006   8.7471493257612859E-006   0.0000000000000000     
   1.4850233700088066E-006   7.1249555381880496E-006   0.0000000000000000     
   1.5005262988618799E-006   7.3206695102723522E-006   0.0000000000000000     
   1.5157850864733934E-006   7.5183060949225713E-006   0.0000000000000000     
   1.5307997336561380E-006   7.7178347731797572E-006   0.0000000000000000     
   1.5455702412229037E-006   7.9192250260849560E-006   0.0000000000000000     
   1.5600966099864823E-006   8.1224463346792189E-006   0.0000000000000000     
   1.5743788407596655E-006   8.3274681800036004E-006   0.0000000000000000     
   1.5884169343552441E-006   8.5342600430991433E-006   0.0000000000000000     
   1.6022108915860093E-006   8.7427914050069055E-006   0.0000000000000000     
   3.2403591855531079E-006   8.7920101815574657E-006   0.0000000000000000     
   3.2674587787197309E-006   9.0013716268032398E-006   0.0000000000000000     
   3.2940700833239210E-006   9.2124115365714351E-006   0.0000000000000000     
   3.3201930996078428E-006   9.4250993931910080E-006   0.0000000000000000     
   3.3458278278136569E-006   9.6394046789908928E-006   0.0000000000000000     
   3.3709742681835282E-006   9.8552968763000474E-006   0.0000000000000000     
   3.3956324209596172E-006   1.0072745467447411E-005   0.0000000000000000     
   3.4198022863840887E-006   1.0291719934761937E-005   0.0000000000000000     
   3.4434838646991055E-006   1.0512189760572575E-005   0.0000000000000000     
   3.0323969647935877E-006   8.7840634054339837E-006   0.0000000000000000     
   3.0578028345323641E-006   8.9935667595450538E-006   0.0000000000000000     
   3.0827509354755094E-006   9.2047485792411446E-006   0.0000000000000000     
   3.1072412675505841E-006   9.4175783465053825E-006   0.0000000000000000     
   3.1312738306851443E-006   9.6320255433208953E-006   0.0000000000000000     
   3.1548486248067502E-006   9.8480596516708180E-006   0.0000000000000000     
   3.1779656498429597E-006   1.0065650153538275E-005   0.0000000000000000     
   3.2006249057213306E-006   1.0284766530906398E-005   0.0000000000000000     
   3.2228263923694240E-006   1.0505378265758318E-005   0.0000000000000000     
   2.8254876103879424E-006   8.7766293241090403E-006   0.0000000000000000     
   2.8491997581449150E-006   8.9862654303970018E-006   0.0000000000000000     
   2.8724846567705813E-006   9.1975800026601444E-006   0.0000000000000000     
   2.8953423059998666E-006   9.4105425227989357E-006   0.0000000000000000     
   2.9177727055676923E-006   9.6251224727138300E-006   0.0000000000000000     
   2.9397758552089846E-006   9.8412893343052865E-006   0.0000000000000000     
   2.9613517546586637E-006   1.0059012589473765E-005   0.0000000000000000     
   2.9825004036516560E-006   1.0278261720119728E-005   0.0000000000000000     
   3.0032218019228848E-006   1.0499006208143638E-005   0.0000000000000000     
   2.6195609297326106E-006   8.7697079371911757E-006   0.0000000000000000     
   2.6415793565127674E-006   8.9794676392040428E-006   0.0000000000000000     
   2.6632010536822114E-006   9.1909058070692728E-006   0.0000000000000000     
   2.6844260208838391E-006   9.4039919228024369E-006   0.0000000000000000     
   2.7052542577605515E-006   9.6186954684191229E-006   0.0000000000000000     
   2.7256857639552458E-006   9.8349859259349054E-006   0.0000000000000000     
   2.7457205391108193E-006   1.0052832777365359E-005   0.0000000000000000     
   2.7653585828701727E-006   1.0272205504726064E-005   0.0000000000000000     
   2.7845998948762025E-006   1.0493073590032603E-005   0.0000000000000000     
   2.4145467302240316E-006   8.7632992442889287E-006   0.0000000000000000     
   2.4348714365913056E-006   8.9731733858111478E-006   0.0000000000000000     
   2.4548299326834712E-006   9.1847259927093500E-006   0.0000000000000000     
   2.4744222181306522E-006   9.3979265472466603E-006   0.0000000000000000     
   2.4936482925629703E-006   9.6127445316862087E-006   0.0000000000000000     
   2.5125081556105499E-006   9.8291494282911182E-006   0.0000000000000000     
   2.5310018069035139E-006   1.0047110719324514E-005   0.0000000000000000     
   2.5491292460719854E-006   1.0266597887049526E-005   0.0000000000000000     
   2.5668904727460887E-006   1.0487580413729275E-005   0.0000000000000000     
   2.2103748192586422E-006   8.7574032450108395E-006   0.0000000000000000     
   2.2290058053359146E-006   8.9673826700632775E-006   0.0000000000000000     
   2.2473011002474393E-006   9.1790405598212094E-006   0.0000000000000000     
   2.2652607036684543E-006   9.3923463968623736E-006   0.0000000000000000     
   2.2828846152741989E-006   9.6072696637645151E-006   0.0000000000000000     
   2.3001728347399133E-006   9.8237798431053808E-006   0.0000000000000000     
   2.3171253617408356E-006   1.0041846417462706E-005   0.0000000000000000     
   2.3337421959522049E-006   1.0261438869414245E-005   0.0000000000000000     
   2.3500233370492598E-006   1.0482526681537735E-005   0.0000000000000000     
   2.0069750042328828E-006   8.7520199389654451E-006   0.0000000000000000     
   2.0239122697019783E-006   8.9620954918054013E-006   0.0000000000000000     
   2.0405443628471875E-006   9.1738495086456794E-006   0.0000000000000000     
   2.0568712834253951E-006   9.3872514723803475E-006   0.0000000000000000     
   2.0728930311934868E-006   9.6022708659034750E-006   0.0000000000000000     
   2.0886096059083503E-006   9.8188771721091367E-006   0.0000000000000000     
   2.1040210073268710E-006   1.0037039873891406E-005   0.0000000000000000     
   2.1191272352059353E-006   1.0256728454144349E-005   0.0000000000000000     
   2.1339282893024289E-006   1.0477912395762046E-005   0.0000000000000000     
   1.8042770925431926E-006   8.7471493257612859E-006   0.0000000000000000     
   1.8195206366448824E-006   8.9573118508824832E-006   0.0000000000000000     
   1.8344895269557908E-006   9.1691528394235884E-006   0.0000000000000000     
   1.8491837633296230E-006   9.3826417745313513E-006   0.0000000000000000     
   1.8636033456200834E-006   9.5977481393525129E-006   0.0000000000000000     
   1.8777482736808774E-006   9.8144414170338400E-006   0.0000000000000000     
   1.8916185473657099E-006   1.0032691090722077E-005   0.0000000000000000     
   1.9052141665282848E-006   1.0252466643563971E-005   0.0000000000000000     
   1.9185351310223083E-006   1.0473737558706275E-005   0.0000000000000000     
   1.6022108915860093E-006   8.7427914050069055E-006   0.0000000000000000     
   1.6157607131200099E-006   8.9530317471394925E-006   0.0000000000000000     
   1.6290663990463248E-006   9.1649505523957733E-006   0.0000000000000000     
   1.6421279493092885E-006   9.3785173040461558E-006   0.0000000000000000     
   1.6549453638532383E-006   9.5937014853610719E-006   0.0000000000000000     
   1.6675186426225101E-006   9.8104725796109446E-006   0.0000000000000000     
   1.6798477855614389E-006   1.0028800070066189E-005   0.0000000000000000     
   1.6919327926143615E-006   1.0248653439997231E-005   0.0000000000000000     
   1.7037736637256139E-006   1.0470002172674497E-005   0.0000000000000000     
   3.4434838646991055E-006   1.0512189760572575E-005   0.0000000000000000     
   3.4666771545702206E-006   1.0734124425367532E-005   0.0000000000000000     
   3.4893821483565603E-006   1.0957493402272126E-005   0.0000000000000000     
   3.5115988368406391E-006   1.1182266162570929E-005   0.0000000000000000     
   3.5333272108049713E-006   1.1408412177548511E-005   0.0000000000000000     
   3.5545672610320750E-006   1.1635900918489453E-005   0.0000000000000000     
   3.5753189783044651E-006   1.1864701856678329E-005   0.0000000000000000     
   3.5955823534046558E-006   1.2094784463399716E-005   0.0000000000000000     
   3.6153573771151652E-006   1.2326118209938190E-005   0.0000000000000000     
   3.2228263923694240E-006   1.0505378265758318E-005   0.0000000000000000     
   3.2445701089746984E-006   1.0727454838405079E-005   0.0000000000000000     
   3.2658560517642214E-006   1.0950965722469395E-005   0.0000000000000000     
   3.2866842162249662E-006   1.1175880389901901E-005   0.0000000000000000     
   3.3070545978439019E-006   1.1402168312653222E-005   0.0000000000000000     
   3.3269671921079964E-006   1.1629798962673991E-005   0.0000000000000000     
   3.3464219945042241E-006   1.1858741811914844E-005   0.0000000000000000     
   3.3654190005195534E-006   1.2088966332326405E-005   0.0000000000000000     
   3.3839582056409541E-006   1.2320441995859306E-005   0.0000000000000000     
   3.0032218019228848E-006   1.0499006208143638E-005   0.0000000000000000     
   3.0235159490401461E-006   1.0721215533837351E-005   0.0000000000000000     
   3.0433828439027322E-006   1.0944859171058374E-005   0.0000000000000000     
   3.0628224852428107E-006   1.1169906592055601E-005   0.0000000000000000     
   3.0818348717925448E-006   1.1396327269077939E-005   0.0000000000000000     
   3.1004200022841024E-006   1.1624090674374289E-005   0.0000000000000000     
   3.1185778754496491E-006   1.1853166280193561E-005   0.0000000000000000     
   3.1363084900213499E-006   1.2083523558784645E-005   0.0000000000000000     
   3.1536118447313718E-006   1.2315131982396451E-005   0.0000000000000000     
   2.7845998948762025E-006   1.0493073590032603E-005   0.0000000000000000     
   2.8034444749566287E-006   1.0715406513689196E-005   0.0000000000000000     
   2.8218923236784630E-006   1.0939173749654685E-005   0.0000000000000000     
   2.8399434417935357E-006   1.1164344770276551E-005   0.0000000000000000     
   2.8575978300536789E-006   1.1390889047902272E-005   0.0000000000000000     
   2.8748554892107257E-006   1.1618776054879343E-005   0.0000000000000000     
   2.8917164200165074E-006   1.1847975263555237E-005   0.0000000000000000     
   2.9081806232228544E-006   1.2078456146277438E-005   0.0000000000000000     
   2.9242480995816012E-006   1.2310188175393435E-005   0.0000000000000000     
   2.5668904727460887E-006   1.0487580413729275E-005   0.0000000000000000     
   2.5842854869142091E-006   1.0710027779985451E-005   0.0000000000000000     
   2.6013142899977816E-006   1.0933909459873955E-005   0.0000000000000000     
   2.6179768837765046E-006   1.1159194925809258E-005   0.0000000000000000     
   2.6342732700300791E-006   1.1385853650205831E-005   0.0000000000000000     
   2.6502034505381985E-006   1.1613855105478127E-005   0.0000000000000000     
   2.6657674270805635E-006   1.1843168764040616E-005   0.0000000000000000     
   2.6809652014368735E-006   1.2073764098307777E-005   0.0000000000000000     
   2.6957967753868242E-006   1.2305610580694057E-005   0.0000000000000000     
   2.3500233370492598E-006   1.0482526681537735E-005   0.0000000000000000     
   2.3659687851029501E-006   1.0705079334750957E-005   0.0000000000000000     
   2.3815785417670609E-006   1.0929066303331811E-005   0.0000000000000000     
   2.3968526090910846E-006   1.1154457059898257E-005   0.0000000000000000     
   2.4117909891245166E-006   1.1381221077068212E-005   0.0000000000000000     
   2.4263936839168528E-006   1.1609327827459640E-005   0.0000000000000000     
   2.4406606955175854E-006   1.1838746783690468E-005   0.0000000000000000     
   2.4545920259762105E-006   1.2069447418378650E-005   0.0000000000000000     
   2.4681876773422225E-006   1.2301399204142126E-005   0.0000000000000000     
   2.1339282893024289E-006   1.0477912395762046E-005   0.0000000000000000     
   2.1484241697129150E-006   1.0700561180010550E-005   0.0000000000000000     
   2.1626148778926676E-006   1.0924644281643880E-005   0.0000000000000000     
   2.1765004156366365E-006   1.1150131173788037E-005   0.0000000000000000     
   2.1900807847397704E-006   1.1376991329569031E-005   0.0000000000000000     
   2.2033559869970219E-006   1.1605194222112868E-005   0.0000000000000000     
   2.2163260242033398E-006   1.1834709324545536E-005   0.0000000000000000     
   2.2289908981536746E-006   1.2065506109993059E-005   0.0000000000000000     
   2.2413506106429764E-006   1.2297554051581430E-005   0.0000000000000000     
   1.9185351310223083E-006   1.0473737558706275E-005   0.0000000000000000     
   1.9315814409341675E-006   1.0696473317789077E-005   0.0000000000000000     
   1.9443530972809731E-006   1.0920643396425781E-005   0.0000000000000000     
   1.9568501013125234E-006   1.1146217268723139E-005   0.0000000000000000     
   1.9690724542786134E-006   1.1373164408787893E-005   0.0000000000000000     
   1.9810201574290374E-006   1.1601454290726791E-005   0.0000000000000000     
   1.9926932120135914E-006   1.1831056388646571E-005   0.0000000000000000     
   2.0040916192820706E-006   1.2061940176653996E-005   0.0000000000000000     
   2.0152153804842700E-006   1.2294075128855788E-005   0.0000000000000000     
   1.7037736637256139E-006   1.0470002172674497E-005   0.0000000000000000     
   1.7153703989567689E-006   1.0692815750111371E-005   0.0000000000000000     
   1.7267229988383487E-006   1.0917063649293143E-005   0.0000000000000000     
   1.7378314640181131E-006   1.1142715345948071E-005   0.0000000000000000     
   1.7486957951438213E-006   1.1369740315804406E-005   0.0000000000000000     
   1.7593159928632329E-006   1.1598108034590410E-005   0.0000000000000000     
   1.7696920578241079E-006   1.1827787978034338E-005   0.0000000000000000     
   1.7798239906742055E-006   1.2058749621864449E-005   0.0000000000000000     
   1.7897117920612847E-006   1.2290962441808993E-005   0.0000000000000000     
   3.6153573771151652E-006   1.2326118209938190E-005   0.0000000000000000     
   3.6346440431302090E-006   1.2558672557202731E-005   0.0000000000000000     
   3.6534423567908187E-006   1.2792416924599942E-005   0.0000000000000000     
   3.6717523263497240E-006   1.3027320721160829E-005   0.0000000000000000     
   3.6895739600596563E-006   1.3263353355916401E-005   0.0000000000000000     
   3.7069072661733473E-006   1.3500484237897662E-005   0.0000000000000000     
   3.7237522529435276E-006   1.3738682776135621E-005   0.0000000000000000     
   3.7401089286229294E-006   1.3977918379661283E-005   0.0000000000000000     
   3.7559773014642827E-006   1.4218160457505657E-005   0.0000000000000000     
   3.3839582056409541E-006   1.2320441995859306E-005   0.0000000000000000     
   3.4020396108139852E-006   1.2553138261928578E-005   0.0000000000000000     
   3.4196632388185569E-006   1.2787024539806842E-005   0.0000000000000000     
   3.4368291178931695E-006   1.3022070226231119E-005   0.0000000000000000     
   3.4535372762763205E-006   1.3258244717938429E-005   0.0000000000000000     
   3.4697877422065075E-006   1.3495517411665789E-005   0.0000000000000000     
   3.4855805439222300E-006   1.3733857704150227E-005   0.0000000000000000     
   3.5009157096619879E-006   1.3973234992128756E-005   0.0000000000000000     
   3.5157932676642772E-006   1.4213618672338399E-005   0.0000000000000000     
   3.1536118447313718E-006   1.2315131982396451E-005   0.0000000000000000     
   3.1704879441693700E-006   1.2547961009991717E-005   0.0000000000000000     
   3.1869368163549636E-006   1.2781980047388526E-005   0.0000000000000000     
   3.2029584951652595E-006   1.3017158487118793E-005   0.0000000000000000     
   3.2185530144773679E-006   1.3253465721714433E-005   0.0000000000000000     
   3.2337204081683965E-006   1.3490871143707368E-005   0.0000000000000000     
   3.2484607101154539E-006   1.3729344145629512E-005   0.0000000000000000     
   3.2627739541956473E-006   1.3968854120012782E-005   0.0000000000000000     
   3.2766601742860880E-006   1.4209370459389099E-005   0.0000000000000000     
   2.9242480995816012E-006   1.2310188175393435E-005   0.0000000000000000     
   2.9399188544309492E-006   1.2543140810403195E-005   0.0000000000000000     
   2.9551929114545805E-006   1.2777283459416619E-005   0.0000000000000000     
   2.9700702989225533E-006   1.3012585517696090E-005   0.0000000000000000     
   2.9845510451049194E-006   1.3249016380503995E-005   0.0000000000000000     
   2.9986351782717361E-006   1.3486545443102720E-005   0.0000000000000000     
   3.0123227266930559E-006   1.3725142100754647E-005   0.0000000000000000     
   3.0256137186389346E-006   1.3964775748722169E-005   0.0000000000000000     
   3.0385081823794263E-006   1.4205415782267669E-005   0.0000000000000000     
   2.6957967753868242E-006   1.2305610580694057E-005   0.0000000000000000     
   2.7102621528333039E-006   1.2538677672174047E-005   0.0000000000000000     
   2.7243613461719548E-006   1.2772934787962739E-005   0.0000000000000000     
   2.7380943699216082E-006   1.3008351331835244E-005   0.0000000000000000     
   2.7514612386010957E-006   1.3244896707566690E-005   0.0000000000000000     
   2.7644619667292469E-006   1.3482540318932175E-005   0.0000000000000000     
   2.7770965688248944E-006   1.3721251569706814E-005   0.0000000000000000     
   2.7893650594068692E-006   1.3960999863665721E-005   0.0000000000000000     
   2.8012674529940023E-006   1.4201754604584011E-005   0.0000000000000000     
   2.4681876773422225E-006   1.2301399204142126E-005   0.0000000000000000     
   2.4814476506110190E-006   1.2534571604315300E-005   0.0000000000000000     
   2.4943719425616293E-006   1.2768934045098504E-005   0.0000000000000000     
   2.5069605489189845E-006   1.3004455943408504E-005   0.0000000000000000     
   2.5192134654080132E-006   1.3241106716162094E-005   0.0000000000000000     
   2.5311306877536512E-006   1.3478855780276057E-005   0.0000000000000000     
   2.5427122116808283E-006   1.3717672552667181E-005   0.0000000000000000     
   2.5539580329144761E-006   1.3957526450252246E-005   0.0000000000000000     
   2.5648681471795265E-006   1.4198386889948039E-005   0.0000000000000000     
   2.2413506106429764E-006   1.2297554051581430E-005   0.0000000000000000     
   2.2534051589986795E-006   1.2530822615838007E-005   0.0000000000000000     
   2.2651545226781502E-006   1.2765281242895531E-005   0.0000000000000000     
   2.2765986766712387E-006   1.3000899366288095E-005   0.0000000000000000     
   2.2877375959677951E-006   1.3237646419549785E-005   0.0000000000000000     
   2.2985712555576707E-006   1.3475491836214699E-005   0.0000000000000000     
   2.3090996304307139E-006   1.3714405049816920E-005   0.0000000000000000     
   2.3193226955767772E-006   1.3954355493890542E-005   0.0000000000000000     
   2.3292404259857101E-006   1.4195312601969660E-005   0.0000000000000000     
   2.0152153804842700E-006   1.2294075128855788E-005   0.0000000000000000     
   2.0260644892308671E-006   1.2527430715753200E-005   0.0000000000000000     
   2.0366389085760601E-006   1.2761976393425449E-005   0.0000000000000000     
   2.0469385939349299E-006   1.2997681614346263E-005   0.0000000000000000     
   2.0569635007225586E-006   1.3234515830989348E-005   0.0000000000000000     
   2.0667135843540248E-006   1.3472448495828425E-005   0.0000000000000000     
   2.0761888002444107E-006   1.3711449061337206E-005   0.0000000000000000     
   2.0853891038087965E-006   1.3951486979989421E-005   0.0000000000000000     
   2.0943144504622620E-006   1.4192531704258781E-005   0.0000000000000000     
   1.7897117920612847E-006   1.2290962441808993E-005   0.0000000000000000     
   1.7993554525421653E-006   1.2524395913071913E-005   0.0000000000000000     
   1.8087549223099036E-006   1.2759019508759875E-005   0.0000000000000000     
   1.8179101414666178E-006   1.2994802701455240E-005   0.0000000000000000     
   1.8268210501144231E-006   1.3231714963740351E-005   0.0000000000000000     
   1.8354875883554367E-006   1.3469725768197557E-005   0.0000000000000000     
   1.8439096962917756E-006   1.3708804587409220E-005   0.0000000000000000     
   1.8520873140255566E-006   1.3948920893957693E-005   0.0000000000000000     
   1.8600203816588956E-006   1.4190044160425314E-005   0.0000000000000000     
   1.4850233700088066E-006   7.1249555381880496E-006   0.0000000000000000     
   1.5005262988618799E-006   7.3206695102723522E-006   0.0000000000000000     
   1.5157850864733934E-006   7.5183060949225713E-006   0.0000000000000000     
   1.5307997336561380E-006   7.7178347731797572E-006   0.0000000000000000     
   1.5455702412229037E-006   7.9192250260849560E-006   0.0000000000000000     
   1.5600966099864823E-006   8.1224463346792189E-006   0.0000000000000000     
   1.5743788407596655E-006   8.3274681800036004E-006   0.0000000000000000     
   1.5884169343552441E-006   8.5342600430991433E-006   0.0000000000000000     
   1.6022108915860093E-006   8.7427914050069055E-006   0.0000000000000000     
   1.2981671218735402E-006   7.1205610099346420E-006   0.0000000000000000     
   1.3117321838081228E-006   7.3163436459610025E-006   0.0000000000000000     
   1.3250836224616831E-006   7.5140488939056169E-006   0.0000000000000000     
   1.3382214386154546E-006   7.7136462349241705E-006   0.0000000000000000     
   1.3511456330506717E-006   7.9151051501723501E-006   0.0000000000000000     
   1.3638562065485690E-006   8.1183951208058376E-006   0.0000000000000000     
   1.3763531598903795E-006   8.3234856279803183E-006   0.0000000000000000     
   1.3886364938573384E-006   8.5303461528514773E-006   0.0000000000000000     
   1.4007062092306792E-006   8.7389461765750033E-006   0.0000000000000000     
   1.1118022044919348E-006   7.1167524188471720E-006   0.0000000000000000     
   1.1234293998327695E-006   7.3125945643713709E-006   0.0000000000000000     
   1.1348734897309822E-006   7.5103593205550191E-006   0.0000000000000000     
   1.1461344749082339E-006   7.7100161688247162E-006   0.0000000000000000     
   1.1572123560861833E-006   7.9115345906070633E-006   0.0000000000000000     
   1.1681071339864923E-006   8.1148840673286572E-006   0.0000000000000000     
   1.1788188093308210E-006   8.3200340804161065E-006   0.0000000000000000     
   1.1893473828408292E-006   8.5269541112960083E-006   0.0000000000000000     
   1.1996928552381778E-006   8.7356136413949661E-006   0.0000000000000000     
   9.2585842775632479E-007   7.1135297649054593E-006   0.0000000000000000     
   9.3554775678176228E-007   7.3094222652527136E-006   0.0000000000000000     
   9.4508449809828965E-007   7.5072373746044454E-006   0.0000000000000000     
   9.5446865234397937E-007   7.7069445747615766E-006   0.0000000000000000     
   9.6370022015690326E-007   7.9085133475250224E-006   0.0000000000000000     
   9.7277920217513335E-007   8.1119131746957020E-006   0.0000000000000000     
   9.8170559903674232E-007   8.3171135380745331E-006   0.0000000000000000     
   9.9047941137980242E-007   8.5240839194624402E-006   0.0000000000000000     
   9.9910063984238505E-007   8.7327938006603359E-006   0.0000000000000000     
   7.4026560155904416E-007   7.1108930480893147E-006   0.0000000000000000     
   7.4801706450104385E-007   7.3068267483542793E-006   0.0000000000000000     
   7.5564645738060460E-007   7.5046830557875691E-006   0.0000000000000000     
   7.6315378073219836E-007   7.7044314526149472E-006   0.0000000000000000     
   7.7053903509029700E-007   7.9060414210621676E-006   0.0000000000000000     
   7.7780222098937302E-007   8.1094824433549898E-006   0.0000000000000000     
   7.8494333896389795E-007   8.3147240017191745E-006   0.0000000000000000     
   7.9196238954834471E-007   8.5217355783804772E-006   0.0000000000000000     
   7.9885937327718443E-007   8.7304866555646551E-006   0.0000000000000000     
   5.5495353579242769E-007   7.1088422683785585E-006   0.0000000000000000     
   5.6076713283655693E-007   7.3048080134253165E-006   0.0000000000000000     
   5.6648917739492574E-007   7.5026963638380576E-006   0.0000000000000000     
   5.7211966988239571E-007   7.7024768022650170E-006   0.0000000000000000     
   5.7765861071383001E-007   7.9041188113544308E-006   0.0000000000000000     
   5.8310600030409100E-007   8.1075918737545502E-006   0.0000000000000000     
   5.8846183906804059E-007   8.3128654721136004E-006   0.0000000000000000     
   5.9372612742054184E-007   8.5199090890798267E-006   0.0000000000000000     
   5.9889886577645701E-007   8.7286922073014711E-006   0.0000000000000000     
   3.6985204034880937E-007   7.1073774257530060E-006   0.0000000000000000     
   3.7372777163424378E-007   7.3033660602150824E-006   0.0000000000000000     
   3.7754246795825132E-007   7.5012772984895758E-006   0.0000000000000000     
   3.8129612960407753E-007   7.7010806235919697E-006   0.0000000000000000     
   3.8498875685496800E-007   7.9027455185377506E-006   0.0000000000000000     
   3.8862034999416833E-007   8.1062414663423926E-006   0.0000000000000000     
   3.9219090930492411E-007   8.3115379500213840E-006   0.0000000000000000     
   3.9570043507048105E-007   8.5186044525902046E-006   0.0000000000000000     
   3.9914892757408457E-007   8.7274104570643294E-006   0.0000000000000000     
   1.8489092512052390E-007   7.1064985201924757E-006   0.0000000000000000     
   1.8682879074004696E-007   7.3025008884728221E-006   0.0000000000000000     
   1.8873613888758073E-007   7.5004258594757955E-006   0.0000000000000000     
   1.9061296970674911E-007   7.7002429164760078E-006   0.0000000000000000     
   1.9245928334117609E-007   7.9019215427480573E-006   0.0000000000000000     
   1.9427507993448553E-007   8.1054312215665515E-006   0.0000000000000000     
   1.9606035963030168E-007   8.3107414362061016E-006   0.0000000000000000     
   1.9781512257224825E-007   8.5178216699413083E-006   0.0000000000000000     
   1.9953936890394936E-007   8.7266414060467792E-006   0.0000000000000000     
  -9.4497113178057882E-020   7.1062055516767863E-006   0.0000000000000000     
  -9.1003102270633893E-020   7.3022124979477901E-006   0.0000000000000000     
  -8.7429682024404813E-020   7.5001420465303881E-006   0.0000000000000000     
  -8.3790087329171491E-020   7.6999636807973099E-006   0.0000000000000000     
  -8.0362250870751745E-020   7.9016468841212808E-006   0.0000000000000000     
  -7.6864931240877544E-020   8.1051611398750448E-006   0.0000000000000000     
  -7.3495824605949062E-020   8.3104759314313248E-006   0.0000000000000000     
  -7.0375182347516196E-020   8.5175607421628519E-006   0.0000000000000000     
  -6.7220005298509241E-020   8.7263850554423626E-006   0.0000000000000000     
   1.6022108915860093E-006   8.7427914050069055E-006   0.0000000000000000     
   1.6157607131200099E-006   8.9530317471394925E-006   0.0000000000000000     
   1.6290663990463248E-006   9.1649505523957733E-006   0.0000000000000000     
   1.6421279493092885E-006   9.3785173040461558E-006   0.0000000000000000     
   1.6549453638532383E-006   9.5937014853610719E-006   0.0000000000000000     
   1.6675186426225101E-006   9.8104725796109446E-006   0.0000000000000000     
   1.6798477855614389E-006   1.0028800070066189E-005   0.0000000000000000     
   1.6919327926143615E-006   1.0248653439997231E-005   0.0000000000000000     
   1.7037736637256139E-006   1.0470002172674497E-005   0.0000000000000000     
   1.4007062092306792E-006   8.7389461765750033E-006   0.0000000000000000     
   1.4125623066633565E-006   8.9492551806503837E-006   0.0000000000000000     
   1.4242047862952035E-006   9.1612426479523351E-006   0.0000000000000000     
   1.4356336481377745E-006   9.3748780616993813E-006   0.0000000000000000     
   1.4468488922026213E-006   9.5901309051100411E-006   0.0000000000000000     
   1.4578505185012996E-006   9.8069706614028417E-006   0.0000000000000000     
   1.4686385270453615E-006   1.0025366813796299E-005   0.0000000000000000     
   1.4792129178463614E-006   1.0245288845508947E-005   0.0000000000000000     
   1.4895736909158526E-006   1.0466706239759297E-005   0.0000000000000000     
   1.1996928552381778E-006   8.7356136413949661E-006   0.0000000000000000     
   1.2098552271333611E-006   8.9459821524050927E-006   0.0000000000000000     
   1.2198344986922118E-006   9.1580291270805534E-006   0.0000000000000000     
   1.2296306699693985E-006   9.3717240484410310E-006   0.0000000000000000     
   1.2392437410195869E-006   9.5870363995061948E-006   0.0000000000000000     
   1.2486737118974454E-006   9.8039356632957379E-006   0.0000000000000000     
   1.2579205826576410E-006   1.0022391322829326E-005   0.0000000000000000     
   1.2669843533548414E-006   1.0242372861126654E-005   0.0000000000000000     
   1.2758650240437134E-006   1.0463849761207388E-005   0.0000000000000000     
   9.9910063984238505E-007   8.7327938006603359E-006   0.0000000000000000     
   1.0075692849690714E-006   8.9432126636225405E-006   0.0000000000000000     
   1.0158853469304734E-006   9.1553099909169702E-006   0.0000000000000000     
   1.0240488258037119E-006   9.3690552652649405E-006   0.0000000000000000     
   1.0320597216659080E-006   9.5844179693877737E-006   0.0000000000000000     
   1.0399180345941817E-006   9.8013675860067752E-006   0.0000000000000000     
   1.0476237646656539E-006   1.0019873597843271E-005   0.0000000000000000     
   1.0551769119574461E-006   1.0239905487618572E-005   0.0000000000000000     
   1.0625774765466776E-006   1.0461432738053990E-005   0.0000000000000000     
   7.9885937327718443E-007   8.7304866555646551E-006   0.0000000000000000     
   8.0563429060953724E-007   8.9409467155216482E-006   0.0000000000000000     
   8.1228714170311261E-007   9.1530852405981343E-006   0.0000000000000000     
   8.1881792664026724E-007   9.3668717131649692E-006   0.0000000000000000     
   8.2522664550335880E-007   9.5822756155930102E-006   0.0000000000000000     
   8.3151329837474364E-007   9.7992664302531078E-006   0.0000000000000000     
   8.3767788533677911E-007   1.0017813639516123E-005   0.0000000000000000     
   8.4372040647182179E-007   1.0237886725752914E-005   0.0000000000000000     
   8.4964086186222880E-007   1.0459455171334337E-005   0.0000000000000000     
   5.9889886577645701E-007   8.7286922073014711E-006   0.0000000000000000     
   6.0398005449380753E-007   8.9391843093213453E-006   0.0000000000000000     
   6.0896969370325416E-007   9.1513548772606031E-006   0.0000000000000000     
   6.1386778347861648E-007   9.3651733931349612E-006   0.0000000000000000     
   6.1867432389371371E-007   9.5806093389601466E-006   0.0000000000000000     
   6.2338931502236615E-007   9.7976321967518844E-006   0.0000000000000000     
   6.2801275693839335E-007   1.0016211448525900E-005   0.0000000000000000     
   6.3254464971561415E-007   1.0236316576297911E-005   0.0000000000000000     
   6.3698499342784956E-007   1.0457917062083651E-005   0.0000000000000000     
   3.9914892757408457E-007   8.7274104570643294E-006   0.0000000000000000     
   4.0253638706093155E-007   8.9379254462405580E-006   0.0000000000000000     
   4.0586281362402277E-007   9.1501189020409236E-006   0.0000000000000000     
   4.0912820731831039E-007   9.3639603061687640E-006   0.0000000000000000     
   4.1233256819874684E-007   9.5794191403274237E-006   0.0000000000000000     
   4.1547589632028423E-007   9.7964648862202574E-006   0.0000000000000000     
   4.1855819173787413E-007   1.0015067025550591E-005   0.0000000000000000     
   4.2157945450646951E-007   1.0235195040021781E-005   0.0000000000000000     
   4.2453968468102209E-007   1.0456818411337167E-005   0.0000000000000000     
   1.9953936890394936E-007   8.7266414060467792E-006   0.0000000000000000     
   2.0123309874995781E-007   8.9371701274982039E-006   0.0000000000000000     
   2.0289631215854253E-007   9.1493773160756412E-006   0.0000000000000000     
   2.0452900915890134E-007   9.3632324532602232E-006   0.0000000000000000     
   2.0613118978023194E-007   9.5787050205330822E-006   0.0000000000000000     
   2.0770285405173226E-007   9.7957644993753656E-006   0.0000000000000000     
   2.0924400200259997E-007   1.0014380371268207E-005   0.0000000000000000     
   2.1075463366203299E-007   1.0234522117692740E-005   0.0000000000000000     
   2.1223474905922905E-007   1.0456159220130107E-005   0.0000000000000000     
  -6.7220005298509241E-020   8.7263850554423626E-006   0.0000000000000000     
  -6.4400973770928523E-020   8.9369183543132178E-006   0.0000000000000000     
  -6.1760613255659258E-020   9.1491301205013133E-006   0.0000000000000000     
  -5.9209588246545721E-020   9.3629898354031865E-006   0.0000000000000000     
  -5.6711502796635577E-020   9.5784669804153595E-006   0.0000000000000000     
  -5.4290345143692865E-020   9.7955310369343697E-006   0.0000000000000000     
  -5.1898759197648924E-020   1.0014151486356743E-005   0.0000000000000000     
  -4.9454440487554727E-020   1.0234297810079009E-005   0.0000000000000000     
  -4.6772100556198397E-020   1.0455939489497704E-005   0.0000000000000000     
   1.7037736637256139E-006   1.0470002172674497E-005   0.0000000000000000     
   1.7153703989567689E-006   1.0692815750111371E-005   0.0000000000000000     
   1.7267229988383487E-006   1.0917063649293143E-005   0.0000000000000000     
   1.7378314640181131E-006   1.1142715345948071E-005   0.0000000000000000     
   1.7486957951438213E-006   1.1369740315804406E-005   0.0000000000000000     
   1.7593159928632329E-006   1.1598108034590410E-005   0.0000000000000000     
   1.7696920578241079E-006   1.1827787978034338E-005   0.0000000000000000     
   1.7798239906742055E-006   1.2058749621864449E-005   0.0000000000000000     
   1.7897117920612847E-006   1.2290962441808993E-005   0.0000000000000000     
   1.4895736909158526E-006   1.0466706239759297E-005   0.0000000000000000     
   1.4997208462934516E-006   1.0689588478910540E-005   0.0000000000000000     
   1.5096543841310288E-006   1.0913905041904518E-005   0.0000000000000000     
   1.5193743046085163E-006   1.1139625406827740E-005   0.0000000000000000     
   1.5288806079058485E-006   1.1366719051766718E-005   0.0000000000000000     
   1.5381732942029570E-006   1.1595155454807941E-005   0.0000000000000000     
   1.5472523636797762E-006   1.1824904094037937E-005   0.0000000000000000     
   1.5561178165162387E-006   1.2055934447543202E-005   0.0000000000000000     
   1.5647696528922773E-006   1.2288215993410245E-005   0.0000000000000000     
   1.2758650240437134E-006   1.0463849761207388E-005   0.0000000000000000     
   1.2845625947476216E-006   1.0686791505752762E-005   0.0000000000000000     
   1.2930770653647176E-006   1.0911167576090192E-005   0.0000000000000000     
   1.3014084357618519E-006   1.1136947453208657E-005   0.0000000000000000     
   1.3095567058058728E-006   1.1364100618097120E-005   0.0000000000000000     
   1.3175218753636297E-006   1.1592596551744545E-005   0.0000000000000000     
   1.3253039443019723E-006   1.1822404735139917E-005   0.0000000000000000     
   1.3329029124877493E-006   1.2053494649272197E-005   0.0000000000000000     
   1.3403187797878096E-006   1.2285835775130347E-005   0.0000000000000000     
   1.0625774765466776E-006   1.0461432738053990E-005   0.0000000000000000     
   1.0698254584453504E-006   1.0684424832112463E-005   0.0000000000000000     
   1.0769208574049853E-006   1.0908851253723370E-005   0.0000000000000000     
   1.0838636731119851E-006   1.1134681487057700E-005   0.0000000000000000     
   1.0906539052527512E-006   1.1361885016286452E-005   0.0000000000000000     
   1.0972915535136855E-006   1.1590431325580608E-005   0.0000000000000000     
   1.1037766175811901E-006   1.1820289899111173E-005   0.0000000000000000     
   1.1101090971416669E-006   1.2051430221049136E-005   0.0000000000000000     
   1.1162889918815178E-006   1.2283821775565491E-005   0.0000000000000000     
   8.4964086186222880E-007   1.0459455171334337E-005   0.0000000000000000     
   8.5543925151271240E-007   1.0682488459464088E-005   0.0000000000000000     
   8.6111557511740233E-007   1.0906956076677258E-005   0.0000000000000000     
   8.6666983229278344E-007   1.1132827510341764E-005   0.0000000000000000     
   8.7210202265534114E-007   1.1360072247825540E-005   0.0000000000000000     
   8.7741214582156062E-007   1.1588659776496513E-005   0.0000000000000000     
   8.8260020140792664E-007   1.1818559583722605E-005   0.0000000000000000     
   8.8766618903092459E-007   1.2049741156871750E-005   0.0000000000000000     
   8.9261010830703882E-007   1.2282173983311865E-005   0.0000000000000000     
   6.3698499342784956E-007   1.0457917062083651E-005   0.0000000000000000     
   6.4133378807578051E-007   1.0680982389282072E-005   0.0000000000000000     
   6.4559103336753785E-007   1.0905482046825065E-005   0.0000000000000000     
   6.4975672893811340E-007   1.1131385525027743E-005   0.0000000000000000     
   6.5383087442250032E-007   1.1358662314205231E-005   0.0000000000000000     
   6.5781346945569083E-007   1.1587281904672651E-005   0.0000000000000000     
   6.6170451367267779E-007   1.1817213786745116E-005   0.0000000000000000     
   6.6550400670845332E-007   1.2048427450737753E-005   0.0000000000000000     
   6.6921194819801007E-007   1.2280892386965675E-005   0.0000000000000000     
   4.2453968468102209E-007   1.0456818411337167E-005   0.0000000000000000     
   4.2743888226062832E-007   1.0679906623040855E-005   0.0000000000000000     
   4.3027704702096226E-007   1.0904429166039999E-005   0.0000000000000000     
   4.3305417868184203E-007   1.1130355533082530E-005   0.0000000000000000     
   4.3577027696308598E-007   1.1357655216916362E-005   0.0000000000000000     
   4.3842534158451216E-007   1.1586297710289412E-005   0.0000000000000000     
   4.4101937226593898E-007   1.1816252505949603E-005   0.0000000000000000     
   4.4355236872718455E-007   1.2047489096644866E-005   0.0000000000000000     
   4.4602433068806705E-007   1.2279976975123106E-005   0.0000000000000000     
   2.1223474905922905E-007   1.0456159220130107E-005   0.0000000000000000     
   2.1368434819332904E-007   1.0679261162214868E-005   0.0000000000000000     
   2.1510343094324601E-007   1.0903797436195277E-005   0.0000000000000000     
   2.1649199715783606E-007   1.1129737536473012E-005   0.0000000000000000     
   2.1785004668595541E-007   1.1357050957449757E-005   0.0000000000000000     
   2.1917757937646005E-007   1.1585707193527181E-005   0.0000000000000000     
   2.2047459507820622E-007   1.1815675739106968E-005   0.0000000000000000     
   2.2174109364004998E-007   1.2046926088590804E-005   0.0000000000000000     
   2.2297707491084746E-007   1.2279427736380355E-005   0.0000000000000000     
  -4.6772100556198397E-020   1.0455939489497704E-005   0.0000000000000000     
  -4.4082109204175951E-020   1.0679046008278554E-005   0.0000000000000000     
  -4.1120802611236112E-020   1.0903586859164099E-005   0.0000000000000000     
  -3.7732670822218910E-020   1.1129531537166083E-005   0.0000000000000000     
  -3.3950801061626468E-020   1.1356849537296255E-005   0.0000000000000000     
  -2.9670968572277103E-020   1.1585510354566350E-005   0.0000000000000000     
  -2.4632197870910335E-020   1.1815483483988115E-005   0.0000000000000000     
  -1.8941040160180651E-020   1.2046738420573288E-005   0.0000000000000000     
  -1.2361387073992446E-020   1.2279244659333614E-005   0.0000000000000000     
   1.7897117920612847E-006   1.2290962441808993E-005   0.0000000000000000     
   1.7993554525421653E-006   1.2524395913071913E-005   0.0000000000000000     
   1.8087549223099036E-006   1.2759019508759875E-005   0.0000000000000000     
   1.8179101414666178E-006   1.2994802701455240E-005   0.0000000000000000     
   1.8268210501144231E-006   1.3231714963740351E-005   0.0000000000000000     
   1.8354875883554367E-006   1.3469725768197557E-005   0.0000000000000000     
   1.8439096962917756E-006   1.3708804587409220E-005   0.0000000000000000     
   1.8520873140255566E-006   1.3948920893957693E-005   0.0000000000000000     
   1.8600203816588956E-006   1.4190044160425314E-005   0.0000000000000000     
   1.5647696528922773E-006   1.2288215993410245E-005   0.0000000000000000     
   1.5732078615381921E-006   1.2521718212176573E-005   0.0000000000000000     
   1.5814323853857505E-006   1.2756410594183649E-005   0.0000000000000000     
   1.5894431559170884E-006   1.2992262632223962E-005   0.0000000000000000     
   1.5972401046143385E-006   1.3229243819089969E-005   0.0000000000000000     
   1.6048231629596369E-006   1.3467323647574156E-005   0.0000000000000000     
   1.6121922624351169E-006   1.3706471610468984E-005   0.0000000000000000     
   1.6193473345229140E-006   1.3946657200566928E-005   0.0000000000000000     
   1.6262883107051625E-006   1.4187849910660462E-005   0.0000000000000000     
   1.3403187797878096E-006   1.2285835775130347E-005   0.0000000000000000     
   1.3475515343087016E-006   1.2519397598935143E-005   0.0000000000000000     
   1.3546011171157664E-006   1.2754149627834501E-005   0.0000000000000000     
   1.3614674575140431E-006   1.2990061374208139E-005   0.0000000000000000     
   1.3681504848085718E-006   1.3227102350435778E-005   0.0000000000000000     
   1.3746501283043911E-006   1.3465242068897127E-005   0.0000000000000000     
   1.3809663173065420E-006   1.3704450041971908E-005   0.0000000000000000     
   1.3870989811200621E-006   1.3944695782039830E-005   0.0000000000000000     
   1.3930480490499933E-006   1.4185948801480622E-005   0.0000000000000000     
   1.1162889918815178E-006   1.2283821775565491E-005   0.0000000000000000     
   1.1223162903144809E-006   1.2517434054586987E-005   0.0000000000000000     
   1.1281909362636399E-006   1.2752236581063380E-005   0.0000000000000000     
   1.1339128623794120E-006   1.2988198885700191E-005   0.0000000000000000     
   1.1394820013122181E-006   1.3225290499202929E-005   0.0000000000000000     
   1.1448982857124770E-006   1.3463480952277112E-005   0.0000000000000000     
   1.1501616482306073E-006   1.3702739775628260E-005   0.0000000000000000     
   1.1552720215170298E-006   1.3943036499961885E-005   0.0000000000000000     
   1.1602293382221613E-006   1.4184340655983497E-005   0.0000000000000000     
   8.9261010830703882E-007   1.2282173983311865E-005   0.0000000000000000     
   8.9743194901631802E-007   1.2515827560371453E-005   0.0000000000000000     
   9.0213166159305974E-007   1.2750671425221240E-005   0.0000000000000000     
   9.0670918663512501E-007   1.2986675124992522E-005   0.0000000000000000     
   9.1116446474037488E-007   1.3223808206816593E-005   0.0000000000000000     
   9.1549743650667031E-007   1.3462040217824763E-005   0.0000000000000000     
   9.1970804253187222E-007   1.3701340705148316E-005   0.0000000000000000     
   9.2379622341384146E-007   1.3941679215918551E-005   0.0000000000000000     
   9.2776191975043918E-007   1.4183025297266770E-005   0.0000000000000000     
   6.6921194819801007E-007   1.2280892386965675E-005   0.0000000000000000     
   6.7282832987500017E-007   1.2514578097527901E-005   0.0000000000000000     
   6.7635311186771691E-007   1.2749454131659030E-005   0.0000000000000000     
   6.7978624640311189E-007   1.2985490050377543E-005   0.0000000000000000     
   6.8312768570813778E-007   1.3222655414701939E-005   0.0000000000000000     
   6.8637738200974756E-007   1.3460919785650710E-005   0.0000000000000000     
   6.8953528753489275E-007   1.3700252724242337E-005   0.0000000000000000     
   6.9260135451052633E-007   1.3940623791495321E-005   0.0000000000000000     
   6.9557553516360064E-007   1.4182002548428149E-005   0.0000000000000000     
   4.4602433068806705E-007   1.2279976975123106E-005   0.0000000000000000     
   4.4843525235131554E-007   1.2513685647295689E-005   0.0000000000000000     
   4.5078510585130031E-007   1.2748584671727698E-005   0.0000000000000000     
   4.5307385780530258E-007   1.2984643620147671E-005   0.0000000000000000     
   4.5530147483060374E-007   1.3221832064284126E-005   0.0000000000000000     
   4.5746792354448471E-007   1.3460119575865587E-005   0.0000000000000000     
   4.5957317056422664E-007   1.3699475726620590E-005   0.0000000000000000     
   4.6161718250711102E-007   1.3939870088277665E-005   0.0000000000000000     
   4.6359992599041825E-007   1.4181272232565316E-005   0.0000000000000000     
   2.2297707491084746E-007   1.2279427736380355E-005   0.0000000000000000     
   2.2418253590605129E-007   1.2513150190914163E-005   0.0000000000000000     
   2.2535746230749959E-007   1.2748063016778201E-005   0.0000000000000000     
   2.2650183696362718E-007   1.2984135792595306E-005   0.0000000000000000     
   2.2761564272286857E-007   1.3221338096988317E-005   0.0000000000000000     
   2.2869886243365837E-007   1.3459639508580046E-005   0.0000000000000000     
   2.2975147894443154E-007   1.3699009605993351E-005   0.0000000000000000     
   2.3077347510362241E-007   1.3939417967851047E-005   0.0000000000000000     
   2.3176483375966588E-007   1.4180834172775979E-005   0.0000000000000000     
  -1.2361387073992446E-020   1.2279244659333614E-005   0.0000000000000000     
  -4.9101441161147723E-021   1.2512971709622686E-005   0.0000000000000000     
   4.1689902872672595E-021   1.2747889138161491E-005   0.0000000000000000     
   1.5101009262768073E-020   1.2983966526012875E-005   0.0000000000000000     
   2.8388838622819910E-020   1.3221173454239671E-005   0.0000000000000000     
   4.4746335236056032E-020   1.3459479503904726E-005   0.0000000000000000     
   6.4478728748508507E-020   1.3698854256070878E-005   0.0000000000000000     
   8.8165226534723451E-020   1.3939267291800963E-005   0.0000000000000000     
   1.1620233245144933E-019   1.4180688192157828E-005   0.0000000000000000     
  -9.4497113178057882E-020   7.1062055516767863E-006   0.0000000000000000     
  -9.1003102270633893E-020   7.3022124979477901E-006   0.0000000000000000     
  -8.7429682024404813E-020   7.5001420465303881E-006   0.0000000000000000     
  -8.3790087329171491E-020   7.6999636807973099E-006   0.0000000000000000     
  -8.0362250870751745E-020   7.9016468841212808E-006   0.0000000000000000     
  -7.6864931240877544E-020   8.1051611398750448E-006   0.0000000000000000     
  -7.3495824605949062E-020   8.3104759314313248E-006   0.0000000000000000     
  -7.0375182347516196E-020   8.5175607421628519E-006   0.0000000000000000     
  -6.7220005298509241E-020   8.7263850554423626E-006   0.0000000000000000     
  -1.8489092512071160E-007   7.1064985201924757E-006   0.0000000000000000     
  -1.8682879074022764E-007   7.3025008884728221E-006   0.0000000000000000     
  -1.8873613888775422E-007   7.5004258594757938E-006   0.0000000000000000     
  -1.9061296970691560E-007   7.7002429164760027E-006   0.0000000000000000     
  -1.9245928334133571E-007   7.9019215427480539E-006   0.0000000000000000     
  -1.9427507993463826E-007   8.1054312215665482E-006   0.0000000000000000     
  -1.9606035963044776E-007   8.3107414362060948E-006   0.0000000000000000     
  -1.9781512257238815E-007   8.5178216699413015E-006   0.0000000000000000     
  -1.9953936890408327E-007   8.7266414060467758E-006   0.0000000000000000     
  -3.6985204034899307E-007   7.1073774257530060E-006   0.0000000000000000     
  -3.7372777163442060E-007   7.3033660602150781E-006   0.0000000000000000     
  -3.7754246795842131E-007   7.5012772984895707E-006   0.0000000000000000     
  -3.8129612960424079E-007   7.7010806235919680E-006   0.0000000000000000     
  -3.8498875685512465E-007   7.9027455185377438E-006   0.0000000000000000     
  -3.8862034999431836E-007   8.1062414663423858E-006   0.0000000000000000     
  -3.9219090930506816E-007   8.3115379500213755E-006   0.0000000000000000     
  -3.9570043507061901E-007   8.5186044525901928E-006   0.0000000000000000     
  -3.9914892757421681E-007   8.7274104570643209E-006   0.0000000000000000     
  -5.5495353579260503E-007   7.1088422683785577E-006   0.0000000000000000     
  -5.6076713283672761E-007   7.3048080134253140E-006   0.0000000000000000     
  -5.6648917739509007E-007   7.5026963638380517E-006   0.0000000000000000     
  -5.7211966988255400E-007   7.7024768022650085E-006   0.0000000000000000     
  -5.7765861071398206E-007   7.9041188113544240E-006   0.0000000000000000     
  -5.8310600030423712E-007   8.1075918737545384E-006   0.0000000000000000     
  -5.8846183906818119E-007   8.3128654721135869E-006   0.0000000000000000     
  -5.9372612742067684E-007   8.5199090890798115E-006   0.0000000000000000     
  -5.9889886577658660E-007   8.7286922073014558E-006   0.0000000000000000     
  -7.4026560155921293E-007   7.1108930480893122E-006   0.0000000000000000     
  -7.4801706450120669E-007   7.3068267483542750E-006   0.0000000000000000     
  -7.5564645738076172E-007   7.5046830557875623E-006   0.0000000000000000     
  -7.6315378073234966E-007   7.7044314526149354E-006   0.0000000000000000     
  -7.7053903509044322E-007   7.9060414210621574E-006   0.0000000000000000     
  -7.7780222098951373E-007   8.1094824433549745E-006   0.0000000000000000     
  -7.8494333896403379E-007   8.3147240017191576E-006   0.0000000000000000     
  -7.9196238954847569E-007   8.5217355783804603E-006   0.0000000000000000     
  -7.9885937327731096E-007   8.7304866555646331E-006   0.0000000000000000     
  -9.2585842775648318E-007   7.1135297649054576E-006   0.0000000000000000     
  -9.3554775678191538E-007   7.3094222652527085E-006   0.0000000000000000     
  -9.4508449809843820E-007   7.5072373746044386E-006   0.0000000000000000     
  -9.5446865234412294E-007   7.7069445747615664E-006   0.0000000000000000     
  -9.6370022015704238E-007   7.9085133475250071E-006   0.0000000000000000     
  -9.7277920217526824E-007   8.1119131746956901E-006   0.0000000000000000     
  -9.8170559903687255E-007   8.3171135380745111E-006   0.0000000000000000     
  -9.9047941137992884E-007   8.5240839194624199E-006   0.0000000000000000     
  -9.9910063984250787E-007   8.7327938006603122E-006   0.0000000000000000     
  -1.1118022044920815E-006   7.1167524188471720E-006   0.0000000000000000     
  -1.1234293998329114E-006   7.3125945643713649E-006   0.0000000000000000     
  -1.1348734897311205E-006   7.5103593205550107E-006   0.0000000000000000     
  -1.1461344749083681E-006   7.7100161688247010E-006   0.0000000000000000     
  -1.1572123560863142E-006   7.9115345906070430E-006   0.0000000000000000     
  -1.1681071339866202E-006   8.1148840673286385E-006   0.0000000000000000     
  -1.1788188093309453E-006   8.3200340804160845E-006   0.0000000000000000     
  -1.1893473828409505E-006   8.5269541112959846E-006   0.0000000000000000     
  -1.1996928552382955E-006   8.7356136413949406E-006   0.0000000000000000     
  -1.2981671218736729E-006   7.1205610099346420E-006   0.0000000000000000     
  -1.3117321838082529E-006   7.3163436459609965E-006   0.0000000000000000     
  -1.3250836224618101E-006   7.5140488939056042E-006   0.0000000000000000     
  -1.3382214386155793E-006   7.7136462349241569E-006   0.0000000000000000     
  -1.3511456330507937E-006   7.9151051501723315E-006   0.0000000000000000     
  -1.3638562065486886E-006   8.1183951208058156E-006   0.0000000000000000     
  -1.3763531598904975E-006   8.3234856279802946E-006   0.0000000000000000     
  -1.3886364938574541E-006   8.5303461528514519E-006   0.0000000000000000     
  -1.4007062092307934E-006   8.7389461765749762E-006   0.0000000000000000     
  -1.4850233700089248E-006   7.1249555381880496E-006   0.0000000000000000     
  -1.5005262988619970E-006   7.3206695102723471E-006   0.0000000000000000     
  -1.5157850864735088E-006   7.5183060949225628E-006   0.0000000000000000     
  -1.5307997336562519E-006   7.7178347731797403E-006   0.0000000000000000     
  -1.5455702412230164E-006   7.9192250260849340E-006   0.0000000000000000     
  -1.5600966099865949E-006   8.1224463346791968E-006   0.0000000000000000     
  -1.5743788407597767E-006   8.3274681800035682E-006   0.0000000000000000     
  -1.5884169343553537E-006   8.5342600430991128E-006   0.0000000000000000     
  -1.6022108915861181E-006   8.7427914050068733E-006   0.0000000000000000     
  -6.7220005298509241E-020   8.7263850554423626E-006   0.0000000000000000     
  -6.4400973770928523E-020   8.9369183543132178E-006   0.0000000000000000     
  -6.1760613255659258E-020   9.1491301205013133E-006   0.0000000000000000     
  -5.9209588246545721E-020   9.3629898354031865E-006   0.0000000000000000     
  -5.6711502796635577E-020   9.5784669804153595E-006   0.0000000000000000     
  -5.4290345143692865E-020   9.7955310369343697E-006   0.0000000000000000     
  -5.1898759197648924E-020   1.0014151486356743E-005   0.0000000000000000     
  -4.9454440487554727E-020   1.0234297810079009E-005   0.0000000000000000     
  -4.6772100556198397E-020   1.0455939489497704E-005   0.0000000000000000     
  -1.9953936890408327E-007   8.7266414060467758E-006   0.0000000000000000     
  -2.0123309875008619E-007   8.9371701274982022E-006   0.0000000000000000     
  -2.0289631215866562E-007   9.1493773160756361E-006   0.0000000000000000     
  -2.0452900915901950E-007   9.3632324532602164E-006   0.0000000000000000     
  -2.0613118978034531E-007   9.5787050205330822E-006   0.0000000000000000     
  -2.0770285405184089E-007   9.7957644993753605E-006   0.0000000000000000     
  -2.0924400200270394E-007   1.0014380371268202E-005   0.0000000000000000     
  -2.1075463366213209E-007   1.0234522117692736E-005   0.0000000000000000     
  -2.1223474905932310E-007   1.0456159220130102E-005   0.0000000000000000     
  -3.9914892757421681E-007   8.7274104570643209E-006   0.0000000000000000     
  -4.0253638706105856E-007   8.9379254462405461E-006   0.0000000000000000     
  -4.0586281362414459E-007   9.1501189020409083E-006   0.0000000000000000     
  -4.0912820731842797E-007   9.3639603061687555E-006   0.0000000000000000     
  -4.1233256819885966E-007   9.5794191403274169E-006   0.0000000000000000     
  -4.1547589632039249E-007   9.7964648862202438E-006   0.0000000000000000     
  -4.1855819173797794E-007   1.0015067025550583E-005   0.0000000000000000     
  -4.2157945450656882E-007   1.0235195040021771E-005   0.0000000000000000     
  -4.2453968468111675E-007   1.0456818411337158E-005   0.0000000000000000     
  -5.9889886577658660E-007   8.7286922073014558E-006   0.0000000000000000     
  -6.0398005449393236E-007   8.9391843093213317E-006   0.0000000000000000     
  -6.0896969370337444E-007   9.1513548772605862E-006   0.0000000000000000     
  -6.1386778347873220E-007   9.3651733931349460E-006   0.0000000000000000     
  -6.1867432389382551E-007   9.5806093389601313E-006   0.0000000000000000     
  -6.2338931502247393E-007   9.7976321967518708E-006   0.0000000000000000     
  -6.2801275693849690E-007   1.0016211448525883E-005   0.0000000000000000     
  -6.3254464971571388E-007   1.0236316576297900E-005   0.0000000000000000     
  -6.3698499342794496E-007   1.0457917062083636E-005   0.0000000000000000     
  -7.9885937327731096E-007   8.7304866555646331E-006   0.0000000000000000     
  -8.0563429060965963E-007   8.9409467155216312E-006   0.0000000000000000     
  -8.1228714170323066E-007   9.1530852405981174E-006   0.0000000000000000     
  -8.1881792664038159E-007   9.3668717131649489E-006   0.0000000000000000     
  -8.2522664550346965E-007   9.5822756155929932E-006   0.0000000000000000     
  -8.3151329837485090E-007   9.7992664302530908E-006   0.0000000000000000     
  -8.3767788533688276E-007   1.0017813639516107E-005   0.0000000000000000     
  -8.4372040647192195E-007   1.0237886725752899E-005   0.0000000000000000     
  -8.4964086186232579E-007   1.0459455171334320E-005   0.0000000000000000     
  -9.9910063984250787E-007   8.7327938006603122E-006   0.0000000000000000     
  -1.0075692849691902E-006   8.9432126636225151E-006   0.0000000000000000     
  -1.0158853469305888E-006   9.1553099909169448E-006   0.0000000000000000     
  -1.0240488258038239E-006   9.3690552652649185E-006   0.0000000000000000     
  -1.0320597216660171E-006   9.5844179693877483E-006   0.0000000000000000     
  -1.0399180345942878E-006   9.8013675860067532E-006   0.0000000000000000     
  -1.0476237646657573E-006   1.0019873597843245E-005   0.0000000000000000     
  -1.0551769119575463E-006   1.0239905487618548E-005   0.0000000000000000     
  -1.0625774765467757E-006   1.0461432738053972E-005   0.0000000000000000     
  -1.1996928552382955E-006   8.7356136413949406E-006   0.0000000000000000     
  -1.2098552271334760E-006   8.9459821524050622E-006   0.0000000000000000     
  -1.2198344986923247E-006   9.1580291270805246E-006   0.0000000000000000     
  -1.2296306699695082E-006   9.3717240484410022E-006   0.0000000000000000     
  -1.2392437410196938E-006   9.5870363995061660E-006   0.0000000000000000     
  -1.2486737118975502E-006   9.8039356632957091E-006   0.0000000000000000     
  -1.2579205826577435E-006   1.0022391322829302E-005   0.0000000000000000     
  -1.2669843533549413E-006   1.0242372861126627E-005   0.0000000000000000     
  -1.2758650240438118E-006   1.0463849761207361E-005   0.0000000000000000     
  -1.4007062092307934E-006   8.7389461765749762E-006   0.0000000000000000     
  -1.4125623066634685E-006   8.9492551806503566E-006   0.0000000000000000     
  -1.4242047862953126E-006   9.1612426479523046E-006   0.0000000000000000     
  -1.4356336481378810E-006   9.3748780616993508E-006   0.0000000000000000     
  -1.4468488922027269E-006   9.5901309051100140E-006   0.0000000000000000     
  -1.4578505185014023E-006   9.8069706614028163E-006   0.0000000000000000     
  -1.4686385270454633E-006   1.0025366813796277E-005   0.0000000000000000     
  -1.4792129178464620E-006   1.0245288845508924E-005   0.0000000000000000     
  -1.4895736909159522E-006   1.0466706239759273E-005   0.0000000000000000     
  -1.6022108915861181E-006   8.7427914050068733E-006   0.0000000000000000     
  -1.6157607131201175E-006   8.9530317471394637E-006   0.0000000000000000     
  -1.6290663990464299E-006   9.1649505523957394E-006   0.0000000000000000     
  -1.6421279493093925E-006   9.3785173040461270E-006   0.0000000000000000     
  -1.6549453638533410E-006   9.5937014853610448E-006   0.0000000000000000     
  -1.6675186426226116E-006   9.8104725796109175E-006   0.0000000000000000     
  -1.6798477855615390E-006   1.0028800070066162E-005   0.0000000000000000     
  -1.6919327926144614E-006   1.0248653439997208E-005   0.0000000000000000     
  -1.7037736637257137E-006   1.0470002172674472E-005   0.0000000000000000     
  -4.6772100556198397E-020   1.0455939489497704E-005   0.0000000000000000     
  -4.4082109204175951E-020   1.0679046008278554E-005   0.0000000000000000     
  -4.1120802611236112E-020   1.0903586859164099E-005   0.0000000000000000     
  -3.7732670822218910E-020   1.1129531537166083E-005   0.0000000000000000     
  -3.3950801061626468E-020   1.1356849537296255E-005   0.0000000000000000     
  -2.9670968572277103E-020   1.1585510354566350E-005   0.0000000000000000     
  -2.4632197870910335E-020   1.1815483483988115E-005   0.0000000000000000     
  -1.8941040160180651E-020   1.2046738420573288E-005   0.0000000000000000     
  -1.2361387073992446E-020   1.2279244659333614E-005   0.0000000000000000     
  -2.1223474905932310E-007   1.0456159220130102E-005   0.0000000000000000     
  -2.1368434819341779E-007   1.0679261162214864E-005   0.0000000000000000     
  -2.1510343094332896E-007   1.0903797436195272E-005   0.0000000000000000     
  -2.1649199715791261E-007   1.1129737536473005E-005   0.0000000000000000     
  -2.1785004668602455E-007   1.1357050957449752E-005   0.0000000000000000     
  -2.1917757937652085E-007   1.1585707193527176E-005   0.0000000000000000     
  -2.2047459507825765E-007   1.1815675739106966E-005   0.0000000000000000     
  -2.2174109364009048E-007   1.2046926088590799E-005   0.0000000000000000     
  -2.2297707491087538E-007   1.2279427736380348E-005   0.0000000000000000     
  -4.2453968468111675E-007   1.0456818411337158E-005   0.0000000000000000     
  -4.2743888226071827E-007   1.0679906623040845E-005   0.0000000000000000     
  -4.3027704702104686E-007   1.0904429166039990E-005   0.0000000000000000     
  -4.3305417868192112E-007   1.1130355533082518E-005   0.0000000000000000     
  -4.3577027696315861E-007   1.1357655216916349E-005   0.0000000000000000     
  -4.3842534158457759E-007   1.1586297710289401E-005   0.0000000000000000     
  -4.4101937226599583E-007   1.1816252505949592E-005   0.0000000000000000     
  -4.4355236872723203E-007   1.2047489096644853E-005   0.0000000000000000     
  -4.4602433068810358E-007   1.2279976975123096E-005   0.0000000000000000     
  -6.3698499342794496E-007   1.0457917062083636E-005   0.0000000000000000     
  -6.4133378807587230E-007   1.0680982389282061E-005   0.0000000000000000     
  -6.4559103336762520E-007   1.0905482046825050E-005   0.0000000000000000     
  -6.4975672893819609E-007   1.1131385525027732E-005   0.0000000000000000     
  -6.5383087442257782E-007   1.1358662314205218E-005   0.0000000000000000     
  -6.5781346945576251E-007   1.1587281904672638E-005   0.0000000000000000     
  -6.6170451367274270E-007   1.1817213786745098E-005   0.0000000000000000     
  -6.6550400670851071E-007   1.2048427450737734E-005   0.0000000000000000     
  -6.6921194819805888E-007   1.2280892386965658E-005   0.0000000000000000     
  -8.4964086186232579E-007   1.0459455171334320E-005   0.0000000000000000     
  -8.5543925151280621E-007   1.0682488459464074E-005   0.0000000000000000     
  -8.6111557511749264E-007   1.0906956076677241E-005   0.0000000000000000     
  -8.6666983229287068E-007   1.1132827510341747E-005   0.0000000000000000     
  -8.7210202265542489E-007   1.1360072247825523E-005   0.0000000000000000     
  -8.7741214582164003E-007   1.1588659776496493E-005   0.0000000000000000     
  -8.8260020140800181E-007   1.1818559583722586E-005   0.0000000000000000     
  -8.8766618903099458E-007   1.2049741156871730E-005   0.0000000000000000     
  -8.9261010830710320E-007   1.2282173983311848E-005   0.0000000000000000     
  -1.0625774765467757E-006   1.0461432738053972E-005   0.0000000000000000     
  -1.0698254584454463E-006   1.0684424832112446E-005   0.0000000000000000     
  -1.0769208574050789E-006   1.0908851253723347E-005   0.0000000000000000     
  -1.0838636731120768E-006   1.1134681487057680E-005   0.0000000000000000     
  -1.0906539052528410E-006   1.1361885016286427E-005   0.0000000000000000     
  -1.0972915535137729E-006   1.1590431325580586E-005   0.0000000000000000     
  -1.1037766175812758E-006   1.1820289899111148E-005   0.0000000000000000     
  -1.1101090971417497E-006   1.2051430221049112E-005   0.0000000000000000     
  -1.1162889918815976E-006   1.2283821775565466E-005   0.0000000000000000     
  -1.2758650240438118E-006   1.0463849761207361E-005   0.0000000000000000     
  -1.2845625947477190E-006   1.0686791505752739E-005   0.0000000000000000     
  -1.2930770653648144E-006   1.0911167576090170E-005   0.0000000000000000     
  -1.3014084357619478E-006   1.1136947453208631E-005   0.0000000000000000     
  -1.3095567058059683E-006   1.1364100618097091E-005   0.0000000000000000     
  -1.3175218753637260E-006   1.1592596551744525E-005   0.0000000000000000     
  -1.3253039443020671E-006   1.1822404735139888E-005   0.0000000000000000     
  -1.3329029124878441E-006   1.2053494649272163E-005   0.0000000000000000     
  -1.3403187797879051E-006   1.2285835775130319E-005   0.0000000000000000     
  -1.4895736909159522E-006   1.0466706239759273E-005   0.0000000000000000     
  -1.4997208462935514E-006   1.0689588478910523E-005   0.0000000000000000     
  -1.5096543841311282E-006   1.0913905041904501E-005   0.0000000000000000     
  -1.5193743046086164E-006   1.1139625406827718E-005   0.0000000000000000     
  -1.5288806079059500E-006   1.1366719051766692E-005   0.0000000000000000     
  -1.5381732942030603E-006   1.1595155454807919E-005   0.0000000000000000     
  -1.5472523636798810E-006   1.1824904094037910E-005   0.0000000000000000     
  -1.5561178165163458E-006   1.2055934447543175E-005   0.0000000000000000     
  -1.5647696528923868E-006   1.2288215993410217E-005   0.0000000000000000     
  -1.7037736637257137E-006   1.0470002172674472E-005   0.0000000000000000     
  -1.7153703989568689E-006   1.0692815750111348E-005   0.0000000000000000     
  -1.7267229988384497E-006   1.0917063649293117E-005   0.0000000000000000     
  -1.7378314640182160E-006   1.1142715345948046E-005   0.0000000000000000     
  -1.7486957951439263E-006   1.1369740315804384E-005   0.0000000000000000     
  -1.7593159928633409E-006   1.1598108034590383E-005   0.0000000000000000     
  -1.7696920578242190E-006   1.1827787978034311E-005   0.0000000000000000     
  -1.7798239906743205E-006   1.2058749621864420E-005   0.0000000000000000     
  -1.7897117920614042E-006   1.2290962441808961E-005   0.0000000000000000     
  -1.2361387073992446E-020   1.2279244659333614E-005   0.0000000000000000     
  -4.9101441161147723E-021   1.2512971709622686E-005   0.0000000000000000     
   4.1689902872672595E-021   1.2747889138161491E-005   0.0000000000000000     
   1.5101009262768073E-020   1.2983966526012875E-005   0.0000000000000000     
   2.8388838622819910E-020   1.3221173454239671E-005   0.0000000000000000     
   4.4746335236056032E-020   1.3459479503904726E-005   0.0000000000000000     
   6.4478728748508507E-020   1.3698854256070878E-005   0.0000000000000000     
   8.8165226534723451E-020   1.3939267291800963E-005   0.0000000000000000     
   1.1620233245144933E-019   1.4180688192157828E-005   0.0000000000000000     
  -2.2297707491087538E-007   1.2279427736380348E-005   0.0000000000000000     
  -2.2418253590606484E-007   1.2513150190914156E-005   0.0000000000000000     
  -2.2535746230749597E-007   1.2748063016778196E-005   0.0000000000000000     
  -2.2650183696360298E-007   1.2984135792595297E-005   0.0000000000000000     
  -2.2761564272281942E-007   1.3221338096988309E-005   0.0000000000000000     
  -2.2869886243357899E-007   1.3459639508580043E-005   0.0000000000000000     
  -2.2975147894431565E-007   1.3699009605993347E-005   0.0000000000000000     
  -2.3077347510346327E-007   1.3939417967851054E-005   0.0000000000000000     
  -2.3176483375945539E-007   1.4180834172775988E-005   0.0000000000000000     
  -4.4602433068810358E-007   1.2279976975123096E-005   0.0000000000000000     
  -4.4843525235133952E-007   1.2513685647295674E-005   0.0000000000000000     
  -4.5078510585130973E-007   1.2748584671727683E-005   0.0000000000000000     
  -4.5307385780529459E-007   1.2984643620147656E-005   0.0000000000000000     
  -4.5530147483057537E-007   1.3221832064284111E-005   0.0000000000000000     
  -4.5746792354443198E-007   1.3460119575865578E-005   0.0000000000000000     
  -4.5957317056414606E-007   1.3699475726620592E-005   0.0000000000000000     
  -4.6161718250699673E-007   1.3939870088277665E-005   0.0000000000000000     
  -4.6359992599026562E-007   1.4181272232565336E-005   0.0000000000000000     
  -6.6921194819805888E-007   1.2280892386965658E-005   0.0000000000000000     
  -6.7282832987503945E-007   1.2514578097527884E-005   0.0000000000000000     
  -6.7635311186774507E-007   1.2749454131659011E-005   0.0000000000000000     
  -6.7978624640312777E-007   1.2985490050377527E-005   0.0000000000000000     
  -6.8312768570813968E-007   1.3222655414701923E-005   0.0000000000000000     
  -6.8637738200973338E-007   1.3460919785650698E-005   0.0000000000000000     
  -6.8953528753486173E-007   1.3700252724242335E-005   0.0000000000000000     
  -6.9260135451047635E-007   1.3940623791495326E-005   0.0000000000000000     
  -6.9557553516352992E-007   1.4182002548428175E-005   0.0000000000000000     
  -8.9261010830710320E-007   1.2282173983311848E-005   0.0000000000000000     
  -8.9743194901637562E-007   1.2515827560371431E-005   0.0000000000000000     
  -9.0213166159311024E-007   1.2750671425221214E-005   0.0000000000000000     
  -9.0670918663516842E-007   1.2986675124992495E-005   0.0000000000000000     
  -9.1116446474041205E-007   1.3223808206816576E-005   0.0000000000000000     
  -9.1549743650670144E-007   1.3462040217824746E-005   0.0000000000000000     
  -9.1970804253189859E-007   1.3701340705148313E-005   0.0000000000000000     
  -9.2379622341386560E-007   1.3941679215918566E-005   0.0000000000000000     
  -9.2776191975046226E-007   1.4183025297266800E-005   0.0000000000000000     
  -1.1162889918815976E-006   1.2283821775565466E-005   0.0000000000000000     
  -1.1223162903145578E-006   1.2517434054586956E-005   0.0000000000000000     
  -1.1281909362637138E-006   1.2752236581063355E-005   0.0000000000000000     
  -1.1339128623794853E-006   1.2988198885700164E-005   0.0000000000000000     
  -1.1394820013122916E-006   1.3225290499202902E-005   0.0000000000000000     
  -1.1448982857125547E-006   1.3463480952277100E-005   0.0000000000000000     
  -1.1501616482306937E-006   1.3702739775628261E-005   0.0000000000000000     
  -1.1552720215171280E-006   1.3943036499961895E-005   0.0000000000000000     
  -1.1602293382222778E-006   1.4184340655983531E-005   0.0000000000000000     
  -1.3403187797879051E-006   1.2285835775130319E-005   0.0000000000000000     
  -1.3475515343087973E-006   1.2519397598935111E-005   0.0000000000000000     
  -1.3546011171158634E-006   1.2754149627834469E-005   0.0000000000000000     
  -1.3614674575141439E-006   1.2990061374208112E-005   0.0000000000000000     
  -1.3681504848086804E-006   1.3227102350435751E-005   0.0000000000000000     
  -1.3746501283045120E-006   1.3465242068897110E-005   0.0000000000000000     
  -1.3809663173066807E-006   1.3704450041971901E-005   0.0000000000000000     
  -1.3870989811202264E-006   1.3944695782039842E-005   0.0000000000000000     
  -1.3930480490501920E-006   1.4185948801480661E-005   0.0000000000000000     
  -1.5647696528923868E-006   1.2288215993410217E-005   0.0000000000000000     
  -1.5732078615383043E-006   1.2521718212176534E-005   0.0000000000000000     
  -1.5814323853858676E-006   1.2756410594183619E-005   0.0000000000000000     
  -1.5894431559172125E-006   1.2992262632223927E-005   0.0000000000000000     
  -1.5972401046144755E-006   1.3229243819089945E-005   0.0000000000000000     
  -1.6048231629597908E-006   1.3467323647574134E-005   0.0000000000000000     
  -1.6121922624352960E-006   1.3706471610468973E-005   0.0000000000000000     
  -1.6193473345231266E-006   1.3946657200566942E-005   0.0000000000000000     
  -1.6262883107054185E-006   1.4187849910660496E-005   0.0000000000000000     
  -1.7897117920614042E-006   1.2290962441808961E-005   0.0000000000000000     
  -1.7993554525422890E-006   1.2524395913071877E-005   0.0000000000000000     
  -1.8087549223100353E-006   1.2759019508759846E-005   0.0000000000000000     
  -1.8179101414667590E-006   1.2994802701455211E-005   0.0000000000000000     
  -1.8268210501145777E-006   1.3231714963740324E-005   0.0000000000000000     
  -1.8354875883556112E-006   1.3469725768197544E-005   0.0000000000000000     
  -1.8439096962919768E-006   1.3708804587409218E-005   0.0000000000000000     
  -1.8520873140257908E-006   1.3948920893957696E-005   0.0000000000000000     
  -1.8600203816591732E-006   1.4190044160425343E-005   0.0000000000000000     
  -1.4850233700089248E-006   7.1249555381880496E-006   0.0000000000000000     
  -1.5005262988619970E-006   7.3206695102723471E-006   0.0000000000000000     
  -1.5157850864735088E-006   7.5183060949225628E-006   0.0000000000000000     
  -1.5307997336562519E-006   7.7178347731797403E-006   0.0000000000000000     
  -1.5455702412230164E-006   7.9192250260849340E-006   0.0000000000000000     
  -1.5600966099865949E-006   8.1224463346791968E-006   0.0000000000000000     
  -1.5743788407597767E-006   8.3274681800035682E-006   0.0000000000000000     
  -1.5884169343553537E-006   8.5342600430991128E-006   0.0000000000000000     
  -1.6022108915861181E-006   8.7427914050068733E-006   0.0000000000000000     
  -1.6724411392357779E-006   7.1299360036811428E-006   0.0000000000000000     
  -1.6898819353252917E-006   7.3255721574962049E-006   0.0000000000000000     
  -1.7070480721021702E-006   7.5231309237799823E-006   0.0000000000000000     
  -1.7239395503761496E-006   7.7225817836474009E-006   0.0000000000000000     
  -1.7405563709569656E-006   7.9238942182133791E-006   0.0000000000000000     
  -1.7568985346543518E-006   8.1270377085928336E-006   0.0000000000000000     
  -1.7729660422780460E-006   8.3319817359006801E-006   0.0000000000000000     
  -1.7887588946377825E-006   8.5386957812518499E-006   0.0000000000000000     
  -1.8042770925432964E-006   8.7471493257612537E-006   0.0000000000000000     
  -1.8604906208132798E-006   7.1355024067019415E-006   0.0000000000000000     
  -1.8798692842376444E-006   7.3310515875834912E-006   0.0000000000000000     
  -1.8989427702955580E-006   7.5285233802830959E-006   0.0000000000000000     
  -1.9177110797421168E-006   7.7278872661276389E-006   0.0000000000000000     
  -1.9361742133324178E-006   7.9291127264440069E-006   0.0000000000000000     
  -1.9543321718215584E-006   8.1321692425590839E-006   0.0000000000000000     
  -1.9721849559646351E-006   8.3370262957997526E-006   0.0000000000000000     
  -1.9897325665167434E-006   8.5436533674929003E-006   0.0000000000000000     
  -2.0069750042329819E-006   8.7520199389654095E-006   0.0000000000000000     
  -2.0492420062307537E-006   7.1416547475920269E-006   0.0000000000000000     
  -2.0705585368156530E-006   7.3371078004251741E-006   0.0000000000000000     
  -2.0915393721543877E-006   7.5344834641449042E-006   0.0000000000000000     
  -2.1121845128762675E-006   7.7337512203570930E-006   0.0000000000000000     
  -2.1324939596106037E-006   7.9348805506676263E-006   0.0000000000000000     
  -2.1524677129867073E-006   8.1378409366823821E-006   0.0000000000000000     
  -2.1721057736338902E-006   8.3426018600072421E-006   0.0000000000000000     
  -2.1914081421814637E-006   8.5491328022480911E-006   0.0000000000000000     
  -2.2103748192587362E-006   8.7574032450108090E-006   0.0000000000000000     
  -2.2387654869775218E-006   7.1483930266929796E-006   0.0000000000000000     
  -2.2620198842759157E-006   7.3437407959122125E-006   0.0000000000000000     
  -2.2849080687793740E-006   7.5410111750784063E-006   0.0000000000000000     
  -2.3074300409007139E-006   7.7401736460723988E-006   0.0000000000000000     
  -2.3295858010527479E-006   7.9411976907750396E-006   0.0000000000000000     
  -2.3513753496482914E-006   8.1440527910671638E-006   0.0000000000000000     
  -2.3727986871001578E-006   8.3487084288296221E-006   0.0000000000000000     
  -2.3938558138211643E-006   8.5551340859432512E-006   0.0000000000000000     
  -2.4145467302241209E-006   8.7632992442888982E-006   0.0000000000000000     
  -2.4291312545429086E-006   7.1557172443463850E-006   0.0000000000000000     
  -2.4543235178350284E-006   7.3509505739355697E-006   0.0000000000000000     
  -2.4791190512712346E-006   7.5481065127966045E-006   0.0000000000000000     
  -2.5035178549375698E-006   7.7471545430101950E-006   0.0000000000000000     
  -2.5275199289200779E-006   7.9480641466570489E-006   0.0000000000000000     
  -2.5511252733048024E-006   8.1508048058178649E-006   0.0000000000000000     
  -2.5743338881777852E-006   8.3553460025733524E-006   0.0000000000000000     
  -2.5971457736250684E-006   8.5616572190042111E-006   0.0000000000000000     
  -2.6195609297326974E-006   8.7697079371911486E-006   0.0000000000000000     
  -2.6204095004162363E-006   7.1636274008938245E-006   0.0000000000000000     
  -2.6475396287095894E-006   7.3587371343862053E-006   0.0000000000000000     
  -2.6742425107306837E-006   7.5557694770125063E-006   0.0000000000000000     
  -2.7005181461089507E-006   7.7546939109071204E-006   0.0000000000000000     
  -2.7263665344738224E-006   7.9554799182044582E-006   0.0000000000000000     
  -2.7517876754547338E-006   8.1580969810389142E-006   0.0000000000000000     
  -2.7767815686811160E-006   8.3625145815448932E-006   0.0000000000000000     
  -2.8013482137824014E-006   8.5687022018567929E-006   0.0000000000000000     
  -2.8254876103880254E-006   8.7766293241090166E-006   0.0000000000000000     
  -2.8126704160868281E-006   7.1721234966768810E-006   0.0000000000000000     
  -2.8417384081161979E-006   7.3671004771550876E-006   0.0000000000000000     
  -2.8703486382584377E-006   7.5640000674391081E-006   0.0000000000000000     
  -2.8985011055369680E-006   7.7627917494998190E-006   0.0000000000000000     
  -2.9261958089752082E-006   7.9634450053080713E-006   0.0000000000000000     
  -2.9534327475965779E-006   8.1659293168347477E-006   0.0000000000000000     
  -2.9802119204244981E-006   8.3702141660507126E-006   0.0000000000000000     
  -3.0065333264823894E-006   8.5762690349268273E-006   0.0000000000000000     
  -3.0323969647936681E-006   8.7840634054339651E-006   0.0000000000000000     
  -3.0059841930440070E-006   7.1812055320371366E-006   0.0000000000000000     
  -3.0369900472714494E-006   7.3760406021331721E-006   0.0000000000000000     
  -3.0675076249552122E-006   7.5727982837894173E-006   0.0000000000000000     
  -3.0975369243437362E-006   7.7714480585249142E-006   0.0000000000000000     
  -3.1270779436854612E-006   7.9719594078586956E-006   0.0000000000000000     
  -3.1561306812288289E-006   8.1743018133098027E-006   0.0000000000000000     
  -3.1846951352222784E-006   8.3784447563972723E-006   0.0000000000000000     
  -3.2127713039142520E-006   8.5843577186401397E-006   0.0000000000000000     
  -3.2403591855531883E-006   8.7920101815574504E-006   0.0000000000000000     
  -1.6022108915861181E-006   8.7427914050068733E-006   0.0000000000000000     
  -1.6157607131201175E-006   8.9530317471394637E-006   0.0000000000000000     
  -1.6290663990464299E-006   9.1649505523957394E-006   0.0000000000000000     
  -1.6421279493093925E-006   9.3785173040461270E-006   0.0000000000000000     
  -1.6549453638533410E-006   9.5937014853610448E-006   0.0000000000000000     
  -1.6675186426226116E-006   9.8104725796109175E-006   0.0000000000000000     
  -1.6798477855615390E-006   1.0028800070066162E-005   0.0000000000000000     
  -1.6919327926144614E-006   1.0248653439997208E-005   0.0000000000000000     
  -1.7037736637257137E-006   1.0470002172674472E-005   0.0000000000000000     
  -1.8042770925432964E-006   8.7471493257612537E-006   0.0000000000000000     
  -1.8195206366449862E-006   8.9573118508824544E-006   0.0000000000000000     
  -1.8344895269558935E-006   9.1691528394235562E-006   0.0000000000000000     
  -1.8491837633297242E-006   9.3826417745313191E-006   0.0000000000000000     
  -1.8636033456201838E-006   9.5977481393524892E-006   0.0000000000000000     
  -1.8777482736809769E-006   9.8144414170338163E-006   0.0000000000000000     
  -1.8916185473658086E-006   1.0032691090722050E-005   0.0000000000000000     
  -1.9052141665283835E-006   1.0252466643563950E-005   0.0000000000000000     
  -1.9185351310224082E-006   1.0473737558706253E-005   0.0000000000000000     
  -2.0069750042329819E-006   8.7520199389654095E-006   0.0000000000000000     
  -2.0239122697020782E-006   8.9620954918053674E-006   0.0000000000000000     
  -2.0405443628472870E-006   9.1738495086456472E-006   0.0000000000000000     
  -2.0568712834254929E-006   9.3872514723803153E-006   0.0000000000000000     
  -2.0728930311935846E-006   9.6022708659034445E-006   0.0000000000000000     
  -2.0886096059084477E-006   9.8188771721091113E-006   0.0000000000000000     
  -2.1040210073269680E-006   1.0037039873891382E-005   0.0000000000000000     
  -2.1191272352060323E-006   1.0256728454144329E-005   0.0000000000000000     
  -2.1339282893025267E-006   1.0477912395762026E-005   0.0000000000000000     
  -2.2103748192587362E-006   8.7574032450108090E-006   0.0000000000000000     
  -2.2290058053360103E-006   8.9673826700632453E-006   0.0000000000000000     
  -2.2473011002475342E-006   9.1790405598211789E-006   0.0000000000000000     
  -2.2652607036685500E-006   9.3923463968623431E-006   0.0000000000000000     
  -2.2828846152742947E-006   9.6072696637644897E-006   0.0000000000000000     
  -2.3001728347400082E-006   9.8237798431053520E-006   0.0000000000000000     
  -2.3171253617409304E-006   1.0041846417462685E-005   0.0000000000000000     
  -2.3337421959523006E-006   1.0261438869414225E-005   0.0000000000000000     
  -2.3500233370493568E-006   1.0482526681537718E-005   0.0000000000000000     
  -2.4145467302241209E-006   8.7632992442888982E-006   0.0000000000000000     
  -2.4348714365913979E-006   8.9731733858111190E-006   0.0000000000000000     
  -2.4548299326835648E-006   9.1847259927093212E-006   0.0000000000000000     
  -2.4744222181307454E-006   9.3979265472466332E-006   0.0000000000000000     
  -2.4936482925630647E-006   9.6127445316861833E-006   0.0000000000000000     
  -2.5125081556106448E-006   9.8291494282910979E-006   0.0000000000000000     
  -2.5310018069036088E-006   1.0047110719324495E-005   0.0000000000000000     
  -2.5491292460720819E-006   1.0266597887049511E-005   0.0000000000000000     
  -2.5668904727461862E-006   1.0487580413729258E-005   0.0000000000000000     
  -2.6195609297326974E-006   8.7697079371911486E-006   0.0000000000000000     
  -2.6415793565128555E-006   8.9794676392040174E-006   0.0000000000000000     
  -2.6632010536823012E-006   9.1909058070692441E-006   0.0000000000000000     
  -2.6844260208839310E-006   9.4039919228024132E-006   0.0000000000000000     
  -2.7052542577606438E-006   9.6186954684191009E-006   0.0000000000000000     
  -2.7256857639553390E-006   9.8349859259348816E-006   0.0000000000000000     
  -2.7457205391109138E-006   1.0052832777365337E-005   0.0000000000000000     
  -2.7653585828702676E-006   1.0272205504726044E-005   0.0000000000000000     
  -2.7845998948762986E-006   1.0493073590032582E-005   0.0000000000000000     
  -2.8254876103880254E-006   8.7766293241090166E-006   0.0000000000000000     
  -2.8491997581450014E-006   8.9862654303969764E-006   0.0000000000000000     
  -2.8724846567706711E-006   9.1975800026601223E-006   0.0000000000000000     
  -2.8953423059999568E-006   9.4105425227989103E-006   0.0000000000000000     
  -2.9177727055677846E-006   9.6251224727138063E-006   0.0000000000000000     
  -2.9397758552090782E-006   9.8412893343052645E-006   0.0000000000000000     
  -2.9613517546587581E-006   1.0059012589473744E-005   0.0000000000000000     
  -2.9825004036517522E-006   1.0278261720119710E-005   0.0000000000000000     
  -3.0032218019229827E-006   1.0499006208143622E-005   0.0000000000000000     
  -3.0323969647936681E-006   8.7840634054339651E-006   0.0000000000000000     
  -3.0578028345324492E-006   8.9935667595450318E-006   0.0000000000000000     
  -3.0827509354755979E-006   9.2047485792411226E-006   0.0000000000000000     
  -3.1072412675506743E-006   9.4175783465053554E-006   0.0000000000000000     
  -3.1312738306852371E-006   9.6320255433208733E-006   0.0000000000000000     
  -3.1548486248068438E-006   9.8480596516707926E-006   0.0000000000000000     
  -3.1779656498430562E-006   1.0065650153538258E-005   0.0000000000000000     
  -3.2006249057214289E-006   1.0284766530906377E-005   0.0000000000000000     
  -3.2228263923695231E-006   1.0505378265758296E-005   0.0000000000000000     
  -3.2403591855531883E-006   8.7920101815574504E-006   0.0000000000000000     
  -3.2674587787198160E-006   9.0013716268032211E-006   0.0000000000000000     
  -3.2940700833240095E-006   9.2124115365714148E-006   0.0000000000000000     
  -3.3201930996079351E-006   9.4250993931909826E-006   0.0000000000000000     
  -3.3458278278137518E-006   9.6394046789908657E-006   0.0000000000000000     
  -3.3709742681836256E-006   9.8552968763000203E-006   0.0000000000000000     
  -3.3956324209597171E-006   1.0072745467447384E-005   0.0000000000000000     
  -3.4198022863841912E-006   1.0291719934761910E-005   0.0000000000000000     
  -3.4434838646992097E-006   1.0512189760572549E-005   0.0000000000000000     
  -1.7037736637257137E-006   1.0470002172674472E-005   0.0000000000000000     
  -1.7153703989568689E-006   1.0692815750111348E-005   0.0000000000000000     
  -1.7267229988384497E-006   1.0917063649293117E-005   0.0000000000000000     
  -1.7378314640182160E-006   1.1142715345948046E-005   0.0000000000000000     
  -1.7486957951439263E-006   1.1369740315804384E-005   0.0000000000000000     
  -1.7593159928633409E-006   1.1598108034590383E-005   0.0000000000000000     
  -1.7696920578242190E-006   1.1827787978034311E-005   0.0000000000000000     
  -1.7798239906743205E-006   1.2058749621864420E-005   0.0000000000000000     
  -1.7897117920614042E-006   1.2290962441808961E-005   0.0000000000000000     
  -1.9185351310224082E-006   1.0473737558706253E-005   0.0000000000000000     
  -1.9315814409342670E-006   1.0696473317789053E-005   0.0000000000000000     
  -1.9443530972810760E-006   1.0920643396425759E-005   0.0000000000000000     
  -1.9568501013126288E-006   1.1146217268723115E-005   0.0000000000000000     
  -1.9690724542787210E-006   1.1373164408787871E-005   0.0000000000000000     
  -1.9810201574291487E-006   1.1601454290726766E-005   0.0000000000000000     
  -1.9926932120137070E-006   1.1831056388646549E-005   0.0000000000000000     
  -2.0040916192821909E-006   1.2061940176653966E-005   0.0000000000000000     
  -2.0152153804843954E-006   1.2294075128855756E-005   0.0000000000000000     
  -2.1339282893025267E-006   1.0477912395762026E-005   0.0000000000000000     
  -2.1484241697130145E-006   1.0700561180010529E-005   0.0000000000000000     
  -2.1626148778927693E-006   1.0924644281643856E-005   0.0000000000000000     
  -2.1765004156367402E-006   1.1150131173788015E-005   0.0000000000000000     
  -2.1900807847398784E-006   1.1376991329569007E-005   0.0000000000000000     
  -2.2033559869971341E-006   1.1605194222112837E-005   0.0000000000000000     
  -2.2163260242034567E-006   1.1834709324545512E-005   0.0000000000000000     
  -2.2289908981537970E-006   1.2065506109993033E-005   0.0000000000000000     
  -2.2413506106431039E-006   1.2297554051581408E-005   0.0000000000000000     
  -2.3500233370493568E-006   1.0482526681537718E-005   0.0000000000000000     
  -2.3659687851030484E-006   1.0705079334750935E-005   0.0000000000000000     
  -2.3815785417671609E-006   1.0929066303331792E-005   0.0000000000000000     
  -2.3968526090911893E-006   1.1154457059898233E-005   0.0000000000000000     
  -2.4117909891246250E-006   1.1381221077068193E-005   0.0000000000000000     
  -2.4263936839169647E-006   1.1609327827459616E-005   0.0000000000000000     
  -2.4406606955177028E-006   1.1838746783690451E-005   0.0000000000000000     
  -2.4545920259763320E-006   1.2069447418378630E-005   0.0000000000000000     
  -2.4681876773423491E-006   1.2301399204142106E-005   0.0000000000000000     
  -2.5668904727461862E-006   1.0487580413729258E-005   0.0000000000000000     
  -2.5842854869143082E-006   1.0710027779985436E-005   0.0000000000000000     
  -2.6013142899978832E-006   1.0933909459873942E-005   0.0000000000000000     
  -2.6179768837766092E-006   1.1159194925809244E-005   0.0000000000000000     
  -2.6342732700301867E-006   1.1385853650205813E-005   0.0000000000000000     
  -2.6502034505383090E-006   1.1613855105478107E-005   0.0000000000000000     
  -2.6657674270806795E-006   1.1843168764040601E-005   0.0000000000000000     
  -2.6809652014369929E-006   1.2073764098307761E-005   0.0000000000000000     
  -2.6957967753869475E-006   1.2305610580694044E-005   0.0000000000000000     
  -2.7845998948762986E-006   1.0493073590032582E-005   0.0000000000000000     
  -2.8034444749567270E-006   1.0715406513689179E-005   0.0000000000000000     
  -2.8218923236785638E-006   1.0939173749654672E-005   0.0000000000000000     
  -2.8399434417936398E-006   1.1164344770276534E-005   0.0000000000000000     
  -2.8575978300537861E-006   1.1390889047902262E-005   0.0000000000000000     
  -2.8748554892108358E-006   1.1618776054879325E-005   0.0000000000000000     
  -2.8917164200166209E-006   1.1847975263555224E-005   0.0000000000000000     
  -2.9081806232229726E-006   1.2078456146277426E-005   0.0000000000000000     
  -2.9242480995817206E-006   1.2310188175393423E-005   0.0000000000000000     
  -3.0032218019229827E-006   1.0499006208143622E-005   0.0000000000000000     
  -3.0235159490402456E-006   1.0721215533837337E-005   0.0000000000000000     
  -3.0433828439028351E-006   1.0944859171058362E-005   0.0000000000000000     
  -3.0628224852429154E-006   1.1169906592055589E-005   0.0000000000000000     
  -3.0818348717926524E-006   1.1396327269077927E-005   0.0000000000000000     
  -3.1004200022842138E-006   1.1624090674374285E-005   0.0000000000000000     
  -3.1185778754497622E-006   1.1853166280193550E-005   0.0000000000000000     
  -3.1363084900214651E-006   1.2083523558784633E-005   0.0000000000000000     
  -3.1536118447314879E-006   1.2315131982396442E-005   0.0000000000000000     
  -3.2228263923695231E-006   1.0505378265758296E-005   0.0000000000000000     
  -3.2445701089748000E-006   1.0727454838405064E-005   0.0000000000000000     
  -3.2658560517643260E-006   1.0950965722469378E-005   0.0000000000000000     
  -3.2866842162250720E-006   1.1175880389901882E-005   0.0000000000000000     
  -3.3070545978440103E-006   1.1402168312653215E-005   0.0000000000000000     
  -3.3269671921081073E-006   1.1629798962673981E-005   0.0000000000000000     
  -3.3464219945043355E-006   1.1858741811914832E-005   0.0000000000000000     
  -3.3654190005196665E-006   1.2088966332326398E-005   0.0000000000000000     
  -3.3839582056410655E-006   1.2320441995859294E-005   0.0000000000000000     
  -3.4434838646992097E-006   1.0512189760572549E-005   0.0000000000000000     
  -3.4666771545703273E-006   1.0734124425367512E-005   0.0000000000000000     
  -3.4893821483566687E-006   1.0957493402272110E-005   0.0000000000000000     
  -3.5115988368407492E-006   1.1182266162570917E-005   0.0000000000000000     
  -3.5333272108050831E-006   1.1408412177548501E-005   0.0000000000000000     
  -3.5545672610321881E-006   1.1635900918489446E-005   0.0000000000000000     
  -3.5753189783045777E-006   1.1864701856678324E-005   0.0000000000000000     
  -3.5955823534047684E-006   1.2094784463399709E-005   0.0000000000000000     
  -3.6153573771152757E-006   1.2326118209938180E-005   0.0000000000000000     
  -1.7897117920614042E-006   1.2290962441808961E-005   0.0000000000000000     
  -1.7993554525422890E-006   1.2524395913071877E-005   0.0000000000000000     
  -1.8087549223100353E-006   1.2759019508759846E-005   0.0000000000000000     
  -1.8179101414667590E-006   1.2994802701455211E-005   0.0000000000000000     
  -1.8268210501145777E-006   1.3231714963740324E-005   0.0000000000000000     
  -1.8354875883556112E-006   1.3469725768197544E-005   0.0000000000000000     
  -1.8439096962919768E-006   1.3708804587409218E-005   0.0000000000000000     
  -1.8520873140257908E-006   1.3948920893957696E-005   0.0000000000000000     
  -1.8600203816591732E-006   1.4190044160425343E-005   0.0000000000000000     
  -2.0152153804843954E-006   1.2294075128855756E-005   0.0000000000000000     
  -2.0260644892309988E-006   1.2527430715753174E-005   0.0000000000000000     
  -2.0366389085761986E-006   1.2761976393425425E-005   0.0000000000000000     
  -2.0469385939350786E-006   1.2997681614346238E-005   0.0000000000000000     
  -2.0569635007227191E-006   1.3234515830989326E-005   0.0000000000000000     
  -2.0667135843542014E-006   1.3472448495828409E-005   0.0000000000000000     
  -2.0761888002446080E-006   1.3711449061337201E-005   0.0000000000000000     
  -2.0853891038090206E-006   1.3951486979989427E-005   0.0000000000000000     
  -2.0943144504625191E-006   1.4192531704258798E-005   0.0000000000000000     
  -2.2413506106431039E-006   1.2297554051581408E-005   0.0000000000000000     
  -2.2534051589988130E-006   1.2530822615837985E-005   0.0000000000000000     
  -2.2651545226782903E-006   1.2765281242895511E-005   0.0000000000000000     
  -2.2765986766713856E-006   1.3000899366288078E-005   0.0000000000000000     
  -2.2877375959679510E-006   1.3237646419549770E-005   0.0000000000000000     
  -2.2985712555578363E-006   1.3475491836214685E-005   0.0000000000000000     
  -2.3090996304308918E-006   1.3714405049816914E-005   0.0000000000000000     
  -2.3193226955769677E-006   1.3954355493890542E-005   0.0000000000000000     
  -2.3292404259859155E-006   1.4195312601969665E-005   0.0000000000000000     
  -2.4681876773423491E-006   1.2301399204142106E-005   0.0000000000000000     
  -2.4814476506111516E-006   1.2534571604315283E-005   0.0000000000000000     
  -2.4943719425617661E-006   1.2768934045098484E-005   0.0000000000000000     
  -2.5069605489191260E-006   1.3004455943408487E-005   0.0000000000000000     
  -2.5192134654081593E-006   1.3241106716162082E-005   0.0000000000000000     
  -2.5311306877537990E-006   1.3478855780276049E-005   0.0000000000000000     
  -2.5427122116809765E-006   1.3717672552667173E-005   0.0000000000000000     
  -2.5539580329146230E-006   1.3957526450252236E-005   0.0000000000000000     
  -2.5648681471796705E-006   1.4198386889948035E-005   0.0000000000000000     
  -2.6957967753869475E-006   1.2305610580694044E-005   0.0000000000000000     
  -2.7102621528334322E-006   1.2538677672174035E-005   0.0000000000000000     
  -2.7243613461720856E-006   1.2772934787962723E-005   0.0000000000000000     
  -2.7380943699217403E-006   1.3008351331835232E-005   0.0000000000000000     
  -2.7514612386012274E-006   1.3244896707566680E-005   0.0000000000000000     
  -2.7644619667293753E-006   1.3482540318932163E-005   0.0000000000000000     
  -2.7770965688250142E-006   1.3721251569706806E-005   0.0000000000000000     
  -2.7893650594069772E-006   1.3960999863665716E-005   0.0000000000000000     
  -2.8012674529940913E-006   1.4201754604584001E-005   0.0000000000000000     
  -2.9242480995817206E-006   1.2310188175393423E-005   0.0000000000000000     
  -2.9399188544310707E-006   1.2543140810403185E-005   0.0000000000000000     
  -2.9551929114547050E-006   1.2777283459416607E-005   0.0000000000000000     
  -2.9700702989226762E-006   1.3012585517696079E-005   0.0000000000000000     
  -2.9845510451050397E-006   1.3249016380503983E-005   0.0000000000000000     
  -2.9986351782718475E-006   1.3486545443102710E-005   0.0000000000000000     
  -3.0123227266931559E-006   1.3725142100754642E-005   0.0000000000000000     
  -3.0256137186390181E-006   1.3964775748722164E-005   0.0000000000000000     
  -3.0385081823794860E-006   1.4205415782267658E-005   0.0000000000000000     
  -3.1536118447314879E-006   1.2315131982396442E-005   0.0000000000000000     
  -3.1704879441694865E-006   1.2547961009991705E-005   0.0000000000000000     
  -3.1869368163550797E-006   1.2781980047388518E-005   0.0000000000000000     
  -3.2029584951653747E-006   1.3017158487118780E-005   0.0000000000000000     
  -3.2185530144774797E-006   1.3253465721714418E-005   0.0000000000000000     
  -3.2337204081685024E-006   1.3490871143707355E-005   0.0000000000000000     
  -3.2484607101155521E-006   1.3729344145629502E-005   0.0000000000000000     
  -3.2627739541957363E-006   1.3968854120012778E-005   0.0000000000000000     
  -3.2766601742861634E-006   1.4209370459389103E-005   0.0000000000000000     
  -3.3839582056410655E-006   1.2320441995859294E-005   0.0000000000000000     
  -3.4020396108140970E-006   1.2553138261928565E-005   0.0000000000000000     
  -3.4196632388186683E-006   1.2787024539806822E-005   0.0000000000000000     
  -3.4368291178932792E-006   1.3022070226231096E-005   0.0000000000000000     
  -3.4535372762764332E-006   1.3258244717938411E-005   0.0000000000000000     
  -3.4697877422066235E-006   1.3495517411665771E-005   0.0000000000000000     
  -3.4855805439223532E-006   1.3733857704150217E-005   0.0000000000000000     
  -3.5009157096621230E-006   1.3973234992128763E-005   0.0000000000000000     
  -3.5157932676644297E-006   1.4213618672338429E-005   0.0000000000000000     
  -3.6153573771152757E-006   1.2326118209938180E-005   0.0000000000000000     
  -3.6346440431303182E-006   1.2558672557202710E-005   0.0000000000000000     
  -3.6534423567909271E-006   1.2792416924599913E-005   0.0000000000000000     
  -3.6717523263498367E-006   1.3027320721160795E-005   0.0000000000000000     
  -3.6895739600597817E-006   1.3263353355916364E-005   0.0000000000000000     
  -3.7069072661734951E-006   1.3500484237897631E-005   0.0000000000000000     
  -3.7237522529437127E-006   1.3738682776135610E-005   0.0000000000000000     
  -3.7401089286231674E-006   1.3977918379661305E-005   0.0000000000000000     
  -3.7559773014645940E-006   1.4218160457505730E-005   0.0000000000000000     
 </DataArray>
 <DataArray  type="Float64" Name="stress" NumberOfComponents="3" format="ascii">
   11999.995922262662       -3.2442082861052768E-003  -1.9605622151293886E-003
   11812.498890672448       -4.9459459751233226E-004  -5.6302380344819400E-004
   11625.000817843833        1.0262198406962852E-003   1.9118860203437720E-004
   11437.501782222254        1.5797201526766003E-003   4.2997417462936030E-004
   11250.001862253204        1.4273913539000205E-003   2.8123197036630560E-004
   11062.501136382754        8.3072013740093098E-004  -1.2713866152152406E-004
   10874.999683056214        5.1191118018323323E-005  -6.6723865523112122E-004
   10687.497580719380       -6.4971000392688438E-004  -1.2111688337864039E-003
   10499.994907817767       -1.0104979028255912E-003  -1.6310300935122189E-003
   11249.998625611512       -1.5699739724368555E-003   181.64014768063495     
   11074.218653988870       -2.1819975927428459E-004   181.64100546037136     
   10898.438122447298        5.1720003102673218E-004   181.64143976467616     
   10722.657068437764        7.6106211326987250E-004   181.64155209287537     
   10546.875529411422        6.3822371566857328E-004   181.64144394432441     
   10371.093542819408        2.7352182542017545E-004   181.64121681852032     
   10195.311146112683       -2.0820696545342798E-004   181.64097221480384     
   10019.528376742543       -6.8212514861443196E-004   181.64081163255904     
   9843.7452721599875       -1.0233958673779853E-003   181.64083657118223     
   10500.000410778777       -3.0236209795475588E-004   351.56294594224795     
   10335.937996209328       -2.6263261588610476E-005   351.56348540854049     
   10171.875397223183        1.0943899769699783E-004   351.56375550621715     
   10007.812619273376        1.2292146811887505E-004   351.56383422437705     
   9843.7496678127263        3.2360183922719443E-005   351.56379955202647     
   9679.6865482942812       -1.4406790523935342E-004   351.56372947827435     
   9515.6232661710292       -3.8818632037873613E-004   351.56370199209510     
   9351.5598268958547       -6.8181882852513809E-004   351.56379508261205     
   9187.4962359215788       -1.0067891876133217E-003   351.56408673879321     
   9750.0014286926307        6.0390593989723129E-004   509.76652440931008     
   9597.6569979495598        1.0539936101849889E-004   509.76692148952708     
   9445.3126607306185       -1.9149554600517149E-004   509.76714806029167     
   9292.9683994868246       -3.4527501020420459E-004   509.76726148953924     
   9140.6241966693979       -4.1443513782724040E-004   509.76731914550334     
   8988.2800347295524       -4.5747181366095901E-004   509.76737839636854     
   8835.9358961185462       -5.3288106164472993E-004   509.76749661022910     
   8683.5917632874662       -6.9915908397888415E-004   509.76773115525720     
   8531.2476186875447       -1.0148018145628157E-003   509.76813939959681     
   9000.0018302811786        1.1941083207602787E-003   656.25097326855666     
   8859.3757398256039        2.0097330252610845E-004   656.25135837241839     
   8718.7499315286641       -3.8003569034117390E-004   656.25162707365860     
   8578.1243738360081       -6.5409967146479175E-004   656.25181900902612     
   8437.4990351935594       -7.2639879863345413E-004   656.25197381505450     
   8296.8738840471779       -7.0211366437433753E-004   656.25213112859649     
   8156.2488888426524       -6.8642496262327768E-004   656.25233058616993     
   8015.6240180258765       -7.8451308309013257E-004   656.25261182458360     
   7874.9992400426645       -1.1015585337190714E-003   656.25301448045514     
   8250.0017664727438        1.5135237945287372E-003   791.01638270687170     
   8121.0943024533935        2.8464333036026801E-004   791.01684072615740     
   7992.1872281764490       -4.5061392665957101E-004   791.01720219356309     
   7863.2805070788181       -8.1412500776423258E-004   791.01749190365319     
   7734.3741025974450       -9.2776695191787439E-004   791.01773465115627     
   7605.4679781690957       -9.1341698453106801E-004   791.01795523072940     
   7476.5620972308297       -8.9295161387781263E-004   791.01817843696131     
   7347.6564232193923       -9.8824840279121418E-004   791.01842906458046     
   7218.7509195718367       -1.3211839045652596E-003   791.01873190822550     
   7500.0013881954392        1.6074307054623205E-003   914.06284291091242     
   7382.8127664485974        3.8059399867051980E-004   914.06341321971024     
   7265.6245692330576       -3.9766233567206655E-004   914.06388306678116     
   7148.4367639730781       -8.3592403825605288E-004   914.06426529424311     
   7031.2493180930778       -1.0427763154439162E-003   914.06457274409445     
   6914.0621990174031       -1.1268048178862955E-003   914.06481825850733     
   6796.8753741704313       -1.1965949497607653E-003   914.06501467955184     
   6679.6888109764377       -1.3607324199256254E-003   914.06517484926906     
   6562.5024768598314       -1.7278025097766658E-003   914.06531160972315     
   6750.0008463775184        1.5211074987746542E-003   1025.3904440676251     
   6644.5312124272341        5.1301019084348809E-004   1025.3911205220691     
   6539.0619732575187       -2.1561337916864431E-004   1025.3916793403619     
   6433.5931092766459       -7.3006908769457368E-004   1025.3921243014938     
   6328.1246008927719       -1.0956628475469188E-003   1025.3924591843358     
   6222.6564285141212       -1.3777007989119738E-003   1025.3926877678691     
   6117.1885725489046       -1.6414887443261250E-003   1025.3928138310007     
   6011.7210134053057       -1.9523326513990469E-003   1025.3928411526331     
   5906.2537314915407       -2.3755386953325797E-003   1025.3927735117284     
   6000.0002919470535        1.2998326151318906E-003   1124.9992763635853     
   5906.2497210050624        7.0607654038212786E-004   1125.0000073021740     
   5812.4994588090349        1.0110089147019607E-004   1125.0006006612634     
   5718.7495077474141       -5.0713282166725548E-004   1125.0010540462347     
   5624.9998702086168       -1.1106630956874142E-003   1125.0013650621706     
   5531.2505485812144       -1.7015282089687389E-003   1125.0015313144370     
   5437.5015452536363       -2.2717666040534823E-003   1125.0015504081987     
   5343.7528626143339       -2.8134168396718451E-003   1125.0014199487357     
   5250.0045030517776       -3.3185173092533660E-003   1125.0011375412012     
   10499.994907817767       -1.0104979028255912E-003  -1.6310300935122189E-003
   10312.492139844248       -7.2217866863866220E-004  -1.7698514374118338E-003
   10124.989657865868        2.0948938072251622E-004  -1.5936103020005301E-003
   9937.4873986901184        1.5738643346594472E-003  -1.1588297366465462E-003
   9749.9852991241514        3.1603034694853704E-003  -5.2203290799960494E-004
   9562.4832959753130        4.7581645872014633E-003   2.6025692199936384E-004
   9374.9813260511091        6.1568059895762417E-003   1.1315167650662288E-003
   9187.4793261587929        7.1455852175859036E-003   2.0352234398910815E-003
   8999.9772331056083        7.5138598226658360E-003   2.9148538140312983E-003
   9843.7452721599875       -1.0233958673779853E-003   181.64083657118223     
   9667.9620500469537       -1.0850613111870189E-003   181.64112636363569     
   9492.1788859562839       -8.6059386285342043E-004   181.64166805555942     
   9316.3957541451218       -4.3580300007306505E-004   181.64242471499909     
   9140.6126288705818        1.0350152069804608E-004   181.64335941000047     
   8964.8294843898548        6.7151055372960400E-004   181.64443520879001     
   8789.0462949600842        1.1824142507066426E-003   181.64561517941166     
   8613.2630348384027        1.5504033358411107E-003   181.64686238993920     
   8437.4796782820194        1.6896684273888241E-003   181.64813990850141     
   9187.4962359215788       -1.0067891876133217E-003   351.56408673879321     
   9023.4325206219419       -1.3393656035987078E-003   351.56462125993147     
   8859.3687070238957       -1.6603055983068771E-003   351.56537728915913     
   8695.3047985602752       -1.9581663759709045E-003   351.56633433120675     
   8531.2407986640465       -2.2215047383724595E-003   351.56747189078305     
   8367.1767107680116       -2.4388779174842057E-003   351.56876947255876     
   8203.1125383052386       -2.5988424786191899E-003   351.57020658129818     
   8039.0482847084731       -2.6899558342847740E-003   351.57176272161087     
   7874.9839534106768       -2.7007748308278678E-003   351.57341739824244     
   8531.2476186875447       -1.0148018145628157E-003   509.76813939959681     
   8378.9033582518514       -1.5430862827088276E-003   509.76876313842951     
   8226.5589058356836       -2.2542156366398558E-003   509.76960111272916     
   8074.2142857736781       -3.0670741894027742E-003   509.77064610915909     
   7921.8695224004196       -3.9005468388495501E-003   509.77189091446689     
   7769.5246400505521       -4.6735180872019555E-003   509.77332831518777     
   7617.1796630585850       -5.3048728377689258E-003   509.77495109815442     
   7464.8346157591350       -5.7134957646667317E-003   509.77675205001225     
   7312.4895224868114       -5.8182714465147001E-003   509.77872395733277     
   7874.9992400426645       -1.1015585337190714E-003   656.25301448045514     
   7734.3743696190131       -1.7542191462780465E-003   656.25360030016429     
   7593.7492671584851       -2.7068938225056627E-003   656.25440654832937     
   7453.1239696233151       -3.8363751650649647E-003   656.25543613900300     
   7312.4985139757409       -5.0194557866234391E-003   656.25669198613480     
   7171.8729371779727       -6.1329282229962701E-003   656.25817700383743     
   7031.2472761922254       -7.0535852032662660E-003   656.25989410602403     
   6890.6215679808083       -7.6582189840337378E-003   656.26184620677748     
   6749.9958495057617       -7.8236226404442277E-003   656.26403622004602     
   7218.7509195718367       -1.3211839045652596E-003   791.01873190822550     
   7089.8453614060072       -2.0307590689299104E-003   791.01918104617221     
   6960.9395757592411       -3.0829100919618213E-003   791.01986061814841     
   6832.0336039472941       -4.3399177657192922E-003   791.02078051088279     
   6703.1274872859785       -5.6640627531123755E-003   791.02195061105863     
   6574.2212670910458       -6.9176258571133076E-003   791.02338080546031     
   6445.3149846783463       -7.9628875673734001E-003   791.02508098067892     
   6316.4086813636450       -8.6621286886838789E-003   791.02706102354853     
   6187.5023984626860       -8.8776300681274734E-003   791.02933082072116     
   6562.5024768598314       -1.7278025097766658E-003   914.06531160972315     
   6445.3161402952819       -2.4307014496116608E-003   914.06555367748717     
   6328.1296164047444       -3.4468345761524688E-003   914.06603034430611     
   6210.9429425835706       -4.6515508006450546E-003   914.06675531500161     
   6093.7561562270375       -5.9201991266490950E-003   914.06774229434370     
   5976.5692947304487       -7.1281285913755710E-003   914.06900498705272     
   5859.3823954889785       -8.1506885103408422E-003   914.07055709798044     
   5742.1954958980550       -8.8632275942472916E-003   914.07241233192838     
   5625.0086333529180       -9.1410949310102296E-003   914.07458439361369     
   5906.2537314915407       -2.3755386953325797E-003   1025.3927735117284     
   5800.7865129693146       -3.0120415103738196E-003   1025.3927664951211     
   5695.3191738619826       -3.8632370192317467E-003   1025.3929827489969     
   5589.8517393702796       -4.8451226512042922E-003   1025.3934366415708     
   5484.3842346948668       -5.8736962162129203E-003   1025.3941425410917     
   5378.9166850366564       -6.8649548325083742E-003   1025.3951148157989     
   5273.4491155961696       -7.7348965817236603E-003   1025.3963678339053     
   5167.9815515742757       -8.3995186598713190E-003   1025.3979159635669     
   5062.5140181716397       -8.7748188550449413E-003   1025.3997735730941     
   5250.0045030517776       -3.3185173092533660E-003   1125.0011375412012     
   5156.2562861106198       -3.8327745132846758E-003   1125.0008678000579     
   5062.5080328977892       -4.3966872619876085E-003   1125.0007848542155     
   4968.7597481453950       -4.9944820084419916E-003   1125.0009005806664     
   4875.0114365855370       -5.6103848769453180E-003   1125.0012268564653     
   4781.2631029503809       -6.2286220804708137E-003   1125.0017755586462     
   4687.5147519720213       -6.8334200636854803E-003   1125.0025585641567     
   4593.7663883825853       -7.4090049465667107E-003   1125.0035877500807     
   4500.0180169142459       -7.9396028236260463E-003   1125.0048749934433     
   8999.9772331056083        7.5138598226658360E-003   2.9148538140312983E-003
   8812.4730174646666        6.5510475888004294E-003   3.0434008404920413E-003
   8624.9647683978310        3.9418622523044178E-003   2.2742587756252029E-003
   8437.4526005958687        6.8606381319114007E-005   1.4215068085128978E-003
   8249.9366287494486       -4.6864177215866221E-003   1.2992241551142473E-003
   8062.4169675494932       -9.9409072058733727E-003   2.7214897992687663E-003
   7874.8937316866650       -1.5312559545691329E-002   6.5023829667090341E-003
   7687.3670358517438       -2.0419072390268411E-002   1.3455982841630435E-002
   7499.8369947355641       -2.4878142794932501E-002   2.4396368346788381E-002
   8437.4796782820194        1.6896684273888241E-003   181.64813990850141     
   8261.6952765051974        1.2795668922080949E-003   181.64877298008406     
   8085.9089362122586        1.8442282225805684E-004   181.64849900259415     
   7910.1207148954309       -1.4041229192116589E-003   181.64789927384206     
   7734.3306700467183       -3.2944302629402955E-003   181.64755509151840     
   7558.5388591583487       -5.2948586139791587E-003   181.64804775341642     
   7382.7453397224863       -7.2137672041208134E-003   181.64995855727807     
   7206.9501692312479       -8.8595159295437043E-003   181.65386880082281     
   7031.1534051768394       -1.0040463900622854E-002   181.66035978186235     
   7874.9839534106768       -2.7007748308278678E-003   351.57341739824244     
   7710.9193392971765       -2.6732500245998381E-003   351.57450464087555     
   7546.8542493468349       -2.6090203846251825E-003   351.57462750024109     
   7382.7887051324615       -2.4361765194953477E-003   351.57416901279220     
   7218.7227282268868       -2.0828088972848491E-003   351.57351221492445     
   7054.6563402031279       -1.4770075513297343E-003   351.57304014301405     
   6890.5895626341371       -5.4686262956238352E-004   351.57313583365141     
   6726.5224170926331        7.7953501886440790E-004   351.57418232311181     
   6562.4549251517310        2.5740956812114746E-003   351.57656264789807     
   7312.4895224868114       -5.8182714465147001E-003   509.77872395733277     
   7160.1446386487660       -5.4775602438894566E-003   509.78018340671747     
   7007.8002080511233       -4.5883925554335292E-003   509.78059799024072     
   6855.4562376269005       -3.1276582722057356E-003   509.78018700317989     
   6703.1127343090166       -1.0722477054514457E-003   509.77916974065880     
   6550.7697050307643        1.6009501464395726E-003   509.77776549792861     
   6398.4271567249871        4.9150447853207879E-003   509.77619357012742     
   6246.0850963249359        8.8931469390445272E-003   509.77467325255242     
   6093.7435307634933        1.3558366278630274E-002   509.77342384030737     
   6749.9958495057617       -7.8236226404442277E-003   656.26403622004602     
   6609.3706073678113       -7.3035217601500335E-003   656.26575430091316     
   6468.7463125744898       -5.9036191901213897E-003   656.26634871106353     
   6328.1229786984559       -3.5786726984952111E-003   656.26590952447464     
   6187.5006193120607       -2.8344098473098711E-004   656.26452681525211     
   6046.8792479879730        4.0273180957228760E-003   656.26229065739642     
   5906.2588782988478        9.3988466073824384E-003   656.25929112498625     
   5765.6395238171190        1.5876386176387314E-002   656.25561829203150     
   5625.0211981155026        2.3505179056655834E-002   656.25136223256743     
   6187.5023984626860       -8.8776300681274734E-003   791.02933082072116     
   6058.5966782624009       -8.3212919566904020E-003   791.03116234693391     
   5929.6920631666480       -6.7046248798305896E-003   791.03181790110000     
   5800.7885946670394       -3.8893235198429466E-003   791.03129285613034     
   5671.8863142549144        2.6291668132216728E-004   791.02958258505544     
   5542.9852634218132        5.8904007767068833E-003   791.02668246076541     
   5414.0854836592189        1.3131433731814468E-002   791.02258785623735     
   5285.1870164585625        2.2124320345483284E-002   791.01729414445583     
   5156.2899033113308        3.3007365513185505E-002   791.01079669838032     
   5625.0086333529180       -9.1410949310102296E-003   914.07458439361369     
   5507.8222841404277       -8.7010286833901773E-003   914.07635256819844     
   5390.6369600770367       -7.1413351176943252E-003   914.07694379896247     
   5273.4527518525392       -4.1597148097025638E-003   914.07629327769928     
   5156.2697501566254        5.4613116117252503E-004   914.07433619651965     
   5039.0880456790519        7.2785019576713239E-003   914.07100774728065     
   4921.9077291096273        1.6339696976729101E-002   914.06624312203769     
   4804.7288911381138        2.8032015448388847E-002   914.05997751269615     
   4687.5516224542025        4.2657756291191617E-002   914.05214611122642     
   5062.5140181716397       -8.7748188550449413E-003   1025.3997735730941     
   4957.0468578099744       -8.6128893231034453E-003   1025.4012699881373     
   4851.5805035552421       -7.3636747363252653E-003   1025.4016646429513     
   4746.1151165748015       -4.4899505448938726E-003   1025.4008670685864     
   4640.6508580361578        5.4550818299503590E-004   1025.3987867960464     
   4535.1878891066735        8.2799260494539340E-003   1025.3953333563795     
   4429.7263709538274        1.9250528023349034E-002   1025.3904162805607     
   4324.2664647449665        3.3994538532851948E-002   1025.3839450996809     
   4218.8083316476059        5.3049182532276973E-002   1025.3758293448097     
   4500.0180169142459       -7.9396028236260463E-003   1125.0048749934433     
   4406.2698320789386       -8.2270316413541877E-003   1125.0058596301483     
   4312.5221938506238       -7.5215694516828080E-003   1125.0059186717101     
   4218.7753551536425       -4.9801349605331779E-003   1125.0049705082752     
   4125.0295689124405        2.4035329124671989E-004   1125.0029335300264     
   4031.2850880515289        8.9829770104188356E-003   1124.9997261271571     
   3937.5421654952947        2.2090817451726252E-002   1124.9952666898419     
   3843.8010541682088        4.0406956257584170E-002   1124.9894736082897     
   3750.0620069947663        6.4774474945352267E-002   1124.9822652726891     
   7499.8369947355641       -2.4878142794932501E-002   2.4396368346788381E-002
   7312.3070371029698       -2.8441492851925432E-002   3.6098738249773617E-002
   7124.7791039222211       -3.5820165935092518E-002   4.7571515259333841E-002
   6937.2510781886031       -5.4070844699253939E-002   6.2978614746278291E-002
   6749.7208428977638       -9.0250210357680771E-002   8.6483952120510077E-002
   6562.1862810447410      -0.15141494570298164       0.12225144288966686     
   6374.6452756253893      -0.24462173179699676       0.17444500247342518     
   6187.0957096347547      -0.37692725148303907       0.24722854621693896     
   5999.5354660685280      -0.55538818604509288       0.34476598962662419     
   7031.1534051768394       -1.0040463900622854E-002   181.66035978186235     
   6855.3618356809629       -9.0905168381141266E-003   181.66466433203226     
   6679.5815305350188       -6.7380150367171154E-003   181.66283836290938     
   6503.8114697342726       -6.3829740597611817E-003   181.65669779177236     
   6328.0506332744208       -1.1425408450122632E-002   181.64805853576306     
   6152.2980011511809       -2.5265332266826590E-002   181.63873651196701     
   5976.5525533602759       -5.1302759853115276E-002   181.63054763801290     
   5800.8132698970476       -9.2937706880547921E-002   181.62530783104364     
   5625.0791307576947      -0.15357018591703309        181.62483300794977     
   6562.4549251517310        2.5740956812114746E-003   351.57656264789807     
   6398.3945084844727        7.0829661403877253E-003   351.57469687656180     
   6234.3485283778828        1.6351006763670739E-002   351.56270037729729     
   6070.3169158265055        3.0148199231234685E-002   351.54049913588022     
   5906.2996018241538        4.8244522915410926E-002   351.50801913818879     
   5742.2965173651346        7.0409958848358656E-002   351.46518637004027     
   5578.3075934434719        9.6414486988351200E-002   351.41192681725124     
   5414.3327610533197       0.12602808806013854        351.34816646572870     
   5250.3719511887102       0.15902074210976025        351.27383130115589     
   6093.7435307634933        1.3558366278630274E-002   509.77342384030737     
   5941.4083945259836        2.1080658000073527E-002   509.76668466160970     
   5789.0861081363128        3.5250105777095087E-002   509.74754492862490     
   5636.7774075850793        5.8520011802784211E-002   509.71449876254468     
   5484.4830288633193        9.3343679205872832E-002   509.66604028473546     
   5332.2037079617321       0.14217441051482638        509.60066361624467     
   5179.9401808711154       0.20746550843159639        509.51686287835093     
   5027.6931835823416       0.29167027551670799        509.41313219231438     
   4875.4634520860491       0.39724201466628983        509.28796567928856     
   5625.0211981155026        2.3505179056655834E-002   656.25136223256743     
   5484.4068328191088        3.3904263885006003E-002   656.24111597657588     
   5343.8002804952584        5.1762486675215769E-002   656.21775938700739     
   5203.2029361295472        8.1729799351705879E-002   656.17881278711184     
   5062.6161947077826       0.12845615452079073        656.12179650040582     
   4922.0414512157477       0.19659150492043409        656.04423085015344     
   4781.4801006390699       0.29078580251280073        655.94363615988630     
   4640.9335379634367       0.41568899985531971        655.81753275277060     
   4500.4031581747404       0.57595104946494757        655.66344095233273     
   5156.2899033113308        3.3007365513185505E-002   791.01079669838032     
   5027.3931623770741        4.6555487912883109E-002   790.99847911119025     
   4898.4970561401851        6.7691355548276988E-002   790.97373112264529     
   4769.6034925794238       0.10277489773329762        790.93355732486759     
   4640.7143796737582       0.15816604417341296        790.87496231034220     
   4511.8316254021238       0.24022472467777334        790.79495067125822     
   4382.9571377431994       0.35531086825267266        790.69052700007671     
   4254.0928246759277       0.50978440488029264        790.55869588905421     
   4125.2405941792149       0.71000526392208485        790.39646193056660     
   4687.5516224542025        4.2657756291191617E-002   914.05214611122642     
   4570.3707222129306        6.0036033637970831E-002   914.03926235499216     
   4453.1824457562025        8.4839917643421359E-002   914.01584750560426     
   4335.9890680542558       0.12465264273237153        913.97884849105117     
   4218.7928640773353       0.18705744267981572        913.92521223953668     
   4101.5961087956202       0.27963755185419359        913.85188567891123     
   3984.4010771795665       0.40997620465714135        913.75581573741465     
   3867.2100441990387       0.58565663442300320        913.63394934306280     
   3750.0252848246073       0.81426207579943366        913.48323342401682     
   4218.8083316476059        5.3049182532276973E-002   1025.3758293448097     
   4113.3428513398758        7.5347604787566524E-002   1025.3639539975572     
   4007.8624600286457       0.10501137885080425        1025.3444959061562     
   3902.3696536736607       0.15036037039953953        1025.3148024011621     
   3796.8669282346409       0.21971444526388950        1025.2722208131515     
   3691.3567796714710       0.32139346978533467        1025.2140984726318     
   3585.8417039439873       0.46371731018871287        1025.1377827102717     
   3480.3241970120807       0.65500583222797104        1025.0406208568752     
   3374.8067548353224       0.90357890185987344        1024.9199602426315     
   3750.0620069947663        6.4774474945352267E-002   1124.9822652726891     
   3656.3128887712533        9.3491906019607995E-002   1124.9730423284946     
   3562.5431096428092       0.13000894460196832        1124.9600636944444     
   3468.7552405570777       0.18289541623175865        1124.9415351703296     
   3374.9518524617688       0.26072114642511224        1124.9156625561986     
   3281.1355163044568       0.37205596072340086        1124.8806516518473     
   3187.3088030326526       0.52546968392903182        1124.8347082572054     
   3093.4742835940519       0.72953214186770765        1124.7760381721412     
   2999.6345289363776       0.99281316020164923        1124.7028471967451     
   6000.0002919470535        1.2998326151318906E-003   1124.9992763635853     
   5906.2497210050624        7.0607654038212786E-004   1125.0000073021740     
   5812.4994588090349        1.0110089147019607E-004   1125.0006006612634     
   5718.7495077474141       -5.0713282166725548E-004   1125.0010540462347     
   5624.9998702086168       -1.1106630956874142E-003   1125.0013650621706     
   5531.2505485812144       -1.7015282089687389E-003   1125.0015313144370     
   5437.5015452536363       -2.2717666040534823E-003   1125.0015504081987     
   5343.7528626143339       -2.8134168396718451E-003   1125.0014199487357     
   5250.0045030517776       -3.3185173092533660E-003   1125.0011375412012     
   5249.9998672386901        1.0480151847787056E-003   1212.8895082293584     
   5167.9683338926689        9.0322735900372209E-004   1212.8901864360512     
   5085.9370050012949        4.3997532816320017E-004   1212.8907246667636     
   5003.9059060844284       -2.5667481418167881E-004   1212.8911160934315     
   4921.8750626618130       -1.1016570535957726E-003   1212.8913538877312     
   4839.8445002533590       -2.0099051700981363E-003   1212.8914312215177     
   4757.8142443787310       -2.8963535060029244E-003   1212.8913412666132     
   4675.7843205578565       -3.6759357112714497E-003   1212.8910771948404     
   4593.7547543105511       -4.2635858089852263E-003   1212.8906321780348     
   4499.9995988384298        8.3533991028161836E-004   1289.0612129495210     
   4429.6870282723030        1.0285381508765568E-003   1289.0617297701660     
   4359.3745732626130        6.8319929641802446E-004   1289.0621298769197     
   4289.0622757662568       -6.0820351109214243E-005   1289.0624025992192     
   4218.7501777400767       -1.0636646361490421E-003   1289.0625372666275     
   4148.4383211409659       -2.1854772414826584E-003   1289.0625232086493     
   4078.1267479258768       -3.2864017259726097E-003   1289.0623497548229     
   4007.8155000516808       -4.2265817342013179E-003   1289.0620062346516     
   3937.5046194752422       -4.8661611481293221E-003   1289.0614819776638     
   3749.9994640515056        6.5499822198944457E-004   1353.5143379921169     
   3691.4057879675402        1.0771561283036135E-003   1353.5146204290127     
   3632.8121556237015        8.2838213052127685E-004   1353.5148272625006     
   3574.2186187196394        8.1008278357330710E-005   1353.5149445709776     
   3515.6252289551867       -9.9263261859050544E-004   1353.5149584327621     
   3457.0320380300009       -2.2202083841875719E-003   1353.5148549262594     
   3398.4390976437571       -3.4293867061023775E-003   1353.5146201297291     
   3339.8464594962920       -4.4478349220753444E-003   1353.5142401216224     
   3281.2541752872139       -5.1032208505148446E-003   1353.5137009802258     
   2999.9994401832519        5.0018190984246758E-004   1406.2488308256870     
   2953.1245968018829        1.0442283486327142E-003   1406.2488415371979     
   2906.2497441152786        8.7313280153011874E-004   1406.2488277946263     
   2859.3749368715894        1.6938955673140299E-004   1406.2487730161238     
   2812.5002298191448       -8.8450718374133430E-004   1406.2486606200212     
   2765.6256777062886       -2.1060629682096987E-003   1406.2484740246880     
   2718.7513352812248       -3.3127836680932887E-003   1406.2481966483040     
   2671.8772572922562       -4.3221749565418577E-003   1406.2478119092289     
   2625.0034984877598       -4.9517424266696253E-003   1406.2473032257612     
   2249.9995045388068        3.6408228106665774E-004   1447.2646389181784     
   2214.8434385989403        9.2490176439241623E-004   1447.2643762194057     
   2179.6873307681062        8.1506077640369767E-004   1447.2641424442338     
   2144.5312321488650        2.0490123142735683E-004   1447.2639189420938     
   2109.3751938438295       -7.3523475566616980E-004   1447.2636870623112     
   2074.2192669557030       -1.8350052284858975E-003   1447.2634281543133     
   2039.0635025869183       -2.9240682142699370E-003   1447.2631235673707     
   2003.9079518402025       -3.8320816815939907E-003   1447.2627546509707     
   1968.7526658180864       -4.3887036371188515E-003   1447.2623027543791     
   1499.9996344235337        2.3989112861499962E-004   1476.5617097379716     
   1476.5622971821797        7.1432352348210770E-004   1476.5612076000657     
   1453.1249076129016        6.5177516444236971E-004   1476.5607821823041     
   1429.6875064783392        1.8812149863833838E-004   1476.5604133562310     
   1406.2501345411886       -5.4076184670748262E-004   1476.5600809934438     
   1382.8128325640548       -1.3989994106964332E-003   1476.5597649654862     
   1359.3756413096571       -2.2507155974267334E-003   1476.5594451439358     
   1335.9386015405817       -2.9600349947713767E-003   1476.5591014002600     
   1312.5017540195213       -3.3910820696974042E-003   1476.5587136061738     
   749.99980714266985        1.2079997594582892E-004   1494.1399907532107     
   738.28115637516134        4.0764062995890527E-004   1494.1393188038192     
   726.56246668041138        3.8088514870082690E-004   1494.1387579798470     
   714.84376178689206        1.1962842131651996E-004   1494.1382872660251     
   703.12506542305914       -2.9703478045917109E-004   1494.1378856473405     
   691.40640131729094       -7.9000968671039118E-004   1494.1375321086502     
   679.68779319812165       -1.2802012746249147E-003   1494.1372056348134     
   667.96926479399963       -1.6885146583547339E-003   1494.1368852106964     
   656.25083983340244       -1.9358551280674874E-003   1494.1365498212124     
   1.4604337299362607E-009   3.3648616531036212E-010   1499.9994294321484     
   1.4290190464529281E-009   2.0000681817721737E-010   1499.9986929553031     
   1.3941138425825588E-009   6.2480314927961443E-011   1499.9980808077685     
   1.3351240480416341E-009  -1.0768255394008994E-010   1499.9975716788390     
   1.2478610383657105E-009  -2.9268013445304843E-010   1499.9971442578556     
   1.2171444589597850E-009  -3.7653988675161112E-010   1499.9967772341233     
   1.1155703156970098E-009  -5.2850841810223246E-010   1499.9964492969675     
   9.8829721608467500E-010  -6.5463619071257082E-010   1499.9961391356492     
   8.9880899966201515E-010  -7.4679683680655585E-010   1499.9958254395731     
   5250.0045030517776       -3.3185173092533660E-003   1125.0011375412012     
   5156.2562861106198       -3.8327745132846758E-003   1125.0008678000579     
   5062.5080328977892       -4.3966872619876085E-003   1125.0007848542155     
   4968.7597481453950       -4.9944820084419916E-003   1125.0009005806664     
   4875.0114365855370       -5.6103848769453180E-003   1125.0012268564653     
   4781.2631029503809       -6.2286220804708137E-003   1125.0017755586462     
   4687.5147519720213       -6.8334200636854803E-003   1125.0025585641567     
   4593.7663883825853       -7.4090049465667107E-003   1125.0035877500807     
   4500.0180169142459       -7.9396028236260463E-003   1125.0048749934433     
   4593.7547543105511       -4.2635858089852263E-003   1212.8906321780348     
   4511.7254016971374       -4.6465069717669394E-003   1212.8901542024175     
   4429.6960905170527       -4.9061056495247612E-003   1212.8898011815963     
   4347.6668038984471       -5.0986212645511841E-003   1212.8895811783714     
   4265.6375249695911       -5.2802929376412067E-003   1212.8895022555307     
   4183.6082368587231       -5.5073598664421297E-003   1212.8895724758270     
   4101.5789226941070       -5.8360612113119714E-003   1212.8897999020944     
   4019.5495656039488       -6.3226362285604409E-003   1212.8901925971138     
   3937.5201487164627       -7.0233242258836981E-003   1212.8907586235994     
   3937.5046194752422       -4.8661611481293221E-003   1289.0614819776638     
   3867.1939950204633       -5.1488514750417380E-003   1289.0608865273548     
   3796.8834658918395       -5.1837621417689661E-003   1289.0603397122338     
   3726.5729996172454       -5.0791334517725772E-003   1289.0598462894495     
   3656.2625637245887       -4.9432059042828769E-003   1289.0594110161242     
   3585.9521257417341       -4.8842198470993026E-003   1289.0590386494296     
   3515.6416531966224       -5.0104155543522211E-003   1289.0587339463707     
   3445.3311136170419       -5.4300336726100795E-003   1289.0585016641151     
   3375.0204745309511       -6.2513142927400622E-003   1289.0583465598006     
   3281.2541752872139       -5.1032208505148446E-003   1353.5137009802258     
   3222.6621627335940       -5.3108120607703313E-003   1353.5130593986148     
   3164.0702770399307       -5.1942512016012188E-003   1353.5123826576964     
   3105.4784761373376       -4.8937679312075488E-003   1353.5116727174761     
   3046.8867179568801       -4.5495919666791451E-003   1353.5109315379282     
   2988.2949604296505       -4.3019530911578840E-003   1353.5101610790859     
   2929.7031614866955       -4.2910810511784803E-003   1353.5093633009728     
   2871.1112790590259       -4.6572058828360241E-003   1353.5085401635938     
   2812.5192710778006       -5.5405570191169318E-003   1353.5076936269970     
   2625.0034984877598       -4.9517424266696253E-003   1406.2473032257612     
   2578.1300014894782       -5.1033929838695258E-003   1406.2466674400196     
   2531.2566419790819       -4.9021676575193851E-003   1406.2459122295427     
   2484.3833742942438       -4.5002739606161413E-003   1406.2450372658143     
   2437.5101527728375       -4.0499191240996879E-003   1406.2440422203476     
   2390.6369317526469       -3.7033105814998635E-003   1406.2429267645764     
   2343.7636655714182       -3.6126557497482281E-003   1406.2416905699699     
   2296.8903085669772       -3.9301618979834529E-003   1406.2403333079899     
   2250.0168150770946       -4.8080364613269921E-003   1406.2388546501738     
   1968.7526658180864       -4.3887036371188515E-003   1447.2623027543791     
   1933.5976079411776       -4.4975981642210172E-003   1447.2617052752935     
   1898.4426787269558       -4.2721062261534826E-003   1447.2609106393531     
   1863.2878349235532       -3.8564007774084530E-003   1447.2599167381056     
   1828.1330332788395       -3.3946555118973265E-003   1447.2587214630241     
   1792.9782305410276       -3.0310431171756136E-003   1447.2573227055962     
   1757.8233834580446       -2.9097371611896961E-003   1447.2557183573410     
   1722.6684487780178       -3.1749105357903318E-003   1447.2539063097456     
   1687.5133832489396       -3.9707365809817929E-003   1447.2518844543126     
   1312.5017540195213       -3.3910820696974042E-003   1476.5587136061738     
   1289.0650787416405       -3.4644318193386425E-003   1476.5581675282222     
   1265.6285053013819       -3.2686614799217750E-003   1476.5573600987436     
   1242.1919988606580       -2.9198981264357826E-003   1476.5562879378169     
   1218.7555245812425       -2.5342691885725799E-003   1476.5549476654835     
   1195.3190476250020       -2.2279017784399002E-003   1476.5533359019482     
   1171.8825331537264       -2.1169231531530386E-003   1476.5514492671502     
   1148.4459463292369       -2.3174607120495239E-003   1476.5492843812951     
   1125.0092523134190       -2.9456414109745310E-003   1476.5468378644114     
   656.25083983340244       -1.9358551280674874E-003   1494.1365498212124     
   644.53251054386214       -1.9748979338203299E-003   1494.1360488225689     
   632.81423972007155       -1.8564280849489023E-003   1494.1352428192406     
   621.09600694121332       -1.6485149549225753E-003   1494.1341276683654     
   609.37779178640540       -1.4192282077658547E-003   1494.1326992273282     
   597.65957383482805       -1.2366372554311056E-003   1494.1309533532562     
   585.94133266554923       -1.1688117896540007E-003   1494.1288859034439     
   574.22304785783319       -1.2838209610208651E-003   1494.1264927350946     
   562.50469899070140       -1.6497347039603483E-003   1494.1237697054598     
   8.9880899966201515E-010  -7.4679683680655585E-010   1499.9958254395731     
   8.1102241192803573E-010  -7.6678006602234229E-010   1499.9953437821259     
   7.6791448514812934E-010  -8.0194705892173971E-010   1499.9945410124099     
   6.8571273003340927E-010  -8.6948862841090484E-010   1499.9934127334191     
   6.8457831090762211E-010  -7.6739090709007383E-010   1499.9919545480575     
   6.9823497192190430E-010  -7.7679349638265465E-010   1499.9901620593189     
   7.0076559920250617E-010  -8.0541576355635761E-010   1499.9880308702120     
   7.7151817475083984E-010  -6.6734659346567965E-010   1499.9855565835774     
   8.2393733736007240E-010  -6.5490888761780812E-010   1499.9827348024576     
   4500.0180169142459       -7.9396028236260463E-003   1125.0048749934433     
   4406.2698320789386       -8.2270316413541877E-003   1125.0058596301483     
   4312.5221938506238       -7.5215694516828080E-003   1125.0059186717101     
   4218.7753551536425       -4.9801349605331779E-003   1125.0049705082752     
   4125.0295689124405        2.4035329124671989E-004   1125.0029335300264     
   4031.2850880515289        8.9829770104188356E-003   1124.9997261271571     
   3937.5421654952947        2.2090817451726252E-002   1124.9952666898419     
   3843.8010541682088        4.0406956257584170E-002   1124.9894736082897     
   3750.0620069947663        6.4774474945352267E-002   1124.9822652726891     
   3937.5201487164627       -7.0233242258836981E-003   1212.8907586235994     
   3855.4907499263486       -7.7862390955942828E-003   1212.8911162005352     
   3773.4616840892745       -7.6696248397638556E-003   1212.8908400894973     
   3691.4332897748982       -5.5449159478939691E-003   1212.8898731674715     
   3609.4059055527141       -2.8354734536151227E-004   1212.8881583112752     
   3527.3798699925969        9.2430471238458267E-003   1212.8856383979805     
   3445.3555216640593        2.4163432525483586E-002   1212.8822563043800     
   3363.3331991367622        4.5606174410522726E-002   1212.8779549075098     
   3281.3132409803889        7.4699838355627435E-002   1212.8726770842463     
   3375.0204745309511       -6.2513142927400622E-003   1289.0583465598006     
   3304.7097343692762       -7.3592841333720571E-003   1289.0581166540696     
   3234.3991736856638       -7.6985608152426721E-003   1289.0576328619700     
   3164.0891831918298       -5.9667719594926893E-003   1289.0568592822383     
   3093.7801535994440       -8.6154523103232350E-004   1289.0557600137349     
   3023.4724756204291        8.9194924377125062E-003   1289.0542991550892     
   2953.1665399664844        2.4678713206412795E-002   1289.0524408052565     
   2882.8627373493932        4.7718489815451903E-002   1289.0501490628944     
   2812.5614584809105        7.9341194755670585E-002   1289.0473880267753     
   2812.5192710778006       -5.5405570191169318E-003   1353.5076936269970     
   2753.9270882733281       -6.8553067651464517E-003   1353.5069293868962     
   2695.3349823223680       -7.5124726313333667E-003   1353.5063398694131     
   2636.7433625758240       -6.1475515670963432E-003   1353.5059071303365     
   2578.1526383845121       -1.3960408022057891E-003   1353.5056132253530     
   2519.5632190991969        8.1065620864819721E-003   1353.5054402102310     
   2460.9755140707466        2.3724760071218043E-002   1353.5053701406021     
   2402.3899326498672        4.6823055564345850E-002   1353.5053850722347     
   2343.8068841875306        7.8765951711716298E-002   1353.5054670608374     
   2250.0168150770946       -4.8080364613269921E-003   1406.2388546501738     
   2203.1431145038450       -6.1834478173068419E-003   1406.2376227950890     
   2156.2694296819791       -7.0154553989141277E-003   1406.2370039922337     
   2109.3961550984004       -5.9891029228538173E-003   1406.2369949894162     
   2062.5236852398252       -1.7894346233333636E-003   1406.2375925343370     
   2015.6524145929843        6.8985053158030496E-003   1406.2387933747805     
   1968.7827376447783        2.1389673160228995E-002   1406.2405942585074     
   1921.9150488819687        4.2999024798632490E-002   1406.2429919332558     
   1875.0497427913886        7.3041516336502355E-002   1406.2459831468507     
   1687.5133832489396       -3.9707365809817929E-003   1447.2518844543126     
   1652.3581159263479       -5.2528474222981458E-003   1447.2502652748394     
   1617.2028354471117       -6.1116042832054518E-003   1447.2496681108262     
   1582.0478879308275       -5.3932749735849939E-003   1447.2501011370896     
   1546.8936194972332       -1.9441271488744860E-003   1447.2515725286764     
   1511.7403762659874        5.3895715067255878E-003   1447.2540904603147     
   1476.5885043568348        1.7761553335276403E-002   1447.2576631070733     
   1441.4383498894936        3.6325550779508831E-002   1447.2622986437561     
   1406.2902589836224        6.2235296076778468E-002   1447.2680052453604     
   1125.0092523134190       -2.9456414109745310E-003   1476.5468378644114     
   1101.5723954064092       -3.9726457694655437E-003   1476.5449252223091     
   1078.1355193002962       -4.7050145665821219E-003   1476.5443751055095     
   1054.6988882445785       -4.2619160684012058E-003   1476.5452038512074     
   1031.2627664886897       -1.7625186749796740E-003   1476.5474277964811     
   1007.8274182823300        3.6740097465326471E-003   1476.5510632785215     
   984.39310787497914        1.2928500880605043E-002   1476.5561266344741     
   960.96009951617270        2.6881786408637254E-002   1476.5626342015489     
   937.52865745544716        4.6414698245200725E-002   1476.5706023168595     
   562.50469899070140       -1.6497347039603483E-003   1494.1237697054598     
   550.78625580943526       -2.2519834090815039E-003   1494.1216710335891     
   539.06780092406495       -2.6997816187588342E-003   1494.1211678566942     
   527.34948321084130       -2.4968752237839453E-003   1494.1222814092603     
   515.63145154608856       -1.1470097127812551E-003   1494.1250329257962     
   503.91385480617095        1.8460693090958102E-003   1494.1294436408446     
   492.19684186731286        6.9786161374167932E-003   1494.1355347888586     
   480.48056160582610        1.4746884998743326E-002   1494.1433276043563     
   468.76516289808950        2.5647130475078939E-002   1494.1528433218243     
   8.2393733736007240E-010  -6.5490888761780812E-010   1499.9827348024576     
   9.2306811635192195E-010  -5.8387679774160613E-010   1499.9805711048266     
   1.0436655957240487E-009  -5.2863931261674634E-010   1499.9800892447195     
   1.1947178654730727E-009  -5.5320384984051885E-010   1499.9813120890381     
   1.4106501829161461E-009  -4.9318871493590239E-010   1499.9842625047841     
   1.6232665059915347E-009  -5.2032751094511472E-010   1499.9889633588375     
   1.8986249330239122E-009  -4.7563794211483215E-010   1499.9954375182508     
   2.2185843023923702E-009  -4.1636454279246089E-010   1500.0037078499329     
   2.5988669541683629E-009  -3.1301241570753860E-010   1500.0137972208065     
   3750.0620069947663        6.4774474945352267E-002   1124.9822652726891     
   3656.3128887712533        9.3491906019607995E-002   1124.9730423284946     
   3562.5431096428092       0.13000894460196832        1124.9600636944444     
   3468.7552405570777       0.18289541623175865        1124.9415351703296     
   3374.9518524617688       0.26072114642511224        1124.9156625561986     
   3281.1355163044568       0.37205596072340086        1124.8806516518473     
   3187.3088030326526       0.52546968392903182        1124.8347082572054     
   3093.4742835940519       0.72953214186770765        1124.7760381721412     
   2999.6345289363776       0.99281316020164923        1124.7028471967451     
   3281.3132409803889        7.4699838355627435E-002   1212.8726770842463     
   3199.2818569415140       0.10944350396653135        1212.8673320999426     
   3117.2267193972361       0.15271168601657337        1212.8623508577155     
   3035.1503608626249       0.21294610141194426        1212.8569586912770     
   2953.0553138528221       0.29858846716888365        1212.8503809343695     
   2870.9441108829346       0.41808050042379818        1212.8418429206085     
   2788.8192844681685       0.57986391836550411        1212.8305699837758     
   2706.6833671235227       0.79238043794964597        1212.8157874574315     
   2624.5388913642546        1.0640717764010788        1212.7967206752880     
   2812.5614584809105        7.9341194755670585E-002   1289.0473880267753     
   2742.2485433950337       0.11750649959321890        1289.0464640201781     
   2671.9111804804538       0.16466859138415657        1289.0497799199873     
   2601.5517829809410       0.22887161620587904        1289.0574446559858     
   2531.1727641402754       0.31815971984633507        1289.0695671578076     
   2460.7765372022541       0.44057704832448508        1289.0862563549106     
   2390.3655154106450       0.60416774757516123        1289.1076211771467     
   2319.9421120093116       0.81697596378114667        1289.1337705540398     
   2249.5087402419413        1.0870458425454217        1289.1648134151394     
   2343.8068841875306        7.8765951711716298E-002   1353.5054670608374     
   2285.2129348092085       0.11767689574082851        1353.5091803129224     
   2226.5958531623883       0.16568774152312926        1353.5206720563162     
   2167.9578523806367       0.23017560114192293        1353.5407988787642     
   2109.3011455975784       0.31851758640766548        1353.5704173680572     
   2050.6279459467796       0.43809080941014145        1353.6103841118281     
   1991.9404665618451       0.59627238207542632        1353.6615556977517     
   1933.2409205765077       0.80043941683720732        1353.7247887137280     
   1874.5315211241577        1.0579690250801832        1353.8009397473520     
   1875.0497427913886        7.3041516336502355E-002   1406.2459831468507     
   1828.1750178615464       0.10995069565501581        1406.2542232020567     
   1781.2800977130678       0.15557721743039110        1406.2733484417618     
   1734.3669145304784       0.21636169684438755        1406.3048271740656     
   1687.4374004982903       0.29874474895473213        1406.3501277068888     
   1640.4934878011370       0.40916698918636030        1406.4107183482322     
   1593.5371086235250       0.55406903252401207        1406.4880674061865     
   1546.5701951501424       0.73989149450801506        1406.5836431884838     
   1499.5946795654108       0.97307499021763988        1406.6989140033900     
   1406.2902589836224        6.2235296076778468E-002   1447.2680052453604     
   1371.1347792296240        9.4323902853545860E-002   1447.2803349112812     
   1335.9632744025234       0.13414510019282488        1447.3061302514752     
   1300.7773148990816       0.18693354396748418        1447.3473353562458     
   1265.5784711159324       0.25792388949798806        1447.4058943160578     
   1230.3683134497971       0.35235079282261950        1447.4837512213810     
   1195.1484122973488       0.47544890924757510        1447.5828501625472     
   1159.9203380552908       0.63245289450122755        1447.7051352299736     
   1124.6856611203750       0.82859740451056041        1447.8525505141945     
   937.52865745544716        4.6414698245200725E-002   1476.5706023168595     
   914.09220559090647        7.0792520435020378E-002   1476.5862576645070     
   890.64474350083049       0.10119947102384685        1476.6173386604323     
   867.18739895520343       0.14139478312955589        1476.6661292397239     
   843.72129972404264       0.19513769031487982        1476.7349133373393     
   820.24757357735507       0.26618742584309985        1476.8259748882863     
   796.76734828502799       0.35830322264752112        1476.9415978275199     
   773.28175161715399       0.47524431453626903        1477.0840660900519     
   749.79191134362441       0.62076993430818561        1477.2556636108777     
   468.76516289808950        2.5647130475078939E-002   1494.1528433218243     
   457.04728362285272        3.9352551546585346E-002   1494.1707336853567     
   445.32386527787298        5.6548410434032803E-002   1494.2052948438054     
   433.59551216750469        7.9249055048677519E-002   1494.2590146388616     
   421.86282859620667       0.10946883344118419        1494.3343809123858     
   410.12641886835479       0.14922209360986471        1494.4338815059671     
   398.38688728841583       0.20052318377841516        1494.5600042614190     
   386.64483816073317       0.26538645185635801        1494.7152370204249     
   374.90087578980263       0.34582624599364920        1494.9020676249072     
   2.5988669541683629E-009  -3.1301241570753860E-010   1500.0137972208065     
   3.0451299856510371E-009  -3.4748130452952867E-010   1500.0325051977177     
   3.7320643978199090E-009  -2.1763394613175399E-010   1500.0683199766258     
   4.6739813242618303E-009   1.6658508547133854E-010   1500.1237973681209     
   5.8351901940193486E-009   5.9753345875588811E-010   1500.2014931829553     
   7.3125093163279015E-009   1.3635281576911472E-009   1500.3039632316154     
   9.0199628109042824E-009   2.4180307284293246E-009   1500.4337633247935     
   1.1094721311536415E-008   4.0080486642498057E-009   1500.5934492730785     
   1.3455257987950043E-008   5.8661685624543020E-009   1500.7855768873128     
   1.4604337299362607E-009   3.3648616531036212E-010   1499.9994294321484     
   1.4290190464529281E-009   2.0000681817721737E-010   1499.9986929553031     
   1.3941138425825588E-009   6.2480314927961443E-011   1499.9980808077685     
   1.3351240480416341E-009  -1.0768255394008994E-010   1499.9975716788390     
   1.2478610383657105E-009  -2.9268013445304843E-010   1499.9971442578556     
   1.2171444589597850E-009  -3.7653988675161112E-010   1499.9967772341233     
   1.1155703156970098E-009  -5.2850841810223246E-010   1499.9964492969675     
   9.8829721608467500E-010  -6.5463619071257082E-010   1499.9961391356492     
   8.9880899966201515E-010  -7.4679683680655585E-010   1499.9958254395731     
  -749.99980713978266       -1.2079931624953133E-004   1494.1399907535460     
  -738.28115637234635       -4.0764030717355126E-004   1494.1393188041384     
  -726.56246667765572       -3.8088502299160609E-004   1494.1387579800762     
  -714.84376178423861       -1.1962855157321428E-004   1494.1382872662841     
  -703.12506542051176        2.9703435760097818E-004   1494.1378856475496     
  -691.40640131493342        7.9000888700875294E-004   1494.1375321088256     
  -679.68779319596138        1.2802001994884904E-003   1494.1372056349469     
  -667.96926479202705        1.6885134440087768E-003   1494.1368852108230     
  -656.25083983162585        1.9358536414983973E-003   1494.1365498213238     
  -1499.9996344206868       -2.3989040153082897E-004   1476.5617097385427     
  -1476.5622971794096       -7.1432310221553053E-004   1476.5612076005841     
  -1453.1249076102458       -6.5177502284541333E-004   1476.5607821827953     
  -1429.6875064758251       -1.8812175056837077E-004   1476.5604133566862     
  -1406.2501345387877        5.4076135330660691E-004   1476.5600809938353     
  -1382.8128325618632        1.3989985819762296E-003   1476.5597649658234     
  -1359.3756413076389        2.2507144924475142E-003   1476.5594451442132     
  -1335.9386015387345        2.9600337679198674E-003   1476.5591014005438     
  -1312.5017540178992        3.3910804876882139E-003   1476.5587136063971     
  -2249.9995045360920       -3.6408162543466460E-004   1447.2646389189449     
  -2214.8434385963283       -9.2490135875777924E-004   1447.2643762201246     
  -2179.6873307655842       -8.1506065509984182E-004   1447.2641424449125     
  -2144.5312321465440       -2.0490149120178103E-004   1447.2639189426970     
  -2109.3751938417104        7.3523422031485097E-004   1447.2636870628091     
  -2074.2192669536598        1.8350044866792814E-003   1447.2634281547707     
  -2039.0635025850747        2.9240672311061644E-003   1447.2631235678073     
  -2003.9079518385074        3.8320804666227559E-003   1447.2627546512906     
  -1968.7526658165864        4.3887022369517581E-003   1447.2623027546963     
  -2999.9994401806907       -5.0018117974559573E-004   1406.2488308266313     
  -2953.1245967995264       -1.0442279466360560E-003   1406.2488415380997     
  -2906.2497441130049       -8.7313265953525843E-004   1406.2488277953996     
  -2859.3749368695517       -1.6938981900693761E-004   1406.2487730168286     
  -2812.5002298172622        8.8450662428840587E-004   1406.2486606206405     
  -2765.6256777045346        2.1060622265167694E-003   1406.2484740252139     
  -2718.7513352796336        3.3127827346106642E-003   1406.2481966487899     
  -2671.8772572908215        4.3221738561669554E-003   1406.2478119096470     
  -2625.0034984864133        4.9517411393935618E-003   1406.2473032261512     
  -3749.9994640492368       -6.5499752531650302E-004   1353.5143379932824     
  -3691.4057879654551       -1.0771558013402682E-003   1353.5146204300006     
  -3632.8121556217952       -8.2838205889856908E-004   1353.5148272633842     
  -3574.2186187179632       -8.1008603729060269E-005   1353.5149445717702     
  -3515.6252289536319        9.9263208130651037E-004   1353.5149584334367     
  -3457.0320380285834        2.2202077084330085E-003   1353.5148549268713     
  -3398.4390976425120        3.4293857193006261E-003   1353.5146201302734     
  -3339.8464594951033        4.4478338754743163E-003   1353.5142401221062     
  -3281.2541752861089        5.1032197582117078E-003   1353.5137009806656     
  -4499.9995988364763       -8.3533919109868293E-004   1289.0612129506976     
  -4429.6870282706332       -1.0285378925800615E-003   1289.0617297712940     
  -4359.3745732610905       -6.8319925526338920E-004   1289.0621298778742     
  -4289.0622757649089        6.0820116004833835E-005   1289.0624026000814     
  -4218.7501777389043        1.0636641638939182E-003   1289.0625372673478     
  -4148.4383211399163        2.1854765739135473E-003   1289.0625232093189     
  -4078.1267479249377        3.2864008489923435E-003   1289.0623497554036     
  -4007.8155000507909        4.2265808626780199E-003   1289.0620062351757     
  -3937.5046194743936        4.8661602208994736E-003   1289.0614819781804     
  -5249.9998672372230       -1.0480145028850529E-003   1212.8895082306615     
  -5167.9683338914647       -9.0322706205370196E-004   1212.8901864372315     
  -5085.9370050002963       -4.3997531111017452E-004   1212.8907246677959     
  -5003.9059060835489        2.5667463910394872E-004   1212.8911160942919     
  -4921.8750626610718        1.1016566161288210E-003   1212.8913538884456     
  -4839.8445002526860        2.0099047148960381E-003   1212.8914312221584     
  -4757.8142443781580        2.8963527395262645E-003   1212.8913412671950     
  -4675.7843205572781        3.6759350016382086E-003   1212.8910771953842     
  -4593.7547543099063        4.2635851598333829E-003   1212.8906321785780     
  -6000.0002919461931       -1.2998319759844890E-003   1124.9992763649925     
  -5906.2497210043894       -7.0607622456009267E-004   1125.0000073033175     
  -5812.4994588086120       -1.0110095513482520E-004   1125.0006006622800     
  -5718.7495077470012        5.0713268501567654E-004   1125.0010540470655     
  -5624.9998702084140        1.1106626261607744E-003   1125.0013650629598     
  -5531.2505485810143        1.7015276525853551E-003   1125.0015313151027     
  -5437.5015452533780        2.2717660931448336E-003   1125.0015504088121     
  -5343.7528626140092        2.8134164381299342E-003   1125.0014199493105     
  -5250.0045030514357        3.3185167826559336E-003   1125.0011375417973     
   8.9880899966201515E-010  -7.4679683680655585E-010   1499.9958254395731     
   8.1102241192803573E-010  -7.6678006602234229E-010   1499.9953437821259     
   7.6791448514812934E-010  -8.0194705892173971E-010   1499.9945410124099     
   6.8571273003340927E-010  -8.6948862841090484E-010   1499.9934127334191     
   6.8457831090762211E-010  -7.6739090709007383E-010   1499.9919545480575     
   6.9823497192190430E-010  -7.7679349638265465E-010   1499.9901620593189     
   7.0076559920250617E-010  -8.0541576355635761E-010   1499.9880308702120     
   7.7151817475083984E-010  -6.6734659346567965E-010   1499.9855565835774     
   8.2393733736007240E-010  -6.5490888761780812E-010   1499.9827348024576     
  -656.25083983162585        1.9358536414983973E-003   1494.1365498213238     
  -644.53251054225814        1.9748963730421565E-003   1494.1360488227049     
  -632.81423971860909        1.8564264501037542E-003   1494.1352428193281     
  -621.09600693984248        1.6485133466233037E-003   1494.1341276685005     
  -609.37779178505400        1.4192266448560531E-003   1494.1326992273789     
  -597.65957383346756        1.2366357280200191E-003   1494.1309533533049     
  -585.94133266415110        1.1688102767095643E-003   1494.1288859034539     
  -574.22304785628455        1.2838198186955196E-003   1494.1264927350737     
  -562.50469898910592        1.6497334331120328E-003   1494.1237697053873     
  -1312.5017540178992        3.3910804876882139E-003   1476.5587136063971     
  -1289.0650787401503        3.4644302454012177E-003   1476.5581675284586     
  -1265.6285052999940        3.2686598443660841E-003   1476.5573600989349     
  -1242.1919988593681        2.9198965611954009E-003   1476.5562879379709     
  -1218.7555245799704        2.5342676358945937E-003   1476.5549476656508     
  -1195.3190476237612        2.2279002087088884E-003   1476.5533359020326     
  -1171.8825331524390        2.1169217457099876E-003   1476.5514492672269     
  -1148.4459463279184        2.3174592467398725E-003   1476.5492843812788     
  -1125.0092523119970        2.9456401342713434E-003   1476.5468378643168     
  -1968.7526658165864        4.3887022369517581E-003   1447.2623027546963     
  -1933.5976079397860        4.4975967615528134E-003   1447.2617052755932     
  -1898.4426787256923        4.2721046954738995E-003   1447.2609106396512     
  -1863.2878349223176        3.8563993899742854E-003   1447.2599167383744     
  -1828.1330332777177        3.3946540046372320E-003   1447.2587214632388     
  -1792.9782305398826        3.0310417923828936E-003   1447.2573227057710     
  -1757.8233834569396        2.9097357574983107E-003   1447.2557183574554     
  -1722.6684487768591        3.1749092997870321E-003   1447.2539063097381     
  -1687.5133832477325        3.9707354502525050E-003   1447.2518844541778     
  -2625.0034984864133        4.9517411393935618E-003   1406.2473032261512     
  -2578.1300014882472        5.1033917268341611E-003   1406.2466674403947     
  -2531.2566419779341        4.9021663462553988E-003   1406.2459122298819     
  -2484.3833742931979        4.5002725937592913E-003   1406.2450372661642     
  -2437.5101527718266        4.0499178780919465E-003   1406.2440422206098     
  -2390.6369317516851        3.7033093220770752E-003   1406.2429267647767     
  -2343.7636655704664        3.6126545347769934E-003   1406.2416905700936     
  -2296.8903085660231        3.9301608519508591E-003   1406.2403333080133     
  -2250.0168150761574        4.8080354831654404E-003   1406.2388546500138     
  -3281.2541752861089        5.1032197582117078E-003   1353.5137009806656     
  -3222.6621627325385        5.3108109852928465E-003   1353.5130593990673     
  -3164.0702770389239        5.1942501399935281E-003   1353.5123826581189     
  -3105.4784761364203        4.8937667494328707E-003   1353.5116727178347     
  -3046.8867179559911        4.5495909425881109E-003   1353.5109315382533     
  -2988.2949604288237        4.3019520760481100E-003   1353.5101610793829     
  -2929.7031614858979        4.2910801846574032E-003   1353.5093633011634     
  -2871.1112790582952        4.6572050611075611E-003   1353.5085401636684     
  -2812.5192710771498        5.5405562241048756E-003   1353.5076936268899     
  -3937.5046194743936        4.8661602208994736E-003   1289.0614819781804     
  -3867.1939950196297        5.1488505132510909E-003   1289.0608865278575     
  -3796.8834658909873        5.1837612115832599E-003   1289.0603397127604     
  -3726.5729996164569        5.0791326300441142E-003   1289.0598462899427     
  -3656.2625637238234        4.9432052444444707E-003   1289.0594110165550     
  -3585.9521257410875        4.8842191019957681E-003   1289.0590386497897     
  -3515.6416531960058        5.0104149775052065E-003   1289.0587339465972     
  -3445.3311136165580        5.4300330052683421E-003   1289.0585016642569     
  -3375.0204745305923        6.2513136913366907E-003   1289.0583465597713     
  -4593.7547543099063        4.2635851598333829E-003   1212.8906321785780     
  -4511.7254016964507        4.6465064178846660E-003   1212.8901542029837     
  -4429.6960905163733        4.9061050572163367E-003   1212.8898011821807     
  -4347.6668038977350        5.0986208786980569E-003   1212.8895811789241     
  -4265.6375249689354        5.2802925977175619E-003   1212.8895022560280     
  -4183.6082368581765        5.5073594487566879E-003   1212.8895724762881     
  -4101.5789226936486        5.8360609050396306E-003   1212.8897999024578     
  -4019.5495656036028        6.3226360102817125E-003   1212.8901925972975     
  -3937.5201487163299        7.0233239848676021E-003   1212.8907586236414     
  -5250.0045030514357        3.3185167826559336E-003   1125.0011375417973     
  -5156.2562861101524        3.8327741137891280E-003   1125.0008678006955     
  -5062.5080328972281        4.3966871032807830E-003   1125.0007848548507     
  -4968.7597481447820        4.9944819584197830E-003   1125.0009005813165     
  -4875.0114365850231        5.6103848223756358E-003   1125.0012268570724     
  -4781.2631029499144        6.2286221459544322E-003   1125.0017755591430     
  -4687.5147519716229        6.8334203053836973E-003   1125.0025585645928     
  -4593.7663883823670        7.4090051386974665E-003   1125.0035877503813     
  -4500.0180169142059        7.9396032167551311E-003   1125.0048749935802     
   8.2393733736007240E-010  -6.5490888761780812E-010   1499.9827348024576     
   9.2306811635192195E-010  -5.8387679774160613E-010   1499.9805711048266     
   1.0436655957240487E-009  -5.2863931261674634E-010   1499.9800892447195     
   1.1947178654730727E-009  -5.5320384984051885E-010   1499.9813120890381     
   1.4106501829161461E-009  -4.9318871493590239E-010   1499.9842625047841     
   1.6232665059915347E-009  -5.2032751094511472E-010   1499.9889633588375     
   1.8986249330239122E-009  -4.7563794211483215E-010   1499.9954375182508     
   2.2185843023923702E-009  -4.1636454279246089E-010   1500.0037078499329     
   2.5988669541683629E-009  -3.1301241570753860E-010   1500.0137972208065     
  -562.50469898910592        1.6497334331120328E-003   1494.1237697053873     
  -550.78625580767584        2.2519822186666261E-003   1494.1216710334666     
  -539.06780092208169        2.6997805042867640E-003   1494.1211678565089     
  -527.34948320857472        2.4968740703741332E-003   1494.1222814089940     
  -515.63145154346580        1.1470086390943379E-003   1494.1250329254597     
  -503.91385480305269       -1.8460703484493024E-003   1494.1294436403432     
  -492.19684186368823       -6.9786170596728425E-003   1494.1355347882036     
  -480.48056160163566       -1.4746885951268496E-002   1494.1433276035475     
  -468.76516289319852       -2.5647131250906341E-002   1494.1528433208616     
  -1125.0092523119970        2.9456401342713434E-003   1476.5468378643168     
  -1101.5723954048590        3.9726446232748458E-003   1476.5449252221008     
  -1078.1355192985261        4.7050135366362156E-003   1476.5443751051473     
  -1054.6988882425387        4.2619150324298971E-003   1476.5452038506633     
  -1031.2627664863717        1.7625176802198439E-003   1476.5474277957883     
  -1007.8274182796509       -3.6740107628929763E-003   1476.5510632775890     
  -984.39310787187139       -1.2928501859562402E-002   1476.5561266333737     
  -960.96009951253552       -2.6881787350419017E-002   1476.5626342001613     
  -937.52865745126383       -4.6414699252522951E-002   1476.5706023151245     
  -1687.5133832477325        3.9707354502525050E-003   1447.2518844541778     
  -1652.3581159251185        5.2528462886130001E-003   1447.2502652746018     
  -1617.2028354457555        6.1116030570929070E-003   1447.2496681103930     
  -1582.0478879292662        5.3932739323272472E-003   1447.2501011364673     
  -1546.8936194954524        1.9441260621420042E-003   1447.2515725277667     
  -1511.7403762639285       -5.3895725234269776E-003   1447.2540904591938     
  -1476.5885043544567       -1.7761554385117506E-002   1447.2576631056095     
  -1441.4383498866887       -3.6325551717652615E-002   1447.2622986419651     
  -1406.2902589804278       -6.2235297170389003E-002   1447.2680052431119     
  -2250.0168150761574        4.8080354831654404E-003   1406.2388546500138     
  -2203.1431145029151        6.1834468614279103E-003   1406.2376227947882     
  -2156.2694296810791        7.0154542140699050E-003   1406.2370039916980     
  -2109.3961550973559        5.9891019327551476E-003   1406.2369949886572     
  -2062.5236852386170        1.7894337413508765E-003   1406.2375925333515     
  -2015.6524145916865       -6.8985064699518261E-003   1406.2387933734437     
  -1968.7827376432285       -2.1389674180795737E-002   1406.2405942568021     
  -1921.9150488802038       -4.2999025901281129E-002   1406.2429919311778     
  -1875.0497427893217       -7.3041517345927787E-002   1406.2459831443125     
  -2812.5192710771498        5.5405562241048756E-003   1353.5076936268899     
  -2753.9270882727506        6.8553060006024680E-003   1353.5069293865565     
  -2695.3349823218832        7.5124716714753959E-003   1353.5063398688608     
  -2636.7433625753074        6.1475507184240996E-003   1353.5059071295639     
  -2578.1526383840164        1.3960398781591721E-003   1353.5056132243121     
  -2519.5632190986571       -8.1065630572538794E-003   1353.5054402088267     
  -2460.9755140701009       -2.3724761020162077E-002   1353.5053701388642     
  -2402.3899326491510       -4.6823056547736996E-002   1353.5053850700635     
  -2343.8068841866689       -7.8765952709318299E-002   1353.5054670582044     
  -3375.0204745305923        6.2513136913366907E-003   1289.0583465597713     
  -3304.7097343690607        7.3592835185536387E-003   1289.0581166538288     
  -3234.3991736855687        7.6985601481283084E-003   1289.0576328614707     
  -3164.0891831918193        5.9667713308044767E-003   1289.0568592815014     
  -3093.7801535995877        8.6154434768559440E-004   1289.0557600127217     
  -3023.4724756206288       -8.9194932295413309E-003   1289.0542991538221     
  -2953.1665399667495       -2.4678714087485787E-002   1289.0524408036169     
  -2882.8627373496606       -4.7718490679017123E-002   1289.0501490608954     
  -2812.5614584812047       -7.9341195729853098E-002   1289.0473880243526     
  -3937.5201487163299        7.0233239848676021E-003   1212.8907586236414     
  -3855.4907499264245        7.7862388181983988E-003   1212.8911162003624     
  -3773.4616840895333        7.6696245203038416E-003   1212.8908400891121     
  -3691.4332897753288        5.5449156068334560E-003   1212.8898731668182     
  -3609.4059055533612        2.8354681398923276E-004   1212.8881583104433     
  -3527.3798699934114       -9.2430476922800153E-003   1212.8856383968330     
  -3445.3555216650066       -2.4163433087323938E-002   1212.8822563029696     
  -3363.3331991378564       -4.5606174988961357E-002   1212.8779549058104     
  -3281.3132409815285       -7.4699838760579951E-002   1212.8726770822293     
  -4500.0180169142059        7.9396032167551311E-003   1125.0048749935802     
  -4406.2698320792360        8.2270317843722296E-003   1125.0058596300885     
  -4312.5221938511904        7.5215694184862514E-003   1125.0059186714707     
  -4218.7753551544729        4.9801347397533391E-003   1125.0049705078463     
  -4125.0295689134737       -2.4035353771978407E-004   1125.0029335294009     
  -4031.2850880527953       -8.9829772182383749E-003   1124.9997261263536     
  -3937.5421654967386       -2.2090817665230134E-002   1124.9952666888391     
  -3843.8010541698313       -4.0406956313290721E-002   1124.9894736071374     
  -3750.0620069964707       -6.4774474846672092E-002   1124.9822652713697     
   2.5988669541683629E-009  -3.1301241570753860E-010   1500.0137972208065     
   3.0451299856510371E-009  -3.4748130452952867E-010   1500.0325051977177     
   3.7320643978199090E-009  -2.1763394613175399E-010   1500.0683199766258     
   4.6739813242618303E-009   1.6658508547133854E-010   1500.1237973681209     
   5.8351901940193486E-009   5.9753345875588811E-010   1500.2014931829553     
   7.3125093163279015E-009   1.3635281576911472E-009   1500.3039632316154     
   9.0199628109042824E-009   2.4180307284293246E-009   1500.4337633247935     
   1.1094721311536415E-008   4.0080486642498057E-009   1500.5934492730785     
   1.3455257987950043E-008   5.8661685624543020E-009   1500.7855768873128     
  -468.76516289319852       -2.5647131250906341E-002   1494.1528433208616     
  -457.04728361710613       -3.9352552375106598E-002   1494.1707336841996     
  -445.32386527084799       -5.6548410967621976E-002   1494.2052948424191     
  -433.59551215881828       -7.9249054990327750E-002   1494.2590146372609     
  -421.86282858536413      -0.10946883237744487        1494.3343809103915     
  -410.12641885486477      -0.14922209111534812        1494.4338815034719     
  -398.38688727175344      -0.20052317920266205        1494.5600042582621     
  -386.64483814041336      -0.26538644449782112        1494.7152370164567     
  -374.90087576519505      -0.34582623496862652        1494.9020676197808     
  -937.52865745126383       -4.6414699252522951E-002   1476.5706023151245     
  -914.09220558596166       -7.0792521271471287E-002   1476.5862576624231     
  -890.64474349496663      -0.10119947168811905        1476.6173386580208     
  -867.18739894810153      -0.14139478346902479        1476.6661292368492     
  -843.72129971536583      -0.19513768974479717        1476.7349133338791     
  -820.24757356679652      -0.26618742413330665        1476.8259748839946     
  -796.76734827224357      -0.35830321937049803        1476.9415978221175     
  -773.28175160167370      -0.47524430867281353        1477.0840660832291     
  -749.79191132511642      -0.62076992551587296        1477.2556636022521     
  -1406.2902589804278       -6.2235297170389003E-002   1447.2680052431119     
  -1371.1347792259298       -9.4323903862402858E-002   1447.2803349086494     
  -1335.9632743983166      -0.13414510115416078        1447.3061302483557     
  -1300.7773148942135      -0.18693354464198819        1447.3473353525653     
  -1265.5784711103004      -0.25792388968284286        1447.4058943117316     
  -1230.3683134433470      -0.35235079218222154        1447.4837512160420     
  -1195.1484122898542      -0.47544890731393252        1447.5828501559067     
  -1159.9203380466142      -0.63245289102678726        1447.7051352217416     
  -1124.6856611103440      -0.82859739888050399        1447.8525505037562     
  -1875.0497427893217       -7.3041517345927787E-002   1406.2459831443125     
  -1828.1750178592511      -0.10995069675482227        1406.2542231990758     
  -1781.2800977107120      -0.15557721854281681        1406.2733484382811     
  -1734.3669145281519      -0.21636169782664183        1406.3048271700047     
  -1687.4374004961485      -0.29874474966754860        1406.3501277021214     
  -1640.4934877992682      -0.40916698960768372        1406.4107183425201     
  -1593.5371086220487      -0.55406903236314520        1406.4880673991945     
  -1546.5701951490887      -0.73989149355924155        1406.5836431800558     
  -1499.5946795648858      -0.97307498814160454        1406.6989139927857     
  -2343.8068841866689       -7.8765952709318299E-002   1353.5054670582044     
  -2285.2129348083408      -0.11767689661530767        1353.5091803098408     
  -2226.5958531619208      -0.16568774268205289        1353.5206720528472     
  -2167.9578523808677      -0.23017560231551215        1353.5407988747409     
  -2109.3011455988071      -0.31851758758705273        1353.5704173634003     
  -2050.6279459495076      -0.43809081107906422        1353.6103841064316     
  -1991.9404665662748      -0.59627238379857772        1353.6615556914398     
  -1933.2409205828915      -0.80043941852454736        1353.7247887060405     
  -1874.5315211328882       -1.0579690267494470        1353.8009397382712     
  -2812.5614584812047       -7.9341195729853098E-002   1289.0473880243526     
  -2742.2485433955035      -0.11750650039221000        1289.0464640172695     
  -2671.9111804816284      -0.16466859231570652        1289.0497799167722     
  -2601.5517829833775      -0.22887161739674866        1289.0574446524549     
  -2531.1727641444377      -0.31815972142749160        1289.0695671538613     
  -2460.7765372087415      -0.44057705059333330        1289.0862563505902     
  -2390.3655154198736      -0.60416775056546612        1289.1076211722695     
  -2319.9421120218049      -0.81697596759386215        1289.1337705484561     
  -2249.5087402583258       -1.0870458476146041        1289.1648134087786     
  -3281.3132409815285       -7.4699838760579951E-002   1212.8726770822293     
  -3199.2818569430397      -0.10944350444424344        1212.8673320976266     
  -3117.2267193997068      -0.15271168661911361        1212.8623508552175     
  -3035.1503608666185      -0.21294610232280320        1212.8569586886540     
  -2953.0553138589953      -0.29858846881552381        1212.8503809317056     
  -2870.9441108918577      -0.41808050301187905        1212.8418429179726     
  -2788.8192844804080      -0.57986392218481342        1212.8305699812395     
  -2706.6833671398981      -0.79238044363626159        1212.8157874550641     
  -2624.5388913853321       -1.0640717843904213        1212.7967206730320     
  -3750.0620069964707       -6.4774474846672092E-002   1124.9822652713697     
  -3656.3128887733815       -9.3491905829068855E-002   1124.9730423270016     
  -3562.5431096458651      -0.13000894454353329        1124.9600636929003     
  -3468.7552405617039      -0.18289541664148601        1124.9415351690211     
  -3374.9518524683444      -0.26072114730277463        1124.9156625552316     
  -3281.1355163136618      -0.37205596253625117        1124.8806516514435     
  -3187.3088030453091      -0.52546968786327852        1124.8347082578323     
  -3093.4742836107812      -0.72953214834535629        1124.7760381740272     
  -2999.6345289578658      -0.99281316988697199        1124.7028472001268     
  -6000.0002919461931       -1.2998319759844890E-003   1124.9992763649925     
  -5906.2497210043894       -7.0607622456009267E-004   1125.0000073033175     
  -5812.4994588086120       -1.0110095513482520E-004   1125.0006006622800     
  -5718.7495077470012        5.0713268501567654E-004   1125.0010540470655     
  -5624.9998702084140        1.1106626261607744E-003   1125.0013650629598     
  -5531.2505485810143        1.7015276525853551E-003   1125.0015313151027     
  -5437.5015452533780        2.2717660931448336E-003   1125.0015504088121     
  -5343.7528626140092        2.8134164381299342E-003   1125.0014199493105     
  -5250.0045030514357        3.3185167826559336E-003   1125.0011375417973     
  -6750.0008463773593       -1.5211069367069285E-003   1025.3904440688993     
  -6644.5312124272759       -5.1301000485182158E-004   1025.3911205231916     
  -6539.0619732576606        2.1561336598097114E-004   1025.3916793413348     
  -6433.5931092768778        7.3006886350412969E-004   1025.3921243023069     
  -6328.1246008930448        1.0956625196740788E-003   1025.3924591850555     
  -6222.6564285143395        1.3777003546238120E-003   1025.3926877684999     
  -6117.1885725490047        1.6414884032656119E-003   1025.3928138315921     
  -6011.7210134053248        1.9523324021974986E-003   1025.3928411532213     
  -5906.2537314914043        2.3755385600452428E-003   1025.3927735123495     
  -7500.0013881961331       -1.6074305067377281E-003   914.06284291207305     
  -7382.8127664494141       -3.8059402140788734E-004   914.06341322071819     
  -7265.6245692337834        3.9766236250216025E-004   914.06388306760459     
  -7148.4367639738739        8.3592381224661949E-004   914.06426529498526     
  -7031.2493180937754        1.0427762067592994E-003   914.06457274476122     
  -6914.0621990179934        1.1268047660450975E-003   914.06481825914761     
  -6796.8753741708888        1.1965948733632104E-003   914.06501468014187     
  -6679.6888109767133        1.3607324203803728E-003   914.06517484985829     
  -6562.5024768598905        1.7278026348321873E-003   914.06531161032490     
  -8250.0017664743245       -1.5135242933865811E-003   791.01638270771957     
  -8121.0943024548505       -2.8464362139857258E-004   791.01684072693922     
  -7992.1872281778296        4.5061379569233395E-004   791.01720219424601     
  -7863.2805070801051        8.1412500594524317E-004   791.01749190427381     
  -7734.3741025985400        9.2776709334430052E-004   791.01773465174142     
  -7605.4679781700370        9.1341713005022029E-004   791.01795523125259     
  -7476.5620972315637        8.9295190264238045E-004   791.01817843751087     
  -7347.6564232199626        9.8824867336588795E-004   791.01842906512275     
  -7218.7509195720831        1.3211844020588615E-003   791.01873190883634     
  -9000.0018302833996       -1.1941094126086682E-003   656.25097326917114     
  -8859.3757398276521       -2.0097386914130766E-004   656.25135837300968     
  -8718.7499315304522        3.8003560212018783E-004   656.25162707420782     
  -8578.1243738376397        6.5409981652919669E-004   656.25181900951600     
  -8437.4990351949928        7.2639916652406100E-004   656.25197381553801     
  -8296.8738840484075        7.0211414413279272E-004   656.25213112906806     
  -8156.2488888436528        6.8642562837339938E-004   656.25233058662627     
  -8015.6240180266705        7.8451376157318009E-004   656.25261182506313     
  -7874.9992400431547        1.1015592617695802E-003   656.25301448096093     
  -9750.0014286951973       -6.0390776843632921E-004   509.76652440967052     
  -9597.6569979518626       -1.0540022367422353E-004   509.76692148992350     
  -9445.3126607326521        1.9149547551933210E-004   509.76714806064444     
  -9292.9683994886145        3.4527555590102565E-004   509.76726148990070     
  -9140.6241966710404        4.1443580903433030E-004   509.76731914588140     
  -8988.2800347310240        4.5747271133222966E-004   509.76737839670488     
  -8835.9358961197086        5.3288224626157898E-004   509.76749661057312     
  -8683.5917632884320        6.9916012125759153E-004   509.76773115561974     
  -8531.2476186882395        1.0148027818104310E-003   509.76813939996254     
  -10500.000410781377        3.0235938083933434E-004   351.56294594245776     
  -10335.937996211547        2.6262214305461384E-005   351.56348540879503     
  -10171.875397225082       -1.0943877805402735E-004   351.56375550649187     
  -10007.812619275224       -1.2292071642150404E-004   351.56383422462989     
  -9843.7496678143907       -3.2359022497985279E-005   351.56379955230335     
  -9679.6865482958183        1.4406923401111271E-004   351.56372947845790     
  -9515.6232661723097        3.8818793700556853E-004   351.56370199226501     
  -9351.5598268968988        6.8182043651177082E-004   351.56379508274722     
  -9187.4962359225337        1.0067902721857536E-003   351.56408673895675     
  -11249.998625613551        1.5699705772931338E-003   181.64014768087921     
  -11074.218653990607        2.1819848279847065E-004   181.64100546062824     
  -10898.438122448928       -5.1719986731768586E-004   181.64143976488256     
  -10722.657068439266       -7.6106080132376519E-004   181.64155209305355     
  -10546.875529412902       -6.3822184438322438E-004   181.64144394449588     
  -10371.093542820790       -2.7351962989996537E-004   181.64121681854999     
  -10195.311146114065        2.0820898953388678E-004   181.64097221474779     
  -10019.528376743785        6.8212707992643118E-004   181.64081163249432     
  -9843.7452721610553        1.0233974830953230E-003   181.64083657103441     
  -11999.995922263490        3.2442041760987195E-003  -1.9605620001133328E-003
  -11812.498890673309        4.9459291631137603E-004  -5.6302351024448149E-004
  -11625.000817844610       -1.0262192095069622E-003   1.9118885614426137E-004
  -11437.501782223075       -1.5797180617482809E-003   4.2997430168430239E-004
  -11250.001862254188       -1.4273887013587228E-003   2.8123195814948424E-004
  -11062.501136383904       -8.3071742665197235E-004  -1.2713881902310793E-004
  -10874.999683057442       -5.1188265388191212E-005  -6.6723901837613593E-004
  -10687.497580720645        6.4971251913448214E-004  -1.2111693006598677E-003
  -10499.994907819218        1.0104992466040130E-003  -1.6310305919585303E-003
  -5250.0045030514357        3.3185167826559336E-003   1125.0011375417973     
  -5156.2562861101524        3.8327741137891280E-003   1125.0008678006955     
  -5062.5080328972281        4.3966871032807830E-003   1125.0007848548507     
  -4968.7597481447820        4.9944819584197830E-003   1125.0009005813165     
  -4875.0114365850231        5.6103848223756358E-003   1125.0012268570724     
  -4781.2631029499144        6.2286221459544322E-003   1125.0017755591430     
  -4687.5147519716229        6.8334203053836973E-003   1125.0025585645928     
  -4593.7663883823670        7.4090051386974665E-003   1125.0035877503813     
  -4500.0180169142059        7.9396032167551311E-003   1125.0048749935802     
  -5906.2537314914043        2.3755385600452428E-003   1025.3927735123495     
  -5800.7865129690090        3.0120415551664337E-003   1025.3927664957869     
  -5695.3191738615442        3.8632371210951533E-003   1025.3929827496279     
  -5589.8517393697502        4.8451230370574194E-003   1025.3934366422259     
  -5484.3842346944093        5.8736965665957541E-003   1025.3941425417281     
  -5378.9166850361971        6.8649553952582210E-003   1025.3951148163756     
  -5273.4491155958385        7.7348972251911619E-003   1025.3963678343680     
  -5167.9815515741038        8.3995193929240486E-003   1025.3979159639553     
  -5062.5140181718007        8.7748192856906826E-003   1025.3997735733167     
  -6562.5024768598905        1.7278026348321873E-003   914.06531161032490     
  -6445.3161402951255        2.4307017524733965E-003   914.06555367814076     
  -6328.1296164044552        3.4468350122551783E-003   914.06603034503041     
  -6210.9429425831840        4.6515514238762989E-003   914.06675531569147     
  -6093.7561562266310        5.9201998283242574E-003   914.06774229498694     
  -5976.5692947300158        7.1281295868175221E-003   914.06900498765845     
  -5859.3823954887002        8.1506894414360431E-003   914.07055709854012     
  -5742.1954958980396        8.8632283000151801E-003   914.07241233233697     
  -5625.0086333531435        9.1410956465551862E-003   914.07458439386812     
  -7218.7509195720831        1.3211844020588615E-003   791.01873190883634     
  -7089.8453614060581        2.0307595796111855E-003   791.01918104682341     
  -6960.9395757590828        3.0829108031866781E-003   791.01986061881234     
  -6832.0336039470276        4.3399186029091652E-003   791.02078051154774     
  -6703.1274872857111        5.6640635052644939E-003   791.02195061172381     
  -6574.2212670908821        6.9176264905763674E-003   791.02338080600737     
  -6445.3149846782699        7.9628882440374582E-003   791.02508098120029     
  -6316.4086813637259        8.6621293953612621E-003   791.02706102392494     
  -6187.5023984630261        8.8776308018623240E-003   791.02933082098502     
  -7874.9992400431547        1.1015592617695802E-003   656.25301448096093     
  -7734.3743696192469        1.7542198888804705E-003   656.25360030070487     
  -7593.7492671585451        2.7068945514656662E-003   656.25440654893862     
  -7453.1239696233206        3.8363757753359096E-003   656.25543613957757     
  -7312.4985139757746        5.0194561713396979E-003   656.25669198670289     
  -7171.8729371779573        6.1329287982516689E-003   656.25817700435982     
  -7031.2472761923473        7.0535855938942404E-003   656.25989410643126     
  -6890.6215679810057        7.6582195624723681E-003   656.26184620709955     
  -6749.9958495062647        7.8236230388029071E-003   656.26403622026498     
  -8531.2476186882395        1.0148027818104310E-003   509.76813939996254     
  -8378.9033582522825        1.5430872754222946E-003   509.76876313881797     
  -8226.5589058360256        2.2542162632817053E-003   509.76960111312405     
  -8074.2142857738618        3.0670747919430141E-003   509.77064610956199     
  -7921.8695224006433        3.9005471321615914E-003   509.77189091484627     
  -7769.5246400507976        4.6735182882002846E-003   509.77332831555589     
  -7617.1796630589361        5.3048728964313341E-003   509.77495109849696     
  -7464.8346157596070        5.7134958410642867E-003   509.77675205019557     
  -7312.4895224875690        5.8182712127745617E-003   509.77872395744077     
  -9187.4962359225337        1.0067902721857536E-003   351.56408673895675     
  -9023.4325206226586        1.3393665599323867E-003   351.56462126014372     
  -8859.3687070244869        1.6603062194917584E-003   351.56537728940009     
  -8695.3047985608482        1.9581665619625710E-003   351.56633433138910     
  -8531.2407986645740        2.2215046997189347E-003   351.56747189099377     
  -8367.1767107686610        2.4388773445025436E-003   351.56876947264726     
  -8203.1125383058770        2.5988420252360811E-003   351.57020658137048     
  -8039.0482847093126        2.6899550134658057E-003   351.57176272162712     
  -7874.9839534116518        2.7007739681721432E-003   351.57341739831958     
  -9843.7452721610553        1.0233974830953230E-003   181.64083657103441     
  -9667.9620500479632        1.0850622475118143E-003   181.64112636349685     
  -9492.1788859572007        8.6059428394946735E-004   181.64166805543266     
  -9316.3957541460441        4.3580288365774322E-004   181.64242471485747     
  -9140.6126288715841       -1.0350238289902336E-004   181.64335940991796     
  -8964.8294843909898       -6.7151195798942354E-004   181.64443520861767     
  -8789.0462949612411       -1.1824158909803373E-003   181.64561517920285     
  -8613.2630348397197       -1.5504054044868099E-003   181.64686238978950     
  -8437.4796782833382       -1.6896702877602365E-003   181.64813990840949     
  -10499.994907819218        1.0104992466040130E-003  -1.6310305919585303E-003
  -10312.492139845568        7.2217951765196631E-004  -1.7698519847254306E-003
  -10124.989657867251       -2.0948941437382018E-004  -1.5936107760131987E-003
  -9937.4873986915973       -1.5738652350592020E-003  -1.1588303618692941E-003
  -9749.9852991256485       -3.1603049478690082E-003  -5.2203357625973305E-004
  -9562.4832959769919       -4.7581670032741386E-003   2.6025642580414926E-004
  -9374.9813260528954       -6.1568090382024820E-003   1.1315162216467441E-003
  -9187.4793261604209       -7.1455878501183179E-003   2.0352230262944125E-003
  -8999.9772331073436       -7.5138628080821945E-003   2.9148535599214142E-003
  -4500.0180169142059        7.9396032167551311E-003   1125.0048749935802     
  -4406.2698320792360        8.2270317843722296E-003   1125.0058596300885     
  -4312.5221938511904        7.5215694184862514E-003   1125.0059186714707     
  -4218.7753551544729        4.9801347397533391E-003   1125.0049705078463     
  -4125.0295689134737       -2.4035353771978407E-004   1125.0029335294009     
  -4031.2850880527953       -8.9829772182383749E-003   1124.9997261263536     
  -3937.5421654967386       -2.2090817665230134E-002   1124.9952666888391     
  -3843.8010541698313       -4.0406956313290721E-002   1124.9894736071374     
  -3750.0620069964707       -6.4774474846672092E-002   1124.9822652713697     
  -5062.5140181718007        8.7748192856906826E-003   1025.3997735733167     
  -4957.0468578103146        8.6128899390587321E-003   1025.4012699881650     
  -4851.5805035558842        7.3636752933907701E-003   1025.4016646428361     
  -4746.1151165757583        4.4899509141487215E-003   1025.4008670683338     
  -4640.6508580373475       -5.4550785148421710E-004   1025.3987867956339     
  -4535.1878891081287       -8.2799258530030784E-003   1025.3953333558663     
  -4429.7263709555018       -1.9250527733902345E-002   1025.3904162800227     
  -4324.2664647467936       -3.3994538162914978E-002   1025.3839450990720     
  -4218.8083316495176       -5.3049181804453838E-002   1025.3758293441931     
  -5625.0086333531435        9.1410956465551862E-003   914.07458439386812     
  -5507.8222841409333        8.7010293943876604E-003   914.07635256830065     
  -5390.6369600778380        7.1413356909033610E-003   914.07694379891268     
  -5273.4527518536097        4.1597152919621294E-003   914.07629327756490     
  -5156.2697501579432       -5.4613068823528010E-004   914.07433619635128     
  -5039.0880456805917       -7.2785015372573980E-003   914.07100774710500     
  -4921.9077291113463       -1.6339696537897908E-002   914.06624312186239     
  -4804.7288911399373       -2.8032014698510466E-002   914.05997751259349     
  -4687.5516224561588       -4.2657755433083366E-002   914.05214611117549     
  -6187.5023984630261        8.8776308018623240E-003   791.02933082098502     
  -6058.5966782630421        8.3212925965199247E-003   791.03116234702134     
  -5929.6920631675421        6.7046254785054771E-003   791.03181790113786     
  -5800.7885946680690        3.8893244436621899E-003   791.03129285614671     
  -5671.8863142561549       -2.6291579774806451E-004   791.02958258497779     
  -5542.9852634232593       -5.8904001098198933E-003   791.02668246072642     
  -5414.0854836607596       -1.3131432938735088E-002   791.02258785635456     
  -5285.1870164601914       -2.2124319409840609E-002   791.01729414468002     
  -5156.2899033130279       -3.3007364548439000E-002   791.01079669877799     
  -6749.9958495062647        7.8236230388029071E-003   656.26403622026498     
  -6609.3706073685798        7.3035221253121563E-003   656.26575430096398     
  -6468.7463125754530        5.9036196134911734E-003   656.26634871108263     
  -6328.1229786994154        3.5786736407317221E-003   656.26590952450874     
  -6187.5006193132067        2.8344175348138378E-004   656.26452681527701     
  -6046.8792479892272       -4.0273172305660410E-003   656.26229065752773     
  -5906.2588783001156       -9.3988455632825207E-003   656.25929112527274     
  -5765.6395238184277       -1.5876385176170515E-002   656.25561829246294     
  -5625.0211981168241       -2.3505178138066185E-002   656.25136223325342     
  -7312.4895224875690        5.8182712127745617E-003   509.77872395744077     
  -7160.1446386496191        5.4775603434791265E-003   509.78018340677437     
  -7007.8002080520691        4.5883928119110351E-003   509.78059799024442     
  -6855.4562376278018        3.1276590443667374E-003   509.78018700315988     
  -6703.1127343099770        1.0722485371843504E-003   509.77916974071348     
  -6550.7697050316656       -1.6009490764190559E-003   509.77776549807220     
  -6398.4271567258784       -4.9150436775562412E-003   509.77619357040675     
  -6246.0850963257326       -8.8931457003127434E-003   509.77467325301984     
  -6093.7435307642700       -1.3558365394146676E-002   509.77342384100660     
  -7874.9839534116518        2.7007739681721432E-003   351.57341739831958     
  -7710.9193392982488        2.6732493774943578E-003   351.57450464089305     
  -7546.8542493478344        2.6090203123203537E-003   351.57462750025456     
  -7382.7887051333910        2.4361768009839579E-003   351.57416901275076     
  -7218.7227282277954        2.0828091874136589E-003   351.57351221496333     
  -7054.6563402038464        1.4770081866117835E-003   351.57304014313240     
  -6890.5895626346573        5.4686361136191408E-004   351.57313583384666     
  -6726.5224170929778       -7.7953407253517071E-004   351.57418232341803     
  -6562.4549251519547       -2.5740949895407539E-003   351.57656264839369     
  -8437.4796782833382       -1.6896702877602365E-003   181.64813990840949     
  -8261.6952765064780       -1.2795682760042837E-003   181.64877297993252     
  -8085.9089362133836       -1.8442368127580266E-004   181.64849900253355     
  -7910.1207148963094        1.4041226627341530E-003   181.64789927374531     
  -7734.3306700473968        3.2944305235105276E-003   181.64755509148395     
  -7558.5388591587398        5.2948592665416072E-003   181.64804775340366     
  -7382.7453397226955        7.2137677857426752E-003   181.64995855727699     
  -7206.9501692312133        8.8595163597346982E-003   181.65386880078444     
  -7031.1534051766912        1.0040463572295266E-002   181.66035978176868     
  -8999.9772331073436       -7.5138628080821945E-003   2.9148535599214142E-003
  -8812.4730174662855       -6.5510501840435609E-003   3.0434006500692891E-003
  -8624.9647683990770       -3.9418638457391353E-003   2.2742586937724999E-003
  -8437.4526005967637       -6.8607247158070095E-005   1.4215067420119596E-003
  -8249.9366287499943        4.6864174596521480E-003   1.2992239999606160E-003
  -8062.4169675496187        9.9409073332026310E-003   2.7214895548822965E-003
  -7874.8937316864985        1.5312559834455897E-002   6.5023826537679947E-003
  -7687.3670358514591        2.0419071959622670E-002   1.3455982207577407E-002
  -7499.8369947351921        2.4878141280169075E-002   2.4396367467331384E-002
  -3750.0620069964707       -6.4774474846672092E-002   1124.9822652713697     
  -3656.3128887733815       -9.3491905829068855E-002   1124.9730423270016     
  -3562.5431096458651      -0.13000894454353329        1124.9600636929003     
  -3468.7552405617039      -0.18289541664148601        1124.9415351690211     
  -3374.9518524683444      -0.26072114730277463        1124.9156625552316     
  -3281.1355163136618      -0.37205596253625117        1124.8806516514435     
  -3187.3088030453091      -0.52546968786327852        1124.8347082578323     
  -3093.4742836107812      -0.72953214834535629        1124.7760381740272     
  -2999.6345289578658      -0.99281316988697199        1124.7028472001268     
  -4218.8083316495176       -5.3049181804453838E-002   1025.3758293441931     
  -4113.3428513421395       -7.5347604083617625E-002   1025.3639539969909     
  -4007.8624600316407      -0.10501137817027484        1025.3444959057583     
  -3902.3696536775965      -0.15036036965011590        1025.3148024011439     
  -3796.8669282400760      -0.21971444528799111        1025.2722208138316     
  -3691.3567796789102      -0.32139347101224303        1025.2140984744490     
  -3585.8417039538863      -0.46371731312888187        1025.1377827136196     
  -3480.3241970249865      -0.65500583784250921        1025.0406208622630     
  -3374.8067548519507      -0.90357891135226964        1024.9199602507338     
  -4687.5516224561588       -4.2657755433083366E-002   914.05214611117549     
  -4570.3707222149706       -6.0036032364678249E-002   914.03926235514825     
  -4453.1824457584780       -8.4839916263035775E-002   914.01584750608629     
  -4335.9890680569524      -0.12465264147181188        913.97884849199363     
  -4218.7928640806686      -0.18705744209751174        913.92521224128097     
  -4101.5961087997794      -0.27963755216410391        913.85188568190176     
  -3984.4010771847816      -0.40997620628195364        913.75581574212038     
  -3867.2100442055944      -0.58565663823264913        913.63394935008353     
  -3750.0252848328205      -0.81426208253242294        913.48323343401262     
  -5156.2899033130279       -3.3007364548439000E-002   791.01079669877799     
  -5027.3931623786802       -4.6555486612760433E-002   790.99847911186578     
  -4898.4970561416503       -6.7691354116959701E-002   790.97373112364369     
  -4769.6034925806498      -0.10277489631971548        790.93355732640055     
  -4640.7143796746295      -0.15816604306814952        790.87496231255523     
  -4511.8316254024612      -0.24022472375986581        790.79495067462335     
  -4382.9571377431312      -0.35531086832111214        790.69052700489124     
  -4254.0928246754738      -0.50978440629023680        790.55869589573263     
  -4125.2405941782526      -0.71000526700072442        790.39646193981719     
  -5625.0211981168241       -2.3505178138066185E-002   656.25136223325342     
  -5484.4068328202375       -3.3904262903433846E-002   656.24111597758656     
  -5343.8002804959115       -5.1762485648168877E-002   656.21775938828284     
  -5203.2029361294017       -8.1729798323067371E-002   656.17881278887216     
  -5062.6161947065912      -0.12845615344326689        656.12179650267672     
  -4922.0414512131720      -0.19659150371785472        656.04423085313340     
  -4781.4801006347725      -0.29078580133705145        655.94363616364524     
  -4640.9335379570903      -0.41568899825642802        655.81753275770120     
  -4500.4031581660520      -0.57595104782421913        655.66344095850957     
  -6093.7435307642700       -1.3558365394146676E-002   509.77342384100660     
  -5941.4083945265866       -2.1080657445736506E-002   509.76668466258707     
  -5789.0861081363446       -3.5250105436261947E-002   509.74754492988654     
  -5636.7774075843317       -5.8520011839846120E-002   509.71449876408428     
  -5484.4830288613148       -9.3343679249301204E-002   509.66604028643354     
  -5332.2037079579604      -0.14217440994161734        509.60066361805889     
  -5179.9401808651328      -0.20746550671128716        509.51686288020449     
  -5027.6931835735995      -0.29167027206472085        509.41313219404617     
  -4875.4634520741520      -0.39724200865157400        509.28796568063115     
  -6562.4549251519547       -2.5740949895407539E-003   351.57656264839369     
  -6398.3945084846555       -7.0829664869052067E-003   351.57469687726763     
  -6234.3485283779446       -1.6351008103356435E-002   351.56270037814119     
  -6070.3169158261844       -3.0148201119800433E-002   351.54049913681240     
  -5906.2996018231916       -4.8244525127074667E-002   351.50801913889745     
  -5742.2965173630537       -7.0409959981134307E-002   351.46518637015123     
  -5578.3075934397948       -9.6414486124558607E-002   351.41192681629758     
  -5414.3327610475026      -0.12602808368001206        351.34816646303864     
  -5250.3719511800382      -0.15902073228198788        351.27383129609598     
  -7031.1534051766912        1.0040463572295266E-002   181.66035978176868     
  -6855.3618356812576        9.0905145607393933E-003   181.66466433198391     
  -6679.5815305358074        6.7380116338426888E-003   181.66283836301150     
  -6503.8114697357960        6.3829696950961079E-003   181.65669779164944     
  -6328.0506332770501        1.1425403137764079E-002   181.64805853501926     
  -6152.2980011546242        2.5265327960369177E-002   181.63873650995279     
  -5976.5525533643913        5.1302758373822144E-002   181.63054763365082     
  -5800.8132699016342        9.2937710002388485E-002   181.62530782316190     
  -5625.0791307617728       0.15357019766838675        181.62483299517385     
  -7499.8369947351921        2.4878141280169075E-002   2.4396367467331384E-002
  -7312.3070371032245        2.8441489675515186E-002   3.6098737228447357E-002
  -7124.7791039245476        3.5820160192997719E-002   4.7571514123169449E-002
  -6937.2510781943092        5.4070835885340784E-002   6.2978613213046694E-002
  -6749.7208429072989        9.0250200471018616E-002   8.6483949636219457E-002
  -6562.1862810588655       0.15141493615919899       0.12225143812357943     
  -6374.6452756443850       0.24462172546964212       0.17444499413536824     
  -6187.0957096587863       0.37692725163083196       0.24722853239680295     
  -5999.5354660972571       0.55538819734874778       0.34476596822275318     
 </DataArray>
 <DataArray  type="Float64" Name="VM" NumberOfComponents="1" format="ascii">
   11999.997544367616     
   11812.499137969795     
   11625.000304733952     
   11437.500992362286     
   11250.001148557605     
   11062.500721022712     
   10874.999657460718     
   10687.497905574603     
   10499.995413067136     
   11254.397636844751     
   11078.686816466152     
   10902.977974391202     
   10727.271200405581     
   10551.566591938199     
   10375.864254708231     
   10200.164303438733     
   10024.466862645286     
   9848.7720675093406     
   10517.642383920243     
   10353.859434324813     
   10190.085338503861     
   10026.320540503184     
   9862.5655140781691     
   9698.8207651969460     
   9535.0868348015319     
   9371.3643018570747     
   9207.6537867254501     
   9789.8982476658020     
   9638.1847762655998     
   9486.4914854448707     
   9334.8193804245748     
   9183.1695319176433     
   9031.5430816020689     
   8879.9412481513755     
   8728.3653338885852     
   8576.8167321407345     
   9071.4948171641863     
   8931.9949762082506     
   8792.5310506177811     
   8653.1048031216014     
   8513.7181100439539     
   8374.3729706746162     
   8235.0715175764963     
   8095.8160279428030     
   7956.6089361291615     
   8362.9921328053224     
   8235.8541320656532     
   8108.7720978034786     
   7981.7487277032415     
   7854.7868910763918     
   7727.8896427428481     
   7601.0602382701081     
   7474.3021507259982     
   7347.6190891204751     
   7665.2815610109665     
   7550.6593953603087     
   7436.1173751689676     
   7321.6592782877051     
   7207.2891182915118     
   7093.0111630121592     
   6978.8299548202212     
   6864.7503328505300     
   6750.7774573872002     
   6979.7405286284265     
   6877.7956115563857     
   6775.9587652370756     
   6674.2349388104785     
   6572.6293813034090     
   6471.1476642611224     
   6369.7957064093162     
   6268.5798005579509     
   6167.5066429804438     
   6308.4757128664696     
   6219.3775127337449     
   6130.4182912319338     
   6041.6041700315436     
   5952.9416259109412     
   5864.4375160062209     
   5776.0991051606634     
   5687.9340955720563     
   5599.9506589534121     
   10499.995413067136     
   10312.492500934057     
   10124.989553121555     
   9937.4866117582478     
   9749.9837189728423     
   9562.4809168939173     
   9374.9782476498349     
   9187.4757533689444     
   8999.9734761794662     
   9848.7720675093406     
   9673.0802326787707     
   9497.3917081811433     
   9321.7067009928869     
   9146.0254326704289     
   8970.3481407766703     
   8794.6750804791591     
   8619.0065263423858     
   8443.3427743446809     
   9207.6537867254501     
   9043.9559700752361     
   8880.2715746637987     
   8716.6013576983041     
   8552.9461344534247     
   8389.3067839215655     
   8225.6842551347381     
   8062.0795742535220     
   7898.4938525331936     
   8576.8167321407345     
   8425.2968488898023     
   8273.8071716884406     
   8122.3493788262422     
   7970.9252770223939     
   7819.5368137871865     
   7668.1860912351576     
   7516.8753815505961     
   7365.6071443405763     
   7956.6089361291615     
   7817.4527066641713     
   7678.3499546642597     
   7539.3036211545423     
   7400.3168688249661     
   7261.3931030001786     
   7122.5359950194870     
   6983.7495083536633     
   6845.0379278375112     
   7347.6190891204751     
   7221.0148650152378     
   7094.4935335095406     
   6968.0595894085200     
   6841.7178586098698     
   6715.4735286251989     
   6589.3321824994273     
   6463.2998365726899     
   6337.3829825941302     
   6750.7774573872002     
   6636.9167031276847     
   6523.1737963613150     
   6409.5549943879259     
   6296.0670009418636     
   6182.7170058279517     
   6069.5127287693849     
   5956.4624679867638     
   5843.5751541003901     
   6167.5066429804438     
   6066.5832738047120     
   5965.8171947986630     
   5865.2165050750282     
   5764.7898565414998     
   5664.5465003914715     
   5564.4963382076448     
   5464.6499781987286     
   5365.0187971558944     
   5599.9506589534121     
   5512.1574277673080     
   5424.5635897467700     
   5337.1789674057145     
   5250.0140132048555     
   5163.0798585132070     
   5076.3883669482047     
   4989.9521925242962     
   4903.7848430828044     
   8999.9734761794662     
   8812.4697419442746     
   8624.9627974682789     
   8437.4525662930373     
   8249.9389719596147     
   8062.4219380090699     
   7874.9013879856575     
   7687.3772454436075     
   7499.8494339569461     
   8443.3427743446809     
   8267.6832970677879     
   8092.0275805919518     
   7916.3759832977457     
   7740.7288995714980     
   7565.0867639827702     
   7389.4500560585639     
   7213.8193057562476     
   7038.1950997553940     
   7898.4938525331936     
   7734.9280259941725     
   7571.3831567880361     
   7407.8607059909664     
   7244.3622677028725     
   7080.8895843543032     
   6917.4445641731354     
   6754.0293011741551     
   6590.6460981058526     
   7365.6071443405763     
   7214.3841021051030     
   7063.2092341075804     
   6912.0857333177491     
   6761.0170774786930     
   6610.0070613792750     
   6459.0598335962550     
   6308.1799384393171     
   6157.3723639764203     
   6845.0379278375112     
   6706.4060657014634     
   6567.8591342116515     
   6429.4026092504982     
   6291.0424458309471     
   6152.7851310991082     
   6014.6377444626451     
   5876.6080259750261     
   5738.7044543143265     
   6337.3829825941302     
   6211.5887681562663     
   6085.9248870802858     
   5960.3995168118363     
   5835.0215314232391     
   5709.8005759602529     
   5584.7471503491997     
   5459.8727043007020     
   5335.1897448932914     
   5843.5751541003901     
   5730.8604042013103     
   5618.3285156084621     
   5505.9905804400742     
   5393.8585999876104     
   5281.9455768455891     
   5170.2656181380989     
   5058.8340513758812     
   4947.6675547160212     
   5365.0187971558944     
   5265.6148300624627     
   5166.4508929776885     
   5067.5409050324579     
   4968.8998652183991     
   4870.5439539701501     
   4772.4906458496880     
   4674.7588346817583     
   4577.3689726603743     
   4903.7848430828044     
   4817.9004386023253     
   4732.3139224469351     
   4647.0415382641195     
   4562.1006953256820     
   4477.5100669506692     
   4393.2896981919866     
   4309.4611236841047     
   4226.0474966259007     
   7499.8494339569461     
   7312.3212581581929     
   7124.7970145491654     
   6937.2781146265997     
   6749.7659701176262     
   6562.2619932439429     
   6374.7675971719136     
   6187.2841966893111     
   5999.8132091574753     
   7038.1950997553940     
   6862.5836510585796     
   6686.9917444809926     
   6511.4209367161602     
   6335.8728814179931     
   6160.3493429565624     
   5984.8522126160688     
   5809.3835277478966     
   5633.9454945191783     
   6590.6460981058526     
   6427.3027989269585     
   6264.0073940385491     
   6100.7627898446162     
   5937.5722062796476     
   5774.4392208360987     
   5611.3678202046431     
   5448.3624611004761     
   5285.4281422363210     
   6157.3723639764203     
   6006.6458760744736     
   5856.0090148021482     
   5705.4672282427482     
   5555.0266046740871     
   5404.6939607687164     
   5254.4769446819291     
   5104.3841570169634     
   4954.4252933575590     
   5738.7044543143265     
   5600.9364905469565     
   5463.3131042723935     
   5325.8433555209876     
   5188.5373529289609     
   5051.4063935792547     
   4914.4631255399090     
   4777.7217374359689     
   4641.1981803529125     
   5335.1897448932914     
   5210.7085641407939     
   5086.4388483170169     
   4962.3940762282318     
   4838.5892151865792     
   4715.0409099177659     
   4591.7677003194231     
   4468.7902731721288     
   4346.1317539315141     
   4947.6675547160212     
   4836.7775920042495     
   4726.1750923163245     
   4615.8783267970994     
   4505.9074545619815     
   4396.2847456081236     
   4287.0348347850604     
   4178.1850116893029     
   4069.7655521804045     
   4577.3689726603743     
   4480.3340503010613     
   4383.6668035134962     
   4287.3900576975229     
   4191.5287989943372     
   4096.1104041856361     
   4001.1648984424951     
   3906.7252444871624     
   3812.8276671607782     
   4226.0474966259007     
   4143.0634983755717     
   4060.5240668192355     
   3978.4555930113797     
   3896.8866928212437     
   3815.8484102667685     
   3735.3744404756440     
   3655.5013739148849     
   3576.2689635577758     
   6308.4757128664696     
   6219.3775127337449     
   6130.4182912319338     
   6041.6041700315436     
   5952.9416259109412     
   5864.4375160062209     
   5776.0991051606634     
   5687.9340955720563     
   5599.9506589534121     
   5654.7144915942790     
   5578.6378127036023     
   5502.7324767885029     
   5427.0056366119998     
   5351.4648334524873     
   5276.1180223775273     
   5200.9735993842614     
   5126.0404305552793     
   5051.3278833898958     
   5023.4479257488210     
   4960.5607588071152     
   4897.8757860664327     
   4835.4008209917938     
   4773.1440607288669     
   4711.1141078152987     
   4649.3199932020543     
   4587.7712006578167     
   4526.4776926325285     
   4422.4989218308174     
   4372.9255880207165     
   4323.5781838136854     
   4274.4644764451805     
   4225.5925582449609     
   4176.9708611409369     
   4128.6081717307725     
   4080.5136469262616     
   4032.6968301688762     
   3864.2725658460558     
   3827.9954563028268     
   3791.9509931762286     
   3756.1458145403835     
   3720.5867705103979     
   3685.2809290290093     
   3650.2355816398012     
   3615.4582492228728     
   3580.9566876643271     
   3368.4153182808313     
   3345.0339210558486     
   3321.8602585522071     
   3298.8986524990069     
   3276.1535066229380     
   3253.6293066413918     
   3231.3306201107471     
   3209.2620961214402     
   3187.4284648253351     
   2964.9118016270154     
   2953.1227814104404     
   2941.4734879735288     
   2929.9655390631306     
   2918.6005584344557     
   2907.3801751757401     
   2896.3060230041938     
   2885.3797395323563     
   2874.6029655060088     
   2694.4132118177627     
   2691.1736616004623     
   2687.9815151047255     
   2684.8369005719460     
   2681.7399445992119     
   2678.6907721064199     
   2675.6895063044922     
   2672.7362686635483     
   2669.8311788814017     
   2598.0752231008078     
   2598.0739474854931     
   2598.0728872148616     
   2598.0720053776877     
   2598.0712650628284     
   2598.0706293590765     
   2598.0700613552608     
   2598.0695241400990     
   2598.0689808025572     
   5599.9506589534121     
   5512.1574277673080     
   5424.5635897467700     
   5337.1789674057145     
   5250.0140132048555     
   5163.0798585132070     
   5076.3883669482047     
   4989.9521925242962     
   4903.7848430828044     
   5051.3278833898958     
   4976.8458528055507     
   4902.6048378748765     
   4828.6159728483362     
   4754.8910452624759     
   4681.4425410593658     
   4608.2836931234924     
   4535.4285334939814     
   4462.8919495257423     
   4526.4776926325285     
   4465.4499453336639     
   4404.6990151413893     
   4344.2365395096740     
   4284.0747547124738     
   4224.2265301573771     
   4164.7054046153216     
   4105.5256244345492     
   4046.7021837988518     
   4032.6968301688762     
   3985.1676672360782     
   3937.9365742827172     
   3891.0144317150239     
   3844.4125766561647     
   3798.1428217598000     
   3752.2174744632657     
   3706.6493566299650     
   3661.4518245172239     
   3580.9566876643271     
   3546.7388585678573     
   3512.8130171158541     
   3479.1877278180759     
   3445.8718106520905     
   3412.8743457635055     
   3380.2046778513818     
   3347.8724201829473     
   3315.8874581775499     
   3187.4284648253351     
   3165.8344455562064     
   3144.4848775551409     
   3123.3847891612709     
   3102.5392848134984     
   3081.9535434805725     
   3061.6328168476448     
   3041.5824272457262     
   3021.8077653121559     
   2874.6029655060088     
   2863.9771838134770     
   2853.5039098165871     
   2843.1848345582757     
   2833.0216479555097     
   2823.0160378508394     
   2813.1696890339390     
   2803.4842822360411     
   2793.9614930946154     
   2669.8311788814017     
   2666.9741332099852     
   2664.1650489925732     
   2661.4040745660955     
   2658.6913560380917     
   2656.0270372477357     
   2653.4112597288013     
   2650.8441626717699     
   2648.3258828870412     
   2598.0689808025572     
   2598.0681465473867     
   2598.0667561094519     
   2598.0648018729148     
   2598.0622762217813     
   2598.0591715402143     
   2598.0554802124007     
   2598.0511946222373     
   2598.0463071539693     
   4903.7848430828044     
   4817.9004386023253     
   4732.3139224469351     
   4647.0415382641195     
   4562.1006953256820     
   4477.5100669506692     
   4393.2896981919866     
   4309.4611236841047     
   4226.0474966259007     
   4462.8919495257423     
   4390.6894130507126     
   4318.8371805733977     
   4247.3527914305641     
   4176.2549093884945     
   4105.5634033677143     
   4035.2994340696987     
   3965.4855468450314     
   3896.1457711303760     
   4046.7021837988518     
   3988.2506482319204     
   3930.1872293232582     
   3872.5291474711362     
   3815.2945576340294     
   3758.5026009814942     
   3702.1734587232045     
   3646.3284080312528     
   3590.9898799323851     
   3661.4518245172239     
   3616.6388139103187     
   3572.2246782386924     
   3528.2242688853257     
   3484.6530618003944     
   3441.5271784694119     
   3398.8634065468668     
   3356.6792199599809     
   3314.9927982545905     
   3315.8874581775499     
   3284.2603370222600     
   3253.0017698786201     
   3222.1223177901006     
   3191.6328333472302     
   3161.5444617290609     
   3131.8686408768590     
   3102.6171007037324     
   3073.8018612380752     
   3021.8077653121559     
   3002.3151090274673     
   2983.1107422051891     
   2964.2001649481617     
   2945.5889428029654     
   2927.2827032405598     
   2909.2871318031148     
   2891.6079679023819     
   2874.2510002634549     
   2793.9614930946154     
   2784.6042568187986     
   2775.4154906265007     
   2766.3968364948410     
   2757.5499325970709     
   2748.8764122263051     
   2740.3779026946536     
   2732.0560242098391     
   2723.9123887294772     
   2648.3258828870412     
   2645.8581676861995     
   2643.4427820700207     
   2641.0798870132030     
   2638.7696427133724     
   2636.5122085574758     
   2634.3077430885710     
   2632.1564039738960     
   2630.0583479731831     
   2598.0463071539693     
   2598.0425595197407     
   2598.0417249135530     
   2598.0438429420428     
   2598.0489532120178     
   2598.0570953300776     
   2598.0683089031177     
   2598.0826335377865     
   2598.1001088407561     
   4226.0474966259007     
   4143.0634983755717     
   4060.5240668192355     
   3978.4555930113797     
   3896.8866928212437     
   3815.8484102667685     
   3735.3744404756440     
   3655.5013739148849     
   3576.2689635577758     
   3896.1457711303760     
   3827.2961431462445     
   3758.9535316203646     
   3691.1458169099174     
   3623.9028915201043     
   3557.2568061177867     
   3491.2419246519307     
   3425.8950885419749     
   3361.2557897033198     
   3590.9898799323851     
   3536.1740928214190     
   3481.8985351352653     
   3428.1895509760502     
   3375.0750203293055     
   3322.5844349631298     
   3270.7489750001828     
   3219.6015854030297     
   3169.1770514461277     
   3314.9927982545905     
   3273.8189562156563     
   3233.1741107131120     
   3193.0800764098976     
   3153.5596076631591     
   3114.6364184750264     
   3076.3351996982706     
   3038.6816329115122     
   3001.7024003193687     
   3073.8018612380752     
   3045.4352266512064     
   3017.5314208347022     
   2990.1058829514736     
   2963.1744805005683     
   2936.7535036513964     
   2910.8596574305361     
   2885.5100515661502     
   2860.7221877967504     
   2874.2510002634549     
   2857.2263411198428     
   2840.5463875125188     
   2824.2204989120987     
   2808.2581752498718     
   2792.6690494563500     
   2777.4628792683611     
   2762.6495382819517     
   2748.2390062320114     
   2723.9123887294772     
   2715.9566976322553     
   2708.2012907256235     
   2700.6517659365963     
   2693.3137657297498     
   2686.1929739948559     
   2679.2951128133841     
   2672.6259391049512     
   2666.1912411541921     
   2630.0583479731831     
   2628.0245012640912     
   2626.0686501393729     
   2624.1952520546379     
   2622.4087788202105     
   2620.7137158371797     
   2619.1145613316658     
   2617.6158255839709     
   2616.2220301551101     
   2598.1001088407561     
   2598.1325120072729     
   2598.1945450240037     
   2598.2906346847444     
   2598.4252077835736     
   2598.6026911141066     
   2598.8275114703183     
   2599.1040956460029     
   2599.4368704353938     
   2598.0752231008078     
   2598.0739474854931     
   2598.0728872148616     
   2598.0720053776877     
   2598.0712650628284     
   2598.0706293590765     
   2598.0700613552608     
   2598.0695241400990     
   2598.0689808025572     
   2694.4132118176085     
   2691.1736616002659     
   2687.9815151043799     
   2684.8369005716545     
   2681.7399445988385     
   2678.6907721060015     
   2675.6895063040306     
   2672.7362686631163     
   2669.8311788809692     
   2964.9118016266120     
   2953.1227814099384     
   2941.4734879729908     
   2929.9655390625308     
   2918.6005584337745     
   2907.3801751750143     
   2896.3060230034116     
   2885.3797395316528     
   2874.6029655052512     
   3368.4153182802247     
   3345.0339210551865     
   3321.8602585514795     
   3298.8986524982079     
   3276.1535066220613     
   3253.6293066404637     
   3231.3306201098599     
   3209.2620961204357     
   3187.4284648244084     
   3864.2725658453819     
   3827.9954563021574     
   3791.9509931754005     
   3756.1458145395241     
   3720.5867705094656     
   3685.2809290280170     
   3650.2355816388304     
   3615.4582492218938     
   3580.9566876633276     
   4422.4989218302590     
   4372.9255880200117     
   4323.5781838129442     
   4274.4644764443956     
   4225.5925582440923     
   4176.9708611400793     
   4128.6081717298775     
   4080.5136469253412     
   4032.6968301679758     
   5023.4479257482990     
   4960.5607588066187     
   4897.8757860658498     
   4835.4008209911835     
   4773.1440607282057     
   4711.1141078146302     
   4649.3199932013285     
   4587.7712006571010     
   4526.4776926318282     
   5654.7144915940717     
   5578.6378127033940     
   5502.7324767882701     
   5427.0056366116851     
   5351.4648334520907     
   5276.1180223771435     
   5200.9735993837940     
   5126.0404305548136     
   5051.3278833894065     
   6308.4757128667079     
   6219.3775127338758     
   6130.4182912320630     
   6041.6041700315527     
   5952.9416259109748     
   5864.4375160061518     
   5776.0991051605379     
   5687.9340955719035     
   5599.9506589532048     
   2598.0689808025572     
   2598.0681465473867     
   2598.0667561094519     
   2598.0648018729148     
   2598.0622762217813     
   2598.0591715402143     
   2598.0554802124007     
   2598.0511946222373     
   2598.0463071539693     
   2669.8311788809692     
   2666.9741332096378     
   2664.1650489921785     
   2661.4040745658153     
   2658.6913560376884     
   2656.0270372473396     
   2653.4112597283424     
   2650.8441626712752     
   2648.3258828864446     
   2874.6029655052512     
   2863.9771838128177     
   2853.5039098159059     
   2843.1848345576100     
   2833.0216479548903     
   2823.0160378501141     
   2813.1696890332300     
   2803.4842822351757     
   2793.9614930936359     
   3187.4284648244084     
   3165.8344455553397     
   3144.4848775543273     
   3123.3847891604933     
   3102.5392848126935     
   3081.9535434797672     
   3061.6328168467699     
   3041.5824272447094     
   3021.8077653109726     
   3580.9566876633276     
   3546.7388585669514     
   3512.8130171149619     
   3479.1877278172656     
   3445.8718106512551     
   3412.8743457626383     
   3380.2046778504550     
   3347.8724201819632     
   3315.8874581763785     
   4032.6968301679758     
   3985.1676672352510     
   3937.9365742819177     
   3891.0144317141944     
   3844.4125766553980     
   3798.1428217590674     
   3752.2174744625108     
   3706.6493566291624     
   3661.4518245163003     
   4526.4776926318282     
   4465.4499453329599     
   4404.6990151407163     
   4344.2365395090847     
   4284.0747547119281     
   4224.2265301568414     
   4164.7054046147678     
   4105.5256244339962     
   4046.7021837982743     
   5051.3278833894065     
   4976.8458528050915     
   4902.6048378744281     
   4828.6159728479379     
   4754.8910452621158     
   4681.4425410590484     
   4608.2836931232350     
   4535.4285334937258     
   4462.8919495255532     
   5599.9506589532048     
   5512.1574277670734     
   5424.5635897465672     
   5337.1789674055317     
   5250.0140132047436     
   5163.0798585131297     
   5076.3883669482393     
   4989.9521925243871     
   4903.7848430830427     
   2598.0463071539693     
   2598.0425595197407     
   2598.0417249135530     
   2598.0438429420428     
   2598.0489532120178     
   2598.0570953300776     
   2598.0683089031177     
   2598.0826335377865     
   2598.1001088407561     
   2648.3258828864446     
   2645.8581676855015     
   2643.4427820691885     
   2641.0798870121835     
   2638.7696427121832     
   2636.5122085559283     
   2634.3077430866929     
   2632.1564039716668     
   2630.0583479706015     
   2793.9614930936359     
   2784.6042568176276     
   2775.4154906250346     
   2766.3968364929947     
   2757.5499325949054     
   2748.8764122236339     
   2740.3779026915822     
   2732.0560242061442     
   2723.9123887250421     
   3021.8077653109726     
   3002.3151090261349     
   2983.1107422034916     
   2964.2001649461390     
   2945.5889428004043     
   2927.2827032375712     
   2909.2871317994568     
   2891.6079678980609     
   2874.2510002582280     
   3315.8874581763785     
   3284.2603370209290     
   3253.0017698769361     
   3222.1223177880993     
   3191.6328333448619     
   3161.5444617260819     
   3131.8686408732665     
   3102.6171006994718     
   3073.8018612330229     
   3661.4518245163003     
   3616.6388139092064     
   3572.2246782373368     
   3528.2242688837332     
   3484.6530617984731     
   3441.5271784670040     
   3398.8634065439792     
   3356.6792199564898     
   3314.9927982504037     
   4046.7021837982743     
   3988.2506482312538     
   3930.1872293224142     
   3872.5291474701348     
   3815.2945576327606     
   3758.5026009800322     
   3702.1734587213518     
   3646.3284080290027     
   3590.9898799296252     
   4462.8919495255532     
   4390.6894130505143     
   4318.8371805731595     
   4247.3527914302304     
   4176.2549093880989     
   4105.5634033671531     
   4035.2994340689961     
   3965.4855468441547     
   3896.1457711292819     
   4903.7848430830427     
   4817.9004386026199     
   4732.3139224472661     
   4647.0415382644624     
   4562.1006953260430     
   4477.5100669511103     
   4393.2896981924150     
   4309.4611236846249     
   4226.0474966264037     
   2598.1001088407561     
   2598.1325120072729     
   2598.1945450240037     
   2598.2906346847444     
   2598.4252077835736     
   2598.6026911141066     
   2598.8275114703183     
   2599.1040956460029     
   2599.4368704353938     
   2630.0583479706015     
   2628.0245012610462     
   2626.0686501357700     
   2624.1952520504733     
   2622.4087788151433     
   2620.7137158309956     
   2619.1145613240751     
   2617.6158255747159     
   2616.2220301435864     
   2723.9123887250421     
   2715.9566976270521     
   2708.2012907196417     
   2700.6517659295459     
   2693.3137657214297     
   2686.1929739848151     
   2679.2951128011364     
   2672.6259390900086     
   2666.1912411358862     
   2874.2510002582280     
   2857.2263411138288     
   2840.5463875055461     
   2824.2204989040429     
   2808.2581752406027     
   2792.6690494453478     
   2777.4628792551694     
   2762.6495382660964     
   2748.2390062125605     
   3073.8018612330229     
   3045.4352266453698     
   3017.5314208281166     
   2990.1058829441099     
   2963.1744804923578     
   2936.7535036420286     
   2910.8596574196367     
   2885.5100515535146     
   2860.7221877813749     
   3314.9927982504037     
   3273.8189562109233     
   3233.1741107080338     
   3193.0800764045398     
   3153.5596076575898     
   3114.6364184692375     
   3076.3351996922484     
   3038.6816329047620     
   3001.7024003120123     
   3590.9898799296252     
   3536.1740928182926     
   3481.8985351322385     
   3428.1895509734645     
   3375.0750203273119     
   3322.5844349620656     
   3270.7489750000673     
   3219.6015854039506     
   3169.1770514481955     
   3896.1457711292819     
   3827.2961431451185     
   3758.9535316197453     
   3691.1458169102411     
   3623.9028915217887     
   3557.2568061212473     
   3491.2419246575387     
   3425.8950885501513     
   3361.2557897142156     
   4226.0474966264037     
   4143.0634983763184     
   4060.5240668206588     
   3978.4555930141246     
   3896.8866928257212     
   3815.8484102735470     
   3735.3744404853314     
   3655.5013739280416     
   3576.2689635749271     
   6308.4757128667079     
   6219.3775127338758     
   6130.4182912320630     
   6041.6041700315527     
   5952.9416259109748     
   5864.4375160061518     
   5776.0991051605379     
   5687.9340955719035     
   5599.9506589532048     
   6979.7405286291059     
   6877.7956115570187     
   6775.9587652376467     
   6674.2349388109687     
   6572.6293813038501     
   6471.1476642614198     
   6369.7957064095344     
   6268.5798005581382     
   6167.5066429805574     
   7665.2815610121579     
   7550.6593953614620     
   7436.1173751699944     
   7321.6592782886501     
   7207.2891182923941     
   7093.0111630129577     
   6978.8299548208606     
   6864.7503328510338     
   6750.7774573875640     
   8362.9921328068758     
   8235.8541320671720     
   8108.7720978049747     
   7981.7487277046930     
   7854.7868910777161     
   7727.8896427440068     
   7601.0602382711440     
   7474.3021507268650     
   7347.6190891211590     
   9071.4948171659817     
   8931.9949762101314     
   8792.5310506196347     
   8653.1048031234022     
   8513.7181100456692     
   8374.3729706761842     
   8235.0715175779260     
   8095.8160279440417     
   7956.6089361301320     
   9789.8982476675046     
   9638.1847762675261     
   9486.4914854469171     
   9334.8193804266866     
   9183.1695319196733     
   9031.5430816040353     
   8879.9412481531817     
   8728.3653338901258     
   8576.8167321419714     
   10517.642383921504     
   10353.859434326532     
   10190.085338505894     
   10026.320540505430     
   9862.5655140804392     
   9698.8207651991634     
   9535.0868348036347     
   9371.3643018589337     
   9207.6537867269617     
   11254.397636845106     
   11078.686816467263     
   10902.977974392923     
   10727.271200407748     
   10551.566591940624     
   10375.864254710712     
   10200.164303441123     
   10024.466862647489     
   9848.7720675112087     
   11999.997544366386     
   11812.499137969815     
   11625.000304735044     
   11437.500992364150     
   11250.001148559917     
   11062.500721025215     
   10874.999657463371     
   10687.497905577125     
   10499.995413069259     
   5599.9506589532048     
   5512.1574277670734     
   5424.5635897465672     
   5337.1789674055317     
   5250.0140132047436     
   5163.0798585131297     
   5076.3883669482393     
   4989.9521925243871     
   4903.7848430830427     
   6167.5066429805574     
   6066.5832738047784     
   5965.8171947986184     
   5865.2165050750509     
   5764.7898565415717     
   5664.5465003916152     
   5564.4963382078922     
   5464.6499781991306     
   5365.0187971563764     
   6750.7774573875640     
   6636.9167031279503     
   6523.1737963615515     
   6409.5549943881479     
   6296.0670009420901     
   6182.7170058282836     
   6069.5127287698197     
   5956.4624679872768     
   5843.5751541010704     
   7347.6190891211590     
   7221.0148650157525     
   7094.4935335099563     
   6968.0595894088965     
   6841.7178586102073     
   6715.4735286255418     
   6589.3321824998711     
   6463.2998365732528     
   6337.3829825949188     
   7956.6089361301320     
   7817.4527066649061     
   7678.3499546648363     
   7539.3036211549997     
   7400.3168688253400     
   7261.3931030005888     
   7122.5359950199136     
   6983.7495083542344     
   6845.0379278382670     
   8576.8167321419714     
   8425.2968488907954     
   8273.8071716891682     
   8122.3493788267997     
   7970.9252770228350     
   7819.5368137876030     
   7668.1860912356033     
   7516.8753815511400     
   7365.6071443412347     
   9207.6537867269617     
   9043.9559700764530     
   8880.2715746647264     
   8716.6013576989899     
   8552.9461344539577     
   8389.3067839219402     
   8225.6842551351601     
   8062.0795742539522     
   7898.4938525337448     
   9848.7720675112087     
   9673.0802326802404     
   9497.3917081822619     
   9321.7067009937418     
   9146.0254326709946     
   8970.3481407770923     
   8794.6750804794829     
   8619.0065263426604     
   8443.3427743450648     
   10499.995413069259     
   10312.492500935803     
   10124.989553122921     
   9937.4866117592755     
   9749.9837189736008     
   9562.4809168943884     
   9374.9782476500968     
   9187.4757533692573     
   8999.9734761797081     
   4903.7848430830427     
   4817.9004386026199     
   4732.3139224472661     
   4647.0415382644624     
   4562.1006953260430     
   4477.5100669511103     
   4393.2896981924150     
   4309.4611236846249     
   4226.0474966264037     
   5365.0187971563764     
   5265.6148300630894     
   5166.4508929784843     
   5067.5409050333737     
   4968.8998652194095     
   4870.5439539712725     
   4772.4906458510304     
   4674.7588346832190     
   4577.3689726620569     
   5843.5751541010704     
   5730.8604042021871     
   5618.3285156094807     
   5505.9905804412638     
   5393.8585999890111     
   5281.9455768471671     
   5170.2656181398515     
   5058.8340513779131     
   4947.6675547182531     
   6337.3829825949188     
   6211.5887681572367     
   6085.9248870814636     
   5960.3995168132942     
   5835.0215314248426     
   5709.8005759619646     
   5584.7471503511269     
   5459.8727043028284     
   5335.1897448955751     
   6845.0379278382670     
   6706.4060657024165     
   6567.8591342128157     
   6429.4026092519171     
   6291.0424458324605     
   6152.7851311008080     
   6014.6377444644968     
   5876.6080259769451     
   5738.7044543163074     
   7365.6071443412347     
   7214.3841021060107     
   7063.2092341086473     
   6912.0857333190206     
   6761.0170774800699     
   6610.0070613807311     
   6459.0598335977520     
   6308.1799384408323     
   6157.3723639778000     
   7898.4938525337448     
   7734.9280259949210     
   7571.3831567889983     
   7407.8607059920269     
   7244.3622677039284     
   7080.8895843553537     
   6917.4445641741722     
   6754.0293011750173     
   6590.6460981064984     
   8443.3427743450648     
   8267.6832970683645     
   8092.0275805926431     
   7916.3759832984888     
   7740.7288995723038     
   7565.0867639834851     
   7389.4500560590641     
   7213.8193057564249     
   7038.1950997550748     
   8999.9734761797081     
   8812.4697419445965     
   8624.9627974687282     
   8437.4525662934993     
   8249.9389719600294     
   8062.4219380092600     
   7874.9013879856348     
   7687.3772454431073     
   7499.8494339558183     
   4226.0474966264037     
   4143.0634983763184     
   4060.5240668206588     
   3978.4555930141246     
   3896.8866928257212     
   3815.8484102735470     
   3735.3744404853314     
   3655.5013739280416     
   3576.2689635749271     
   4577.3689726620569     
   4480.3340503030740     
   4383.6668035162666     
   4287.3900577014329     
   4191.5287989997487     
   4096.1104041931521     
   4001.1648984526223     
   3906.7252445003996     
   3812.8276671778294     
   4947.6675547182531     
   4836.7775920068671     
   4726.1750923193986     
   4615.8783268007837     
   4505.9074545664362     
   4396.2847456137233     
   4287.0348347921608     
   4178.1850116982132     
   4069.7655521916022     
   5335.1897448955751     
   5210.7085641432786     
   5086.4388483195826     
   4962.3940762308221     
   4838.5892151890303     
   4715.0409099202216     
   4591.7677003218123     
   4468.7902731745698     
   4346.1317539341871     
   5738.7044543163074     
   5600.9364905488974     
   5463.3131042739942     
   5325.8433555219990     
   5188.5373529291855     
   5051.4063935784925     
   4914.4631255378044     
   4777.7217374326110     
   4641.1981803479002     
   6157.3723639778000     
   6006.6458760755932     
   5856.0090148026784     
   5705.4672282424044     
   5555.0266046725546     
   5404.6939607657914     
   5254.4769446774180     
   5104.3841570105715     
   4954.4252933492253     
   6590.6460981064984     
   6427.3027989270831     
   6264.0073940380853     
   6100.7627898435185     
   5937.5722062777168     
   5774.4392208334866     
   5611.3678202012370     
   5448.3624610963516     
   5285.4281422315789     
   7038.1950997550748     
   6862.5836510577328     
   6686.9917444800885     
   6511.4209367154917     
   6335.8728814179030     
   6160.3493429576729     
   5984.8522126190428     
   5809.3835277532971     
   5633.9454945278812     
   7499.8494339558183     
   7312.3212581568596     
   7124.7970145486215     
   6937.2781146278994     
   6749.7659701222183     
   6562.2619932532962     
   6374.7675971877452     
   6187.2841967134154     
   5999.8132091918524     
 </DataArray>
 </PointData>
 </Piece>
 <Piece  NumberOfPoints="          5184 "  NumberOfCells="         4096 ">
 <Points>
 <DataArray  type="Float64" NumberOfComponents="3"  format="ascii" >
   5.0000000000000000        0.0000000000000000        0.0000000000000000     
   5.0781250000000000        0.0000000000000000        0.0000000000000000     
   5.1562500000000000        0.0000000000000000        0.0000000000000000     
   5.2343750000000009        0.0000000000000000        0.0000000000000000     
   5.3125000000000000        0.0000000000000000        0.0000000000000000     
   5.3906250000000000        0.0000000000000000        0.0000000000000000     
   5.4687500000000000        0.0000000000000000        0.0000000000000000     
   5.5468750000000000        0.0000000000000000        0.0000000000000000     
   5.6250000000000000        0.0000000000000000        0.0000000000000000     
   5.0000000000000000        7.8124999999999986E-002   0.0000000000000000     
   5.0781250000000018        7.8125000000000014E-002   0.0000000000000000     
   5.1562500000000009        7.8125000000000000E-002   0.0000000000000000     
   5.2343750000000009        7.8125000000000000E-002   0.0000000000000000     
   5.3125000000000000        7.8124999999999986E-002   0.0000000000000000     
   5.3906250000000000        7.8125000000000000E-002   0.0000000000000000     
   5.4687500000000000        7.8125000000000000E-002   0.0000000000000000     
   5.5468750000000000        7.8124999999999986E-002   0.0000000000000000     
   5.6250000000000009        7.8125000000000000E-002   0.0000000000000000     
   5.0000000000000000       0.15625000000000000        0.0000000000000000     
   5.0781250000000000       0.15625000000000000        0.0000000000000000     
   5.1562500000000009       0.15625000000000000        0.0000000000000000     
   5.2343750000000009       0.15625000000000003        0.0000000000000000     
   5.3125000000000000       0.15625000000000000        0.0000000000000000     
   5.3906250000000000       0.15624999999999997        0.0000000000000000     
   5.4687500000000009       0.15625000000000003        0.0000000000000000     
   5.5468750000000000       0.15624999999999997        0.0000000000000000     
   5.6250000000000009       0.15625000000000000        0.0000000000000000     
   5.0000000000000000       0.23437500000000000        0.0000000000000000     
   5.0781250000000000       0.23437500000000000        0.0000000000000000     
   5.1562499999999991       0.23437500000000000        0.0000000000000000     
   5.2343750000000000       0.23437500000000000        0.0000000000000000     
   5.3125000000000000       0.23437500000000000        0.0000000000000000     
   5.3906250000000000       0.23437500000000000        0.0000000000000000     
   5.4687500000000009       0.23437500000000000        0.0000000000000000     
   5.5468750000000000       0.23437500000000000        0.0000000000000000     
   5.6250000000000009       0.23437500000000000        0.0000000000000000     
   5.0000000000000000       0.31250000000000006        0.0000000000000000     
   5.0781250000000000       0.31250000000000000        0.0000000000000000     
   5.1562500000000000       0.31250000000000000        0.0000000000000000     
   5.2343750000000000       0.31250000000000000        0.0000000000000000     
   5.3125000000000000       0.31250000000000000        0.0000000000000000     
   5.3906250000000009       0.31250000000000006        0.0000000000000000     
   5.4687500000000009       0.31250000000000006        0.0000000000000000     
   5.5468750000000000       0.31249999999999994        0.0000000000000000     
   5.6250000000000009       0.31250000000000000        0.0000000000000000     
   5.0000000000000000       0.39062500000000006        0.0000000000000000     
   5.0781250000000000       0.39062500000000000        0.0000000000000000     
   5.1562500000000000       0.39062499999999994        0.0000000000000000     
   5.2343750000000000       0.39062500000000000        0.0000000000000000     
   5.3125000000000000       0.39062499999999994        0.0000000000000000     
   5.3906250000000000       0.39062500000000000        0.0000000000000000     
   5.4687500000000000       0.39062500000000000        0.0000000000000000     
   5.5468750000000000       0.39062499999999994        0.0000000000000000     
   5.6250000000000000       0.39062500000000006        0.0000000000000000     
   5.0000000000000000       0.46875000000000000        0.0000000000000000     
   5.0781250000000000       0.46875000000000000        0.0000000000000000     
   5.1562500000000000       0.46875000000000000        0.0000000000000000     
   5.2343750000000000       0.46875000000000000        0.0000000000000000     
   5.3125000000000000       0.46875000000000000        0.0000000000000000     
   5.3906250000000000       0.46875000000000000        0.0000000000000000     
   5.4687500000000000       0.46875000000000000        0.0000000000000000     
   5.5468750000000000       0.46875000000000000        0.0000000000000000     
   5.6250000000000000       0.46875000000000000        0.0000000000000000     
   4.9999999999999991       0.54687499999999989        0.0000000000000000     
   5.0781249999999991       0.54687499999999989        0.0000000000000000     
   5.1562500000000000       0.54687500000000000        0.0000000000000000     
   5.2343750000000009       0.54687500000000000        0.0000000000000000     
   5.3125000000000000       0.54687500000000011        0.0000000000000000     
   5.3906250000000000       0.54687499999999989        0.0000000000000000     
   5.4687500000000009       0.54687500000000011        0.0000000000000000     
   5.5468750000000000       0.54687500000000011        0.0000000000000000     
   5.6250000000000000       0.54687500000000000        0.0000000000000000     
   5.0000000000000000       0.62500000000000011        0.0000000000000000     
   5.0781250000000009       0.62500000000000000        0.0000000000000000     
   5.1562500000000000       0.62500000000000000        0.0000000000000000     
   5.2343750000000000       0.62500000000000011        0.0000000000000000     
   5.3125000000000009       0.62499999999999989        0.0000000000000000     
   5.3906250000000009       0.62500000000000011        0.0000000000000000     
   5.4687500000000000       0.62500000000000011        0.0000000000000000     
   5.5468750000000000       0.62499999999999989        0.0000000000000000     
   5.6250000000000009       0.62500000000000022        0.0000000000000000     
   5.6250000000000000        0.0000000000000000        0.0000000000000000     
   5.7031250000000000        0.0000000000000000        0.0000000000000000     
   5.7812500000000000        0.0000000000000000        0.0000000000000000     
   5.8593750000000000        0.0000000000000000        0.0000000000000000     
   5.9375000000000000        0.0000000000000000        0.0000000000000000     
   6.0156250000000009        0.0000000000000000        0.0000000000000000     
   6.0937499999999991        0.0000000000000000        0.0000000000000000     
   6.1718750000000000        0.0000000000000000        0.0000000000000000     
   6.2500000000000000        0.0000000000000000        0.0000000000000000     
   5.6250000000000009        7.8125000000000000E-002   0.0000000000000000     
   5.7031249999999991        7.8124999999999986E-002   0.0000000000000000     
   5.7812500000000000        7.8125000000000000E-002   0.0000000000000000     
   5.8593750000000009        7.8125000000000000E-002   0.0000000000000000     
   5.9375000000000000        7.8124999999999986E-002   0.0000000000000000     
   6.0156250000000000        7.8125000000000000E-002   0.0000000000000000     
   6.0937500000000009        7.8125000000000014E-002   0.0000000000000000     
   6.1718749999999991        7.8124999999999986E-002   0.0000000000000000     
   6.2500000000000018        7.8125000000000000E-002   0.0000000000000000     
   5.6250000000000009       0.15625000000000000        0.0000000000000000     
   5.7031250000000009       0.15625000000000003        0.0000000000000000     
   5.7812500000000000       0.15625000000000000        0.0000000000000000     
   5.8593750000000000       0.15625000000000000        0.0000000000000000     
   5.9375000000000009       0.15625000000000000        0.0000000000000000     
   6.0156250000000000       0.15625000000000000        0.0000000000000000     
   6.0937500000000009       0.15625000000000003        0.0000000000000000     
   6.1718750000000000       0.15624999999999997        0.0000000000000000     
   6.2500000000000000       0.15625000000000000        0.0000000000000000     
   5.6250000000000009       0.23437500000000000        0.0000000000000000     
   5.7031250000000009       0.23437500000000000        0.0000000000000000     
   5.7812500000000000       0.23437500000000003        0.0000000000000000     
   5.8593750000000000       0.23437500000000000        0.0000000000000000     
   5.9375000000000018       0.23437500000000000        0.0000000000000000     
   6.0156250000000009       0.23437500000000003        0.0000000000000000     
   6.0937500000000000       0.23437500000000000        0.0000000000000000     
   6.1718750000000009       0.23437500000000000        0.0000000000000000     
   6.2500000000000018       0.23437500000000006        0.0000000000000000     
   5.6250000000000009       0.31250000000000000        0.0000000000000000     
   5.7031249999999991       0.31249999999999994        0.0000000000000000     
   5.7812500000000000       0.31250000000000000        0.0000000000000000     
   5.8593750000000009       0.31250000000000000        0.0000000000000000     
   5.9374999999999991       0.31250000000000000        0.0000000000000000     
   6.0156250000000000       0.31250000000000000        0.0000000000000000     
   6.0937500000000009       0.31250000000000006        0.0000000000000000     
   6.1718749999999991       0.31250000000000000        0.0000000000000000     
   6.2500000000000009       0.31250000000000000        0.0000000000000000     
   5.6250000000000000       0.39062500000000006        0.0000000000000000     
   5.7031250000000009       0.39062500000000000        0.0000000000000000     
   5.7812500000000009       0.39062500000000011        0.0000000000000000     
   5.8593750000000009       0.39062500000000000        0.0000000000000000     
   5.9375000000000000       0.39062500000000000        0.0000000000000000     
   6.0156250000000009       0.39062500000000011        0.0000000000000000     
   6.0937500000000009       0.39062500000000006        0.0000000000000000     
   6.1718750000000000       0.39062500000000000        0.0000000000000000     
   6.2500000000000009       0.39062500000000011        0.0000000000000000     
   5.6250000000000000       0.46875000000000000        0.0000000000000000     
   5.7031250000000009       0.46875000000000000        0.0000000000000000     
   5.7812500000000000       0.46875000000000000        0.0000000000000000     
   5.8593750000000000       0.46875000000000000        0.0000000000000000     
   5.9375000000000009       0.46875000000000000        0.0000000000000000     
   6.0156250000000009       0.46875000000000006        0.0000000000000000     
   6.0937500000000000       0.46875000000000000        0.0000000000000000     
   6.1718750000000009       0.46875000000000000        0.0000000000000000     
   6.2500000000000009       0.46875000000000006        0.0000000000000000     
   5.6250000000000000       0.54687500000000000        0.0000000000000000     
   5.7031249999999991       0.54687500000000000        0.0000000000000000     
   5.7812500000000000       0.54687500000000000        0.0000000000000000     
   5.8593750000000000       0.54687500000000000        0.0000000000000000     
   5.9374999999999991       0.54687500000000011        0.0000000000000000     
   6.0156250000000000       0.54687499999999989        0.0000000000000000     
   6.0937500000000009       0.54687500000000000        0.0000000000000000     
   6.1718749999999991       0.54687500000000000        0.0000000000000000     
   6.2499999999999991       0.54687499999999989        0.0000000000000000     
   5.6250000000000009       0.62500000000000022        0.0000000000000000     
   5.7031250000000009       0.62499999999999989        0.0000000000000000     
   5.7812500000000009       0.62500000000000011        0.0000000000000000     
   5.8593750000000000       0.62500000000000000        0.0000000000000000     
   5.9375000000000018       0.62499999999999989        0.0000000000000000     
   6.0156250000000000       0.62500000000000011        0.0000000000000000     
   6.0937500000000000       0.62500000000000011        0.0000000000000000     
   6.1718750000000018       0.62499999999999989        0.0000000000000000     
   6.2500000000000000       0.62500000000000011        0.0000000000000000     
   6.2500000000000000        0.0000000000000000        0.0000000000000000     
   6.3281249999999991        0.0000000000000000        0.0000000000000000     
   6.4062500000000000        0.0000000000000000        0.0000000000000000     
   6.4843750000000009        0.0000000000000000        0.0000000000000000     
   6.5625000000000009        0.0000000000000000        0.0000000000000000     
   6.6406250000000009        0.0000000000000000        0.0000000000000000     
   6.7187500000000009        0.0000000000000000        0.0000000000000000     
   6.7968750000000000        0.0000000000000000        0.0000000000000000     
   6.8750000000000009        0.0000000000000000        0.0000000000000000     
   6.2500000000000018        7.8125000000000000E-002   0.0000000000000000     
   6.3281250000000009        7.8125000000000000E-002   0.0000000000000000     
   6.4062500000000018        7.8125000000000000E-002   0.0000000000000000     
   6.4843750000000000        7.8125000000000000E-002   0.0000000000000000     
   6.5625000000000000        7.8125000000000000E-002   0.0000000000000000     
   6.6406250000000000        7.8125000000000000E-002   0.0000000000000000     
   6.7187500000000018        7.8125000000000014E-002   0.0000000000000000     
   6.7968750000000009        7.8125000000000000E-002   0.0000000000000000     
   6.8750000000000018        7.8125000000000000E-002   0.0000000000000000     
   6.2500000000000000       0.15625000000000000        0.0000000000000000     
   6.3281250000000000       0.15625000000000003        0.0000000000000000     
   6.4062500000000000       0.15625000000000000        0.0000000000000000     
   6.4843750000000000       0.15625000000000000        0.0000000000000000     
   6.5625000000000009       0.15625000000000003        0.0000000000000000     
   6.6406250000000000       0.15625000000000000        0.0000000000000000     
   6.7187500000000000       0.15625000000000003        0.0000000000000000     
   6.7968750000000000       0.15625000000000003        0.0000000000000000     
   6.8750000000000000       0.15625000000000000        0.0000000000000000     
   6.2500000000000018       0.23437500000000006        0.0000000000000000     
   6.3281250000000000       0.23437500000000000        0.0000000000000000     
   6.4062500000000000       0.23437500000000003        0.0000000000000000     
   6.4843750000000009       0.23437500000000000        0.0000000000000000     
   6.5625000000000009       0.23437500000000000        0.0000000000000000     
   6.6406250000000009       0.23437500000000003        0.0000000000000000     
   6.7187500000000009       0.23437500000000003        0.0000000000000000     
   6.7968750000000000       0.23437500000000000        0.0000000000000000     
   6.8750000000000009       0.23437500000000006        0.0000000000000000     
   6.2500000000000009       0.31250000000000000        0.0000000000000000     
   6.3281250000000000       0.31250000000000006        0.0000000000000000     
   6.4062500000000000       0.31250000000000000        0.0000000000000000     
   6.4843749999999991       0.31249999999999989        0.0000000000000000     
   6.5625000000000018       0.31250000000000011        0.0000000000000000     
   6.6406250000000000       0.31250000000000000        0.0000000000000000     
   6.7187499999999991       0.31249999999999989        0.0000000000000000     
   6.7968750000000018       0.31250000000000011        0.0000000000000000     
   6.8750000000000000       0.31250000000000000        0.0000000000000000     
   6.2500000000000009       0.39062500000000011        0.0000000000000000     
   6.3281250000000009       0.39062499999999994        0.0000000000000000     
   6.4062500000000000       0.39062500000000011        0.0000000000000000     
   6.4843750000000009       0.39062500000000006        0.0000000000000000     
   6.5625000000000009       0.39062499999999994        0.0000000000000000     
   6.6406250000000009       0.39062500000000011        0.0000000000000000     
   6.7187500000000009       0.39062500000000011        0.0000000000000000     
   6.7968749999999982       0.39062499999999994        0.0000000000000000     
   6.8750000000000009       0.39062500000000011        0.0000000000000000     
   6.2500000000000009       0.46875000000000006        0.0000000000000000     
   6.3281250000000000       0.46875000000000000        0.0000000000000000     
   6.4062500000000000       0.46875000000000000        0.0000000000000000     
   6.4843750000000000       0.46875000000000000        0.0000000000000000     
   6.5625000000000000       0.46874999999999994        0.0000000000000000     
   6.6406250000000009       0.46875000000000006        0.0000000000000000     
   6.7187500000000000       0.46875000000000000        0.0000000000000000     
   6.7968750000000000       0.46875000000000000        0.0000000000000000     
   6.8750000000000009       0.46875000000000006        0.0000000000000000     
   6.2499999999999991       0.54687499999999989        0.0000000000000000     
   6.3281250000000027       0.54687500000000022        0.0000000000000000     
   6.4062500000000000       0.54687500000000000        0.0000000000000000     
   6.4843750000000000       0.54687500000000000        0.0000000000000000     
   6.5625000000000018       0.54687500000000011        0.0000000000000000     
   6.6406250000000000       0.54687499999999989        0.0000000000000000     
   6.7187500000000000       0.54687500000000000        0.0000000000000000     
   6.7968750000000027       0.54687500000000022        0.0000000000000000     
   6.8749999999999982       0.54687499999999989        0.0000000000000000     
   6.2500000000000000       0.62500000000000011        0.0000000000000000     
   6.3281250000000000       0.62500000000000000        0.0000000000000000     
   6.4062500000000009       0.62500000000000022        0.0000000000000000     
   6.4843750000000000       0.62500000000000000        0.0000000000000000     
   6.5625000000000000       0.62500000000000000        0.0000000000000000     
   6.6406250000000009       0.62500000000000011        0.0000000000000000     
   6.7187500000000000       0.62500000000000000        0.0000000000000000     
   6.7968750000000000       0.62500000000000011        0.0000000000000000     
   6.8750000000000009       0.62500000000000011        0.0000000000000000     
   6.8750000000000009        0.0000000000000000        0.0000000000000000     
   6.9531249999999991        0.0000000000000000        0.0000000000000000     
   7.0312499999999991        0.0000000000000000        0.0000000000000000     
   7.1093750000000009        0.0000000000000000        0.0000000000000000     
   7.1875000000000009        0.0000000000000000        0.0000000000000000     
   7.2656250000000018        0.0000000000000000        0.0000000000000000     
   7.3437500000000009        0.0000000000000000        0.0000000000000000     
   7.4218749999999991        0.0000000000000000        0.0000000000000000     
   7.5000000000000018        0.0000000000000000        0.0000000000000000     
   6.8750000000000018        7.8125000000000000E-002   0.0000000000000000     
   6.9531250000000009        7.8125000000000000E-002   0.0000000000000000     
   7.0312500000000018        7.8125000000000000E-002   0.0000000000000000     
   7.1093750000000000        7.8125000000000000E-002   0.0000000000000000     
   7.1875000000000000        7.8125000000000000E-002   0.0000000000000000     
   7.2656250000000009        7.8125000000000000E-002   0.0000000000000000     
   7.3437500000000018        7.8125000000000014E-002   0.0000000000000000     
   7.4218750000000018        7.8125000000000000E-002   0.0000000000000000     
   7.5000000000000009        7.8125000000000000E-002   0.0000000000000000     
   6.8750000000000000       0.15625000000000000        0.0000000000000000     
   6.9531250000000000       0.15625000000000003        0.0000000000000000     
   7.0312500000000000       0.15625000000000000        0.0000000000000000     
   7.1093750000000000       0.15625000000000000        0.0000000000000000     
   7.1875000000000000       0.15625000000000003        0.0000000000000000     
   7.2656250000000000       0.15625000000000000        0.0000000000000000     
   7.3437500000000000       0.15625000000000003        0.0000000000000000     
   7.4218750000000000       0.15625000000000003        0.0000000000000000     
   7.5000000000000000       0.15625000000000000        0.0000000000000000     
   6.8750000000000009       0.23437500000000006        0.0000000000000000     
   6.9531249999999991       0.23437500000000000        0.0000000000000000     
   7.0312500000000000       0.23437500000000003        0.0000000000000000     
   7.1093750000000009       0.23437500000000000        0.0000000000000000     
   7.1874999999999991       0.23437500000000000        0.0000000000000000     
   7.2656250000000000       0.23437500000000003        0.0000000000000000     
   7.3437500000000000       0.23437500000000003        0.0000000000000000     
   7.4218749999999991       0.23437500000000000        0.0000000000000000     
   7.5000000000000009       0.23437500000000006        0.0000000000000000     
   6.8750000000000000       0.31250000000000000        0.0000000000000000     
   6.9531250000000018       0.31250000000000006        0.0000000000000000     
   7.0312500000000000       0.31250000000000000        0.0000000000000000     
   7.1093749999999982       0.31249999999999989        0.0000000000000000     
   7.1875000000000027       0.31250000000000011        0.0000000000000000     
   7.2656250000000009       0.31250000000000000        0.0000000000000000     
   7.3437499999999982       0.31249999999999989        0.0000000000000000     
   7.4218750000000027       0.31250000000000011        0.0000000000000000     
   7.5000000000000009       0.31250000000000000        0.0000000000000000     
   6.8750000000000009       0.39062500000000011        0.0000000000000000     
   6.9531250000000009       0.39062499999999994        0.0000000000000000     
   7.0312500000000009       0.39062500000000011        0.0000000000000000     
   7.1093750000000009       0.39062500000000006        0.0000000000000000     
   7.1875000000000000       0.39062499999999994        0.0000000000000000     
   7.2656250000000000       0.39062500000000011        0.0000000000000000     
   7.3437500000000000       0.39062500000000011        0.0000000000000000     
   7.4218749999999982       0.39062499999999994        0.0000000000000000     
   7.5000000000000009       0.39062500000000011        0.0000000000000000     
   6.8750000000000009       0.46875000000000006        0.0000000000000000     
   6.9531249999999991       0.46875000000000000        0.0000000000000000     
   7.0312500000000000       0.46875000000000000        0.0000000000000000     
   7.1093750000000000       0.46875000000000000        0.0000000000000000     
   7.1874999999999991       0.46874999999999994        0.0000000000000000     
   7.2656250000000009       0.46875000000000006        0.0000000000000000     
   7.3437500000000009       0.46875000000000000        0.0000000000000000     
   7.4218749999999991       0.46875000000000000        0.0000000000000000     
   7.5000000000000009       0.46875000000000006        0.0000000000000000     
   6.8749999999999982       0.54687499999999989        0.0000000000000000     
   6.9531250000000036       0.54687500000000022        0.0000000000000000     
   7.0312500000000000       0.54687500000000000        0.0000000000000000     
   7.1093750000000000       0.54687500000000000        0.0000000000000000     
   7.1875000000000036       0.54687500000000011        0.0000000000000000     
   7.2656250000000000       0.54687499999999989        0.0000000000000000     
   7.3437500000000000       0.54687500000000000        0.0000000000000000     
   7.4218750000000044       0.54687500000000022        0.0000000000000000     
   7.4999999999999991       0.54687499999999989        0.0000000000000000     
   6.8750000000000009       0.62500000000000011        0.0000000000000000     
   6.9531249999999991       0.62500000000000000        0.0000000000000000     
   7.0312500000000018       0.62500000000000022        0.0000000000000000     
   7.1093750000000000       0.62500000000000000        0.0000000000000000     
   7.1874999999999991       0.62500000000000000        0.0000000000000000     
   7.2656250000000000       0.62500000000000011        0.0000000000000000     
   7.3437500000000000       0.62500000000000000        0.0000000000000000     
   7.4218749999999991       0.62500000000000011        0.0000000000000000     
   7.5000000000000009       0.62500000000000011        0.0000000000000000     
   7.5000000000000018        0.0000000000000000        0.0000000000000000     
   7.5781250000000000        0.0000000000000000        0.0000000000000000     
   7.6562500000000000        0.0000000000000000        0.0000000000000000     
   7.7343750000000009        0.0000000000000000        0.0000000000000000     
   7.8125000000000009        0.0000000000000000        0.0000000000000000     
   7.8906250000000000        0.0000000000000000        0.0000000000000000     
   7.9687500000000000        0.0000000000000000        0.0000000000000000     
   8.0468749999999982        0.0000000000000000        0.0000000000000000     
   8.1250000000000000        0.0000000000000000        0.0000000000000000     
   7.5000000000000009        7.8125000000000000E-002   0.0000000000000000     
   7.5781250000000009        7.8125000000000000E-002   0.0000000000000000     
   7.6562500000000009        7.8125000000000000E-002   0.0000000000000000     
   7.7343750000000009        7.8125000000000000E-002   0.0000000000000000     
   7.8125000000000009        7.8125000000000000E-002   0.0000000000000000     
   7.8906250000000000        7.8125000000000000E-002   0.0000000000000000     
   7.9687500000000009        7.8125000000000014E-002   0.0000000000000000     
   8.0468750000000018        7.8125000000000000E-002   0.0000000000000000     
   8.1250000000000018        7.8125000000000000E-002   0.0000000000000000     
   7.5000000000000000       0.15625000000000000        0.0000000000000000     
   7.5781250000000000       0.15625000000000003        0.0000000000000000     
   7.6562500000000000       0.15625000000000000        0.0000000000000000     
   7.7343750000000000       0.15625000000000000        0.0000000000000000     
   7.8125000000000009       0.15625000000000003        0.0000000000000000     
   7.8906250000000009       0.15625000000000000        0.0000000000000000     
   7.9687500000000000       0.15625000000000003        0.0000000000000000     
   8.0468750000000018       0.15625000000000003        0.0000000000000000     
   8.1250000000000000       0.15625000000000000        0.0000000000000000     
   7.5000000000000009       0.23437500000000006        0.0000000000000000     
   7.5781250000000009       0.23437500000000000        0.0000000000000000     
   7.6562500000000000       0.23437500000000003        0.0000000000000000     
   7.7343750000000009       0.23437500000000000        0.0000000000000000     
   7.8125000000000018       0.23437500000000000        0.0000000000000000     
   7.8906250000000009       0.23437500000000003        0.0000000000000000     
   7.9687500000000009       0.23437500000000003        0.0000000000000000     
   8.0468750000000000       0.23437500000000000        0.0000000000000000     
   8.1250000000000018       0.23437500000000006        0.0000000000000000     
   7.5000000000000009       0.31250000000000000        0.0000000000000000     
   7.5781250000000000       0.31250000000000006        0.0000000000000000     
   7.6562500000000000       0.31250000000000000        0.0000000000000000     
   7.7343749999999991       0.31249999999999989        0.0000000000000000     
   7.8125000000000009       0.31250000000000011        0.0000000000000000     
   7.8906250000000009       0.31250000000000000        0.0000000000000000     
   7.9687499999999991       0.31249999999999989        0.0000000000000000     
   8.0468750000000036       0.31250000000000011        0.0000000000000000     
   8.1250000000000018       0.31250000000000000        0.0000000000000000     
   7.5000000000000009       0.39062500000000011        0.0000000000000000     
   7.5781250000000009       0.39062499999999994        0.0000000000000000     
   7.6562500000000018       0.39062500000000011        0.0000000000000000     
   7.7343750000000009       0.39062500000000006        0.0000000000000000     
   7.8125000000000009       0.39062499999999994        0.0000000000000000     
   7.8906250000000018       0.39062500000000011        0.0000000000000000     
   7.9687500000000009       0.39062500000000011        0.0000000000000000     
   8.0468750000000000       0.39062499999999994        0.0000000000000000     
   8.1250000000000018       0.39062500000000011        0.0000000000000000     
   7.5000000000000009       0.46875000000000006        0.0000000000000000     
   7.5781250000000009       0.46875000000000000        0.0000000000000000     
   7.6562500000000009       0.46875000000000000        0.0000000000000000     
   7.7343750000000009       0.46875000000000000        0.0000000000000000     
   7.8125000000000009       0.46874999999999994        0.0000000000000000     
   7.8906250000000018       0.46875000000000006        0.0000000000000000     
   7.9687500000000000       0.46875000000000000        0.0000000000000000     
   8.0468750000000000       0.46875000000000000        0.0000000000000000     
   8.1250000000000018       0.46875000000000006        0.0000000000000000     
   7.4999999999999991       0.54687499999999989        0.0000000000000000     
   7.5781250000000000       0.54687500000000022        0.0000000000000000     
   7.6562500000000000       0.54687500000000000        0.0000000000000000     
   7.7343750000000009       0.54687500000000000        0.0000000000000000     
   7.8125000000000000       0.54687500000000011        0.0000000000000000     
   7.8906250000000009       0.54687499999999989        0.0000000000000000     
   7.9687500000000009       0.54687500000000000        0.0000000000000000     
   8.0468750000000053       0.54687500000000022        0.0000000000000000     
   8.1250000000000000       0.54687499999999989        0.0000000000000000     
   7.5000000000000009       0.62500000000000011        0.0000000000000000     
   7.5781250000000018       0.62500000000000000        0.0000000000000000     
   7.6562500000000018       0.62500000000000022        0.0000000000000000     
   7.7343749999999991       0.62500000000000000        0.0000000000000000     
   7.8125000000000009       0.62500000000000000        0.0000000000000000     
   7.8906250000000009       0.62500000000000011        0.0000000000000000     
   7.9687499999999991       0.62500000000000000        0.0000000000000000     
   8.0468750000000018       0.62500000000000011        0.0000000000000000     
   8.1250000000000000       0.62500000000000011        0.0000000000000000     
   8.1250000000000000        0.0000000000000000        0.0000000000000000     
   8.2031250000000000        0.0000000000000000        0.0000000000000000     
   8.2812500000000000        0.0000000000000000        0.0000000000000000     
   8.3593750000000000        0.0000000000000000        0.0000000000000000     
   8.4375000000000018        0.0000000000000000        0.0000000000000000     
   8.5156250000000018        0.0000000000000000        0.0000000000000000     
   8.5937500000000000        0.0000000000000000        0.0000000000000000     
   8.6718750000000000        0.0000000000000000        0.0000000000000000     
   8.7500000000000000        0.0000000000000000        0.0000000000000000     
   8.1250000000000018        7.8125000000000000E-002   0.0000000000000000     
   8.2031250000000000        7.8125000000000000E-002   0.0000000000000000     
   8.2812500000000018        7.8125000000000000E-002   0.0000000000000000     
   8.3593750000000018        7.8125000000000000E-002   0.0000000000000000     
   8.4375000000000000        7.8125000000000000E-002   0.0000000000000000     
   8.5156250000000018        7.8125000000000000E-002   0.0000000000000000     
   8.5937500000000018        7.8125000000000014E-002   0.0000000000000000     
   8.6718750000000018        7.8125000000000000E-002   0.0000000000000000     
   8.7500000000000018        7.8125000000000000E-002   0.0000000000000000     
   8.1250000000000000       0.15625000000000000        0.0000000000000000     
   8.2031250000000000       0.15625000000000003        0.0000000000000000     
   8.2812500000000000       0.15625000000000000        0.0000000000000000     
   8.3593750000000018       0.15625000000000000        0.0000000000000000     
   8.4375000000000018       0.15625000000000003        0.0000000000000000     
   8.5156250000000018       0.15625000000000000        0.0000000000000000     
   8.5937500000000000       0.15625000000000003        0.0000000000000000     
   8.6718750000000018       0.15625000000000003        0.0000000000000000     
   8.7500000000000018       0.15625000000000000        0.0000000000000000     
   8.1250000000000018       0.23437500000000006        0.0000000000000000     
   8.2031250000000000       0.23437500000000000        0.0000000000000000     
   8.2812500000000000       0.23437500000000003        0.0000000000000000     
   8.3593750000000018       0.23437500000000000        0.0000000000000000     
   8.4375000000000018       0.23437500000000000        0.0000000000000000     
   8.5156250000000018       0.23437500000000003        0.0000000000000000     
   8.5937500000000000       0.23437500000000003        0.0000000000000000     
   8.6718750000000000       0.23437500000000000        0.0000000000000000     
   8.7500000000000018       0.23437500000000006        0.0000000000000000     
   8.1250000000000018       0.31250000000000000        0.0000000000000000     
   8.2031250000000000       0.31250000000000006        0.0000000000000000     
   8.2812500000000018       0.31250000000000000        0.0000000000000000     
   8.3593750000000000       0.31249999999999989        0.0000000000000000     
   8.4375000000000018       0.31250000000000011        0.0000000000000000     
   8.5156250000000018       0.31250000000000000        0.0000000000000000     
   8.5937500000000000       0.31249999999999989        0.0000000000000000     
   8.6718750000000036       0.31250000000000011        0.0000000000000000     
   8.7500000000000018       0.31250000000000000        0.0000000000000000     
   8.1250000000000018       0.39062500000000011        0.0000000000000000     
   8.2031250000000018       0.39062499999999994        0.0000000000000000     
   8.2812500000000018       0.39062500000000011        0.0000000000000000     
   8.3593750000000000       0.39062500000000006        0.0000000000000000     
   8.4375000000000018       0.39062499999999994        0.0000000000000000     
   8.5156250000000018       0.39062500000000011        0.0000000000000000     
   8.5937500000000000       0.39062500000000011        0.0000000000000000     
   8.6718750000000000       0.39062499999999994        0.0000000000000000     
   8.7500000000000000       0.39062500000000011        0.0000000000000000     
   8.1250000000000018       0.46875000000000006        0.0000000000000000     
   8.2031250000000000       0.46875000000000000        0.0000000000000000     
   8.2812500000000000       0.46875000000000000        0.0000000000000000     
   8.3593750000000000       0.46875000000000000        0.0000000000000000     
   8.4375000000000000       0.46874999999999994        0.0000000000000000     
   8.5156250000000018       0.46875000000000006        0.0000000000000000     
   8.5937500000000000       0.46875000000000000        0.0000000000000000     
   8.6718750000000000       0.46875000000000000        0.0000000000000000     
   8.7500000000000018       0.46875000000000006        0.0000000000000000     
   8.1250000000000000       0.54687499999999989        0.0000000000000000     
   8.2031250000000036       0.54687500000000022        0.0000000000000000     
   8.2812500000000000       0.54687500000000000        0.0000000000000000     
   8.3593750000000000       0.54687500000000000        0.0000000000000000     
   8.4375000000000018       0.54687500000000011        0.0000000000000000     
   8.5156250000000000       0.54687499999999989        0.0000000000000000     
   8.5937500000000000       0.54687500000000000        0.0000000000000000     
   8.6718750000000036       0.54687500000000022        0.0000000000000000     
   8.7500000000000000       0.54687499999999989        0.0000000000000000     
   8.1250000000000000       0.62500000000000011        0.0000000000000000     
   8.2031250000000018       0.62500000000000000        0.0000000000000000     
   8.2812500000000036       0.62500000000000022        0.0000000000000000     
   8.3593750000000018       0.62500000000000000        0.0000000000000000     
   8.4375000000000000       0.62500000000000000        0.0000000000000000     
   8.5156250000000000       0.62500000000000011        0.0000000000000000     
   8.5937500000000000       0.62500000000000000        0.0000000000000000     
   8.6718750000000000       0.62500000000000011        0.0000000000000000     
   8.7500000000000000       0.62500000000000011        0.0000000000000000     
   8.7500000000000000        0.0000000000000000        0.0000000000000000     
   8.8281250000000000        0.0000000000000000        0.0000000000000000     
   8.9062500000000000        0.0000000000000000        0.0000000000000000     
   8.9843750000000018        0.0000000000000000        0.0000000000000000     
   9.0625000000000000        0.0000000000000000        0.0000000000000000     
   9.1406250000000000        0.0000000000000000        0.0000000000000000     
   9.2187500000000000        0.0000000000000000        0.0000000000000000     
   9.2968750000000000        0.0000000000000000        0.0000000000000000     
   9.3750000000000000        0.0000000000000000        0.0000000000000000     
   8.7500000000000018        7.8125000000000000E-002   0.0000000000000000     
   8.8281250000000000        7.8125000000000000E-002   0.0000000000000000     
   8.9062500000000000        7.8124999999999986E-002   0.0000000000000000     
   8.9843750000000018        7.8125000000000000E-002   0.0000000000000000     
   9.0625000000000018        7.8125000000000000E-002   0.0000000000000000     
   9.1406250000000000        7.8125000000000000E-002   0.0000000000000000     
   9.2187500000000018        7.8125000000000000E-002   0.0000000000000000     
   9.2968750000000018        7.8125000000000000E-002   0.0000000000000000     
   9.3750000000000018        7.8125000000000000E-002   0.0000000000000000     
   8.7500000000000018       0.15625000000000000        0.0000000000000000     
   8.8281250000000018       0.15625000000000003        0.0000000000000000     
   8.9062500000000000       0.15625000000000000        0.0000000000000000     
   8.9843750000000018       0.15625000000000000        0.0000000000000000     
   9.0625000000000018       0.15625000000000003        0.0000000000000000     
   9.1406250000000018       0.15625000000000000        0.0000000000000000     
   9.2187500000000018       0.15624999999999997        0.0000000000000000     
   9.2968750000000018       0.15625000000000003        0.0000000000000000     
   9.3750000000000000       0.15625000000000000        0.0000000000000000     
   8.7500000000000018       0.23437500000000006        0.0000000000000000     
   8.8281250000000000       0.23437500000000000        0.0000000000000000     
   8.9062500000000000       0.23437500000000000        0.0000000000000000     
   8.9843750000000018       0.23437500000000000        0.0000000000000000     
   9.0625000000000018       0.23437500000000000        0.0000000000000000     
   9.1406250000000036       0.23437500000000006        0.0000000000000000     
   9.2187500000000000       0.23437500000000003        0.0000000000000000     
   9.2968750000000000       0.23437500000000000        0.0000000000000000     
   9.3750000000000036       0.23437500000000006        0.0000000000000000     
   8.7500000000000018       0.31250000000000000        0.0000000000000000     
   8.8281250000000018       0.31250000000000011        0.0000000000000000     
   8.9062500000000000       0.31250000000000000        0.0000000000000000     
   8.9843749999999982       0.31249999999999989        0.0000000000000000     
   9.0625000000000018       0.31250000000000011        0.0000000000000000     
   9.1406250000000000       0.31250000000000000        0.0000000000000000     
   9.2187500000000000       0.31249999999999989        0.0000000000000000     
   9.2968750000000000       0.31250000000000011        0.0000000000000000     
   9.3750000000000000       0.31250000000000000        0.0000000000000000     
   8.7500000000000000       0.39062500000000011        0.0000000000000000     
   8.8281250000000018       0.39062500000000000        0.0000000000000000     
   8.9062500000000018       0.39062500000000000        0.0000000000000000     
   8.9843750000000018       0.39062500000000006        0.0000000000000000     
   9.0625000000000036       0.39062500000000006        0.0000000000000000     
   9.1406250000000018       0.39062500000000006        0.0000000000000000     
   9.2187500000000000       0.39062500000000011        0.0000000000000000     
   9.2968750000000018       0.39062500000000000        0.0000000000000000     
   9.3750000000000018       0.39062500000000011        0.0000000000000000     
   8.7500000000000018       0.46875000000000006        0.0000000000000000     
   8.8281250000000018       0.46875000000000000        0.0000000000000000     
   8.9062500000000000       0.46875000000000000        0.0000000000000000     
   8.9843750000000000       0.46875000000000000        0.0000000000000000     
   9.0625000000000018       0.46875000000000000        0.0000000000000000     
   9.1406250000000000       0.46875000000000000        0.0000000000000000     
   9.2187500000000000       0.46875000000000000        0.0000000000000000     
   9.2968750000000018       0.46875000000000000        0.0000000000000000     
   9.3750000000000000       0.46875000000000000        0.0000000000000000     
   8.7500000000000000       0.54687499999999989        0.0000000000000000     
   8.8281249999999982       0.54687500000000011        0.0000000000000000     
   8.9062500000000000       0.54687500000000011        0.0000000000000000     
   8.9843750000000018       0.54687500000000000        0.0000000000000000     
   9.0624999999999982       0.54687500000000011        0.0000000000000000     
   9.1406250000000036       0.54687500000000011        0.0000000000000000     
   9.2187500000000018       0.54687500000000000        0.0000000000000000     
   9.2968749999999982       0.54687500000000011        0.0000000000000000     
   9.3750000000000000       0.54687500000000000        0.0000000000000000     
   8.7500000000000000       0.62500000000000011        0.0000000000000000     
   8.8281250000000018       0.62500000000000000        0.0000000000000000     
   8.9062500000000018       0.62500000000000011        0.0000000000000000     
   8.9843750000000000       0.62500000000000000        0.0000000000000000     
   9.0625000000000018       0.62500000000000000        0.0000000000000000     
   9.1406250000000018       0.62499999999999989        0.0000000000000000     
   9.2187500000000000       0.62500000000000000        0.0000000000000000     
   9.2968750000000018       0.62500000000000000        0.0000000000000000     
   9.3750000000000036       0.62500000000000022        0.0000000000000000     
   9.3750000000000000        0.0000000000000000        0.0000000000000000     
   9.4531250000000018        0.0000000000000000        0.0000000000000000     
   9.5312500000000000        0.0000000000000000        0.0000000000000000     
   9.6093750000000018        0.0000000000000000        0.0000000000000000     
   9.6875000000000000        0.0000000000000000        0.0000000000000000     
   9.7656250000000018        0.0000000000000000        0.0000000000000000     
   9.8437500000000018        0.0000000000000000        0.0000000000000000     
   9.9218749999999982        0.0000000000000000        0.0000000000000000     
   10.000000000000000        0.0000000000000000        0.0000000000000000     
   9.3750000000000018        7.8125000000000000E-002   0.0000000000000000     
   9.4531250000000018        7.8125000000000000E-002   0.0000000000000000     
   9.5312500000000000        7.8125000000000000E-002   0.0000000000000000     
   9.6093750000000018        7.8125000000000014E-002   0.0000000000000000     
   9.6875000000000018        7.8125000000000000E-002   0.0000000000000000     
   9.7656250000000000        7.8125000000000000E-002   0.0000000000000000     
   9.8437499999999982        7.8125000000000000E-002   0.0000000000000000     
   9.9218750000000000        7.8124999999999986E-002   0.0000000000000000     
   10.000000000000000        7.8124999999999986E-002   0.0000000000000000     
   9.3750000000000000       0.15625000000000000        0.0000000000000000     
   9.4531250000000018       0.15625000000000000        0.0000000000000000     
   9.5312500000000000       0.15625000000000000        0.0000000000000000     
   9.6093750000000000       0.15625000000000000        0.0000000000000000     
   9.6875000000000018       0.15625000000000000        0.0000000000000000     
   9.7656250000000000       0.15625000000000000        0.0000000000000000     
   9.8437500000000000       0.15625000000000000        0.0000000000000000     
   9.9218750000000000       0.15625000000000000        0.0000000000000000     
   10.000000000000000       0.15625000000000000        0.0000000000000000     
   9.3750000000000036       0.23437500000000006        0.0000000000000000     
   9.4531250000000000       0.23437500000000000        0.0000000000000000     
   9.5312500000000000       0.23437500000000000        0.0000000000000000     
   9.6093750000000000       0.23437500000000000        0.0000000000000000     
   9.6874999999999982       0.23437500000000000        0.0000000000000000     
   9.7656250000000000       0.23437500000000000        0.0000000000000000     
   9.8437500000000000       0.23437500000000000        0.0000000000000000     
   9.9218750000000000       0.23437500000000000        0.0000000000000000     
   10.000000000000000       0.23437500000000000        0.0000000000000000     
   9.3750000000000000       0.31250000000000000        0.0000000000000000     
   9.4531250000000036       0.31250000000000011        0.0000000000000000     
   9.5312500000000000       0.31250000000000000        0.0000000000000000     
   9.6093750000000000       0.31250000000000000        0.0000000000000000     
   9.6875000000000018       0.31250000000000011        0.0000000000000000     
   9.7656250000000000       0.31250000000000000        0.0000000000000000     
   9.8437499999999982       0.31250000000000000        0.0000000000000000     
   9.9218750000000000       0.31249999999999994        0.0000000000000000     
   10.000000000000000       0.31250000000000006        0.0000000000000000     
   9.3750000000000018       0.39062500000000011        0.0000000000000000     
   9.4531250000000018       0.39062500000000011        0.0000000000000000     
   9.5312500000000000       0.39062500000000000        0.0000000000000000     
   9.6093750000000018       0.39062500000000011        0.0000000000000000     
   9.6874999999999982       0.39062499999999994        0.0000000000000000     
   9.7656250000000000       0.39062500000000000        0.0000000000000000     
   9.8437500000000000       0.39062499999999994        0.0000000000000000     
   9.9218749999999982       0.39062500000000006        0.0000000000000000     
   10.000000000000000       0.39062500000000006        0.0000000000000000     
   9.3750000000000000       0.46875000000000000        0.0000000000000000     
   9.4531250000000000       0.46875000000000000        0.0000000000000000     
   9.5312500000000000       0.46875000000000000        0.0000000000000000     
   9.6093750000000000       0.46875000000000000        0.0000000000000000     
   9.6875000000000000       0.46875000000000000        0.0000000000000000     
   9.7656250000000000       0.46875000000000000        0.0000000000000000     
   9.8437500000000000       0.46875000000000000        0.0000000000000000     
   9.9218750000000000       0.46875000000000000        0.0000000000000000     
   10.000000000000000       0.46875000000000000        0.0000000000000000     
   9.3750000000000000       0.54687500000000000        0.0000000000000000     
   9.4531250000000018       0.54687500000000000        0.0000000000000000     
   9.5312500000000018       0.54687500000000000        0.0000000000000000     
   9.6093750000000000       0.54687500000000000        0.0000000000000000     
   9.6875000000000036       0.54687500000000011        0.0000000000000000     
   9.7656250000000000       0.54687500000000000        0.0000000000000000     
   9.8437500000000000       0.54687500000000000        0.0000000000000000     
   9.9218750000000018       0.54687500000000011        0.0000000000000000     
   9.9999999999999982       0.54687499999999989        0.0000000000000000     
   9.3750000000000036       0.62500000000000022        0.0000000000000000     
   9.4531250000000000       0.62500000000000000        0.0000000000000000     
   9.5312500000000000       0.62500000000000000        0.0000000000000000     
   9.6093750000000018       0.62500000000000000        0.0000000000000000     
   9.6874999999999982       0.62500000000000000        0.0000000000000000     
   9.7656250000000000       0.62500000000000011        0.0000000000000000     
   9.8437500000000018       0.62500000000000011        0.0000000000000000     
   9.9218750000000000       0.62500000000000000        0.0000000000000000     
   10.000000000000000       0.62500000000000011        0.0000000000000000     
   5.0000000000000000       0.62500000000000011        0.0000000000000000     
   5.0781250000000009       0.62500000000000000        0.0000000000000000     
   5.1562500000000000       0.62500000000000000        0.0000000000000000     
   5.2343750000000000       0.62500000000000011        0.0000000000000000     
   5.3125000000000009       0.62499999999999989        0.0000000000000000     
   5.3906250000000009       0.62500000000000011        0.0000000000000000     
   5.4687500000000000       0.62500000000000011        0.0000000000000000     
   5.5468750000000000       0.62499999999999989        0.0000000000000000     
   5.6250000000000009       0.62500000000000022        0.0000000000000000     
   5.0000000000000000       0.70312499999999989        0.0000000000000000     
   5.0781250000000000       0.70312500000000022        0.0000000000000000     
   5.1562500000000000       0.70312499999999989        0.0000000000000000     
   5.2343750000000000       0.70312499999999989        0.0000000000000000     
   5.3125000000000000       0.70312500000000000        0.0000000000000000     
   5.3906250000000000       0.70312500000000000        0.0000000000000000     
   5.4687500000000000       0.70312499999999989        0.0000000000000000     
   5.5468750000000000       0.70312500000000000        0.0000000000000000     
   5.6249999999999991       0.70312499999999989        0.0000000000000000     
   4.9999999999999991       0.78124999999999989        0.0000000000000000     
   5.0781250000000009       0.78125000000000011        0.0000000000000000     
   5.1562500000000000       0.78125000000000000        0.0000000000000000     
   5.2343750000000000       0.78125000000000000        0.0000000000000000     
   5.3125000000000000       0.78124999999999989        0.0000000000000000     
   5.3906250000000000       0.78125000000000000        0.0000000000000000     
   5.4687500000000000       0.78125000000000000        0.0000000000000000     
   5.5468750000000009       0.78125000000000000        0.0000000000000000     
   5.6250000000000000       0.78124999999999989        0.0000000000000000     
   5.0000000000000009       0.85937500000000022        0.0000000000000000     
   5.0781250000000000       0.85937500000000000        0.0000000000000000     
   5.1562500000000000       0.85937500000000011        0.0000000000000000     
   5.2343750000000009       0.85937500000000011        0.0000000000000000     
   5.3125000000000009       0.85937500000000011        0.0000000000000000     
   5.3906250000000000       0.85937500000000011        0.0000000000000000     
   5.4687500000000009       0.85937500000000011        0.0000000000000000     
   5.5468749999999991       0.85937499999999978        0.0000000000000000     
   5.6249999999999991       0.85937499999999989        0.0000000000000000     
   5.0000000000000000       0.93749999999999989        0.0000000000000000     
   5.0781250000000000       0.93750000000000000        0.0000000000000000     
   5.1562500000000009       0.93750000000000011        0.0000000000000000     
   5.2343750000000009       0.93750000000000000        0.0000000000000000     
   5.3125000000000000       0.93750000000000000        0.0000000000000000     
   5.3906250000000009       0.93749999999999989        0.0000000000000000     
   5.4687500000000000       0.93749999999999989        0.0000000000000000     
   5.5468750000000000       0.93750000000000000        0.0000000000000000     
   5.6250000000000000       0.93750000000000000        0.0000000000000000     
   5.0000000000000009        1.0156250000000002        0.0000000000000000     
   5.0781250000000009        1.0156250000000000        0.0000000000000000     
   5.1562500000000000        1.0156250000000000        0.0000000000000000     
   5.2343750000000009        1.0156250000000000        0.0000000000000000     
   5.3125000000000009        1.0156250000000000        0.0000000000000000     
   5.3906250000000018        1.0156250000000000        0.0000000000000000     
   5.4687500000000018        1.0156250000000004        0.0000000000000000     
   5.5468750000000000        1.0156249999999998        0.0000000000000000     
   5.6250000000000000        1.0156250000000000        0.0000000000000000     
   5.0000000000000000        1.0937499999999998        0.0000000000000000     
   5.0781250000000000        1.0937500000000002        0.0000000000000000     
   5.1562500000000000        1.0937499999999998        0.0000000000000000     
   5.2343750000000000        1.0937499999999998        0.0000000000000000     
   5.3125000000000009        1.0937500000000002        0.0000000000000000     
   5.3906250000000000        1.0937500000000000        0.0000000000000000     
   5.4687500000000009        1.0937500000000000        0.0000000000000000     
   5.5468750000000009        1.0937500000000004        0.0000000000000000     
   5.6250000000000000        1.0937499999999998        0.0000000000000000     
   5.0000000000000000        1.1718750000000000        0.0000000000000000     
   5.0781250000000000        1.1718749999999998        0.0000000000000000     
   5.1562500000000000        1.1718750000000000        0.0000000000000000     
   5.2343750000000009        1.1718750000000002        0.0000000000000000     
   5.3125000000000009        1.1718750000000000        0.0000000000000000     
   5.3906250000000009        1.1718750000000000        0.0000000000000000     
   5.4687500000000000        1.1718750000000000        0.0000000000000000     
   5.5468750000000009        1.1718750000000000        0.0000000000000000     
   5.6250000000000009        1.1718750000000002        0.0000000000000000     
   5.0000000000000018        1.2500000000000002        0.0000000000000000     
   5.0781250000000000        1.2499999999999998        0.0000000000000000     
   5.1562500000000000        1.2500000000000000        0.0000000000000000     
   5.2343750000000009        1.2500000000000002        0.0000000000000000     
   5.3125000000000027        1.2500000000000000        0.0000000000000000     
   5.3906250000000009        1.2500000000000000        0.0000000000000000     
   5.4687500000000000        1.2500000000000000        0.0000000000000000     
   5.5468750000000009        1.2500000000000000        0.0000000000000000     
   5.6250000000000009        1.2500000000000002        0.0000000000000000     
   5.6250000000000009       0.62500000000000022        0.0000000000000000     
   5.7031250000000009       0.62499999999999989        0.0000000000000000     
   5.7812500000000009       0.62500000000000011        0.0000000000000000     
   5.8593750000000000       0.62500000000000000        0.0000000000000000     
   5.9375000000000018       0.62499999999999989        0.0000000000000000     
   6.0156250000000000       0.62500000000000011        0.0000000000000000     
   6.0937500000000000       0.62500000000000011        0.0000000000000000     
   6.1718750000000018       0.62499999999999989        0.0000000000000000     
   6.2500000000000000       0.62500000000000011        0.0000000000000000     
   5.6249999999999991       0.70312499999999989        0.0000000000000000     
   5.7031249999999991       0.70312500000000000        0.0000000000000000     
   5.7812500000000000       0.70312499999999989        0.0000000000000000     
   5.8593750000000000       0.70312500000000000        0.0000000000000000     
   5.9374999999999991       0.70312500000000000        0.0000000000000000     
   6.0156250000000000       0.70312499999999989        0.0000000000000000     
   6.0937500000000009       0.70312500000000000        0.0000000000000000     
   6.1718749999999991       0.70312500000000000        0.0000000000000000     
   6.2500000000000000       0.70312499999999989        0.0000000000000000     
   5.6250000000000000       0.78124999999999989        0.0000000000000000     
   5.7031250000000009       0.78125000000000011        0.0000000000000000     
   5.7812500000000000       0.78125000000000000        0.0000000000000000     
   5.8593750000000009       0.78125000000000022        0.0000000000000000     
   5.9375000000000000       0.78125000000000000        0.0000000000000000     
   6.0156250000000000       0.78125000000000000        0.0000000000000000     
   6.0937500000000009       0.78124999999999989        0.0000000000000000     
   6.1718750000000000       0.78125000000000011        0.0000000000000000     
   6.2500000000000000       0.78125000000000011        0.0000000000000000     
   5.6249999999999991       0.85937499999999989        0.0000000000000000     
   5.7031250000000018       0.85937500000000000        0.0000000000000000     
   5.7812500000000009       0.85937500000000022        0.0000000000000000     
   5.8593750000000000       0.85937500000000011        0.0000000000000000     
   5.9375000000000018       0.85937500000000000        0.0000000000000000     
   6.0156250000000000       0.85937500000000011        0.0000000000000000     
   6.0937500000000000       0.85937500000000022        0.0000000000000000     
   6.1718750000000018       0.85937500000000000        0.0000000000000000     
   6.2500000000000000       0.85937500000000000        0.0000000000000000     
   5.6250000000000000       0.93750000000000000        0.0000000000000000     
   5.7031249999999991       0.93750000000000000        0.0000000000000000     
   5.7812499999999991       0.93749999999999989        0.0000000000000000     
   5.8593749999999991       0.93749999999999989        0.0000000000000000     
   5.9374999999999991       0.93749999999999989        0.0000000000000000     
   6.0156250000000000       0.93749999999999989        0.0000000000000000     
   6.0937499999999991       0.93749999999999989        0.0000000000000000     
   6.1718749999999991       0.93750000000000000        0.0000000000000000     
   6.2500000000000000       0.93749999999999989        0.0000000000000000     
   5.6250000000000000        1.0156250000000000        0.0000000000000000     
   5.7031250000000000        1.0156250000000000        0.0000000000000000     
   5.7812500000000000        1.0156250000000000        0.0000000000000000     
   5.8593750000000000        1.0156250000000000        0.0000000000000000     
   5.9375000000000000        1.0156249999999998        0.0000000000000000     
   6.0156250000000009        1.0156250000000002        0.0000000000000000     
   6.0937500000000000        1.0156250000000000        0.0000000000000000     
   6.1718749999999991        1.0156249999999998        0.0000000000000000     
   6.2500000000000009        1.0156250000000002        0.0000000000000000     
   5.6250000000000000        1.0937499999999998        0.0000000000000000     
   5.7031250000000018        1.0937500000000004        0.0000000000000000     
   5.7812500000000018        1.0937500000000004        0.0000000000000000     
   5.8593750000000000        1.0937500000000000        0.0000000000000000     
   5.9375000000000009        1.0937500000000004        0.0000000000000000     
   6.0156250000000018        1.0937500000000004        0.0000000000000000     
   6.0937500000000000        1.0937499999999998        0.0000000000000000     
   6.1718750000000009        1.0937500000000002        0.0000000000000000     
   6.2500000000000000        1.0937500000000002        0.0000000000000000     
   5.6250000000000009        1.1718750000000002        0.0000000000000000     
   5.7031249999999991        1.1718749999999998        0.0000000000000000     
   5.7812499999999991        1.1718749999999998        0.0000000000000000     
   5.8593750000000000        1.1718750000000000        0.0000000000000000     
   5.9374999999999991        1.1718749999999998        0.0000000000000000     
   6.0156250000000000        1.1718749999999998        0.0000000000000000     
   6.0937500000000000        1.1718750000000000        0.0000000000000000     
   6.1718749999999991        1.1718750000000000        0.0000000000000000     
   6.2500000000000000        1.1718749999999998        0.0000000000000000     
   5.6250000000000009        1.2500000000000002        0.0000000000000000     
   5.7031250000000009        1.2500000000000002        0.0000000000000000     
   5.7812500000000009        1.2500000000000002        0.0000000000000000     
   5.8593750000000000        1.2500000000000000        0.0000000000000000     
   5.9375000000000000        1.2499999999999998        0.0000000000000000     
   6.0156250000000009        1.2500000000000000        0.0000000000000000     
   6.0937500000000000        1.2500000000000002        0.0000000000000000     
   6.1718750000000000        1.2500000000000000        0.0000000000000000     
   6.2500000000000009        1.2500000000000002        0.0000000000000000     
   6.2500000000000000       0.62500000000000011        0.0000000000000000     
   6.3281250000000000       0.62500000000000000        0.0000000000000000     
   6.4062500000000009       0.62500000000000022        0.0000000000000000     
   6.4843750000000000       0.62500000000000000        0.0000000000000000     
   6.5625000000000000       0.62500000000000000        0.0000000000000000     
   6.6406250000000009       0.62500000000000011        0.0000000000000000     
   6.7187500000000000       0.62500000000000000        0.0000000000000000     
   6.7968750000000000       0.62500000000000011        0.0000000000000000     
   6.8750000000000009       0.62500000000000011        0.0000000000000000     
   6.2500000000000000       0.70312499999999989        0.0000000000000000     
   6.3281250000000018       0.70312500000000011        0.0000000000000000     
   6.4062500000000000       0.70312499999999989        0.0000000000000000     
   6.4843750000000009       0.70312500000000000        0.0000000000000000     
   6.5625000000000018       0.70312500000000011        0.0000000000000000     
   6.6406249999999991       0.70312499999999989        0.0000000000000000     
   6.7187499999999991       0.70312499999999989        0.0000000000000000     
   6.7968749999999991       0.70312500000000000        0.0000000000000000     
   6.8749999999999991       0.70312499999999989        0.0000000000000000     
   6.2500000000000000       0.78125000000000011        0.0000000000000000     
   6.3281250000000000       0.78125000000000000        0.0000000000000000     
   6.4062500000000000       0.78125000000000000        0.0000000000000000     
   6.4843750000000000       0.78125000000000000        0.0000000000000000     
   6.5625000000000000       0.78124999999999989        0.0000000000000000     
   6.6406250000000000       0.78125000000000000        0.0000000000000000     
   6.7187500000000000       0.78125000000000011        0.0000000000000000     
   6.7968750000000009       0.78125000000000000        0.0000000000000000     
   6.8750000000000000       0.78125000000000011        0.0000000000000000     
   6.2500000000000000       0.85937500000000000        0.0000000000000000     
   6.3281250000000000       0.85937500000000011        0.0000000000000000     
   6.4062500000000009       0.85937500000000022        0.0000000000000000     
   6.4843750000000000       0.85937500000000011        0.0000000000000000     
   6.5625000000000000       0.85937500000000011        0.0000000000000000     
   6.6406250000000000       0.85937500000000011        0.0000000000000000     
   6.7187500000000000       0.85937500000000011        0.0000000000000000     
   6.7968750000000000       0.85937500000000011        0.0000000000000000     
   6.8750000000000000       0.85937500000000000        0.0000000000000000     
   6.2500000000000000       0.93749999999999989        0.0000000000000000     
   6.3281250000000000       0.93750000000000000        0.0000000000000000     
   6.4062499999999991       0.93749999999999989        0.0000000000000000     
   6.4843749999999991       0.93749999999999989        0.0000000000000000     
   6.5625000000000000       0.93750000000000000        0.0000000000000000     
   6.6406250000000000       0.93749999999999989        0.0000000000000000     
   6.7187500000000000       0.93749999999999989        0.0000000000000000     
   6.7968750000000000       0.93750000000000011        0.0000000000000000     
   6.8750000000000000       0.93749999999999989        0.0000000000000000     
   6.2500000000000009        1.0156250000000002        0.0000000000000000     
   6.3281250000000009        1.0156250000000000        0.0000000000000000     
   6.4062500000000000        1.0156250000000000        0.0000000000000000     
   6.4843750000000009        1.0156250000000000        0.0000000000000000     
   6.5625000000000000        1.0156250000000000        0.0000000000000000     
   6.6406250000000009        1.0156250000000002        0.0000000000000000     
   6.7187500000000000        1.0156250000000000        0.0000000000000000     
   6.7968750000000018        1.0156250000000000        0.0000000000000000     
   6.8750000000000000        1.0156250000000002        0.0000000000000000     
   6.2500000000000000        1.0937500000000002        0.0000000000000000     
   6.3281250000000000        1.0937500000000004        0.0000000000000000     
   6.4062500000000027        1.0937500000000004        0.0000000000000000     
   6.4843749999999991        1.0937500000000002        0.0000000000000000     
   6.5625000000000000        1.0937500000000002        0.0000000000000000     
   6.6406250000000027        1.0937500000000004        0.0000000000000000     
   6.7187500000000000        1.0937500000000002        0.0000000000000000     
   6.7968750000000009        1.0937500000000004        0.0000000000000000     
   6.8750000000000018        1.0937500000000002        0.0000000000000000     
   6.2500000000000000        1.1718749999999998        0.0000000000000000     
   6.3281250000000000        1.1718750000000000        0.0000000000000000     
   6.4062500000000000        1.1718749999999998        0.0000000000000000     
   6.4843749999999991        1.1718749999999998        0.0000000000000000     
   6.5625000000000000        1.1718750000000000        0.0000000000000000     
   6.6406249999999991        1.1718749999999998        0.0000000000000000     
   6.7187499999999991        1.1718749999999998        0.0000000000000000     
   6.7968750000000009        1.1718750000000000        0.0000000000000000     
   6.8750000000000000        1.1718749999999998        0.0000000000000000     
   6.2500000000000009        1.2500000000000002        0.0000000000000000     
   6.3281250000000009        1.2500000000000000        0.0000000000000000     
   6.4062500000000000        1.2500000000000002        0.0000000000000000     
   6.4843750000000009        1.2500000000000000        0.0000000000000000     
   6.5625000000000009        1.2500000000000000        0.0000000000000000     
   6.6406250000000000        1.2500000000000000        0.0000000000000000     
   6.7187500000000009        1.2500000000000002        0.0000000000000000     
   6.7968750000000018        1.2500000000000000        0.0000000000000000     
   6.8750000000000009        1.2500000000000002        0.0000000000000000     
   6.8750000000000009       0.62500000000000011        0.0000000000000000     
   6.9531249999999991       0.62500000000000000        0.0000000000000000     
   7.0312500000000018       0.62500000000000022        0.0000000000000000     
   7.1093750000000000       0.62500000000000000        0.0000000000000000     
   7.1874999999999991       0.62500000000000000        0.0000000000000000     
   7.2656250000000000       0.62500000000000011        0.0000000000000000     
   7.3437500000000000       0.62500000000000000        0.0000000000000000     
   7.4218749999999991       0.62500000000000011        0.0000000000000000     
   7.5000000000000009       0.62500000000000011        0.0000000000000000     
   6.8749999999999991       0.70312499999999989        0.0000000000000000     
   6.9531250000000027       0.70312500000000011        0.0000000000000000     
   7.0312500000000000       0.70312499999999989        0.0000000000000000     
   7.1093750000000009       0.70312500000000000        0.0000000000000000     
   7.1875000000000027       0.70312500000000011        0.0000000000000000     
   7.2656250000000000       0.70312499999999989        0.0000000000000000     
   7.3437500000000000       0.70312499999999989        0.0000000000000000     
   7.4218750000000009       0.70312500000000000        0.0000000000000000     
   7.5000000000000000       0.70312499999999989        0.0000000000000000     
   6.8750000000000000       0.78125000000000011        0.0000000000000000     
   6.9531250000000009       0.78125000000000000        0.0000000000000000     
   7.0312500000000000       0.78125000000000000        0.0000000000000000     
   7.1093750000000000       0.78125000000000000        0.0000000000000000     
   7.1875000000000000       0.78124999999999989        0.0000000000000000     
   7.2656250000000009       0.78125000000000000        0.0000000000000000     
   7.3437500000000000       0.78125000000000011        0.0000000000000000     
   7.4218750000000009       0.78125000000000000        0.0000000000000000     
   7.5000000000000009       0.78125000000000011        0.0000000000000000     
   6.8750000000000000       0.85937500000000000        0.0000000000000000     
   6.9531249999999991       0.85937500000000011        0.0000000000000000     
   7.0312500000000018       0.85937500000000022        0.0000000000000000     
   7.1093750000000000       0.85937500000000011        0.0000000000000000     
   7.1874999999999991       0.85937500000000011        0.0000000000000000     
   7.2656249999999991       0.85937500000000011        0.0000000000000000     
   7.3437500000000000       0.85937500000000011        0.0000000000000000     
   7.4218749999999991       0.85937500000000011        0.0000000000000000     
   7.4999999999999991       0.85937500000000000        0.0000000000000000     
   6.8750000000000000       0.93749999999999989        0.0000000000000000     
   6.9531250000000009       0.93750000000000000        0.0000000000000000     
   7.0312499999999991       0.93749999999999989        0.0000000000000000     
   7.1093750000000000       0.93749999999999989        0.0000000000000000     
   7.1875000000000000       0.93750000000000000        0.0000000000000000     
   7.2656249999999991       0.93749999999999989        0.0000000000000000     
   7.3437500000000000       0.93749999999999989        0.0000000000000000     
   7.4218750000000000       0.93750000000000011        0.0000000000000000     
   7.5000000000000000       0.93749999999999989        0.0000000000000000     
   6.8750000000000000        1.0156250000000002        0.0000000000000000     
   6.9531250000000000        1.0156250000000000        0.0000000000000000     
   7.0312500000000000        1.0156250000000000        0.0000000000000000     
   7.1093750000000009        1.0156250000000000        0.0000000000000000     
   7.1875000000000018        1.0156250000000000        0.0000000000000000     
   7.2656250000000009        1.0156250000000002        0.0000000000000000     
   7.3437500000000000        1.0156250000000000        0.0000000000000000     
   7.4218750000000000        1.0156250000000000        0.0000000000000000     
   7.5000000000000009        1.0156250000000002        0.0000000000000000     
   6.8750000000000018        1.0937500000000002        0.0000000000000000     
   6.9531250000000009        1.0937500000000004        0.0000000000000000     
   7.0312500000000027        1.0937500000000004        0.0000000000000000     
   7.1093750000000018        1.0937500000000002        0.0000000000000000     
   7.1875000000000009        1.0937500000000002        0.0000000000000000     
   7.2656250000000018        1.0937500000000004        0.0000000000000000     
   7.3437500000000000        1.0937500000000002        0.0000000000000000     
   7.4218750000000009        1.0937500000000004        0.0000000000000000     
   7.5000000000000009        1.0937500000000002        0.0000000000000000     
   6.8750000000000000        1.1718749999999998        0.0000000000000000     
   6.9531250000000009        1.1718750000000000        0.0000000000000000     
   7.0312499999999991        1.1718749999999998        0.0000000000000000     
   7.1093749999999991        1.1718749999999998        0.0000000000000000     
   7.1875000000000009        1.1718750000000000        0.0000000000000000     
   7.2656249999999991        1.1718749999999998        0.0000000000000000     
   7.3437500000000000        1.1718749999999998        0.0000000000000000     
   7.4218750000000009        1.1718750000000000        0.0000000000000000     
   7.5000000000000000        1.1718749999999998        0.0000000000000000     
   6.8750000000000009        1.2500000000000002        0.0000000000000000     
   6.9531250000000009        1.2500000000000000        0.0000000000000000     
   7.0312500000000000        1.2500000000000002        0.0000000000000000     
   7.1093750000000009        1.2500000000000000        0.0000000000000000     
   7.1875000000000009        1.2500000000000000        0.0000000000000000     
   7.2656250000000000        1.2500000000000000        0.0000000000000000     
   7.3437500000000018        1.2500000000000002        0.0000000000000000     
   7.4218750000000018        1.2500000000000000        0.0000000000000000     
   7.5000000000000027        1.2500000000000002        0.0000000000000000     
   7.5000000000000009       0.62500000000000011        0.0000000000000000     
   7.5781250000000018       0.62500000000000000        0.0000000000000000     
   7.6562500000000018       0.62500000000000022        0.0000000000000000     
   7.7343749999999991       0.62500000000000000        0.0000000000000000     
   7.8125000000000009       0.62500000000000000        0.0000000000000000     
   7.8906250000000009       0.62500000000000011        0.0000000000000000     
   7.9687499999999991       0.62500000000000000        0.0000000000000000     
   8.0468750000000018       0.62500000000000011        0.0000000000000000     
   8.1250000000000000       0.62500000000000011        0.0000000000000000     
   7.5000000000000000       0.70312499999999989        0.0000000000000000     
   7.5781250000000000       0.70312500000000011        0.0000000000000000     
   7.6562500000000000       0.70312499999999989        0.0000000000000000     
   7.7343750000000000       0.70312500000000000        0.0000000000000000     
   7.8125000000000009       0.70312500000000011        0.0000000000000000     
   7.8906250000000000       0.70312499999999989        0.0000000000000000     
   7.9687500000000000       0.70312499999999989        0.0000000000000000     
   8.0468750000000000       0.70312500000000000        0.0000000000000000     
   8.1250000000000000       0.70312499999999989        0.0000000000000000     
   7.5000000000000009       0.78125000000000011        0.0000000000000000     
   7.5781250000000009       0.78125000000000000        0.0000000000000000     
   7.6562500000000000       0.78125000000000000        0.0000000000000000     
   7.7343750000000009       0.78125000000000000        0.0000000000000000     
   7.8125000000000009       0.78124999999999989        0.0000000000000000     
   7.8906250000000000       0.78125000000000000        0.0000000000000000     
   7.9687500000000000       0.78125000000000011        0.0000000000000000     
   8.0468750000000018       0.78125000000000000        0.0000000000000000     
   8.1250000000000018       0.78125000000000011        0.0000000000000000     
   7.4999999999999991       0.85937500000000000        0.0000000000000000     
   7.5781250000000000       0.85937500000000011        0.0000000000000000     
   7.6562500000000018       0.85937500000000022        0.0000000000000000     
   7.7343749999999991       0.85937500000000011        0.0000000000000000     
   7.8125000000000009       0.85937500000000011        0.0000000000000000     
   7.8906250000000009       0.85937500000000011        0.0000000000000000     
   7.9687499999999991       0.85937500000000011        0.0000000000000000     
   8.0468750000000018       0.85937500000000011        0.0000000000000000     
   8.1250000000000000       0.85937500000000000        0.0000000000000000     
   7.5000000000000000       0.93749999999999989        0.0000000000000000     
   7.5781249999999991       0.93750000000000000        0.0000000000000000     
   7.6562499999999991       0.93749999999999989        0.0000000000000000     
   7.7343749999999991       0.93749999999999989        0.0000000000000000     
   7.8124999999999982       0.93750000000000000        0.0000000000000000     
   7.8906249999999991       0.93749999999999989        0.0000000000000000     
   7.9687499999999991       0.93749999999999989        0.0000000000000000     
   8.0468749999999982       0.93750000000000011        0.0000000000000000     
   8.1250000000000000       0.93749999999999989        0.0000000000000000     
   7.5000000000000009        1.0156250000000002        0.0000000000000000     
   7.5781249999999991        1.0156250000000000        0.0000000000000000     
   7.6562500000000000        1.0156250000000000        0.0000000000000000     
   7.7343750000000009        1.0156250000000000        0.0000000000000000     
   7.8124999999999991        1.0156250000000000        0.0000000000000000     
   7.8906250000000000        1.0156250000000002        0.0000000000000000     
   7.9687500000000000        1.0156250000000000        0.0000000000000000     
   8.0468750000000000        1.0156250000000000        0.0000000000000000     
   8.1250000000000000        1.0156250000000002        0.0000000000000000     
   7.5000000000000009        1.0937500000000002        0.0000000000000000     
   7.5781250000000018        1.0937500000000004        0.0000000000000000     
   7.6562500000000018        1.0937500000000004        0.0000000000000000     
   7.7343750000000009        1.0937500000000002        0.0000000000000000     
   7.8125000000000009        1.0937500000000002        0.0000000000000000     
   7.8906250000000027        1.0937500000000004        0.0000000000000000     
   7.9687500000000018        1.0937500000000002        0.0000000000000000     
   8.0468749999999982        1.0937500000000004        0.0000000000000000     
   8.1250000000000018        1.0937500000000002        0.0000000000000000     
   7.5000000000000000        1.1718749999999998        0.0000000000000000     
   7.5781249999999991        1.1718750000000000        0.0000000000000000     
   7.6562499999999991        1.1718749999999998        0.0000000000000000     
   7.7343750000000000        1.1718749999999998        0.0000000000000000     
   7.8124999999999991        1.1718750000000000        0.0000000000000000     
   7.8906249999999991        1.1718749999999998        0.0000000000000000     
   7.9687499999999991        1.1718749999999998        0.0000000000000000     
   8.0468750000000018        1.1718750000000000        0.0000000000000000     
   8.1250000000000000        1.1718749999999998        0.0000000000000000     
   7.5000000000000027        1.2500000000000002        0.0000000000000000     
   7.5781250000000009        1.2500000000000000        0.0000000000000000     
   7.6562500000000018        1.2500000000000002        0.0000000000000000     
   7.7343750000000000        1.2500000000000000        0.0000000000000000     
   7.8124999999999991        1.2500000000000000        0.0000000000000000     
   7.8906249999999991        1.2500000000000000        0.0000000000000000     
   7.9687500000000018        1.2500000000000002        0.0000000000000000     
   8.0468750000000018        1.2500000000000000        0.0000000000000000     
   8.1250000000000000        1.2500000000000002        0.0000000000000000     
   8.1250000000000000       0.62500000000000011        0.0000000000000000     
   8.2031250000000018       0.62500000000000000        0.0000000000000000     
   8.2812500000000036       0.62500000000000022        0.0000000000000000     
   8.3593750000000018       0.62500000000000000        0.0000000000000000     
   8.4375000000000000       0.62500000000000000        0.0000000000000000     
   8.5156250000000000       0.62500000000000011        0.0000000000000000     
   8.5937500000000000       0.62500000000000000        0.0000000000000000     
   8.6718750000000000       0.62500000000000011        0.0000000000000000     
   8.7500000000000000       0.62500000000000011        0.0000000000000000     
   8.1250000000000000       0.70312499999999989        0.0000000000000000     
   8.2031250000000018       0.70312500000000011        0.0000000000000000     
   8.2812500000000000       0.70312499999999989        0.0000000000000000     
   8.3593750000000018       0.70312500000000000        0.0000000000000000     
   8.4375000000000018       0.70312500000000011        0.0000000000000000     
   8.5156250000000000       0.70312499999999989        0.0000000000000000     
   8.5937500000000000       0.70312499999999989        0.0000000000000000     
   8.6718750000000000       0.70312500000000000        0.0000000000000000     
   8.7500000000000000       0.70312499999999989        0.0000000000000000     
   8.1250000000000018       0.78125000000000011        0.0000000000000000     
   8.2031250000000018       0.78125000000000000        0.0000000000000000     
   8.2812500000000000       0.78125000000000000        0.0000000000000000     
   8.3593750000000000       0.78125000000000000        0.0000000000000000     
   8.4375000000000000       0.78124999999999989        0.0000000000000000     
   8.5156250000000000       0.78125000000000000        0.0000000000000000     
   8.5937500000000000       0.78125000000000011        0.0000000000000000     
   8.6718750000000018       0.78125000000000000        0.0000000000000000     
   8.7500000000000018       0.78125000000000011        0.0000000000000000     
   8.1250000000000000       0.85937500000000000        0.0000000000000000     
   8.2031250000000000       0.85937500000000011        0.0000000000000000     
   8.2812500000000018       0.85937500000000022        0.0000000000000000     
   8.3593750000000000       0.85937500000000011        0.0000000000000000     
   8.4375000000000000       0.85937500000000011        0.0000000000000000     
   8.5156250000000000       0.85937500000000011        0.0000000000000000     
   8.5937499999999982       0.85937500000000011        0.0000000000000000     
   8.6718750000000018       0.85937500000000011        0.0000000000000000     
   8.7500000000000000       0.85937500000000000        0.0000000000000000     
   8.1250000000000000       0.93749999999999989        0.0000000000000000     
   8.2031250000000000       0.93750000000000000        0.0000000000000000     
   8.2812500000000000       0.93749999999999989        0.0000000000000000     
   8.3593750000000000       0.93749999999999989        0.0000000000000000     
   8.4375000000000000       0.93750000000000000        0.0000000000000000     
   8.5156250000000000       0.93749999999999989        0.0000000000000000     
   8.5937499999999982       0.93749999999999989        0.0000000000000000     
   8.6718750000000000       0.93750000000000011        0.0000000000000000     
   8.7500000000000000       0.93749999999999989        0.0000000000000000     
   8.1250000000000000        1.0156250000000002        0.0000000000000000     
   8.2031250000000000        1.0156250000000000        0.0000000000000000     
   8.2812500000000000        1.0156250000000000        0.0000000000000000     
   8.3593750000000000        1.0156250000000000        0.0000000000000000     
   8.4375000000000000        1.0156250000000000        0.0000000000000000     
   8.5156250000000000        1.0156250000000002        0.0000000000000000     
   8.5937500000000018        1.0156250000000000        0.0000000000000000     
   8.6718750000000000        1.0156250000000000        0.0000000000000000     
   8.7500000000000018        1.0156250000000002        0.0000000000000000     
   8.1250000000000018        1.0937500000000002        0.0000000000000000     
   8.2031250000000018        1.0937500000000004        0.0000000000000000     
   8.2812500000000018        1.0937500000000004        0.0000000000000000     
   8.3593750000000000        1.0937500000000002        0.0000000000000000     
   8.4375000000000018        1.0937500000000002        0.0000000000000000     
   8.5156250000000036        1.0937500000000004        0.0000000000000000     
   8.5937499999999982        1.0937500000000002        0.0000000000000000     
   8.6718750000000018        1.0937500000000004        0.0000000000000000     
   8.7500000000000000        1.0937500000000002        0.0000000000000000     
   8.1250000000000000        1.1718749999999998        0.0000000000000000     
   8.2031250000000018        1.1718750000000000        0.0000000000000000     
   8.2812500000000000        1.1718749999999998        0.0000000000000000     
   8.3593750000000000        1.1718749999999998        0.0000000000000000     
   8.4375000000000018        1.1718750000000000        0.0000000000000000     
   8.5156250000000000        1.1718749999999998        0.0000000000000000     
   8.5937499999999982        1.1718749999999998        0.0000000000000000     
   8.6718750000000018        1.1718750000000000        0.0000000000000000     
   8.7500000000000000        1.1718749999999998        0.0000000000000000     
   8.1250000000000000        1.2500000000000002        0.0000000000000000     
   8.2031250000000000        1.2500000000000000        0.0000000000000000     
   8.2812500000000018        1.2500000000000002        0.0000000000000000     
   8.3593750000000000        1.2500000000000000        0.0000000000000000     
   8.4375000000000000        1.2500000000000000        0.0000000000000000     
   8.5156250000000000        1.2500000000000000        0.0000000000000000     
   8.5937500000000018        1.2500000000000002        0.0000000000000000     
   8.6718750000000018        1.2500000000000000        0.0000000000000000     
   8.7500000000000036        1.2500000000000002        0.0000000000000000     
   8.7500000000000000       0.62500000000000011        0.0000000000000000     
   8.8281250000000018       0.62500000000000000        0.0000000000000000     
   8.9062500000000018       0.62500000000000011        0.0000000000000000     
   8.9843750000000000       0.62500000000000000        0.0000000000000000     
   9.0625000000000018       0.62500000000000000        0.0000000000000000     
   9.1406250000000018       0.62499999999999989        0.0000000000000000     
   9.2187500000000000       0.62500000000000000        0.0000000000000000     
   9.2968750000000018       0.62500000000000000        0.0000000000000000     
   9.3750000000000036       0.62500000000000022        0.0000000000000000     
   8.7500000000000000       0.70312499999999989        0.0000000000000000     
   8.8281250000000018       0.70312500000000011        0.0000000000000000     
   8.9062500000000000       0.70312499999999989        0.0000000000000000     
   8.9843750000000000       0.70312500000000000        0.0000000000000000     
   9.0625000000000018       0.70312500000000011        0.0000000000000000     
   9.1406250000000000       0.70312500000000000        0.0000000000000000     
   9.2187500000000000       0.70312499999999989        0.0000000000000000     
   9.2968749999999982       0.70312500000000000        0.0000000000000000     
   9.3750000000000000       0.70312499999999989        0.0000000000000000     
   8.7500000000000018       0.78125000000000011        0.0000000000000000     
   8.8281250000000000       0.78125000000000000        0.0000000000000000     
   8.9062500000000000       0.78125000000000000        0.0000000000000000     
   8.9843750000000000       0.78125000000000000        0.0000000000000000     
   9.0625000000000018       0.78124999999999989        0.0000000000000000     
   9.1406250000000000       0.78125000000000000        0.0000000000000000     
   9.2187500000000000       0.78125000000000000        0.0000000000000000     
   9.2968750000000018       0.78124999999999989        0.0000000000000000     
   9.3750000000000000       0.78125000000000000        0.0000000000000000     
   8.7500000000000000       0.85937500000000000        0.0000000000000000     
   8.8281250000000018       0.85937500000000000        0.0000000000000000     
   8.9062500000000000       0.85937500000000011        0.0000000000000000     
   8.9843750000000000       0.85937500000000011        0.0000000000000000     
   9.0625000000000036       0.85937500000000000        0.0000000000000000     
   9.1406250000000000       0.85937499999999989        0.0000000000000000     
   9.2187500000000000       0.85937500000000011        0.0000000000000000     
   9.2968750000000036       0.85937500000000011        0.0000000000000000     
   9.3750000000000000       0.85937500000000000        0.0000000000000000     
   8.7500000000000000       0.93749999999999989        0.0000000000000000     
   8.8281250000000000       0.93750000000000022        0.0000000000000000     
   8.9062500000000000       0.93750000000000000        0.0000000000000000     
   8.9843750000000000       0.93749999999999989        0.0000000000000000     
   9.0625000000000000       0.93750000000000022        0.0000000000000000     
   9.1406250000000000       0.93750000000000000        0.0000000000000000     
   9.2187499999999982       0.93749999999999989        0.0000000000000000     
   9.2968750000000000       0.93750000000000022        0.0000000000000000     
   9.3750000000000000       0.93749999999999989        0.0000000000000000     
   8.7500000000000018        1.0156250000000002        0.0000000000000000     
   8.8281250000000018        1.0156250000000002        0.0000000000000000     
   8.9062500000000000        1.0156250000000000        0.0000000000000000     
   8.9843750000000018        1.0156250000000000        0.0000000000000000     
   9.0625000000000018        1.0156250000000002        0.0000000000000000     
   9.1406250000000000        1.0156250000000000        0.0000000000000000     
   9.2187500000000018        1.0156250000000000        0.0000000000000000     
   9.2968750000000018        1.0156250000000002        0.0000000000000000     
   9.3750000000000018        1.0156250000000000        0.0000000000000000     
   8.7500000000000000        1.0937500000000002        0.0000000000000000     
   8.8281250000000036        1.0937500000000004        0.0000000000000000     
   8.9062500000000000        1.0937499999999998        0.0000000000000000     
   8.9843750000000018        1.0937500000000002        0.0000000000000000     
   9.0625000000000018        1.0937500000000002        0.0000000000000000     
   9.1406250000000000        1.0937500000000000        0.0000000000000000     
   9.2187500000000018        1.0937500000000002        0.0000000000000000     
   9.2968750000000036        1.0937500000000004        0.0000000000000000     
   9.3750000000000000        1.0937500000000000        0.0000000000000000     
   8.7500000000000000        1.1718749999999998        0.0000000000000000     
   8.8281250000000000        1.1718750000000000        0.0000000000000000     
   8.9062500000000018        1.1718750000000002        0.0000000000000000     
   8.9843750000000000        1.1718749999999998        0.0000000000000000     
   9.0625000000000000        1.1718750000000000        0.0000000000000000     
   9.1406250000000000        1.1718750000000000        0.0000000000000000     
   9.2187499999999982        1.1718749999999998        0.0000000000000000     
   9.2968750000000000        1.1718750000000000        0.0000000000000000     
   9.3749999999999982        1.1718750000000000        0.0000000000000000     
   8.7500000000000036        1.2500000000000002        0.0000000000000000     
   8.8281250000000018        1.2500000000000000        0.0000000000000000     
   8.9062500000000018        1.2500000000000002        0.0000000000000000     
   8.9843750000000018        1.2500000000000000        0.0000000000000000     
   9.0625000000000018        1.2500000000000000        0.0000000000000000     
   9.1406250000000000        1.2500000000000000        0.0000000000000000     
   9.2187500000000000        1.2500000000000002        0.0000000000000000     
   9.2968750000000000        1.2500000000000000        0.0000000000000000     
   9.3750000000000018        1.2500000000000000        0.0000000000000000     
   9.3750000000000036       0.62500000000000022        0.0000000000000000     
   9.4531250000000000       0.62500000000000000        0.0000000000000000     
   9.5312500000000000       0.62500000000000000        0.0000000000000000     
   9.6093750000000018       0.62500000000000000        0.0000000000000000     
   9.6874999999999982       0.62500000000000000        0.0000000000000000     
   9.7656250000000000       0.62500000000000011        0.0000000000000000     
   9.8437500000000018       0.62500000000000011        0.0000000000000000     
   9.9218750000000000       0.62500000000000000        0.0000000000000000     
   10.000000000000000       0.62500000000000011        0.0000000000000000     
   9.3750000000000000       0.70312499999999989        0.0000000000000000     
   9.4531250000000000       0.70312500000000011        0.0000000000000000     
   9.5312500000000000       0.70312499999999989        0.0000000000000000     
   9.6093750000000000       0.70312499999999989        0.0000000000000000     
   9.6875000000000000       0.70312500000000000        0.0000000000000000     
   9.7656250000000000       0.70312499999999989        0.0000000000000000     
   9.8437500000000000       0.70312499999999989        0.0000000000000000     
   9.9218750000000000       0.70312500000000000        0.0000000000000000     
   10.000000000000000       0.70312499999999989        0.0000000000000000     
   9.3750000000000000       0.78125000000000000        0.0000000000000000     
   9.4531250000000000       0.78125000000000000        0.0000000000000000     
   9.5312500000000000       0.78125000000000000        0.0000000000000000     
   9.6093750000000018       0.78125000000000011        0.0000000000000000     
   9.6875000000000018       0.78125000000000022        0.0000000000000000     
   9.7656250000000000       0.78125000000000000        0.0000000000000000     
   9.8437500000000018       0.78125000000000000        0.0000000000000000     
   9.9218750000000018       0.78125000000000022        0.0000000000000000     
   9.9999999999999982       0.78124999999999989        0.0000000000000000     
   9.3750000000000000       0.85937500000000000        0.0000000000000000     
   9.4531249999999982       0.85937499999999978        0.0000000000000000     
   9.5312500000000018       0.85937500000000011        0.0000000000000000     
   9.6093750000000018       0.85937500000000011        0.0000000000000000     
   9.6875000000000018       0.85937499999999989        0.0000000000000000     
   9.7656250000000000       0.85937500000000011        0.0000000000000000     
   9.8437500000000018       0.85937500000000011        0.0000000000000000     
   9.9218750000000018       0.85937500000000011        0.0000000000000000     
   10.000000000000002       0.85937500000000022        0.0000000000000000     
   9.3750000000000000       0.93749999999999989        0.0000000000000000     
   9.4531250000000000       0.93750000000000011        0.0000000000000000     
   9.5312500000000018       0.93750000000000000        0.0000000000000000     
   9.6093750000000000       0.93749999999999989        0.0000000000000000     
   9.6875000000000000       0.93750000000000011        0.0000000000000000     
   9.7656250000000000       0.93749999999999989        0.0000000000000000     
   9.8437500000000000       0.93749999999999989        0.0000000000000000     
   9.9218750000000018       0.93750000000000011        0.0000000000000000     
   10.000000000000000       0.93749999999999989        0.0000000000000000     
   9.3750000000000018        1.0156250000000000        0.0000000000000000     
   9.4531250000000018        1.0156250000000002        0.0000000000000000     
   9.5312500000000000        1.0156250000000002        0.0000000000000000     
   9.6093750000000018        1.0156250000000000        0.0000000000000000     
   9.6875000000000000        1.0156250000000000        0.0000000000000000     
   9.7656250000000018        1.0156250000000000        0.0000000000000000     
   9.8437500000000000        1.0156250000000000        0.0000000000000000     
   9.9218750000000000        1.0156250000000000        0.0000000000000000     
   10.000000000000002        1.0156250000000002        0.0000000000000000     
   9.3750000000000000        1.0937500000000000        0.0000000000000000     
   9.4531250000000018        1.0937500000000002        0.0000000000000000     
   9.5312500000000000        1.0937499999999998        0.0000000000000000     
   9.6093750000000018        1.0937500000000000        0.0000000000000000     
   9.6875000000000036        1.0937500000000004        0.0000000000000000     
   9.7656250000000000        1.0937499999999998        0.0000000000000000     
   9.8437500000000000        1.0937500000000000        0.0000000000000000     
   9.9218750000000018        1.0937500000000004        0.0000000000000000     
   10.000000000000000        1.0937499999999998        0.0000000000000000     
   9.3749999999999982        1.1718750000000000        0.0000000000000000     
   9.4531250000000000        1.1718750000000000        0.0000000000000000     
   9.5312500000000000        1.1718750000000000        0.0000000000000000     
   9.6093749999999982        1.1718750000000000        0.0000000000000000     
   9.6875000000000018        1.1718750000000000        0.0000000000000000     
   9.7656250000000000        1.1718750000000000        0.0000000000000000     
   9.8437500000000018        1.1718750000000000        0.0000000000000000     
   9.9218750000000018        1.1718750000000000        0.0000000000000000     
   10.000000000000000        1.1718750000000000        0.0000000000000000     
   9.3750000000000018        1.2500000000000000        0.0000000000000000     
   9.4531250000000000        1.2500000000000000        0.0000000000000000     
   9.5312500000000018        1.2500000000000000        0.0000000000000000     
   9.6093750000000000        1.2500000000000000        0.0000000000000000     
   9.6875000000000018        1.2500000000000000        0.0000000000000000     
   9.7656250000000018        1.2500000000000002        0.0000000000000000     
   9.8437500000000000        1.2500000000000000        0.0000000000000000     
   9.9218750000000000        1.2499999999999998        0.0000000000000000     
   10.000000000000004        1.2500000000000002        0.0000000000000000     
   5.0000000000000018        1.2500000000000002        0.0000000000000000     
   5.0781250000000000        1.2499999999999998        0.0000000000000000     
   5.1562500000000000        1.2500000000000000        0.0000000000000000     
   5.2343750000000009        1.2500000000000002        0.0000000000000000     
   5.3125000000000027        1.2500000000000000        0.0000000000000000     
   5.3906250000000009        1.2500000000000000        0.0000000000000000     
   5.4687500000000000        1.2500000000000000        0.0000000000000000     
   5.5468750000000009        1.2500000000000000        0.0000000000000000     
   5.6250000000000009        1.2500000000000002        0.0000000000000000     
   5.0000000000000000        1.3281249999999998        0.0000000000000000     
   5.0781250000000000        1.3281250000000002        0.0000000000000000     
   5.1562500000000000        1.3281250000000000        0.0000000000000000     
   5.2343750000000000        1.3281249999999998        0.0000000000000000     
   5.3125000000000000        1.3281250000000002        0.0000000000000000     
   5.3906250000000000        1.3281250000000000        0.0000000000000000     
   5.4687500000000000        1.3281249999999998        0.0000000000000000     
   5.5468750000000000        1.3281250000000004        0.0000000000000000     
   5.6250000000000000        1.3281250000000000        0.0000000000000000     
   4.9999999999999991        1.4062499999999998        0.0000000000000000     
   5.0781250000000009        1.4062500000000002        0.0000000000000000     
   5.1562500000000000        1.4062500000000000        0.0000000000000000     
   5.2343750000000000        1.4062500000000000        0.0000000000000000     
   5.3125000000000000        1.4062500000000000        0.0000000000000000     
   5.3906250000000000        1.4062500000000000        0.0000000000000000     
   5.4687500000000000        1.4062500000000000        0.0000000000000000     
   5.5468750000000009        1.4062500000000000        0.0000000000000000     
   5.6250000000000000        1.4062499999999998        0.0000000000000000     
   5.0000000000000009        1.4843750000000002        0.0000000000000000     
   5.0781249999999991        1.4843749999999998        0.0000000000000000     
   5.1562500000000000        1.4843750000000000        0.0000000000000000     
   5.2343750000000009        1.4843750000000002        0.0000000000000000     
   5.3125000000000009        1.4843749999999998        0.0000000000000000     
   5.3906250000000009        1.4843750000000000        0.0000000000000000     
   5.4687500000000000        1.4843750000000000        0.0000000000000000     
   5.5468750000000009        1.4843750000000000        0.0000000000000000     
   5.6250000000000000        1.4843750000000000        0.0000000000000000     
   5.0000000000000009        1.5625000000000002        0.0000000000000000     
   5.0781250000000000        1.5625000000000002        0.0000000000000000     
   5.1562500000000000        1.5625000000000002        0.0000000000000000     
   5.2343750000000009        1.5625000000000002        0.0000000000000000     
   5.3125000000000009        1.5625000000000004        0.0000000000000000     
   5.3906250000000000        1.5625000000000000        0.0000000000000000     
   5.4687499999999991        1.5624999999999996        0.0000000000000000     
   5.5468750000000009        1.5625000000000004        0.0000000000000000     
   5.6250000000000000        1.5624999999999998        0.0000000000000000     
   5.0000000000000009        1.6406250000000004        0.0000000000000000     
   5.0781250000000009        1.6406250000000002        0.0000000000000000     
   5.1562500000000000        1.6406250000000000        0.0000000000000000     
   5.2343750000000009        1.6406250000000000        0.0000000000000000     
   5.3125000000000009        1.6406250000000000        0.0000000000000000     
   5.3906250000000018        1.6406250000000004        0.0000000000000000     
   5.4687500000000018        1.6406250000000002        0.0000000000000000     
   5.5468750000000000        1.6406249999999998        0.0000000000000000     
   5.6250000000000000        1.6406249999999998        0.0000000000000000     
   5.0000000000000009        1.7187500000000002        0.0000000000000000     
   5.0781250000000009        1.7187500000000002        0.0000000000000000     
   5.1562500000000000        1.7187500000000000        0.0000000000000000     
   5.2343750000000000        1.7187500000000000        0.0000000000000000     
   5.3125000000000009        1.7187499999999998        0.0000000000000000     
   5.3906250000000009        1.7187500000000000        0.0000000000000000     
   5.4687500000000000        1.7187500000000000        0.0000000000000000     
   5.5468750000000009        1.7187500000000000        0.0000000000000000     
   5.6250000000000000        1.7187500000000000        0.0000000000000000     
   5.0000000000000000        1.7968749999999998        0.0000000000000000     
   5.0781250000000000        1.7968750000000004        0.0000000000000000     
   5.1562500000000000        1.7968750000000000        0.0000000000000000     
   5.2343750000000009        1.7968750000000000        0.0000000000000000     
   5.3125000000000009        1.7968750000000004        0.0000000000000000     
   5.3906250000000000        1.7968749999999996        0.0000000000000000     
   5.4687500000000000        1.7968750000000000        0.0000000000000000     
   5.5468750000000018        1.7968750000000004        0.0000000000000000     
   5.6250000000000009        1.7968750000000000        0.0000000000000000     
   5.0000000000000018        1.8750000000000004        0.0000000000000000     
   5.0781250000000000        1.8750000000000000        0.0000000000000000     
   5.1562500000000000        1.8749999999999998        0.0000000000000000     
   5.2343750000000009        1.8750000000000000        0.0000000000000000     
   5.3125000000000018        1.8750000000000002        0.0000000000000000     
   5.3906250000000009        1.8749999999999998        0.0000000000000000     
   5.4687500000000000        1.8750000000000002        0.0000000000000000     
   5.5468750000000009        1.8750000000000002        0.0000000000000000     
   5.6250000000000009        1.8750000000000002        0.0000000000000000     
   5.6250000000000009        1.2500000000000002        0.0000000000000000     
   5.7031250000000009        1.2500000000000002        0.0000000000000000     
   5.7812500000000009        1.2500000000000002        0.0000000000000000     
   5.8593750000000000        1.2500000000000000        0.0000000000000000     
   5.9375000000000000        1.2499999999999998        0.0000000000000000     
   6.0156250000000009        1.2500000000000000        0.0000000000000000     
   6.0937500000000000        1.2500000000000002        0.0000000000000000     
   6.1718750000000000        1.2500000000000000        0.0000000000000000     
   6.2500000000000009        1.2500000000000002        0.0000000000000000     
   5.6250000000000000        1.3281250000000000        0.0000000000000000     
   5.7031250000000009        1.3281250000000004        0.0000000000000000     
   5.7812500000000009        1.3281250000000002        0.0000000000000000     
   5.8593750000000000        1.3281250000000000        0.0000000000000000     
   5.9375000000000009        1.3281250000000004        0.0000000000000000     
   6.0156250000000000        1.3281250000000000        0.0000000000000000     
   6.0937500000000000        1.3281250000000000        0.0000000000000000     
   6.1718750000000009        1.3281250000000004        0.0000000000000000     
   6.2500000000000009        1.3281250000000000        0.0000000000000000     
   5.6250000000000000        1.4062499999999998        0.0000000000000000     
   5.7031250000000009        1.4062500000000002        0.0000000000000000     
   5.7812500000000000        1.4062500000000000        0.0000000000000000     
   5.8593750000000018        1.4062500000000002        0.0000000000000000     
   5.9375000000000000        1.4062500000000000        0.0000000000000000     
   6.0156250000000000        1.4062500000000000        0.0000000000000000     
   6.0937500000000009        1.4062500000000000        0.0000000000000000     
   6.1718750000000000        1.4062500000000002        0.0000000000000000     
   6.2500000000000000        1.4062500000000002        0.0000000000000000     
   5.6250000000000000        1.4843750000000000        0.0000000000000000     
   5.7031249999999991        1.4843749999999998        0.0000000000000000     
   5.7812500000000000        1.4843750000000000        0.0000000000000000     
   5.8593750000000018        1.4843750000000004        0.0000000000000000     
   5.9374999999999991        1.4843749999999998        0.0000000000000000     
   6.0156250000000009        1.4843750000000000        0.0000000000000000     
   6.0937500000000000        1.4843750000000000        0.0000000000000000     
   6.1718749999999991        1.4843749999999998        0.0000000000000000     
   6.2499999999999991        1.4843749999999998        0.0000000000000000     
   5.6250000000000000        1.5624999999999998        0.0000000000000000     
   5.7031250000000009        1.5625000000000004        0.0000000000000000     
   5.7812499999999991        1.5624999999999998        0.0000000000000000     
   5.8593750000000000        1.5625000000000000        0.0000000000000000     
   5.9375000000000018        1.5625000000000004        0.0000000000000000     
   6.0156250000000000        1.5625000000000000        0.0000000000000000     
   6.0937500000000000        1.5625000000000000        0.0000000000000000     
   6.1718750000000009        1.5625000000000002        0.0000000000000000     
   6.2500000000000000        1.5625000000000000        0.0000000000000000     
   5.6250000000000000        1.6406249999999998        0.0000000000000000     
   5.7031250000000000        1.6406250000000002        0.0000000000000000     
   5.7812500000000000        1.6406250000000000        0.0000000000000000     
   5.8593750000000000        1.6406249999999998        0.0000000000000000     
   5.9375000000000000        1.6406249999999998        0.0000000000000000     
   6.0156250000000009        1.6406250000000004        0.0000000000000000     
   6.0937500000000000        1.6406249999999998        0.0000000000000000     
   6.1718749999999991        1.6406249999999998        0.0000000000000000     
   6.2500000000000009        1.6406250000000002        0.0000000000000000     
   5.6250000000000000        1.7187500000000000        0.0000000000000000     
   5.7031250000000009        1.7187500000000002        0.0000000000000000     
   5.7812500000000009        1.7187500000000000        0.0000000000000000     
   5.8593750000000009        1.7187500000000004        0.0000000000000000     
   5.9374999999999991        1.7187500000000000        0.0000000000000000     
   6.0156250000000000        1.7187500000000000        0.0000000000000000     
   6.0937500000000009        1.7187500000000002        0.0000000000000000     
   6.1718749999999982        1.7187500000000000        0.0000000000000000     
   6.2500000000000000        1.7187499999999998        0.0000000000000000     
   5.6250000000000009        1.7968750000000000        0.0000000000000000     
   5.7031250000000009        1.7968750000000004        0.0000000000000000     
   5.7812500000000000        1.7968750000000000        0.0000000000000000     
   5.8593750000000000        1.7968749999999998        0.0000000000000000     
   5.9375000000000009        1.7968750000000004        0.0000000000000000     
   6.0156250000000000        1.7968749999999998        0.0000000000000000     
   6.0937500000000000        1.7968750000000000        0.0000000000000000     
   6.1718750000000018        1.7968750000000004        0.0000000000000000     
   6.2500000000000000        1.7968749999999998        0.0000000000000000     
   5.6250000000000009        1.8750000000000002        0.0000000000000000     
   5.7031250000000009        1.8750000000000002        0.0000000000000000     
   5.7812500000000009        1.8750000000000004        0.0000000000000000     
   5.8593750000000000        1.8749999999999998        0.0000000000000000     
   5.9375000000000000        1.8749999999999998        0.0000000000000000     
   6.0156250000000009        1.8750000000000002        0.0000000000000000     
   6.0937500000000000        1.8750000000000002        0.0000000000000000     
   6.1718750000000000        1.8749999999999998        0.0000000000000000     
   6.2500000000000009        1.8750000000000004        0.0000000000000000     
   6.2500000000000009        1.2500000000000002        0.0000000000000000     
   6.3281250000000009        1.2500000000000000        0.0000000000000000     
   6.4062500000000000        1.2500000000000002        0.0000000000000000     
   6.4843750000000009        1.2500000000000000        0.0000000000000000     
   6.5625000000000009        1.2500000000000000        0.0000000000000000     
   6.6406250000000000        1.2500000000000000        0.0000000000000000     
   6.7187500000000009        1.2500000000000002        0.0000000000000000     
   6.7968750000000018        1.2500000000000000        0.0000000000000000     
   6.8750000000000009        1.2500000000000002        0.0000000000000000     
   6.2500000000000009        1.3281250000000000        0.0000000000000000     
   6.3281250000000000        1.3281250000000004        0.0000000000000000     
   6.4062500000000009        1.3281250000000002        0.0000000000000000     
   6.4843750000000009        1.3281250000000000        0.0000000000000000     
   6.5625000000000000        1.3281250000000004        0.0000000000000000     
   6.6406250000000018        1.3281250000000000        0.0000000000000000     
   6.7187500000000000        1.3281250000000002        0.0000000000000000     
   6.7968750000000000        1.3281250000000004        0.0000000000000000     
   6.8750000000000018        1.3281250000000000        0.0000000000000000     
   6.2500000000000000        1.4062500000000002        0.0000000000000000     
   6.3281250000000000        1.4062500000000000        0.0000000000000000     
   6.4062500000000000        1.4062500000000000        0.0000000000000000     
   6.4843750000000000        1.4062500000000000        0.0000000000000000     
   6.5625000000000000        1.4062499999999998        0.0000000000000000     
   6.6406250000000000        1.4062500000000000        0.0000000000000000     
   6.7187500000000000        1.4062500000000000        0.0000000000000000     
   6.7968750000000009        1.4062500000000000        0.0000000000000000     
   6.8750000000000000        1.4062500000000002        0.0000000000000000     
   6.2499999999999991        1.4843749999999998        0.0000000000000000     
   6.3281250000000009        1.4843750000000000        0.0000000000000000     
   6.4062500000000000        1.4843750000000000        0.0000000000000000     
   6.4843749999999991        1.4843750000000000        0.0000000000000000     
   6.5625000000000018        1.4843750000000002        0.0000000000000000     
   6.6406250000000009        1.4843750000000000        0.0000000000000000     
   6.7187499999999991        1.4843750000000000        0.0000000000000000     
   6.7968750000000018        1.4843750000000000        0.0000000000000000     
   6.8749999999999991        1.4843749999999998        0.0000000000000000     
   6.2500000000000000        1.5625000000000000        0.0000000000000000     
   6.3281249999999991        1.5625000000000004        0.0000000000000000     
   6.4062500000000009        1.5624999999999998        0.0000000000000000     
   6.4843750000000000        1.5625000000000000        0.0000000000000000     
   6.5625000000000000        1.5625000000000002        0.0000000000000000     
   6.6406250000000009        1.5625000000000000        0.0000000000000000     
   6.7187500000000000        1.5625000000000000        0.0000000000000000     
   6.7968750000000000        1.5625000000000002        0.0000000000000000     
   6.8750000000000009        1.5625000000000000        0.0000000000000000     
   6.2500000000000009        1.6406250000000002        0.0000000000000000     
   6.3281250000000009        1.6406249999999998        0.0000000000000000     
   6.4062500000000000        1.6406250000000000        0.0000000000000000     
   6.4843750000000009        1.6406250000000000        0.0000000000000000     
   6.5625000000000000        1.6406249999999998        0.0000000000000000     
   6.6406250000000009        1.6406250000000004        0.0000000000000000     
   6.7187500000000000        1.6406250000000000        0.0000000000000000     
   6.7968750000000018        1.6406249999999998        0.0000000000000000     
   6.8750000000000000        1.6406250000000002        0.0000000000000000     
   6.2500000000000000        1.7187499999999998        0.0000000000000000     
   6.3281250000000009        1.7187500000000002        0.0000000000000000     
   6.4062500000000000        1.7187500000000000        0.0000000000000000     
   6.4843749999999991        1.7187499999999998        0.0000000000000000     
   6.5625000000000009        1.7187500000000002        0.0000000000000000     
   6.6406250000000000        1.7187500000000000        0.0000000000000000     
   6.7187499999999991        1.7187499999999998        0.0000000000000000     
   6.7968750000000018        1.7187500000000002        0.0000000000000000     
   6.8749999999999982        1.7187499999999998        0.0000000000000000     
   6.2500000000000000        1.7968749999999998        0.0000000000000000     
   6.3281250000000009        1.7968750000000007        0.0000000000000000     
   6.4062500000000000        1.7968750000000000        0.0000000000000000     
   6.4843749999999982        1.7968749999999996        0.0000000000000000     
   6.5625000000000018        1.7968750000000007        0.0000000000000000     
   6.6406250000000000        1.7968749999999998        0.0000000000000000     
   6.7187499999999982        1.7968749999999996        0.0000000000000000     
   6.7968750000000000        1.7968750000000007        0.0000000000000000     
   6.8750000000000000        1.7968749999999998        0.0000000000000000     
   6.2500000000000009        1.8750000000000004        0.0000000000000000     
   6.3281250000000009        1.8750000000000000        0.0000000000000000     
   6.4062500000000000        1.8750000000000004        0.0000000000000000     
   6.4843750000000009        1.8750000000000002        0.0000000000000000     
   6.5625000000000009        1.8749999999999998        0.0000000000000000     
   6.6406250000000000        1.8750000000000002        0.0000000000000000     
   6.7187500000000009        1.8750000000000002        0.0000000000000000     
   6.7968750000000018        1.8750000000000000        0.0000000000000000     
   6.8750000000000009        1.8750000000000004        0.0000000000000000     
   6.8750000000000009        1.2500000000000002        0.0000000000000000     
   6.9531250000000009        1.2500000000000000        0.0000000000000000     
   7.0312500000000000        1.2500000000000002        0.0000000000000000     
   7.1093750000000009        1.2500000000000000        0.0000000000000000     
   7.1875000000000009        1.2500000000000000        0.0000000000000000     
   7.2656250000000000        1.2500000000000000        0.0000000000000000     
   7.3437500000000018        1.2500000000000002        0.0000000000000000     
   7.4218750000000018        1.2500000000000000        0.0000000000000000     
   7.5000000000000027        1.2500000000000002        0.0000000000000000     
   6.8750000000000018        1.3281250000000000        0.0000000000000000     
   6.9531250000000018        1.3281250000000004        0.0000000000000000     
   7.0312500000000009        1.3281250000000002        0.0000000000000000     
   7.1093750000000018        1.3281250000000000        0.0000000000000000     
   7.1875000000000018        1.3281250000000004        0.0000000000000000     
   7.2656250000000000        1.3281250000000000        0.0000000000000000     
   7.3437500000000009        1.3281250000000002        0.0000000000000000     
   7.4218750000000000        1.3281250000000004        0.0000000000000000     
   7.5000000000000009        1.3281250000000000        0.0000000000000000     
   6.8750000000000000        1.4062500000000002        0.0000000000000000     
   6.9531250000000009        1.4062500000000000        0.0000000000000000     
   7.0312500000000000        1.4062500000000000        0.0000000000000000     
   7.1093750000000000        1.4062500000000000        0.0000000000000000     
   7.1875000000000000        1.4062499999999998        0.0000000000000000     
   7.2656250000000009        1.4062500000000000        0.0000000000000000     
   7.3437500000000000        1.4062500000000000        0.0000000000000000     
   7.4218750000000009        1.4062500000000000        0.0000000000000000     
   7.5000000000000009        1.4062500000000002        0.0000000000000000     
   6.8749999999999991        1.4843749999999998        0.0000000000000000     
   6.9531250000000009        1.4843750000000000        0.0000000000000000     
   7.0312500000000000        1.4843750000000000        0.0000000000000000     
   7.1093749999999991        1.4843750000000000        0.0000000000000000     
   7.1875000000000009        1.4843750000000002        0.0000000000000000     
   7.2656250000000000        1.4843750000000000        0.0000000000000000     
   7.3437499999999991        1.4843750000000000        0.0000000000000000     
   7.4218750000000000        1.4843750000000000        0.0000000000000000     
   7.4999999999999982        1.4843749999999998        0.0000000000000000     
   6.8750000000000009        1.5625000000000000        0.0000000000000000     
   6.9531249999999991        1.5625000000000004        0.0000000000000000     
   7.0312500000000000        1.5624999999999998        0.0000000000000000     
   7.1093750000000009        1.5625000000000000        0.0000000000000000     
   7.1874999999999991        1.5625000000000002        0.0000000000000000     
   7.2656250000000000        1.5625000000000000        0.0000000000000000     
   7.3437500000000009        1.5625000000000000        0.0000000000000000     
   7.4218749999999991        1.5625000000000002        0.0000000000000000     
   7.5000000000000000        1.5625000000000000        0.0000000000000000     
   6.8750000000000000        1.6406250000000002        0.0000000000000000     
   6.9531250000000018        1.6406249999999998        0.0000000000000000     
   7.0312500000000000        1.6406250000000000        0.0000000000000000     
   7.1093750000000009        1.6406250000000000        0.0000000000000000     
   7.1875000000000018        1.6406249999999998        0.0000000000000000     
   7.2656250000000009        1.6406250000000004        0.0000000000000000     
   7.3437500000000000        1.6406250000000000        0.0000000000000000     
   7.4218750000000000        1.6406249999999998        0.0000000000000000     
   7.5000000000000009        1.6406250000000002        0.0000000000000000     
   6.8749999999999982        1.7187499999999998        0.0000000000000000     
   6.9531250000000009        1.7187500000000002        0.0000000000000000     
   7.0312500000000000        1.7187500000000000        0.0000000000000000     
   7.1093749999999982        1.7187499999999998        0.0000000000000000     
   7.1875000000000009        1.7187500000000002        0.0000000000000000     
   7.2656250000000000        1.7187500000000000        0.0000000000000000     
   7.3437499999999982        1.7187499999999998        0.0000000000000000     
   7.4218750000000009        1.7187500000000002        0.0000000000000000     
   7.4999999999999982        1.7187499999999998        0.0000000000000000     
   6.8750000000000000        1.7968749999999998        0.0000000000000000     
   6.9531250000000027        1.7968750000000007        0.0000000000000000     
   7.0312500000000000        1.7968750000000000        0.0000000000000000     
   7.1093749999999991        1.7968749999999996        0.0000000000000000     
   7.1875000000000027        1.7968750000000007        0.0000000000000000     
   7.2656250000000000        1.7968749999999998        0.0000000000000000     
   7.3437500000000000        1.7968749999999996        0.0000000000000000     
   7.4218750000000009        1.7968750000000007        0.0000000000000000     
   7.5000000000000000        1.7968749999999998        0.0000000000000000     
   6.8750000000000009        1.8750000000000004        0.0000000000000000     
   6.9531250000000009        1.8750000000000000        0.0000000000000000     
   7.0312500000000000        1.8750000000000004        0.0000000000000000     
   7.1093750000000009        1.8750000000000002        0.0000000000000000     
   7.1875000000000009        1.8749999999999998        0.0000000000000000     
   7.2656250000000000        1.8750000000000002        0.0000000000000000     
   7.3437500000000018        1.8750000000000002        0.0000000000000000     
   7.4218750000000018        1.8750000000000000        0.0000000000000000     
   7.5000000000000027        1.8750000000000004        0.0000000000000000     
   7.5000000000000027        1.2500000000000002        0.0000000000000000     
   7.5781250000000009        1.2500000000000000        0.0000000000000000     
   7.6562500000000018        1.2500000000000002        0.0000000000000000     
   7.7343750000000000        1.2500000000000000        0.0000000000000000     
   7.8124999999999991        1.2500000000000000        0.0000000000000000     
   7.8906249999999991        1.2500000000000000        0.0000000000000000     
   7.9687500000000018        1.2500000000000002        0.0000000000000000     
   8.0468750000000018        1.2500000000000000        0.0000000000000000     
   8.1250000000000000        1.2500000000000002        0.0000000000000000     
   7.5000000000000009        1.3281250000000000        0.0000000000000000     
   7.5781250000000009        1.3281250000000004        0.0000000000000000     
   7.6562500000000018        1.3281250000000002        0.0000000000000000     
   7.7343750000000000        1.3281250000000000        0.0000000000000000     
   7.8125000000000009        1.3281250000000004        0.0000000000000000     
   7.8906250000000009        1.3281250000000000        0.0000000000000000     
   7.9687500000000018        1.3281250000000002        0.0000000000000000     
   8.0468749999999982        1.3281250000000004        0.0000000000000000     
   8.1250000000000018        1.3281250000000000        0.0000000000000000     
   7.5000000000000009        1.4062500000000002        0.0000000000000000     
   7.5781250000000009        1.4062500000000000        0.0000000000000000     
   7.6562500000000000        1.4062500000000000        0.0000000000000000     
   7.7343750000000009        1.4062500000000000        0.0000000000000000     
   7.8125000000000009        1.4062499999999998        0.0000000000000000     
   7.8906250000000000        1.4062500000000000        0.0000000000000000     
   7.9687500000000009        1.4062500000000000        0.0000000000000000     
   8.0468750000000018        1.4062500000000000        0.0000000000000000     
   8.1250000000000018        1.4062500000000002        0.0000000000000000     
   7.4999999999999982        1.4843749999999998        0.0000000000000000     
   7.5781249999999991        1.4843750000000000        0.0000000000000000     
   7.6562500000000000        1.4843750000000000        0.0000000000000000     
   7.7343749999999991        1.4843750000000000        0.0000000000000000     
   7.8124999999999991        1.4843750000000002        0.0000000000000000     
   7.8906250000000000        1.4843750000000000        0.0000000000000000     
   7.9687499999999991        1.4843750000000000        0.0000000000000000     
   8.0468750000000000        1.4843750000000000        0.0000000000000000     
   8.1249999999999982        1.4843749999999998        0.0000000000000000     
   7.5000000000000000        1.5625000000000000        0.0000000000000000     
   7.5781250000000009        1.5625000000000004        0.0000000000000000     
   7.6562500000000018        1.5624999999999998        0.0000000000000000     
   7.7343750000000018        1.5625000000000000        0.0000000000000000     
   7.8125000000000009        1.5625000000000002        0.0000000000000000     
   7.8906250000000018        1.5625000000000000        0.0000000000000000     
   7.9687500000000000        1.5625000000000000        0.0000000000000000     
   8.0468749999999982        1.5625000000000002        0.0000000000000000     
   8.1250000000000000        1.5625000000000000        0.0000000000000000     
   7.5000000000000009        1.6406250000000002        0.0000000000000000     
   7.5781249999999991        1.6406249999999998        0.0000000000000000     
   7.6562500000000000        1.6406250000000000        0.0000000000000000     
   7.7343750000000009        1.6406250000000000        0.0000000000000000     
   7.8124999999999991        1.6406249999999998        0.0000000000000000     
   7.8906250000000000        1.6406250000000004        0.0000000000000000     
   7.9687500000000000        1.6406250000000000        0.0000000000000000     
   8.0468750000000000        1.6406249999999998        0.0000000000000000     
   8.1250000000000000        1.6406250000000002        0.0000000000000000     
   7.4999999999999982        1.7187499999999998        0.0000000000000000     
   7.5781250000000009        1.7187500000000002        0.0000000000000000     
   7.6562500000000000        1.7187500000000000        0.0000000000000000     
   7.7343749999999991        1.7187499999999998        0.0000000000000000     
   7.8124999999999982        1.7187500000000002        0.0000000000000000     
   7.8906249999999991        1.7187500000000000        0.0000000000000000     
   7.9687499999999991        1.7187499999999998        0.0000000000000000     
   8.0468750000000036        1.7187500000000002        0.0000000000000000     
   8.1250000000000000        1.7187499999999998        0.0000000000000000     
   7.5000000000000000        1.7968749999999998        0.0000000000000000     
   7.5781250000000036        1.7968750000000007        0.0000000000000000     
   7.6562500000000018        1.7968750000000000        0.0000000000000000     
   7.7343750000000000        1.7968749999999996        0.0000000000000000     
   7.8125000000000018        1.7968750000000007        0.0000000000000000     
   7.8906250000000018        1.7968749999999998        0.0000000000000000     
   7.9687499999999991        1.7968749999999996        0.0000000000000000     
   8.0468750000000000        1.7968750000000007        0.0000000000000000     
   8.1249999999999982        1.7968749999999998        0.0000000000000000     
   7.5000000000000027        1.8750000000000004        0.0000000000000000     
   7.5781250000000009        1.8750000000000000        0.0000000000000000     
   7.6562500000000018        1.8750000000000004        0.0000000000000000     
   7.7343750000000000        1.8750000000000002        0.0000000000000000     
   7.8124999999999991        1.8749999999999998        0.0000000000000000     
   7.8906249999999991        1.8750000000000002        0.0000000000000000     
   7.9687500000000018        1.8750000000000002        0.0000000000000000     
   8.0468750000000018        1.8750000000000000        0.0000000000000000     
   8.1250000000000000        1.8750000000000004        0.0000000000000000     
   8.1250000000000000        1.2500000000000002        0.0000000000000000     
   8.2031250000000000        1.2500000000000000        0.0000000000000000     
   8.2812500000000018        1.2500000000000002        0.0000000000000000     
   8.3593750000000000        1.2500000000000000        0.0000000000000000     
   8.4375000000000000        1.2500000000000000        0.0000000000000000     
   8.5156250000000000        1.2500000000000000        0.0000000000000000     
   8.5937500000000018        1.2500000000000002        0.0000000000000000     
   8.6718750000000018        1.2500000000000000        0.0000000000000000     
   8.7500000000000036        1.2500000000000002        0.0000000000000000     
   8.1250000000000018        1.3281250000000000        0.0000000000000000     
   8.2031250000000018        1.3281250000000004        0.0000000000000000     
   8.2812500000000000        1.3281250000000002        0.0000000000000000     
   8.3593750000000000        1.3281250000000000        0.0000000000000000     
   8.4375000000000018        1.3281250000000004        0.0000000000000000     
   8.5156250000000000        1.3281250000000000        0.0000000000000000     
   8.5937500000000000        1.3281250000000002        0.0000000000000000     
   8.6718750000000018        1.3281250000000004        0.0000000000000000     
   8.7500000000000018        1.3281250000000000        0.0000000000000000     
   8.1250000000000018        1.4062500000000002        0.0000000000000000     
   8.2031250000000018        1.4062500000000000        0.0000000000000000     
   8.2812500000000000        1.4062500000000000        0.0000000000000000     
   8.3593750000000000        1.4062500000000000        0.0000000000000000     
   8.4375000000000000        1.4062499999999998        0.0000000000000000     
   8.5156250000000000        1.4062500000000000        0.0000000000000000     
   8.5937500000000000        1.4062500000000000        0.0000000000000000     
   8.6718750000000000        1.4062500000000000        0.0000000000000000     
   8.7500000000000018        1.4062500000000002        0.0000000000000000     
   8.1249999999999982        1.4843749999999998        0.0000000000000000     
   8.2031250000000000        1.4843750000000000        0.0000000000000000     
   8.2812500000000000        1.4843750000000000        0.0000000000000000     
   8.3593750000000000        1.4843750000000000        0.0000000000000000     
   8.4375000000000000        1.4843750000000002        0.0000000000000000     
   8.5156250000000000        1.4843750000000000        0.0000000000000000     
   8.5937500000000018        1.4843750000000000        0.0000000000000000     
   8.6718750000000000        1.4843750000000000        0.0000000000000000     
   8.7499999999999964        1.4843749999999998        0.0000000000000000     
   8.1250000000000000        1.5625000000000000        0.0000000000000000     
   8.2031250000000000        1.5625000000000004        0.0000000000000000     
   8.2812500000000018        1.5624999999999998        0.0000000000000000     
   8.3593750000000000        1.5625000000000000        0.0000000000000000     
   8.4375000000000000        1.5625000000000002        0.0000000000000000     
   8.5156250000000036        1.5625000000000000        0.0000000000000000     
   8.5937500000000000        1.5625000000000000        0.0000000000000000     
   8.6718750000000000        1.5625000000000002        0.0000000000000000     
   8.7500000000000036        1.5625000000000000        0.0000000000000000     
   8.1250000000000000        1.6406250000000002        0.0000000000000000     
   8.2031250000000000        1.6406249999999998        0.0000000000000000     
   8.2812500000000000        1.6406250000000000        0.0000000000000000     
   8.3593750000000000        1.6406250000000000        0.0000000000000000     
   8.4375000000000000        1.6406249999999998        0.0000000000000000     
   8.5156250000000000        1.6406250000000004        0.0000000000000000     
   8.5937500000000018        1.6406250000000000        0.0000000000000000     
   8.6718750000000000        1.6406249999999998        0.0000000000000000     
   8.7500000000000018        1.6406250000000002        0.0000000000000000     
   8.1250000000000000        1.7187499999999998        0.0000000000000000     
   8.2031250000000018        1.7187500000000002        0.0000000000000000     
   8.2812500000000000        1.7187500000000000        0.0000000000000000     
   8.3593750000000000        1.7187499999999998        0.0000000000000000     
   8.4375000000000000        1.7187500000000002        0.0000000000000000     
   8.5156250000000000        1.7187500000000000        0.0000000000000000     
   8.5937500000000000        1.7187499999999998        0.0000000000000000     
   8.6718750000000000        1.7187500000000002        0.0000000000000000     
   8.7500000000000000        1.7187499999999998        0.0000000000000000     
   8.1249999999999982        1.7968749999999998        0.0000000000000000     
   8.2031250000000018        1.7968750000000007        0.0000000000000000     
   8.2812500000000018        1.7968750000000000        0.0000000000000000     
   8.3593749999999982        1.7968749999999996        0.0000000000000000     
   8.4375000000000018        1.7968750000000007        0.0000000000000000     
   8.5156250000000036        1.7968749999999998        0.0000000000000000     
   8.5937499999999982        1.7968749999999996        0.0000000000000000     
   8.6718750000000018        1.7968750000000007        0.0000000000000000     
   8.7500000000000018        1.7968749999999998        0.0000000000000000     
   8.1250000000000000        1.8750000000000004        0.0000000000000000     
   8.2031250000000000        1.8750000000000000        0.0000000000000000     
   8.2812500000000018        1.8750000000000004        0.0000000000000000     
   8.3593750000000000        1.8750000000000002        0.0000000000000000     
   8.4375000000000000        1.8749999999999998        0.0000000000000000     
   8.5156250000000000        1.8750000000000002        0.0000000000000000     
   8.5937500000000018        1.8750000000000002        0.0000000000000000     
   8.6718750000000018        1.8750000000000000        0.0000000000000000     
   8.7500000000000036        1.8750000000000004        0.0000000000000000     
   8.7500000000000036        1.2500000000000002        0.0000000000000000     
   8.8281250000000018        1.2500000000000000        0.0000000000000000     
   8.9062500000000018        1.2500000000000002        0.0000000000000000     
   8.9843750000000018        1.2500000000000000        0.0000000000000000     
   9.0625000000000018        1.2500000000000000        0.0000000000000000     
   9.1406250000000000        1.2500000000000000        0.0000000000000000     
   9.2187500000000000        1.2500000000000002        0.0000000000000000     
   9.2968750000000000        1.2500000000000000        0.0000000000000000     
   9.3750000000000018        1.2500000000000000        0.0000000000000000     
   8.7500000000000018        1.3281250000000000        0.0000000000000000     
   8.8281250000000018        1.3281250000000004        0.0000000000000000     
   8.9062500000000018        1.3281250000000002        0.0000000000000000     
   8.9843750000000000        1.3281249999999998        0.0000000000000000     
   9.0625000000000018        1.3281250000000004        0.0000000000000000     
   9.1406250000000000        1.3281250000000000        0.0000000000000000     
   9.2187500000000036        1.3281249999999998        0.0000000000000000     
   9.2968750000000018        1.3281250000000004        0.0000000000000000     
   9.3750000000000018        1.3281249999999998        0.0000000000000000     
   8.7500000000000018        1.4062500000000002        0.0000000000000000     
   8.8281250000000000        1.4062500000000000        0.0000000000000000     
   8.9062500000000000        1.4062500000000000        0.0000000000000000     
   8.9843750000000018        1.4062500000000000        0.0000000000000000     
   9.0625000000000018        1.4062499999999998        0.0000000000000000     
   9.1406250000000000        1.4062500000000000        0.0000000000000000     
   9.2187500000000018        1.4062500000000000        0.0000000000000000     
   9.2968750000000018        1.4062500000000000        0.0000000000000000     
   9.3750000000000000        1.4062500000000000        0.0000000000000000     
   8.7499999999999964        1.4843749999999998        0.0000000000000000     
   8.8281250000000000        1.4843750000000000        0.0000000000000000     
   8.9062500000000000        1.4843750000000000        0.0000000000000000     
   8.9843750000000000        1.4843750000000000        0.0000000000000000     
   9.0624999999999982        1.4843749999999998        0.0000000000000000     
   9.1406250000000000        1.4843750000000000        0.0000000000000000     
   9.2187499999999982        1.4843750000000000        0.0000000000000000     
   9.2968750000000000        1.4843750000000000        0.0000000000000000     
   9.3750000000000000        1.4843750000000000        0.0000000000000000     
   8.7500000000000036        1.5625000000000000        0.0000000000000000     
   8.8281250000000018        1.5625000000000004        0.0000000000000000     
   8.9062500000000000        1.5625000000000000        0.0000000000000000     
   8.9843750000000036        1.5625000000000000        0.0000000000000000     
   9.0625000000000018        1.5625000000000002        0.0000000000000000     
   9.1406250000000000        1.5625000000000000        0.0000000000000000     
   9.2187500000000018        1.5625000000000000        0.0000000000000000     
   9.2968750000000018        1.5625000000000004        0.0000000000000000     
   9.3750000000000000        1.5625000000000000        0.0000000000000000     
   8.7500000000000018        1.6406250000000002        0.0000000000000000     
   8.8281250000000018        1.6406250000000000        0.0000000000000000     
   8.9062500000000000        1.6406250000000000        0.0000000000000000     
   8.9843750000000018        1.6406250000000000        0.0000000000000000     
   9.0625000000000018        1.6406250000000000        0.0000000000000000     
   9.1406250000000000        1.6406250000000000        0.0000000000000000     
   9.2187500000000000        1.6406250000000000        0.0000000000000000     
   9.2968750000000036        1.6406250000000002        0.0000000000000000     
   9.3750000000000018        1.6406250000000000        0.0000000000000000     
   8.7500000000000000        1.7187499999999998        0.0000000000000000     
   8.8281249999999982        1.7187500000000000        0.0000000000000000     
   8.9062500000000000        1.7187500000000000        0.0000000000000000     
   8.9843749999999982        1.7187499999999998        0.0000000000000000     
   9.0624999999999982        1.7187500000000000        0.0000000000000000     
   9.1406250000000036        1.7187500000000004        0.0000000000000000     
   9.2187499999999982        1.7187499999999998        0.0000000000000000     
   9.2968749999999982        1.7187500000000000        0.0000000000000000     
   9.3750000000000000        1.7187500000000000        0.0000000000000000     
   8.7500000000000018        1.7968749999999998        0.0000000000000000     
   8.8281250000000000        1.7968750000000007        0.0000000000000000     
   8.9062500000000000        1.7968750000000000        0.0000000000000000     
   8.9843750000000018        1.7968749999999996        0.0000000000000000     
   9.0625000000000018        1.7968750000000007        0.0000000000000000     
   9.1406250000000018        1.7968749999999998        0.0000000000000000     
   9.2187500000000000        1.7968749999999996        0.0000000000000000     
   9.2968750000000018        1.7968750000000004        0.0000000000000000     
   9.3750000000000000        1.7968750000000000        0.0000000000000000     
   8.7500000000000036        1.8750000000000004        0.0000000000000000     
   8.8281250000000018        1.8750000000000002        0.0000000000000000     
   8.9062500000000018        1.8750000000000004        0.0000000000000000     
   8.9843750000000018        1.8750000000000002        0.0000000000000000     
   9.0625000000000018        1.8750000000000004        0.0000000000000000     
   9.1406250000000000        1.8749999999999998        0.0000000000000000     
   9.2187500000000000        1.8750000000000002        0.0000000000000000     
   9.2968750000000000        1.8750000000000002        0.0000000000000000     
   9.3750000000000018        1.8750000000000004        0.0000000000000000     
   9.3750000000000018        1.2500000000000000        0.0000000000000000     
   9.4531250000000000        1.2500000000000000        0.0000000000000000     
   9.5312500000000018        1.2500000000000000        0.0000000000000000     
   9.6093750000000000        1.2500000000000000        0.0000000000000000     
   9.6875000000000018        1.2500000000000000        0.0000000000000000     
   9.7656250000000018        1.2500000000000002        0.0000000000000000     
   9.8437500000000000        1.2500000000000000        0.0000000000000000     
   9.9218750000000000        1.2499999999999998        0.0000000000000000     
   10.000000000000004        1.2500000000000002        0.0000000000000000     
   9.3750000000000018        1.3281249999999998        0.0000000000000000     
   9.4531250000000000        1.3281250000000002        0.0000000000000000     
   9.5312500000000018        1.3281250000000000        0.0000000000000000     
   9.6093750000000000        1.3281249999999998        0.0000000000000000     
   9.6875000000000036        1.3281250000000004        0.0000000000000000     
   9.7656250000000018        1.3281250000000000        0.0000000000000000     
   9.8437500000000018        1.3281250000000000        0.0000000000000000     
   9.9218750000000000        1.3281250000000002        0.0000000000000000     
   10.000000000000000        1.3281249999999998        0.0000000000000000     
   9.3750000000000000        1.4062500000000000        0.0000000000000000     
   9.4531250000000018        1.4062500000000000        0.0000000000000000     
   9.5312500000000000        1.4062500000000000        0.0000000000000000     
   9.6093750000000018        1.4062500000000002        0.0000000000000000     
   9.6875000000000018        1.4062500000000002        0.0000000000000000     
   9.7656250000000000        1.4062500000000000        0.0000000000000000     
   9.8437500000000018        1.4062500000000000        0.0000000000000000     
   9.9218750000000018        1.4062500000000002        0.0000000000000000     
   9.9999999999999982        1.4062499999999998        0.0000000000000000     
   9.3750000000000000        1.4843750000000000        0.0000000000000000     
   9.4531250000000018        1.4843749999999998        0.0000000000000000     
   9.5312500000000000        1.4843750000000002        0.0000000000000000     
   9.6093750000000000        1.4843750000000002        0.0000000000000000     
   9.6875000000000053        1.4843750000000002        0.0000000000000000     
   9.7656250000000000        1.4843750000000002        0.0000000000000000     
   9.8437500000000018        1.4843750000000007        0.0000000000000000     
   9.9218750000000000        1.4843749999999996        0.0000000000000000     
   10.000000000000002        1.4843750000000002        0.0000000000000000     
   9.3750000000000000        1.5625000000000000        0.0000000000000000     
   9.4531250000000018        1.5625000000000004        0.0000000000000000     
   9.5312500000000018        1.5624999999999998        0.0000000000000000     
   9.6093750000000000        1.5624999999999998        0.0000000000000000     
   9.6875000000000018        1.5625000000000004        0.0000000000000000     
   9.7656250000000018        1.5625000000000000        0.0000000000000000     
   9.8437500000000000        1.5625000000000002        0.0000000000000000     
   9.9218750000000018        1.5625000000000004        0.0000000000000000     
   10.000000000000002        1.5625000000000002        0.0000000000000000     
   9.3750000000000018        1.6406250000000000        0.0000000000000000     
   9.4531250000000018        1.6406250000000007        0.0000000000000000     
   9.5312500000000000        1.6406250000000002        0.0000000000000000     
   9.6093750000000018        1.6406250000000000        0.0000000000000000     
   9.6875000000000000        1.6406250000000000        0.0000000000000000     
   9.7656250000000018        1.6406250000000000        0.0000000000000000     
   9.8437500000000000        1.6406250000000000        0.0000000000000000     
   9.9218750000000000        1.6406250000000002        0.0000000000000000     
   10.000000000000002        1.6406250000000004        0.0000000000000000     
   9.3750000000000000        1.7187500000000000        0.0000000000000000     
   9.4531250000000018        1.7187500000000002        0.0000000000000000     
   9.5312500000000018        1.7187500000000000        0.0000000000000000     
   9.6093750000000018        1.7187500000000000        0.0000000000000000     
   9.6875000000000036        1.7187500000000007        0.0000000000000000     
   9.7656250000000018        1.7187500000000000        0.0000000000000000     
   9.8437500000000000        1.7187500000000000        0.0000000000000000     
   9.9218750000000018        1.7187500000000002        0.0000000000000000     
   10.000000000000002        1.7187500000000002        0.0000000000000000     
   9.3750000000000000        1.7968750000000000        0.0000000000000000     
   9.4531250000000018        1.7968750000000002        0.0000000000000000     
   9.5312500000000018        1.7968749999999998        0.0000000000000000     
   9.6093749999999982        1.7968749999999993        0.0000000000000000     
   9.6875000000000053        1.7968750000000011        0.0000000000000000     
   9.7656250000000018        1.7968750000000000        0.0000000000000000     
   9.8437500000000018        1.7968750000000000        0.0000000000000000     
   9.9218750000000000        1.7968750000000004        0.0000000000000000     
   10.000000000000000        1.7968749999999998        0.0000000000000000     
   9.3750000000000018        1.8750000000000004        0.0000000000000000     
   9.4531250000000000        1.8750000000000002        0.0000000000000000     
   9.5312500000000018        1.8750000000000002        0.0000000000000000     
   9.6093750000000000        1.8750000000000000        0.0000000000000000     
   9.6875000000000018        1.8750000000000002        0.0000000000000000     
   9.7656250000000000        1.8750000000000000        0.0000000000000000     
   9.8437500000000000        1.8749999999999998        0.0000000000000000     
   9.9218750000000000        1.8750000000000000        0.0000000000000000     
   10.000000000000004        1.8750000000000004        0.0000000000000000     
   5.0000000000000018        1.8750000000000004        0.0000000000000000     
   5.0781250000000000        1.8750000000000000        0.0000000000000000     
   5.1562500000000000        1.8749999999999998        0.0000000000000000     
   5.2343750000000009        1.8750000000000000        0.0000000000000000     
   5.3125000000000018        1.8750000000000002        0.0000000000000000     
   5.3906250000000009        1.8749999999999998        0.0000000000000000     
   5.4687500000000000        1.8750000000000002        0.0000000000000000     
   5.5468750000000009        1.8750000000000002        0.0000000000000000     
   5.6250000000000009        1.8750000000000002        0.0000000000000000     
   5.0000000000000000        1.9531250000000000        0.0000000000000000     
   5.0781250000000000        1.9531250000000000        0.0000000000000000     
   5.1562500000000000        1.9531250000000002        0.0000000000000000     
   5.2343750000000009        1.9531250000000002        0.0000000000000000     
   5.3125000000000018        1.9531250000000000        0.0000000000000000     
   5.3906250000000000        1.9531250000000002        0.0000000000000000     
   5.4687500000000000        1.9531249999999998        0.0000000000000000     
   5.5468750000000000        1.9531250000000000        0.0000000000000000     
   5.6250000000000000        1.9531250000000002        0.0000000000000000     
   4.9999999999999991        2.0312500000000000        0.0000000000000000     
   5.0781250000000009        2.0312500000000004        0.0000000000000000     
   5.1562500000000000        2.0312500000000000        0.0000000000000000     
   5.2343750000000000        2.0312500000000000        0.0000000000000000     
   5.3125000000000000        2.0312500000000000        0.0000000000000000     
   5.3906250000000000        2.0312500000000000        0.0000000000000000     
   5.4687500000000000        2.0312500000000000        0.0000000000000000     
   5.5468750000000009        2.0312500000000000        0.0000000000000000     
   5.6250000000000000        2.0312500000000000        0.0000000000000000     
   5.0000000000000009        2.1093750000000004        0.0000000000000000     
   5.0781249999999991        2.1093749999999996        0.0000000000000000     
   5.1562500000000000        2.1093750000000000        0.0000000000000000     
   5.2343750000000009        2.1093750000000004        0.0000000000000000     
   5.3125000000000009        2.1093750000000000        0.0000000000000000     
   5.3906250000000009        2.1093750000000000        0.0000000000000000     
   5.4687500000000000        2.1093750000000004        0.0000000000000000     
   5.5468750000000009        2.1093749999999996        0.0000000000000000     
   5.6250000000000000        2.1093750000000000        0.0000000000000000     
   5.0000000000000009        2.1875000000000004        0.0000000000000000     
   5.0781250000000000        2.1875000000000004        0.0000000000000000     
   5.1562500000000009        2.1875000000000000        0.0000000000000000     
   5.2343750000000009        2.1875000000000000        0.0000000000000000     
   5.3125000000000009        2.1875000000000009        0.0000000000000000     
   5.3906250000000000        2.1874999999999996        0.0000000000000000     
   5.4687500000000009        2.1875000000000000        0.0000000000000000     
   5.5468750000000009        2.1875000000000009        0.0000000000000000     
   5.6250000000000000        2.1875000000000000        0.0000000000000000     
   5.0000000000000009        2.2656250000000004        0.0000000000000000     
   5.0781250000000009        2.2656250000000000        0.0000000000000000     
   5.1562500000000000        2.2656250000000000        0.0000000000000000     
   5.2343750000000009        2.2656250000000000        0.0000000000000000     
   5.3125000000000009        2.2656250000000000        0.0000000000000000     
   5.3906250000000018        2.2656250000000000        0.0000000000000000     
   5.4687500000000018        2.2656250000000009        0.0000000000000000     
   5.5468750000000000        2.2656250000000004        0.0000000000000000     
   5.6250000000000000        2.2656250000000000        0.0000000000000000     
   5.0000000000000009        2.3437500000000004        0.0000000000000000     
   5.0781250000000009        2.3437500000000000        0.0000000000000000     
   5.1562500000000000        2.3437500000000000        0.0000000000000000     
   5.2343750000000000        2.3437500000000000        0.0000000000000000     
   5.3125000000000009        2.3437499999999996        0.0000000000000000     
   5.3906250000000009        2.3437500000000004        0.0000000000000000     
   5.4687500000000000        2.3437500000000004        0.0000000000000000     
   5.5468750000000018        2.3437500000000000        0.0000000000000000     
   5.6250000000000000        2.3437500000000000        0.0000000000000000     
   5.0000000000000000        2.4218749999999996        0.0000000000000000     
   5.0781250000000000        2.4218750000000004        0.0000000000000000     
   5.1562500000000000        2.4218750000000000        0.0000000000000000     
   5.2343750000000009        2.4218750000000004        0.0000000000000000     
   5.3125000000000009        2.4218750000000009        0.0000000000000000     
   5.3906250000000000        2.4218749999999996        0.0000000000000000     
   5.4687500000000000        2.4218750000000004        0.0000000000000000     
   5.5468750000000018        2.4218750000000009        0.0000000000000000     
   5.6250000000000009        2.4218750000000000        0.0000000000000000     
   5.0000000000000018        2.5000000000000004        0.0000000000000000     
   5.0781250000000009        2.5000000000000004        0.0000000000000000     
   5.1562500000000000        2.5000000000000000        0.0000000000000000     
   5.2343750000000009        2.5000000000000000        0.0000000000000000     
   5.3125000000000027        2.5000000000000004        0.0000000000000000     
   5.3906250000000009        2.5000000000000000        0.0000000000000000     
   5.4687500000000000        2.5000000000000000        0.0000000000000000     
   5.5468750000000009        2.5000000000000004        0.0000000000000000     
   5.6250000000000009        2.5000000000000000        0.0000000000000000     
   5.6250000000000009        1.8750000000000002        0.0000000000000000     
   5.7031250000000009        1.8750000000000002        0.0000000000000000     
   5.7812500000000009        1.8750000000000004        0.0000000000000000     
   5.8593750000000000        1.8749999999999998        0.0000000000000000     
   5.9375000000000000        1.8749999999999998        0.0000000000000000     
   6.0156250000000009        1.8750000000000002        0.0000000000000000     
   6.0937500000000000        1.8750000000000002        0.0000000000000000     
   6.1718750000000000        1.8749999999999998        0.0000000000000000     
   6.2500000000000009        1.8750000000000004        0.0000000000000000     
   5.6250000000000000        1.9531250000000002        0.0000000000000000     
   5.7031250000000009        1.9531250000000004        0.0000000000000000     
   5.7812500000000009        1.9531250000000000        0.0000000000000000     
   5.8593750000000000        1.9531250000000002        0.0000000000000000     
   5.9375000000000009        1.9531250000000002        0.0000000000000000     
   6.0156250000000000        1.9531249999999998        0.0000000000000000     
   6.0937500000000000        1.9531250000000004        0.0000000000000000     
   6.1718750000000009        1.9531250000000002        0.0000000000000000     
   6.2500000000000009        1.9531250000000000        0.0000000000000000     
   5.6250000000000000        2.0312500000000000        0.0000000000000000     
   5.7031250000000000        2.0312500000000000        0.0000000000000000     
   5.7812500000000000        2.0312500000000000        0.0000000000000000     
   5.8593750000000018        2.0312500000000004        0.0000000000000000     
   5.9375000000000000        2.0312500000000000        0.0000000000000000     
   6.0156250000000000        2.0312500000000000        0.0000000000000000     
   6.0937500000000009        2.0312500000000004        0.0000000000000000     
   6.1718750000000000        2.0312500000000004        0.0000000000000000     
   6.2500000000000000        2.0312500000000004        0.0000000000000000     
   5.6250000000000000        2.1093750000000000        0.0000000000000000     
   5.7031249999999991        2.1093749999999996        0.0000000000000000     
   5.7812500000000000        2.1093750000000000        0.0000000000000000     
   5.8593750000000000        2.1093750000000000        0.0000000000000000     
   5.9374999999999991        2.1093749999999996        0.0000000000000000     
   6.0156250000000009        2.1093750000000004        0.0000000000000000     
   6.0937500000000000        2.1093750000000000        0.0000000000000000     
   6.1718749999999991        2.1093749999999996        0.0000000000000000     
   6.2499999999999991        2.1093750000000000        0.0000000000000000     
   5.6250000000000000        2.1875000000000000        0.0000000000000000     
   5.7031250000000009        2.1875000000000004        0.0000000000000000     
   5.7812499999999991        2.1875000000000000        0.0000000000000000     
   5.8593750000000000        2.1875000000000000        0.0000000000000000     
   5.9375000000000018        2.1875000000000004        0.0000000000000000     
   6.0156250000000000        2.1875000000000000        0.0000000000000000     
   6.0937500000000000        2.1874999999999996        0.0000000000000000     
   6.1718750000000009        2.1875000000000004        0.0000000000000000     
   6.2500000000000000        2.1875000000000000        0.0000000000000000     
   5.6250000000000000        2.2656250000000000        0.0000000000000000     
   5.7031250000000000        2.2656250000000000        0.0000000000000000     
   5.7812500000000000        2.2656250000000000        0.0000000000000000     
   5.8593750000000000        2.2656250000000000        0.0000000000000000     
   5.9375000000000000        2.2656249999999996        0.0000000000000000     
   6.0156250000000009        2.2656250000000000        0.0000000000000000     
   6.0937500000000000        2.2656250000000000        0.0000000000000000     
   6.1718749999999991        2.2656249999999996        0.0000000000000000     
   6.2500000000000009        2.2656250000000000        0.0000000000000000     
   5.6250000000000000        2.3437500000000000        0.0000000000000000     
   5.7031250000000009        2.3437500000000000        0.0000000000000000     
   5.7812500000000009        2.3437500000000000        0.0000000000000000     
   5.8593750000000009        2.3437500000000004        0.0000000000000000     
   5.9374999999999991        2.3437499999999996        0.0000000000000000     
   6.0156250000000000        2.3437500000000004        0.0000000000000000     
   6.0937500000000009        2.3437500000000000        0.0000000000000000     
   6.1718749999999982        2.3437499999999996        0.0000000000000000     
   6.2500000000000000        2.3437500000000000        0.0000000000000000     
   5.6250000000000009        2.4218750000000000        0.0000000000000000     
   5.7031250000000009        2.4218750000000004        0.0000000000000000     
   5.7812500000000000        2.4218750000000000        0.0000000000000000     
   5.8593750000000000        2.4218749999999996        0.0000000000000000     
   5.9375000000000009        2.4218750000000004        0.0000000000000000     
   6.0156250000000000        2.4218750000000000        0.0000000000000000     
   6.0937500000000000        2.4218750000000004        0.0000000000000000     
   6.1718750000000018        2.4218750000000009        0.0000000000000000     
   6.2500000000000000        2.4218750000000000        0.0000000000000000     
   5.6250000000000009        2.5000000000000000        0.0000000000000000     
   5.7031250000000009        2.5000000000000004        0.0000000000000000     
   5.7812500000000009        2.5000000000000004        0.0000000000000000     
   5.8593750000000000        2.5000000000000000        0.0000000000000000     
   5.9375000000000000        2.5000000000000000        0.0000000000000000     
   6.0156250000000009        2.5000000000000004        0.0000000000000000     
   6.0937500000000000        2.5000000000000000        0.0000000000000000     
   6.1718750000000000        2.5000000000000000        0.0000000000000000     
   6.2500000000000009        2.5000000000000009        0.0000000000000000     
   6.2500000000000009        1.8750000000000004        0.0000000000000000     
   6.3281250000000009        1.8750000000000000        0.0000000000000000     
   6.4062500000000000        1.8750000000000004        0.0000000000000000     
   6.4843750000000009        1.8750000000000002        0.0000000000000000     
   6.5625000000000009        1.8749999999999998        0.0000000000000000     
   6.6406250000000000        1.8750000000000002        0.0000000000000000     
   6.7187500000000009        1.8750000000000002        0.0000000000000000     
   6.7968750000000018        1.8750000000000000        0.0000000000000000     
   6.8750000000000009        1.8750000000000004        0.0000000000000000     
   6.2500000000000009        1.9531250000000000        0.0000000000000000     
   6.3281250000000000        1.9531250000000004        0.0000000000000000     
   6.4062500000000009        1.9531250000000000        0.0000000000000000     
   6.4843750000000009        1.9531249999999998        0.0000000000000000     
   6.5625000000000000        1.9531250000000007        0.0000000000000000     
   6.6406250000000018        1.9531250000000000        0.0000000000000000     
   6.7187500000000000        1.9531250000000002        0.0000000000000000     
   6.7968750000000000        1.9531250000000004        0.0000000000000000     
   6.8750000000000018        1.9531250000000000        0.0000000000000000     
   6.2500000000000000        2.0312500000000004        0.0000000000000000     
   6.3281250000000000        2.0312500000000004        0.0000000000000000     
   6.4062500000000000        2.0312500000000000        0.0000000000000000     
   6.4843750000000000        2.0312500000000004        0.0000000000000000     
   6.5625000000000000        2.0312500000000004        0.0000000000000000     
   6.6406250000000000        2.0312500000000000        0.0000000000000000     
   6.7187500000000000        2.0312500000000004        0.0000000000000000     
   6.7968750000000009        2.0312500000000004        0.0000000000000000     
   6.8750000000000000        2.0312500000000004        0.0000000000000000     
   6.2499999999999991        2.1093750000000000        0.0000000000000000     
   6.3281250000000009        2.1093749999999996        0.0000000000000000     
   6.4062500000000000        2.1093750000000000        0.0000000000000000     
   6.4843749999999991        2.1093750000000000        0.0000000000000000     
   6.5625000000000018        2.1093750000000000        0.0000000000000000     
   6.6406250000000009        2.1093750000000004        0.0000000000000000     
   6.7187499999999991        2.1093750000000000        0.0000000000000000     
   6.7968750000000018        2.1093750000000000        0.0000000000000000     
   6.8749999999999991        2.1093750000000000        0.0000000000000000     
   6.2500000000000000        2.1875000000000000        0.0000000000000000     
   6.3281249999999991        2.1875000000000004        0.0000000000000000     
   6.4062500000000009        2.1875000000000000        0.0000000000000000     
   6.4843750000000000        2.1875000000000004        0.0000000000000000     
   6.5625000000000000        2.1875000000000004        0.0000000000000000     
   6.6406250000000009        2.1875000000000000        0.0000000000000000     
   6.7187500000000000        2.1875000000000000        0.0000000000000000     
   6.7968750000000000        2.1875000000000004        0.0000000000000000     
   6.8750000000000009        2.1875000000000000        0.0000000000000000     
   6.2500000000000009        2.2656250000000000        0.0000000000000000     
   6.3281250000000009        2.2656250000000004        0.0000000000000000     
   6.4062500000000000        2.2656250000000000        0.0000000000000000     
   6.4843750000000009        2.2656250000000000        0.0000000000000000     
   6.5625000000000000        2.2656250000000004        0.0000000000000000     
   6.6406250000000009        2.2656250000000000        0.0000000000000000     
   6.7187500000000000        2.2656250000000004        0.0000000000000000     
   6.7968750000000018        2.2656250000000004        0.0000000000000000     
   6.8750000000000000        2.2656250000000000        0.0000000000000000     
   6.2500000000000000        2.3437500000000000        0.0000000000000000     
   6.3281250000000009        2.3437500000000000        0.0000000000000000     
   6.4062500000000000        2.3437500000000000        0.0000000000000000     
   6.4843749999999991        2.3437500000000000        0.0000000000000000     
   6.5625000000000009        2.3437500000000000        0.0000000000000000     
   6.6406250000000000        2.3437500000000004        0.0000000000000000     
   6.7187499999999991        2.3437500000000000        0.0000000000000000     
   6.7968750000000018        2.3437500000000000        0.0000000000000000     
   6.8749999999999982        2.3437500000000000        0.0000000000000000     
   6.2500000000000000        2.4218750000000000        0.0000000000000000     
   6.3281250000000009        2.4218750000000009        0.0000000000000000     
   6.4062500000000000        2.4218750000000000        0.0000000000000000     
   6.4843749999999982        2.4218750000000000        0.0000000000000000     
   6.5625000000000018        2.4218750000000013        0.0000000000000000     
   6.6406250000000000        2.4218750000000000        0.0000000000000000     
   6.7187499999999982        2.4218750000000000        0.0000000000000000     
   6.7968750000000000        2.4218750000000009        0.0000000000000000     
   6.8750000000000000        2.4218750000000000        0.0000000000000000     
   6.2500000000000009        2.5000000000000009        0.0000000000000000     
   6.3281250000000009        2.5000000000000004        0.0000000000000000     
   6.4062500000000000        2.5000000000000004        0.0000000000000000     
   6.4843750000000009        2.5000000000000004        0.0000000000000000     
   6.5625000000000009        2.5000000000000000        0.0000000000000000     
   6.6406250000000000        2.5000000000000004        0.0000000000000000     
   6.7187500000000009        2.5000000000000004        0.0000000000000000     
   6.7968750000000018        2.5000000000000004        0.0000000000000000     
   6.8750000000000009        2.5000000000000009        0.0000000000000000     
   6.8750000000000009        1.8750000000000004        0.0000000000000000     
   6.9531250000000009        1.8750000000000000        0.0000000000000000     
   7.0312500000000000        1.8750000000000004        0.0000000000000000     
   7.1093750000000009        1.8750000000000002        0.0000000000000000     
   7.1875000000000009        1.8749999999999998        0.0000000000000000     
   7.2656250000000000        1.8750000000000002        0.0000000000000000     
   7.3437500000000018        1.8750000000000002        0.0000000000000000     
   7.4218750000000018        1.8750000000000000        0.0000000000000000     
   7.5000000000000027        1.8750000000000004        0.0000000000000000     
   6.8750000000000018        1.9531250000000000        0.0000000000000000     
   6.9531250000000018        1.9531250000000004        0.0000000000000000     
   7.0312500000000009        1.9531250000000000        0.0000000000000000     
   7.1093750000000018        1.9531249999999998        0.0000000000000000     
   7.1875000000000018        1.9531250000000007        0.0000000000000000     
   7.2656250000000000        1.9531250000000000        0.0000000000000000     
   7.3437500000000009        1.9531250000000002        0.0000000000000000     
   7.4218750000000000        1.9531250000000004        0.0000000000000000     
   7.5000000000000009        1.9531250000000000        0.0000000000000000     
   6.8750000000000000        2.0312500000000004        0.0000000000000000     
   6.9531250000000009        2.0312500000000004        0.0000000000000000     
   7.0312500000000000        2.0312500000000000        0.0000000000000000     
   7.1093750000000000        2.0312500000000004        0.0000000000000000     
   7.1875000000000000        2.0312500000000004        0.0000000000000000     
   7.2656250000000009        2.0312500000000000        0.0000000000000000     
   7.3437500000000000        2.0312500000000004        0.0000000000000000     
   7.4218750000000009        2.0312500000000004        0.0000000000000000     
   7.5000000000000009        2.0312500000000004        0.0000000000000000     
   6.8749999999999991        2.1093750000000000        0.0000000000000000     
   6.9531250000000009        2.1093749999999996        0.0000000000000000     
   7.0312500000000000        2.1093750000000000        0.0000000000000000     
   7.1093749999999991        2.1093750000000000        0.0000000000000000     
   7.1875000000000009        2.1093750000000000        0.0000000000000000     
   7.2656250000000000        2.1093750000000004        0.0000000000000000     
   7.3437499999999991        2.1093750000000000        0.0000000000000000     
   7.4218750000000000        2.1093750000000000        0.0000000000000000     
   7.4999999999999982        2.1093750000000000        0.0000000000000000     
   6.8750000000000009        2.1875000000000000        0.0000000000000000     
   6.9531249999999991        2.1875000000000004        0.0000000000000000     
   7.0312500000000000        2.1875000000000000        0.0000000000000000     
   7.1093750000000009        2.1875000000000004        0.0000000000000000     
   7.1874999999999991        2.1875000000000004        0.0000000000000000     
   7.2656250000000000        2.1875000000000000        0.0000000000000000     
   7.3437500000000009        2.1875000000000000        0.0000000000000000     
   7.4218749999999991        2.1875000000000004        0.0000000000000000     
   7.5000000000000000        2.1875000000000000        0.0000000000000000     
   6.8750000000000000        2.2656250000000000        0.0000000000000000     
   6.9531250000000018        2.2656250000000004        0.0000000000000000     
   7.0312500000000000        2.2656250000000000        0.0000000000000000     
   7.1093750000000009        2.2656250000000000        0.0000000000000000     
   7.1875000000000018        2.2656250000000004        0.0000000000000000     
   7.2656250000000009        2.2656250000000000        0.0000000000000000     
   7.3437500000000000        2.2656250000000004        0.0000000000000000     
   7.4218750000000000        2.2656250000000004        0.0000000000000000     
   7.5000000000000009        2.2656250000000000        0.0000000000000000     
   6.8749999999999982        2.3437500000000000        0.0000000000000000     
   6.9531250000000009        2.3437500000000000        0.0000000000000000     
   7.0312500000000000        2.3437500000000000        0.0000000000000000     
   7.1093749999999982        2.3437500000000000        0.0000000000000000     
   7.1875000000000009        2.3437500000000000        0.0000000000000000     
   7.2656250000000000        2.3437500000000004        0.0000000000000000     
   7.3437499999999982        2.3437500000000000        0.0000000000000000     
   7.4218750000000009        2.3437500000000000        0.0000000000000000     
   7.4999999999999982        2.3437500000000000        0.0000000000000000     
   6.8750000000000000        2.4218750000000000        0.0000000000000000     
   6.9531250000000027        2.4218750000000009        0.0000000000000000     
   7.0312500000000000        2.4218750000000000        0.0000000000000000     
   7.1093749999999991        2.4218750000000000        0.0000000000000000     
   7.1875000000000027        2.4218750000000013        0.0000000000000000     
   7.2656250000000000        2.4218750000000000        0.0000000000000000     
   7.3437500000000000        2.4218750000000000        0.0000000000000000     
   7.4218750000000009        2.4218750000000009        0.0000000000000000     
   7.5000000000000000        2.4218750000000000        0.0000000000000000     
   6.8750000000000009        2.5000000000000009        0.0000000000000000     
   6.9531250000000009        2.5000000000000004        0.0000000000000000     
   7.0312500000000000        2.5000000000000004        0.0000000000000000     
   7.1093750000000009        2.5000000000000004        0.0000000000000000     
   7.1875000000000009        2.5000000000000000        0.0000000000000000     
   7.2656250000000000        2.5000000000000004        0.0000000000000000     
   7.3437500000000018        2.5000000000000004        0.0000000000000000     
   7.4218750000000018        2.5000000000000004        0.0000000000000000     
   7.5000000000000027        2.5000000000000009        0.0000000000000000     
   7.5000000000000027        1.8750000000000004        0.0000000000000000     
   7.5781250000000009        1.8750000000000000        0.0000000000000000     
   7.6562500000000018        1.8750000000000004        0.0000000000000000     
   7.7343750000000000        1.8750000000000002        0.0000000000000000     
   7.8124999999999991        1.8749999999999998        0.0000000000000000     
   7.8906249999999991        1.8750000000000002        0.0000000000000000     
   7.9687500000000018        1.8750000000000002        0.0000000000000000     
   8.0468750000000018        1.8750000000000000        0.0000000000000000     
   8.1250000000000000        1.8750000000000004        0.0000000000000000     
   7.5000000000000009        1.9531250000000000        0.0000000000000000     
   7.5781250000000009        1.9531250000000004        0.0000000000000000     
   7.6562500000000018        1.9531250000000000        0.0000000000000000     
   7.7343750000000000        1.9531249999999998        0.0000000000000000     
   7.8125000000000009        1.9531250000000007        0.0000000000000000     
   7.8906250000000009        1.9531250000000000        0.0000000000000000     
   7.9687500000000018        1.9531250000000002        0.0000000000000000     
   8.0468749999999982        1.9531250000000004        0.0000000000000000     
   8.1250000000000018        1.9531250000000000        0.0000000000000000     
   7.5000000000000009        2.0312500000000004        0.0000000000000000     
   7.5781250000000009        2.0312500000000004        0.0000000000000000     
   7.6562500000000000        2.0312500000000000        0.0000000000000000     
   7.7343750000000009        2.0312500000000004        0.0000000000000000     
   7.8125000000000009        2.0312500000000004        0.0000000000000000     
   7.8906250000000000        2.0312500000000000        0.0000000000000000     
   7.9687500000000009        2.0312500000000004        0.0000000000000000     
   8.0468750000000018        2.0312500000000004        0.0000000000000000     
   8.1250000000000018        2.0312500000000004        0.0000000000000000     
   7.4999999999999982        2.1093750000000000        0.0000000000000000     
   7.5781249999999991        2.1093749999999996        0.0000000000000000     
   7.6562500000000000        2.1093750000000000        0.0000000000000000     
   7.7343749999999991        2.1093750000000000        0.0000000000000000     
   7.8124999999999991        2.1093750000000000        0.0000000000000000     
   7.8906250000000000        2.1093750000000004        0.0000000000000000     
   7.9687499999999991        2.1093750000000000        0.0000000000000000     
   8.0468750000000000        2.1093750000000000        0.0000000000000000     
   8.1249999999999982        2.1093750000000000        0.0000000000000000     
   7.5000000000000000        2.1875000000000000        0.0000000000000000     
   7.5781250000000009        2.1875000000000004        0.0000000000000000     
   7.6562500000000018        2.1875000000000000        0.0000000000000000     
   7.7343750000000018        2.1875000000000004        0.0000000000000000     
   7.8125000000000009        2.1875000000000004        0.0000000000000000     
   7.8906250000000018        2.1875000000000000        0.0000000000000000     
   7.9687500000000000        2.1875000000000000        0.0000000000000000     
   8.0468749999999982        2.1875000000000004        0.0000000000000000     
   8.1250000000000000        2.1875000000000000        0.0000000000000000     
   7.5000000000000009        2.2656250000000000        0.0000000000000000     
   7.5781249999999991        2.2656250000000004        0.0000000000000000     
   7.6562500000000000        2.2656250000000000        0.0000000000000000     
   7.7343750000000009        2.2656250000000000        0.0000000000000000     
   7.8124999999999991        2.2656250000000004        0.0000000000000000     
   7.8906250000000000        2.2656250000000000        0.0000000000000000     
   7.9687500000000000        2.2656250000000004        0.0000000000000000     
   8.0468750000000000        2.2656250000000004        0.0000000000000000     
   8.1250000000000000        2.2656250000000000        0.0000000000000000     
   7.4999999999999982        2.3437500000000000        0.0000000000000000     
   7.5781250000000009        2.3437500000000000        0.0000000000000000     
   7.6562500000000000        2.3437500000000000        0.0000000000000000     
   7.7343749999999991        2.3437500000000000        0.0000000000000000     
   7.8124999999999982        2.3437500000000000        0.0000000000000000     
   7.8906249999999991        2.3437500000000004        0.0000000000000000     
   7.9687499999999991        2.3437500000000000        0.0000000000000000     
   8.0468750000000036        2.3437500000000000        0.0000000000000000     
   8.1250000000000000        2.3437500000000000        0.0000000000000000     
   7.5000000000000000        2.4218750000000000        0.0000000000000000     
   7.5781250000000036        2.4218750000000009        0.0000000000000000     
   7.6562500000000018        2.4218750000000000        0.0000000000000000     
   7.7343750000000000        2.4218750000000000        0.0000000000000000     
   7.8125000000000018        2.4218750000000013        0.0000000000000000     
   7.8906250000000018        2.4218750000000000        0.0000000000000000     
   7.9687499999999991        2.4218750000000000        0.0000000000000000     
   8.0468750000000000        2.4218750000000009        0.0000000000000000     
   8.1249999999999982        2.4218750000000000        0.0000000000000000     
   7.5000000000000027        2.5000000000000009        0.0000000000000000     
   7.5781250000000009        2.5000000000000004        0.0000000000000000     
   7.6562500000000018        2.5000000000000004        0.0000000000000000     
   7.7343750000000000        2.5000000000000004        0.0000000000000000     
   7.8124999999999991        2.5000000000000000        0.0000000000000000     
   7.8906249999999991        2.5000000000000004        0.0000000000000000     
   7.9687500000000018        2.5000000000000004        0.0000000000000000     
   8.0468750000000018        2.5000000000000004        0.0000000000000000     
   8.1250000000000000        2.5000000000000009        0.0000000000000000     
   8.1250000000000000        1.8750000000000004        0.0000000000000000     
   8.2031250000000000        1.8750000000000000        0.0000000000000000     
   8.2812500000000018        1.8750000000000004        0.0000000000000000     
   8.3593750000000000        1.8750000000000002        0.0000000000000000     
   8.4375000000000000        1.8749999999999998        0.0000000000000000     
   8.5156250000000000        1.8750000000000002        0.0000000000000000     
   8.5937500000000018        1.8750000000000002        0.0000000000000000     
   8.6718750000000018        1.8750000000000000        0.0000000000000000     
   8.7500000000000036        1.8750000000000004        0.0000000000000000     
   8.1250000000000018        1.9531250000000000        0.0000000000000000     
   8.2031250000000018        1.9531250000000004        0.0000000000000000     
   8.2812500000000000        1.9531250000000000        0.0000000000000000     
   8.3593750000000000        1.9531249999999998        0.0000000000000000     
   8.4375000000000018        1.9531250000000007        0.0000000000000000     
   8.5156250000000000        1.9531250000000000        0.0000000000000000     
   8.5937500000000000        1.9531250000000002        0.0000000000000000     
   8.6718750000000018        1.9531250000000004        0.0000000000000000     
   8.7500000000000018        1.9531250000000000        0.0000000000000000     
   8.1250000000000018        2.0312500000000004        0.0000000000000000     
   8.2031250000000018        2.0312500000000004        0.0000000000000000     
   8.2812500000000000        2.0312500000000000        0.0000000000000000     
   8.3593750000000000        2.0312500000000004        0.0000000000000000     
   8.4375000000000000        2.0312500000000004        0.0000000000000000     
   8.5156250000000000        2.0312500000000000        0.0000000000000000     
   8.5937500000000000        2.0312500000000004        0.0000000000000000     
   8.6718750000000000        2.0312500000000004        0.0000000000000000     
   8.7500000000000018        2.0312500000000004        0.0000000000000000     
   8.1249999999999982        2.1093750000000000        0.0000000000000000     
   8.2031250000000000        2.1093749999999996        0.0000000000000000     
   8.2812500000000000        2.1093750000000000        0.0000000000000000     
   8.3593750000000000        2.1093750000000000        0.0000000000000000     
   8.4375000000000000        2.1093750000000000        0.0000000000000000     
   8.5156250000000000        2.1093750000000004        0.0000000000000000     
   8.5937500000000018        2.1093750000000000        0.0000000000000000     
   8.6718750000000000        2.1093750000000000        0.0000000000000000     
   8.7499999999999964        2.1093750000000000        0.0000000000000000     
   8.1250000000000000        2.1875000000000000        0.0000000000000000     
   8.2031250000000000        2.1875000000000004        0.0000000000000000     
   8.2812500000000018        2.1875000000000000        0.0000000000000000     
   8.3593750000000000        2.1875000000000004        0.0000000000000000     
   8.4375000000000000        2.1875000000000004        0.0000000000000000     
   8.5156250000000036        2.1875000000000000        0.0000000000000000     
   8.5937500000000000        2.1875000000000000        0.0000000000000000     
   8.6718750000000000        2.1875000000000004        0.0000000000000000     
   8.7500000000000036        2.1875000000000000        0.0000000000000000     
   8.1250000000000000        2.2656250000000000        0.0000000000000000     
   8.2031250000000000        2.2656250000000004        0.0000000000000000     
   8.2812500000000000        2.2656250000000000        0.0000000000000000     
   8.3593750000000000        2.2656250000000000        0.0000000000000000     
   8.4375000000000000        2.2656250000000004        0.0000000000000000     
   8.5156250000000000        2.2656250000000000        0.0000000000000000     
   8.5937500000000018        2.2656250000000004        0.0000000000000000     
   8.6718750000000000        2.2656250000000004        0.0000000000000000     
   8.7500000000000018        2.2656250000000000        0.0000000000000000     
   8.1250000000000000        2.3437500000000000        0.0000000000000000     
   8.2031250000000018        2.3437500000000000        0.0000000000000000     
   8.2812500000000000        2.3437500000000000        0.0000000000000000     
   8.3593750000000000        2.3437500000000000        0.0000000000000000     
   8.4375000000000000        2.3437500000000000        0.0000000000000000     
   8.5156250000000000        2.3437500000000004        0.0000000000000000     
   8.5937500000000000        2.3437500000000000        0.0000000000000000     
   8.6718750000000000        2.3437500000000000        0.0000000000000000     
   8.7500000000000000        2.3437500000000000        0.0000000000000000     
   8.1249999999999982        2.4218750000000000        0.0000000000000000     
   8.2031250000000018        2.4218750000000009        0.0000000000000000     
   8.2812500000000018        2.4218750000000000        0.0000000000000000     
   8.3593749999999982        2.4218750000000000        0.0000000000000000     
   8.4375000000000018        2.4218750000000013        0.0000000000000000     
   8.5156250000000036        2.4218750000000000        0.0000000000000000     
   8.5937499999999982        2.4218750000000000        0.0000000000000000     
   8.6718750000000018        2.4218750000000009        0.0000000000000000     
   8.7500000000000018        2.4218750000000000        0.0000000000000000     
   8.1250000000000000        2.5000000000000009        0.0000000000000000     
   8.2031250000000000        2.5000000000000004        0.0000000000000000     
   8.2812500000000018        2.5000000000000004        0.0000000000000000     
   8.3593750000000000        2.5000000000000004        0.0000000000000000     
   8.4375000000000000        2.5000000000000000        0.0000000000000000     
   8.5156250000000000        2.5000000000000004        0.0000000000000000     
   8.5937500000000018        2.5000000000000004        0.0000000000000000     
   8.6718750000000018        2.5000000000000004        0.0000000000000000     
   8.7500000000000036        2.5000000000000009        0.0000000000000000     
   8.7500000000000036        1.8750000000000004        0.0000000000000000     
   8.8281250000000018        1.8750000000000002        0.0000000000000000     
   8.9062500000000018        1.8750000000000004        0.0000000000000000     
   8.9843750000000018        1.8750000000000002        0.0000000000000000     
   9.0625000000000018        1.8750000000000004        0.0000000000000000     
   9.1406250000000000        1.8749999999999998        0.0000000000000000     
   9.2187500000000000        1.8750000000000002        0.0000000000000000     
   9.2968750000000000        1.8750000000000002        0.0000000000000000     
   9.3750000000000018        1.8750000000000004        0.0000000000000000     
   8.7500000000000018        1.9531250000000000        0.0000000000000000     
   8.8281250000000018        1.9531250000000004        0.0000000000000000     
   8.9062500000000018        1.9531250000000004        0.0000000000000000     
   8.9843750000000000        1.9531249999999998        0.0000000000000000     
   9.0625000000000018        1.9531250000000004        0.0000000000000000     
   9.1406250000000000        1.9531250000000000        0.0000000000000000     
   9.2187500000000036        1.9531250000000002        0.0000000000000000     
   9.2968750000000018        1.9531250000000002        0.0000000000000000     
   9.3750000000000018        1.9531250000000002        0.0000000000000000     
   8.7500000000000018        2.0312500000000004        0.0000000000000000     
   8.8281250000000000        2.0312500000000004        0.0000000000000000     
   8.9062500000000000        2.0312500000000000        0.0000000000000000     
   8.9843750000000018        2.0312500000000004        0.0000000000000000     
   9.0625000000000018        2.0312500000000004        0.0000000000000000     
   9.1406250000000000        2.0312500000000000        0.0000000000000000     
   9.2187500000000018        2.0312500000000004        0.0000000000000000     
   9.2968750000000018        2.0312500000000004        0.0000000000000000     
   9.3750000000000000        2.0312500000000000        0.0000000000000000     
   8.7499999999999964        2.1093750000000000        0.0000000000000000     
   8.8281250000000000        2.1093749999999996        0.0000000000000000     
   8.9062500000000000        2.1093750000000004        0.0000000000000000     
   8.9843750000000000        2.1093750000000000        0.0000000000000000     
   9.0624999999999982        2.1093749999999996        0.0000000000000000     
   9.1406250000000000        2.1093750000000000        0.0000000000000000     
   9.2187499999999982        2.1093750000000000        0.0000000000000000     
   9.2968750000000000        2.1093750000000000        0.0000000000000000     
   9.3750000000000000        2.1093750000000004        0.0000000000000000     
   8.7500000000000036        2.1875000000000000        0.0000000000000000     
   8.8281250000000018        2.1875000000000004        0.0000000000000000     
   8.9062500000000000        2.1875000000000000        0.0000000000000000     
   8.9843750000000036        2.1875000000000004        0.0000000000000000     
   9.0625000000000018        2.1875000000000004        0.0000000000000000     
   9.1406250000000000        2.1875000000000000        0.0000000000000000     
   9.2187500000000018        2.1875000000000000        0.0000000000000000     
   9.2968750000000018        2.1875000000000004        0.0000000000000000     
   9.3750000000000000        2.1875000000000000        0.0000000000000000     
   8.7500000000000018        2.2656250000000000        0.0000000000000000     
   8.8281250000000018        2.2656250000000000        0.0000000000000000     
   8.9062500000000000        2.2656250000000000        0.0000000000000000     
   8.9843750000000018        2.2656250000000000        0.0000000000000000     
   9.0625000000000018        2.2656250000000000        0.0000000000000000     
   9.1406250000000000        2.2656250000000000        0.0000000000000000     
   9.2187500000000000        2.2656250000000004        0.0000000000000000     
   9.2968750000000036        2.2656250000000004        0.0000000000000000     
   9.3750000000000018        2.2656250000000000        0.0000000000000000     
   8.7500000000000000        2.3437500000000000        0.0000000000000000     
   8.8281249999999982        2.3437499999999996        0.0000000000000000     
   8.9062500000000000        2.3437500000000004        0.0000000000000000     
   8.9843749999999982        2.3437500000000000        0.0000000000000000     
   9.0624999999999982        2.3437499999999996        0.0000000000000000     
   9.1406250000000036        2.3437500000000009        0.0000000000000000     
   9.2187499999999982        2.3437500000000000        0.0000000000000000     
   9.2968749999999982        2.3437499999999996        0.0000000000000000     
   9.3750000000000000        2.3437500000000004        0.0000000000000000     
   8.7500000000000018        2.4218750000000000        0.0000000000000000     
   8.8281250000000000        2.4218750000000009        0.0000000000000000     
   8.9062500000000000        2.4218750000000000        0.0000000000000000     
   8.9843750000000018        2.4218750000000000        0.0000000000000000     
   9.0625000000000018        2.4218750000000009        0.0000000000000000     
   9.1406250000000018        2.4218750000000000        0.0000000000000000     
   9.2187500000000000        2.4218750000000000        0.0000000000000000     
   9.2968750000000018        2.4218750000000009        0.0000000000000000     
   9.3750000000000000        2.4218750000000000        0.0000000000000000     
   8.7500000000000036        2.5000000000000009        0.0000000000000000     
   8.8281250000000018        2.5000000000000004        0.0000000000000000     
   8.9062500000000018        2.5000000000000000        0.0000000000000000     
   8.9843750000000018        2.5000000000000004        0.0000000000000000     
   9.0625000000000018        2.5000000000000004        0.0000000000000000     
   9.1406250000000000        2.5000000000000000        0.0000000000000000     
   9.2187500000000000        2.5000000000000004        0.0000000000000000     
   9.2968750000000000        2.5000000000000004        0.0000000000000000     
   9.3750000000000018        2.5000000000000000        0.0000000000000000     
   9.3750000000000018        1.8750000000000004        0.0000000000000000     
   9.4531250000000000        1.8750000000000002        0.0000000000000000     
   9.5312500000000018        1.8750000000000002        0.0000000000000000     
   9.6093750000000000        1.8750000000000000        0.0000000000000000     
   9.6875000000000018        1.8750000000000002        0.0000000000000000     
   9.7656250000000000        1.8750000000000000        0.0000000000000000     
   9.8437500000000000        1.8749999999999998        0.0000000000000000     
   9.9218750000000000        1.8750000000000000        0.0000000000000000     
   10.000000000000004        1.8750000000000004        0.0000000000000000     
   9.3750000000000018        1.9531250000000002        0.0000000000000000     
   9.4531250000000000        1.9531250000000000        0.0000000000000000     
   9.5312500000000000        1.9531249999999998        0.0000000000000000     
   9.6093750000000000        1.9531250000000000        0.0000000000000000     
   9.6875000000000018        1.9531250000000004        0.0000000000000000     
   9.7656250000000018        1.9531250000000002        0.0000000000000000     
   9.8437500000000018        1.9531250000000002        0.0000000000000000     
   9.9218750000000000        1.9531250000000000        0.0000000000000000     
   10.000000000000000        1.9531250000000000        0.0000000000000000     
   9.3750000000000000        2.0312500000000000        0.0000000000000000     
   9.4531250000000036        2.0312500000000004        0.0000000000000000     
   9.5312500000000000        2.0312500000000000        0.0000000000000000     
   9.6093750000000018        2.0312500000000000        0.0000000000000000     
   9.6875000000000018        2.0312500000000009        0.0000000000000000     
   9.7656250000000000        2.0312500000000000        0.0000000000000000     
   9.8437500000000018        2.0312500000000000        0.0000000000000000     
   9.9218750000000018        2.0312500000000004        0.0000000000000000     
   9.9999999999999982        2.0312500000000000        0.0000000000000000     
   9.3750000000000000        2.1093750000000004        0.0000000000000000     
   9.4531250000000018        2.1093749999999996        0.0000000000000000     
   9.5312500000000000        2.1093750000000004        0.0000000000000000     
   9.6093750000000000        2.1093750000000004        0.0000000000000000     
   9.6875000000000018        2.1093749999999996        0.0000000000000000     
   9.7656250000000000        2.1093750000000004        0.0000000000000000     
   9.8437500000000018        2.1093750000000000        0.0000000000000000     
   9.9218750000000000        2.1093749999999996        0.0000000000000000     
   10.000000000000002        2.1093750000000004        0.0000000000000000     
   9.3750000000000000        2.1875000000000000        0.0000000000000000     
   9.4531250000000018        2.1875000000000004        0.0000000000000000     
   9.5312500000000018        2.1875000000000000        0.0000000000000000     
   9.6093750000000000        2.1875000000000000        0.0000000000000000     
   9.6875000000000018        2.1875000000000009        0.0000000000000000     
   9.7656250000000018        2.1875000000000000        0.0000000000000000     
   9.8437500000000018        2.1875000000000000        0.0000000000000000     
   9.9218750000000018        2.1875000000000004        0.0000000000000000     
   10.000000000000002        2.1875000000000004        0.0000000000000000     
   9.3750000000000018        2.2656250000000000        0.0000000000000000     
   9.4531250000000018        2.2656250000000004        0.0000000000000000     
   9.5312500000000000        2.2656250000000000        0.0000000000000000     
   9.6093750000000018        2.2656250000000000        0.0000000000000000     
   9.6875000000000000        2.2656250000000000        0.0000000000000000     
   9.7656250000000000        2.2656250000000000        0.0000000000000000     
   9.8437500000000000        2.2656250000000000        0.0000000000000000     
   9.9218750000000000        2.2656250000000004        0.0000000000000000     
   10.000000000000002        2.2656250000000004        0.0000000000000000     
   9.3750000000000000        2.3437500000000004        0.0000000000000000     
   9.4531250000000018        2.3437499999999996        0.0000000000000000     
   9.5312500000000018        2.3437500000000004        0.0000000000000000     
   9.6093750000000018        2.3437500000000004        0.0000000000000000     
   9.6875000000000036        2.3437500000000004        0.0000000000000000     
   9.7656250000000018        2.3437500000000000        0.0000000000000000     
   9.8437500000000000        2.3437500000000004        0.0000000000000000     
   9.9218750000000000        2.3437499999999996        0.0000000000000000     
   10.000000000000002        2.3437500000000004        0.0000000000000000     
   9.3750000000000000        2.4218750000000000        0.0000000000000000     
   9.4531250000000018        2.4218750000000004        0.0000000000000000     
   9.5312500000000000        2.4218749999999996        0.0000000000000000     
   9.6093749999999982        2.4218749999999991        0.0000000000000000     
   9.6875000000000018        2.4218750000000013        0.0000000000000000     
   9.7656250000000000        2.4218749999999996        0.0000000000000000     
   9.8437500000000018        2.4218750000000000        0.0000000000000000     
   9.9218750000000018        2.4218750000000004        0.0000000000000000     
   10.000000000000000        2.4218749999999996        0.0000000000000000     
   9.3750000000000018        2.5000000000000000        0.0000000000000000     
   9.4531250000000000        2.5000000000000000        0.0000000000000000     
   9.5312500000000018        2.5000000000000000        0.0000000000000000     
   9.6093750000000000        2.5000000000000000        0.0000000000000000     
   9.6875000000000018        2.5000000000000004        0.0000000000000000     
   9.7656250000000018        2.5000000000000004        0.0000000000000000     
   9.8437500000000000        2.5000000000000000        0.0000000000000000     
   9.9218750000000000        2.5000000000000000        0.0000000000000000     
   10.000000000000004        2.5000000000000004        0.0000000000000000     
   5.0000000000000018        2.5000000000000004        0.0000000000000000     
   5.0781250000000009        2.5000000000000004        0.0000000000000000     
   5.1562500000000000        2.5000000000000000        0.0000000000000000     
   5.2343750000000009        2.5000000000000000        0.0000000000000000     
   5.3125000000000027        2.5000000000000004        0.0000000000000000     
   5.3906250000000009        2.5000000000000000        0.0000000000000000     
   5.4687500000000000        2.5000000000000000        0.0000000000000000     
   5.5468750000000009        2.5000000000000004        0.0000000000000000     
   5.6250000000000009        2.5000000000000000        0.0000000000000000     
   5.0000000000000000        2.5781250000000000        0.0000000000000000     
   5.0781250000000000        2.5781250000000000        0.0000000000000000     
   5.1562500000000000        2.5781250000000000        0.0000000000000000     
   5.2343750000000000        2.5781249999999996        0.0000000000000000     
   5.3125000000000000        2.5781250000000004        0.0000000000000000     
   5.3906250000000000        2.5781250000000000        0.0000000000000000     
   5.4687500000000000        2.5781250000000000        0.0000000000000000     
   5.5468750000000000        2.5781250000000004        0.0000000000000000     
   5.6250000000000000        2.5781250000000000        0.0000000000000000     
   4.9999999999999991        2.6562500000000000        0.0000000000000000     
   5.0781250000000009        2.6562500000000004        0.0000000000000000     
   5.1562500000000000        2.6562500000000000        0.0000000000000000     
   5.2343750000000000        2.6562500000000000        0.0000000000000000     
   5.3125000000000000        2.6562500000000000        0.0000000000000000     
   5.3906250000000000        2.6562500000000000        0.0000000000000000     
   5.4687500000000000        2.6562500000000000        0.0000000000000000     
   5.5468750000000009        2.6562500000000000        0.0000000000000000     
   5.6250000000000000        2.6562499999999996        0.0000000000000000     
   5.0000000000000009        2.7343750000000004        0.0000000000000000     
   5.0781249999999991        2.7343750000000000        0.0000000000000000     
   5.1562500000000000        2.7343750000000000        0.0000000000000000     
   5.2343750000000009        2.7343750000000000        0.0000000000000000     
   5.3125000000000000        2.7343750000000004        0.0000000000000000     
   5.3906250000000009        2.7343750000000000        0.0000000000000000     
   5.4687500000000000        2.7343750000000000        0.0000000000000000     
   5.5468750000000009        2.7343750000000004        0.0000000000000000     
   5.6250000000000000        2.7343750000000000        0.0000000000000000     
   5.0000000000000009        2.8125000000000004        0.0000000000000000     
   5.0781250000000000        2.8125000000000000        0.0000000000000000     
   5.1562500000000000        2.8125000000000000        0.0000000000000000     
   5.2343750000000009        2.8125000000000000        0.0000000000000000     
   5.3125000000000009        2.8125000000000009        0.0000000000000000     
   5.3906250000000000        2.8125000000000000        0.0000000000000000     
   5.4687499999999991        2.8124999999999996        0.0000000000000000     
   5.5468750000000009        2.8125000000000009        0.0000000000000000     
   5.6250000000000000        2.8125000000000000        0.0000000000000000     
   5.0000000000000009        2.8906250000000004        0.0000000000000000     
   5.0781250000000009        2.8906250000000004        0.0000000000000000     
   5.1562500000000000        2.8906250000000000        0.0000000000000000     
   5.2343750000000009        2.8906250000000004        0.0000000000000000     
   5.3125000000000009        2.8906250000000004        0.0000000000000000     
   5.3906250000000018        2.8906250000000000        0.0000000000000000     
   5.4687500000000018        2.8906250000000009        0.0000000000000000     
   5.5468750000000000        2.8906250000000004        0.0000000000000000     
   5.6250000000000000        2.8906250000000004        0.0000000000000000     
   5.0000000000000009        2.9687500000000000        0.0000000000000000     
   5.0781250000000009        2.9687500000000009        0.0000000000000000     
   5.1562500000000000        2.9687500000000004        0.0000000000000000     
   5.2343750000000000        2.9687500000000004        0.0000000000000000     
   5.3125000000000009        2.9687500000000004        0.0000000000000000     
   5.3906250000000009        2.9687500000000000        0.0000000000000000     
   5.4687500000000000        2.9687500000000004        0.0000000000000000     
   5.5468750000000009        2.9687500000000004        0.0000000000000000     
   5.6250000000000000        2.9687500000000000        0.0000000000000000     
   5.0000000000000000        3.0468749999999996        0.0000000000000000     
   5.0781250000000000        3.0468750000000009        0.0000000000000000     
   5.1562500000000000        3.0468750000000000        0.0000000000000000     
   5.2343750000000009        3.0468750000000004        0.0000000000000000     
   5.3125000000000009        3.0468750000000009        0.0000000000000000     
   5.3906250000000000        3.0468749999999996        0.0000000000000000     
   5.4687500000000000        3.0468750000000004        0.0000000000000000     
   5.5468750000000018        3.0468750000000009        0.0000000000000000     
   5.6250000000000009        3.0468750000000000        0.0000000000000000     
   5.0000000000000018        3.1250000000000000        0.0000000000000000     
   5.0781250000000000        3.1250000000000000        0.0000000000000000     
   5.1562500000000000        3.1250000000000000        0.0000000000000000     
   5.2343750000000009        3.1250000000000004        0.0000000000000000     
   5.3125000000000018        3.1250000000000004        0.0000000000000000     
   5.3906250000000009        3.1250000000000004        0.0000000000000000     
   5.4687500000000000        3.1250000000000004        0.0000000000000000     
   5.5468750000000009        3.1250000000000004        0.0000000000000000     
   5.6250000000000009        3.1250000000000004        0.0000000000000000     
   5.6250000000000009        2.5000000000000000        0.0000000000000000     
   5.7031250000000009        2.5000000000000004        0.0000000000000000     
   5.7812500000000009        2.5000000000000004        0.0000000000000000     
   5.8593750000000000        2.5000000000000000        0.0000000000000000     
   5.9375000000000000        2.5000000000000000        0.0000000000000000     
   6.0156250000000009        2.5000000000000004        0.0000000000000000     
   6.0937500000000000        2.5000000000000000        0.0000000000000000     
   6.1718750000000000        2.5000000000000000        0.0000000000000000     
   6.2500000000000009        2.5000000000000009        0.0000000000000000     
   5.6250000000000000        2.5781250000000000        0.0000000000000000     
   5.7031250000000009        2.5781250000000004        0.0000000000000000     
   5.7812500000000009        2.5781249999999996        0.0000000000000000     
   5.8593750000000000        2.5781250000000000        0.0000000000000000     
   5.9375000000000009        2.5781250000000004        0.0000000000000000     
   6.0156250000000000        2.5781249999999996        0.0000000000000000     
   6.0937500000000000        2.5781250000000004        0.0000000000000000     
   6.1718750000000009        2.5781250000000004        0.0000000000000000     
   6.2500000000000009        2.5781249999999996        0.0000000000000000     
   5.6250000000000000        2.6562499999999996        0.0000000000000000     
   5.7031250000000009        2.6562500000000004        0.0000000000000000     
   5.7812500000000000        2.6562500000000000        0.0000000000000000     
   5.8593750000000018        2.6562500000000004        0.0000000000000000     
   5.9375000000000000        2.6562500000000000        0.0000000000000000     
   6.0156250000000000        2.6562500000000000        0.0000000000000000     
   6.0937500000000009        2.6562500000000000        0.0000000000000000     
   6.1718750000000000        2.6562500000000004        0.0000000000000000     
   6.2500000000000000        2.6562500000000004        0.0000000000000000     
   5.6250000000000000        2.7343750000000000        0.0000000000000000     
   5.7031249999999991        2.7343750000000000        0.0000000000000000     
   5.7812500000000000        2.7343750000000004        0.0000000000000000     
   5.8593750000000018        2.7343750000000004        0.0000000000000000     
   5.9374999999999991        2.7343750000000000        0.0000000000000000     
   6.0156250000000009        2.7343750000000004        0.0000000000000000     
   6.0937500000000000        2.7343750000000000        0.0000000000000000     
   6.1718749999999991        2.7343750000000000        0.0000000000000000     
   6.2499999999999991        2.7343750000000000        0.0000000000000000     
   5.6250000000000000        2.8125000000000000        0.0000000000000000     
   5.7031250000000009        2.8125000000000009        0.0000000000000000     
   5.7812499999999991        2.8124999999999996        0.0000000000000000     
   5.8593750000000000        2.8125000000000000        0.0000000000000000     
   5.9375000000000018        2.8125000000000004        0.0000000000000000     
   6.0156250000000000        2.8124999999999996        0.0000000000000000     
   6.0937500000000000        2.8125000000000000        0.0000000000000000     
   6.1718750000000009        2.8125000000000004        0.0000000000000000     
   6.2500000000000000        2.8124999999999996        0.0000000000000000     
   5.6250000000000000        2.8906250000000004        0.0000000000000000     
   5.7031250000000000        2.8906250000000004        0.0000000000000000     
   5.7812500000000000        2.8906250000000000        0.0000000000000000     
   5.8593750000000000        2.8906249999999996        0.0000000000000000     
   5.9375000000000000        2.8906250000000000        0.0000000000000000     
   6.0156250000000009        2.8906250000000000        0.0000000000000000     
   6.0937500000000000        2.8906249999999996        0.0000000000000000     
   6.1718749999999991        2.8906250000000000        0.0000000000000000     
   6.2500000000000009        2.8906250000000004        0.0000000000000000     
   5.6250000000000000        2.9687500000000000        0.0000000000000000     
   5.7031250000000009        2.9687500000000004        0.0000000000000000     
   5.7812500000000009        2.9687500000000004        0.0000000000000000     
   5.8593750000000009        2.9687500000000004        0.0000000000000000     
   5.9374999999999991        2.9687500000000000        0.0000000000000000     
   6.0156250000000000        2.9687500000000000        0.0000000000000000     
   6.0937500000000009        2.9687500000000004        0.0000000000000000     
   6.1718749999999982        2.9687500000000000        0.0000000000000000     
   6.2500000000000000        2.9687500000000000        0.0000000000000000     
   5.6250000000000009        3.0468750000000000        0.0000000000000000     
   5.7031250000000009        3.0468750000000004        0.0000000000000000     
   5.7812500000000000        3.0468749999999996        0.0000000000000000     
   5.8593750000000000        3.0468750000000000        0.0000000000000000     
   5.9375000000000009        3.0468750000000004        0.0000000000000000     
   6.0156250000000000        3.0468749999999996        0.0000000000000000     
   6.0937500000000000        3.0468750000000000        0.0000000000000000     
   6.1718750000000018        3.0468750000000004        0.0000000000000000     
   6.2500000000000000        3.0468749999999991        0.0000000000000000     
   5.6250000000000009        3.1250000000000004        0.0000000000000000     
   5.7031250000000009        3.1250000000000000        0.0000000000000000     
   5.7812500000000009        3.1250000000000004        0.0000000000000000     
   5.8593750000000000        3.1250000000000000        0.0000000000000000     
   5.9375000000000000        3.1249999999999996        0.0000000000000000     
   6.0156250000000009        3.1250000000000004        0.0000000000000000     
   6.0937500000000000        3.1250000000000004        0.0000000000000000     
   6.1718750000000000        3.1249999999999996        0.0000000000000000     
   6.2500000000000009        3.1250000000000009        0.0000000000000000     
   6.2500000000000009        2.5000000000000009        0.0000000000000000     
   6.3281250000000009        2.5000000000000004        0.0000000000000000     
   6.4062500000000000        2.5000000000000004        0.0000000000000000     
   6.4843750000000009        2.5000000000000004        0.0000000000000000     
   6.5625000000000009        2.5000000000000000        0.0000000000000000     
   6.6406250000000000        2.5000000000000004        0.0000000000000000     
   6.7187500000000009        2.5000000000000004        0.0000000000000000     
   6.7968750000000018        2.5000000000000004        0.0000000000000000     
   6.8750000000000009        2.5000000000000009        0.0000000000000000     
   6.2500000000000009        2.5781249999999996        0.0000000000000000     
   6.3281250000000000        2.5781250000000004        0.0000000000000000     
   6.4062500000000009        2.5781249999999996        0.0000000000000000     
   6.4843750000000009        2.5781249999999996        0.0000000000000000     
   6.5625000000000000        2.5781250000000004        0.0000000000000000     
   6.6406250000000018        2.5781249999999996        0.0000000000000000     
   6.7187500000000000        2.5781249999999996        0.0000000000000000     
   6.7968750000000000        2.5781250000000004        0.0000000000000000     
   6.8750000000000018        2.5781249999999996        0.0000000000000000     
   6.2500000000000000        2.6562500000000004        0.0000000000000000     
   6.3281250000000000        2.6562500000000000        0.0000000000000000     
   6.4062500000000000        2.6562500000000000        0.0000000000000000     
   6.4843750000000000        2.6562500000000004        0.0000000000000000     
   6.5625000000000000        2.6562499999999996        0.0000000000000000     
   6.6406250000000000        2.6562500000000000        0.0000000000000000     
   6.7187500000000000        2.6562500000000000        0.0000000000000000     
   6.7968750000000009        2.6562500000000000        0.0000000000000000     
   6.8750000000000000        2.6562500000000004        0.0000000000000000     
   6.2499999999999991        2.7343750000000000        0.0000000000000000     
   6.3281250000000009        2.7343750000000000        0.0000000000000000     
   6.4062500000000000        2.7343750000000004        0.0000000000000000     
   6.4843749999999991        2.7343750000000000        0.0000000000000000     
   6.5625000000000018        2.7343750000000004        0.0000000000000000     
   6.6406250000000009        2.7343750000000004        0.0000000000000000     
   6.7187499999999991        2.7343750000000000        0.0000000000000000     
   6.7968750000000018        2.7343750000000004        0.0000000000000000     
   6.8749999999999991        2.7343750000000000        0.0000000000000000     
   6.2500000000000000        2.8124999999999996        0.0000000000000000     
   6.3281249999999991        2.8125000000000004        0.0000000000000000     
   6.4062500000000009        2.8124999999999996        0.0000000000000000     
   6.4843750000000000        2.8124999999999996        0.0000000000000000     
   6.5625000000000000        2.8125000000000004        0.0000000000000000     
   6.6406250000000009        2.8124999999999996        0.0000000000000000     
   6.7187500000000000        2.8124999999999996        0.0000000000000000     
   6.7968750000000000        2.8125000000000004        0.0000000000000000     
   6.8750000000000009        2.8124999999999996        0.0000000000000000     
   6.2500000000000009        2.8906250000000004        0.0000000000000000     
   6.3281250000000009        2.8906250000000000        0.0000000000000000     
   6.4062500000000000        2.8906250000000000        0.0000000000000000     
   6.4843750000000009        2.8906250000000000        0.0000000000000000     
   6.5625000000000000        2.8906250000000000        0.0000000000000000     
   6.6406250000000009        2.8906250000000000        0.0000000000000000     
   6.7187500000000000        2.8906250000000000        0.0000000000000000     
   6.7968750000000018        2.8906250000000000        0.0000000000000000     
   6.8750000000000000        2.8906250000000004        0.0000000000000000     
   6.2500000000000000        2.9687500000000000        0.0000000000000000     
   6.3281250000000009        2.9687500000000004        0.0000000000000000     
   6.4062500000000000        2.9687500000000004        0.0000000000000000     
   6.4843749999999991        2.9687500000000000        0.0000000000000000     
   6.5625000000000009        2.9687500000000004        0.0000000000000000     
   6.6406250000000000        2.9687500000000000        0.0000000000000000     
   6.7187499999999991        2.9687500000000000        0.0000000000000000     
   6.7968750000000018        2.9687500000000009        0.0000000000000000     
   6.8749999999999982        2.9687500000000000        0.0000000000000000     
   6.2500000000000000        3.0468749999999991        0.0000000000000000     
   6.3281250000000009        3.0468750000000009        0.0000000000000000     
   6.4062500000000000        3.0468749999999996        0.0000000000000000     
   6.4843749999999982        3.0468749999999991        0.0000000000000000     
   6.5625000000000018        3.0468750000000009        0.0000000000000000     
   6.6406250000000000        3.0468749999999996        0.0000000000000000     
   6.7187499999999982        3.0468749999999991        0.0000000000000000     
   6.7968750000000000        3.0468750000000009        0.0000000000000000     
   6.8750000000000000        3.0468749999999991        0.0000000000000000     
   6.2500000000000009        3.1250000000000009        0.0000000000000000     
   6.3281250000000009        3.1249999999999996        0.0000000000000000     
   6.4062500000000000        3.1250000000000004        0.0000000000000000     
   6.4843750000000009        3.1250000000000009        0.0000000000000000     
   6.5625000000000009        3.1249999999999996        0.0000000000000000     
   6.6406250000000000        3.1250000000000004        0.0000000000000000     
   6.7187500000000009        3.1250000000000004        0.0000000000000000     
   6.7968750000000018        3.1249999999999996        0.0000000000000000     
   6.8750000000000009        3.1250000000000009        0.0000000000000000     
   6.8750000000000009        2.5000000000000009        0.0000000000000000     
   6.9531250000000009        2.5000000000000004        0.0000000000000000     
   7.0312500000000000        2.5000000000000004        0.0000000000000000     
   7.1093750000000009        2.5000000000000004        0.0000000000000000     
   7.1875000000000009        2.5000000000000000        0.0000000000000000     
   7.2656250000000000        2.5000000000000004        0.0000000000000000     
   7.3437500000000018        2.5000000000000004        0.0000000000000000     
   7.4218750000000018        2.5000000000000004        0.0000000000000000     
   7.5000000000000027        2.5000000000000009        0.0000000000000000     
   6.8750000000000018        2.5781249999999996        0.0000000000000000     
   6.9531250000000018        2.5781250000000004        0.0000000000000000     
   7.0312500000000009        2.5781249999999996        0.0000000000000000     
   7.1093750000000018        2.5781249999999996        0.0000000000000000     
   7.1875000000000018        2.5781250000000004        0.0000000000000000     
   7.2656250000000000        2.5781249999999996        0.0000000000000000     
   7.3437500000000009        2.5781249999999996        0.0000000000000000     
   7.4218750000000000        2.5781250000000004        0.0000000000000000     
   7.5000000000000009        2.5781249999999996        0.0000000000000000     
   6.8750000000000000        2.6562500000000004        0.0000000000000000     
   6.9531250000000009        2.6562500000000000        0.0000000000000000     
   7.0312500000000000        2.6562500000000000        0.0000000000000000     
   7.1093750000000000        2.6562500000000004        0.0000000000000000     
   7.1875000000000000        2.6562499999999996        0.0000000000000000     
   7.2656250000000009        2.6562500000000000        0.0000000000000000     
   7.3437500000000000        2.6562500000000000        0.0000000000000000     
   7.4218750000000009        2.6562500000000000        0.0000000000000000     
   7.5000000000000009        2.6562500000000004        0.0000000000000000     
   6.8749999999999991        2.7343750000000000        0.0000000000000000     
   6.9531250000000009        2.7343750000000000        0.0000000000000000     
   7.0312500000000000        2.7343750000000004        0.0000000000000000     
   7.1093749999999991        2.7343750000000000        0.0000000000000000     
   7.1875000000000009        2.7343750000000004        0.0000000000000000     
   7.2656250000000000        2.7343750000000004        0.0000000000000000     
   7.3437499999999991        2.7343750000000000        0.0000000000000000     
   7.4218750000000000        2.7343750000000004        0.0000000000000000     
   7.4999999999999982        2.7343750000000000        0.0000000000000000     
   6.8750000000000009        2.8124999999999996        0.0000000000000000     
   6.9531249999999991        2.8125000000000004        0.0000000000000000     
   7.0312500000000000        2.8124999999999996        0.0000000000000000     
   7.1093750000000009        2.8124999999999996        0.0000000000000000     
   7.1874999999999991        2.8125000000000004        0.0000000000000000     
   7.2656250000000000        2.8124999999999996        0.0000000000000000     
   7.3437500000000009        2.8124999999999996        0.0000000000000000     
   7.4218749999999991        2.8125000000000004        0.0000000000000000     
   7.5000000000000000        2.8124999999999996        0.0000000000000000     
   6.8750000000000000        2.8906250000000004        0.0000000000000000     
   6.9531250000000018        2.8906250000000000        0.0000000000000000     
   7.0312500000000000        2.8906250000000000        0.0000000000000000     
   7.1093750000000009        2.8906250000000000        0.0000000000000000     
   7.1875000000000018        2.8906250000000000        0.0000000000000000     
   7.2656250000000009        2.8906250000000000        0.0000000000000000     
   7.3437500000000000        2.8906250000000000        0.0000000000000000     
   7.4218750000000000        2.8906250000000000        0.0000000000000000     
   7.5000000000000009        2.8906250000000004        0.0000000000000000     
   6.8749999999999982        2.9687500000000000        0.0000000000000000     
   6.9531250000000009        2.9687500000000004        0.0000000000000000     
   7.0312500000000000        2.9687500000000004        0.0000000000000000     
   7.1093749999999982        2.9687500000000000        0.0000000000000000     
   7.1875000000000009        2.9687500000000004        0.0000000000000000     
   7.2656250000000000        2.9687500000000000        0.0000000000000000     
   7.3437499999999982        2.9687500000000000        0.0000000000000000     
   7.4218750000000009        2.9687500000000009        0.0000000000000000     
   7.4999999999999982        2.9687500000000000        0.0000000000000000     
   6.8750000000000000        3.0468749999999991        0.0000000000000000     
   6.9531250000000027        3.0468750000000009        0.0000000000000000     
   7.0312500000000000        3.0468749999999996        0.0000000000000000     
   7.1093749999999991        3.0468749999999991        0.0000000000000000     
   7.1875000000000027        3.0468750000000009        0.0000000000000000     
   7.2656250000000000        3.0468749999999996        0.0000000000000000     
   7.3437500000000000        3.0468749999999991        0.0000000000000000     
   7.4218750000000009        3.0468750000000009        0.0000000000000000     
   7.5000000000000000        3.0468749999999991        0.0000000000000000     
   6.8750000000000009        3.1250000000000009        0.0000000000000000     
   6.9531250000000009        3.1249999999999996        0.0000000000000000     
   7.0312500000000000        3.1250000000000004        0.0000000000000000     
   7.1093750000000009        3.1250000000000009        0.0000000000000000     
   7.1875000000000009        3.1249999999999996        0.0000000000000000     
   7.2656250000000000        3.1250000000000004        0.0000000000000000     
   7.3437500000000018        3.1250000000000004        0.0000000000000000     
   7.4218750000000018        3.1249999999999996        0.0000000000000000     
   7.5000000000000027        3.1250000000000009        0.0000000000000000     
   7.5000000000000027        2.5000000000000009        0.0000000000000000     
   7.5781250000000009        2.5000000000000004        0.0000000000000000     
   7.6562500000000018        2.5000000000000004        0.0000000000000000     
   7.7343750000000000        2.5000000000000004        0.0000000000000000     
   7.8124999999999991        2.5000000000000000        0.0000000000000000     
   7.8906249999999991        2.5000000000000004        0.0000000000000000     
   7.9687500000000018        2.5000000000000004        0.0000000000000000     
   8.0468750000000018        2.5000000000000004        0.0000000000000000     
   8.1250000000000000        2.5000000000000009        0.0000000000000000     
   7.5000000000000009        2.5781249999999996        0.0000000000000000     
   7.5781250000000009        2.5781250000000004        0.0000000000000000     
   7.6562500000000018        2.5781249999999996        0.0000000000000000     
   7.7343750000000000        2.5781249999999996        0.0000000000000000     
   7.8125000000000009        2.5781250000000004        0.0000000000000000     
   7.8906250000000009        2.5781249999999996        0.0000000000000000     
   7.9687500000000018        2.5781249999999996        0.0000000000000000     
   8.0468749999999982        2.5781250000000004        0.0000000000000000     
   8.1250000000000018        2.5781249999999996        0.0000000000000000     
   7.5000000000000009        2.6562500000000004        0.0000000000000000     
   7.5781250000000009        2.6562500000000000        0.0000000000000000     
   7.6562500000000000        2.6562500000000000        0.0000000000000000     
   7.7343750000000009        2.6562500000000004        0.0000000000000000     
   7.8125000000000009        2.6562499999999996        0.0000000000000000     
   7.8906250000000000        2.6562500000000000        0.0000000000000000     
   7.9687500000000009        2.6562500000000000        0.0000000000000000     
   8.0468750000000018        2.6562500000000000        0.0000000000000000     
   8.1250000000000018        2.6562500000000004        0.0000000000000000     
   7.4999999999999982        2.7343750000000000        0.0000000000000000     
   7.5781249999999991        2.7343750000000000        0.0000000000000000     
   7.6562500000000000        2.7343750000000004        0.0000000000000000     
   7.7343749999999991        2.7343750000000000        0.0000000000000000     
   7.8124999999999991        2.7343750000000004        0.0000000000000000     
   7.8906250000000000        2.7343750000000004        0.0000000000000000     
   7.9687499999999991        2.7343750000000000        0.0000000000000000     
   8.0468750000000000        2.7343750000000004        0.0000000000000000     
   8.1249999999999982        2.7343750000000000        0.0000000000000000     
   7.5000000000000000        2.8124999999999996        0.0000000000000000     
   7.5781250000000009        2.8125000000000004        0.0000000000000000     
   7.6562500000000018        2.8124999999999996        0.0000000000000000     
   7.7343750000000018        2.8124999999999996        0.0000000000000000     
   7.8125000000000009        2.8125000000000004        0.0000000000000000     
   7.8906250000000018        2.8124999999999996        0.0000000000000000     
   7.9687500000000000        2.8124999999999996        0.0000000000000000     
   8.0468749999999982        2.8125000000000004        0.0000000000000000     
   8.1250000000000000        2.8124999999999996        0.0000000000000000     
   7.5000000000000009        2.8906250000000004        0.0000000000000000     
   7.5781249999999991        2.8906250000000000        0.0000000000000000     
   7.6562500000000000        2.8906250000000000        0.0000000000000000     
   7.7343750000000009        2.8906250000000000        0.0000000000000000     
   7.8124999999999991        2.8906250000000000        0.0000000000000000     
   7.8906250000000000        2.8906250000000000        0.0000000000000000     
   7.9687500000000000        2.8906250000000000        0.0000000000000000     
   8.0468750000000000        2.8906250000000000        0.0000000000000000     
   8.1250000000000000        2.8906250000000004        0.0000000000000000     
   7.4999999999999982        2.9687500000000000        0.0000000000000000     
   7.5781250000000009        2.9687500000000004        0.0000000000000000     
   7.6562500000000000        2.9687500000000004        0.0000000000000000     
   7.7343749999999991        2.9687500000000000        0.0000000000000000     
   7.8124999999999982        2.9687500000000004        0.0000000000000000     
   7.8906249999999991        2.9687500000000000        0.0000000000000000     
   7.9687499999999991        2.9687500000000000        0.0000000000000000     
   8.0468750000000036        2.9687500000000009        0.0000000000000000     
   8.1250000000000000        2.9687500000000000        0.0000000000000000     
   7.5000000000000000        3.0468749999999991        0.0000000000000000     
   7.5781250000000036        3.0468750000000009        0.0000000000000000     
   7.6562500000000018        3.0468749999999996        0.0000000000000000     
   7.7343750000000000        3.0468749999999991        0.0000000000000000     
   7.8125000000000018        3.0468750000000009        0.0000000000000000     
   7.8906250000000018        3.0468749999999996        0.0000000000000000     
   7.9687499999999991        3.0468749999999991        0.0000000000000000     
   8.0468750000000000        3.0468750000000009        0.0000000000000000     
   8.1249999999999982        3.0468749999999991        0.0000000000000000     
   7.5000000000000027        3.1250000000000009        0.0000000000000000     
   7.5781250000000009        3.1249999999999996        0.0000000000000000     
   7.6562500000000018        3.1250000000000004        0.0000000000000000     
   7.7343750000000000        3.1250000000000009        0.0000000000000000     
   7.8124999999999991        3.1249999999999996        0.0000000000000000     
   7.8906249999999991        3.1250000000000004        0.0000000000000000     
   7.9687500000000018        3.1250000000000004        0.0000000000000000     
   8.0468750000000018        3.1249999999999996        0.0000000000000000     
   8.1250000000000000        3.1250000000000009        0.0000000000000000     
   8.1250000000000000        2.5000000000000009        0.0000000000000000     
   8.2031250000000000        2.5000000000000004        0.0000000000000000     
   8.2812500000000018        2.5000000000000004        0.0000000000000000     
   8.3593750000000000        2.5000000000000004        0.0000000000000000     
   8.4375000000000000        2.5000000000000000        0.0000000000000000     
   8.5156250000000000        2.5000000000000004        0.0000000000000000     
   8.5937500000000018        2.5000000000000004        0.0000000000000000     
   8.6718750000000018        2.5000000000000004        0.0000000000000000     
   8.7500000000000036        2.5000000000000009        0.0000000000000000     
   8.1250000000000018        2.5781249999999996        0.0000000000000000     
   8.2031250000000018        2.5781250000000004        0.0000000000000000     
   8.2812500000000000        2.5781249999999996        0.0000000000000000     
   8.3593750000000000        2.5781249999999996        0.0000000000000000     
   8.4375000000000018        2.5781250000000004        0.0000000000000000     
   8.5156250000000000        2.5781249999999996        0.0000000000000000     
   8.5937500000000000        2.5781249999999996        0.0000000000000000     
   8.6718750000000018        2.5781250000000004        0.0000000000000000     
   8.7500000000000018        2.5781249999999996        0.0000000000000000     
   8.1250000000000018        2.6562500000000004        0.0000000000000000     
   8.2031250000000018        2.6562500000000000        0.0000000000000000     
   8.2812500000000000        2.6562500000000000        0.0000000000000000     
   8.3593750000000000        2.6562500000000004        0.0000000000000000     
   8.4375000000000000        2.6562499999999996        0.0000000000000000     
   8.5156250000000000        2.6562500000000000        0.0000000000000000     
   8.5937500000000000        2.6562500000000000        0.0000000000000000     
   8.6718750000000000        2.6562500000000000        0.0000000000000000     
   8.7500000000000018        2.6562500000000004        0.0000000000000000     
   8.1249999999999982        2.7343750000000000        0.0000000000000000     
   8.2031250000000000        2.7343750000000000        0.0000000000000000     
   8.2812500000000000        2.7343750000000004        0.0000000000000000     
   8.3593750000000000        2.7343750000000000        0.0000000000000000     
   8.4375000000000000        2.7343750000000004        0.0000000000000000     
   8.5156250000000000        2.7343750000000004        0.0000000000000000     
   8.5937500000000018        2.7343750000000000        0.0000000000000000     
   8.6718750000000000        2.7343750000000004        0.0000000000000000     
   8.7499999999999964        2.7343750000000000        0.0000000000000000     
   8.1250000000000000        2.8124999999999996        0.0000000000000000     
   8.2031250000000000        2.8125000000000004        0.0000000000000000     
   8.2812500000000018        2.8124999999999996        0.0000000000000000     
   8.3593750000000000        2.8124999999999996        0.0000000000000000     
   8.4375000000000000        2.8125000000000004        0.0000000000000000     
   8.5156250000000036        2.8124999999999996        0.0000000000000000     
   8.5937500000000000        2.8124999999999996        0.0000000000000000     
   8.6718750000000000        2.8125000000000004        0.0000000000000000     
   8.7500000000000036        2.8124999999999996        0.0000000000000000     
   8.1250000000000000        2.8906250000000004        0.0000000000000000     
   8.2031250000000000        2.8906250000000000        0.0000000000000000     
   8.2812500000000000        2.8906250000000000        0.0000000000000000     
   8.3593750000000000        2.8906250000000000        0.0000000000000000     
   8.4375000000000000        2.8906250000000000        0.0000000000000000     
   8.5156250000000000        2.8906250000000000        0.0000000000000000     
   8.5937500000000018        2.8906250000000000        0.0000000000000000     
   8.6718750000000000        2.8906250000000000        0.0000000000000000     
   8.7500000000000018        2.8906250000000004        0.0000000000000000     
   8.1250000000000000        2.9687500000000000        0.0000000000000000     
   8.2031250000000018        2.9687500000000004        0.0000000000000000     
   8.2812500000000000        2.9687500000000004        0.0000000000000000     
   8.3593750000000000        2.9687500000000000        0.0000000000000000     
   8.4375000000000000        2.9687500000000004        0.0000000000000000     
   8.5156250000000000        2.9687500000000000        0.0000000000000000     
   8.5937500000000000        2.9687500000000000        0.0000000000000000     
   8.6718750000000000        2.9687500000000009        0.0000000000000000     
   8.7500000000000000        2.9687500000000000        0.0000000000000000     
   8.1249999999999982        3.0468749999999991        0.0000000000000000     
   8.2031250000000018        3.0468750000000009        0.0000000000000000     
   8.2812500000000018        3.0468749999999996        0.0000000000000000     
   8.3593749999999982        3.0468749999999991        0.0000000000000000     
   8.4375000000000018        3.0468750000000009        0.0000000000000000     
   8.5156250000000036        3.0468749999999996        0.0000000000000000     
   8.5937499999999982        3.0468749999999991        0.0000000000000000     
   8.6718750000000018        3.0468750000000009        0.0000000000000000     
   8.7500000000000018        3.0468749999999991        0.0000000000000000     
   8.1250000000000000        3.1250000000000009        0.0000000000000000     
   8.2031250000000000        3.1249999999999996        0.0000000000000000     
   8.2812500000000018        3.1250000000000004        0.0000000000000000     
   8.3593750000000000        3.1250000000000009        0.0000000000000000     
   8.4375000000000000        3.1249999999999996        0.0000000000000000     
   8.5156250000000000        3.1250000000000004        0.0000000000000000     
   8.5937500000000018        3.1250000000000004        0.0000000000000000     
   8.6718750000000018        3.1249999999999996        0.0000000000000000     
   8.7500000000000036        3.1250000000000009        0.0000000000000000     
   8.7500000000000036        2.5000000000000009        0.0000000000000000     
   8.8281250000000018        2.5000000000000004        0.0000000000000000     
   8.9062500000000018        2.5000000000000000        0.0000000000000000     
   8.9843750000000018        2.5000000000000004        0.0000000000000000     
   9.0625000000000018        2.5000000000000004        0.0000000000000000     
   9.1406250000000000        2.5000000000000000        0.0000000000000000     
   9.2187500000000000        2.5000000000000004        0.0000000000000000     
   9.2968750000000000        2.5000000000000004        0.0000000000000000     
   9.3750000000000018        2.5000000000000000        0.0000000000000000     
   8.7500000000000018        2.5781249999999996        0.0000000000000000     
   8.8281250000000018        2.5781250000000004        0.0000000000000000     
   8.9062500000000018        2.5781250000000000        0.0000000000000000     
   8.9843750000000000        2.5781249999999996        0.0000000000000000     
   9.0625000000000018        2.5781250000000004        0.0000000000000000     
   9.1406250000000000        2.5781250000000000        0.0000000000000000     
   9.2187500000000036        2.5781249999999996        0.0000000000000000     
   9.2968750000000018        2.5781250000000004        0.0000000000000000     
   9.3750000000000018        2.5781250000000000        0.0000000000000000     
   8.7500000000000018        2.6562500000000004        0.0000000000000000     
   8.8281250000000000        2.6562500000000000        0.0000000000000000     
   8.9062500000000000        2.6562500000000000        0.0000000000000000     
   8.9843750000000018        2.6562500000000004        0.0000000000000000     
   9.0625000000000018        2.6562500000000000        0.0000000000000000     
   9.1406250000000000        2.6562500000000000        0.0000000000000000     
   9.2187500000000018        2.6562500000000000        0.0000000000000000     
   9.2968750000000018        2.6562500000000000        0.0000000000000000     
   9.3750000000000000        2.6562500000000000        0.0000000000000000     
   8.7499999999999964        2.7343750000000000        0.0000000000000000     
   8.8281250000000000        2.7343750000000000        0.0000000000000000     
   8.9062500000000000        2.7343750000000000        0.0000000000000000     
   8.9843750000000000        2.7343750000000000        0.0000000000000000     
   9.0624999999999982        2.7343749999999996        0.0000000000000000     
   9.1406250000000000        2.7343750000000000        0.0000000000000000     
   9.2187499999999982        2.7343750000000000        0.0000000000000000     
   9.2968750000000000        2.7343750000000004        0.0000000000000000     
   9.3750000000000000        2.7343750000000000        0.0000000000000000     
   8.7500000000000036        2.8124999999999996        0.0000000000000000     
   8.8281250000000018        2.8125000000000000        0.0000000000000000     
   8.9062500000000000        2.8125000000000000        0.0000000000000000     
   8.9843750000000036        2.8124999999999996        0.0000000000000000     
   9.0625000000000018        2.8125000000000004        0.0000000000000000     
   9.1406250000000000        2.8125000000000000        0.0000000000000000     
   9.2187500000000018        2.8124999999999996        0.0000000000000000     
   9.2968750000000018        2.8125000000000004        0.0000000000000000     
   9.3750000000000000        2.8125000000000000        0.0000000000000000     
   8.7500000000000018        2.8906250000000004        0.0000000000000000     
   8.8281250000000018        2.8906250000000000        0.0000000000000000     
   8.9062500000000000        2.8906250000000000        0.0000000000000000     
   8.9843750000000018        2.8906250000000000        0.0000000000000000     
   9.0625000000000018        2.8906250000000000        0.0000000000000000     
   9.1406250000000000        2.8906250000000000        0.0000000000000000     
   9.2187500000000000        2.8906250000000000        0.0000000000000000     
   9.2968750000000036        2.8906250000000000        0.0000000000000000     
   9.3750000000000018        2.8906250000000009        0.0000000000000000     
   8.7500000000000000        2.9687500000000000        0.0000000000000000     
   8.8281249999999982        2.9687500000000000        0.0000000000000000     
   8.9062500000000000        2.9687500000000000        0.0000000000000000     
   8.9843749999999982        2.9687500000000000        0.0000000000000000     
   9.0624999999999982        2.9687500000000000        0.0000000000000000     
   9.1406250000000036        2.9687500000000004        0.0000000000000000     
   9.2187499999999982        2.9687500000000000        0.0000000000000000     
   9.2968749999999982        2.9687500000000004        0.0000000000000000     
   9.3750000000000000        2.9687499999999996        0.0000000000000000     
   8.7500000000000018        3.0468749999999991        0.0000000000000000     
   8.8281250000000000        3.0468750000000004        0.0000000000000000     
   8.9062500000000000        3.0468750000000000        0.0000000000000000     
   8.9843750000000018        3.0468749999999991        0.0000000000000000     
   9.0625000000000018        3.0468750000000004        0.0000000000000000     
   9.1406250000000018        3.0468750000000000        0.0000000000000000     
   9.2187500000000000        3.0468749999999991        0.0000000000000000     
   9.2968750000000018        3.0468750000000009        0.0000000000000000     
   9.3750000000000000        3.0468750000000000        0.0000000000000000     
   8.7500000000000036        3.1250000000000009        0.0000000000000000     
   8.8281250000000018        3.1250000000000004        0.0000000000000000     
   8.9062500000000018        3.1250000000000009        0.0000000000000000     
   8.9843750000000018        3.1250000000000004        0.0000000000000000     
   9.0625000000000018        3.1250000000000000        0.0000000000000000     
   9.1406250000000000        3.1250000000000000        0.0000000000000000     
   9.2187500000000000        3.1250000000000004        0.0000000000000000     
   9.2968750000000000        3.1250000000000000        0.0000000000000000     
   9.3750000000000018        3.1250000000000009        0.0000000000000000     
   9.3750000000000018        2.5000000000000000        0.0000000000000000     
   9.4531250000000000        2.5000000000000000        0.0000000000000000     
   9.5312500000000018        2.5000000000000000        0.0000000000000000     
   9.6093750000000000        2.5000000000000000        0.0000000000000000     
   9.6875000000000018        2.5000000000000004        0.0000000000000000     
   9.7656250000000018        2.5000000000000004        0.0000000000000000     
   9.8437500000000000        2.5000000000000000        0.0000000000000000     
   9.9218750000000000        2.5000000000000000        0.0000000000000000     
   10.000000000000004        2.5000000000000004        0.0000000000000000     
   9.3750000000000018        2.5781250000000000        0.0000000000000000     
   9.4531250000000000        2.5781250000000000        0.0000000000000000     
   9.5312500000000018        2.5781250000000000        0.0000000000000000     
   9.6093750000000000        2.5781250000000000        0.0000000000000000     
   9.6875000000000036        2.5781250000000009        0.0000000000000000     
   9.7656250000000018        2.5781250000000004        0.0000000000000000     
   9.8437500000000018        2.5781250000000000        0.0000000000000000     
   9.9218750000000000        2.5781250000000004        0.0000000000000000     
   10.000000000000000        2.5781250000000000        0.0000000000000000     
   9.3750000000000000        2.6562500000000000        0.0000000000000000     
   9.4531250000000018        2.6562500000000000        0.0000000000000000     
   9.5312500000000000        2.6562500000000000        0.0000000000000000     
   9.6093750000000018        2.6562500000000004        0.0000000000000000     
   9.6875000000000018        2.6562500000000004        0.0000000000000000     
   9.7656250000000000        2.6562500000000000        0.0000000000000000     
   9.8437500000000018        2.6562500000000000        0.0000000000000000     
   9.9218750000000018        2.6562500000000004        0.0000000000000000     
   9.9999999999999982        2.6562500000000000        0.0000000000000000     
   9.3750000000000000        2.7343750000000000        0.0000000000000000     
   9.4531250000000018        2.7343750000000000        0.0000000000000000     
   9.5312500000000000        2.7343750000000004        0.0000000000000000     
   9.6093750000000000        2.7343750000000000        0.0000000000000000     
   9.6875000000000053        2.7343750000000009        0.0000000000000000     
   9.7656250000000000        2.7343750000000000        0.0000000000000000     
   9.8437500000000018        2.7343750000000009        0.0000000000000000     
   9.9218750000000000        2.7343749999999996        0.0000000000000000     
   10.000000000000002        2.7343750000000004        0.0000000000000000     
   9.3750000000000000        2.8125000000000000        0.0000000000000000     
   9.4531250000000018        2.8125000000000009        0.0000000000000000     
   9.5312500000000018        2.8125000000000000        0.0000000000000000     
   9.6093750000000000        2.8125000000000000        0.0000000000000000     
   9.6875000000000018        2.8125000000000009        0.0000000000000000     
   9.7656250000000018        2.8125000000000000        0.0000000000000000     
   9.8437500000000000        2.8125000000000000        0.0000000000000000     
   9.9218750000000018        2.8125000000000000        0.0000000000000000     
   10.000000000000002        2.8125000000000004        0.0000000000000000     
   9.3750000000000018        2.8906250000000009        0.0000000000000000     
   9.4531250000000018        2.8906250000000009        0.0000000000000000     
   9.5312500000000000        2.8906250000000004        0.0000000000000000     
   9.6093750000000018        2.8906250000000009        0.0000000000000000     
   9.6875000000000000        2.8906250000000000        0.0000000000000000     
   9.7656250000000018        2.8906250000000000        0.0000000000000000     
   9.8437500000000000        2.8906250000000000        0.0000000000000000     
   9.9218750000000000        2.8906250000000004        0.0000000000000000     
   10.000000000000002        2.8906250000000004        0.0000000000000000     
   9.3750000000000000        2.9687499999999996        0.0000000000000000     
   9.4531250000000018        2.9687500000000004        0.0000000000000000     
   9.5312500000000018        2.9687500000000004        0.0000000000000000     
   9.6093750000000018        2.9687499999999996        0.0000000000000000     
   9.6875000000000036        2.9687500000000013        0.0000000000000000     
   9.7656250000000018        2.9687500000000000        0.0000000000000000     
   9.8437500000000000        2.9687500000000000        0.0000000000000000     
   9.9218750000000018        2.9687500000000009        0.0000000000000000     
   10.000000000000002        2.9687500000000000        0.0000000000000000     
   9.3750000000000000        3.0468750000000000        0.0000000000000000     
   9.4531250000000018        3.0468750000000000        0.0000000000000000     
   9.5312500000000018        3.0468749999999996        0.0000000000000000     
   9.6093749999999982        3.0468749999999996        0.0000000000000000     
   9.6875000000000053        3.0468750000000013        0.0000000000000000     
   9.7656250000000018        3.0468750000000000        0.0000000000000000     
   9.8437500000000018        3.0468750000000000        0.0000000000000000     
   9.9218750000000000        3.0468750000000009        0.0000000000000000     
   10.000000000000000        3.0468749999999996        0.0000000000000000     
   9.3750000000000018        3.1250000000000009        0.0000000000000000     
   9.4531250000000000        3.1250000000000000        0.0000000000000000     
   9.5312500000000018        3.1250000000000004        0.0000000000000000     
   9.6093750000000000        3.1250000000000009        0.0000000000000000     
   9.6875000000000018        3.1250000000000004        0.0000000000000000     
   9.7656250000000000        3.1250000000000004        0.0000000000000000     
   9.8437500000000000        3.1250000000000000        0.0000000000000000     
   9.9218750000000000        3.1250000000000000        0.0000000000000000     
   10.000000000000004        3.1250000000000000        0.0000000000000000     
   5.0000000000000018        3.1250000000000000        0.0000000000000000     
   5.0781250000000000        3.1250000000000000        0.0000000000000000     
   5.1562500000000000        3.1250000000000000        0.0000000000000000     
   5.2343750000000009        3.1250000000000004        0.0000000000000000     
   5.3125000000000018        3.1250000000000004        0.0000000000000000     
   5.3906250000000009        3.1250000000000004        0.0000000000000000     
   5.4687500000000000        3.1250000000000004        0.0000000000000000     
   5.5468750000000009        3.1250000000000004        0.0000000000000000     
   5.6250000000000009        3.1250000000000004        0.0000000000000000     
   5.0000000000000000        3.2031250000000000        0.0000000000000000     
   5.0781250000000000        3.2031250000000000        0.0000000000000000     
   5.1562500000000000        3.2031250000000004        0.0000000000000000     
   5.2343750000000009        3.2031250000000009        0.0000000000000000     
   5.3125000000000018        3.2031250000000009        0.0000000000000000     
   5.3906250000000000        3.2031250000000004        0.0000000000000000     
   5.4687500000000000        3.2031250000000000        0.0000000000000000     
   5.5468750000000000        3.2031250000000000        0.0000000000000000     
   5.6250000000000000        3.2031250000000004        0.0000000000000000     
   4.9999999999999991        3.2812500000000000        0.0000000000000000     
   5.0781250000000009        3.2812500000000004        0.0000000000000000     
   5.1562500000000000        3.2812500000000000        0.0000000000000000     
   5.2343750000000000        3.2812500000000004        0.0000000000000000     
   5.3125000000000000        3.2812499999999996        0.0000000000000000     
   5.3906250000000000        3.2812500000000000        0.0000000000000000     
   5.4687500000000000        3.2812500000000004        0.0000000000000000     
   5.5468750000000009        3.2812499999999996        0.0000000000000000     
   5.6250000000000000        3.2812500000000000        0.0000000000000000     
   5.0000000000000009        3.3593750000000004        0.0000000000000000     
   5.0781249999999991        3.3593750000000000        0.0000000000000000     
   5.1562500000000000        3.3593750000000000        0.0000000000000000     
   5.2343750000000009        3.3593750000000000        0.0000000000000000     
   5.3125000000000009        3.3593750000000004        0.0000000000000000     
   5.3906250000000009        3.3593750000000004        0.0000000000000000     
   5.4687500000000000        3.3593750000000000        0.0000000000000000     
   5.5468750000000009        3.3593750000000004        0.0000000000000000     
   5.6250000000000000        3.3593750000000000        0.0000000000000000     
   5.0000000000000009        3.4375000000000004        0.0000000000000000     
   5.0781250000000000        3.4375000000000000        0.0000000000000000     
   5.1562500000000009        3.4375000000000004        0.0000000000000000     
   5.2343750000000009        3.4375000000000000        0.0000000000000000     
   5.3125000000000009        3.4375000000000000        0.0000000000000000     
   5.3906250000000000        3.4375000000000004        0.0000000000000000     
   5.4687500000000009        3.4375000000000004        0.0000000000000000     
   5.5468750000000009        3.4375000000000000        0.0000000000000000     
   5.6250000000000000        3.4375000000000000        0.0000000000000000     
   5.0000000000000009        3.5156250000000004        0.0000000000000000     
   5.0781250000000009        3.5156250000000000        0.0000000000000000     
   5.1562500000000000        3.5156250000000000        0.0000000000000000     
   5.2343750000000009        3.5156250000000000        0.0000000000000000     
   5.3125000000000009        3.5156249999999996        0.0000000000000000     
   5.3906250000000018        3.5156250000000004        0.0000000000000000     
   5.4687500000000018        3.5156250000000013        0.0000000000000000     
   5.5468750000000000        3.5156250000000000        0.0000000000000000     
   5.6250000000000000        3.5156250000000000        0.0000000000000000     
   5.0000000000000009        3.5937500000000004        0.0000000000000000     
   5.0781250000000009        3.5937500000000009        0.0000000000000000     
   5.1562500000000000        3.5937500000000000        0.0000000000000000     
   5.2343750000000000        3.5937500000000000        0.0000000000000000     
   5.3125000000000009        3.5937500000000004        0.0000000000000000     
   5.3906250000000009        3.5937500000000000        0.0000000000000000     
   5.4687500000000000        3.5937500000000000        0.0000000000000000     
   5.5468750000000018        3.5937500000000000        0.0000000000000000     
   5.6250000000000000        3.5937500000000000        0.0000000000000000     
   5.0000000000000000        3.6718750000000004        0.0000000000000000     
   5.0781250000000000        3.6718750000000000        0.0000000000000000     
   5.1562500000000000        3.6718750000000004        0.0000000000000000     
   5.2343750000000009        3.6718750000000004        0.0000000000000000     
   5.3125000000000009        3.6718750000000004        0.0000000000000000     
   5.3906250000000000        3.6718749999999996        0.0000000000000000     
   5.4687500000000000        3.6718750000000004        0.0000000000000000     
   5.5468750000000018        3.6718750000000004        0.0000000000000000     
   5.6250000000000009        3.6718750000000004        0.0000000000000000     
   5.0000000000000018        3.7500000000000004        0.0000000000000000     
   5.0781250000000009        3.7500000000000000        0.0000000000000000     
   5.1562500000000000        3.7500000000000004        0.0000000000000000     
   5.2343750000000009        3.7500000000000004        0.0000000000000000     
   5.3125000000000027        3.7500000000000000        0.0000000000000000     
   5.3906250000000009        3.7500000000000004        0.0000000000000000     
   5.4687500000000000        3.7500000000000004        0.0000000000000000     
   5.5468750000000009        3.7500000000000000        0.0000000000000000     
   5.6250000000000009        3.7500000000000004        0.0000000000000000     
   5.6250000000000009        3.1250000000000004        0.0000000000000000     
   5.7031250000000009        3.1250000000000000        0.0000000000000000     
   5.7812500000000009        3.1250000000000004        0.0000000000000000     
   5.8593750000000000        3.1250000000000000        0.0000000000000000     
   5.9375000000000000        3.1249999999999996        0.0000000000000000     
   6.0156250000000009        3.1250000000000004        0.0000000000000000     
   6.0937500000000000        3.1250000000000004        0.0000000000000000     
   6.1718750000000000        3.1249999999999996        0.0000000000000000     
   6.2500000000000009        3.1250000000000009        0.0000000000000000     
   5.6250000000000000        3.2031250000000004        0.0000000000000000     
   5.7031250000000009        3.2031250000000009        0.0000000000000000     
   5.7812500000000009        3.2031250000000000        0.0000000000000000     
   5.8593750000000000        3.2031250000000009        0.0000000000000000     
   5.9375000000000009        3.2031250000000004        0.0000000000000000     
   6.0156250000000000        3.2031250000000000        0.0000000000000000     
   6.0937500000000000        3.2031250000000009        0.0000000000000000     
   6.1718750000000009        3.2031250000000000        0.0000000000000000     
   6.2500000000000009        3.2031250000000000        0.0000000000000000     
   5.6250000000000000        3.2812500000000000        0.0000000000000000     
   5.7031250000000000        3.2812500000000004        0.0000000000000000     
   5.7812500000000000        3.2812500000000000        0.0000000000000000     
   5.8593750000000018        3.2812500000000009        0.0000000000000000     
   5.9375000000000000        3.2812499999999996        0.0000000000000000     
   6.0156250000000000        3.2812500000000000        0.0000000000000000     
   6.0937500000000009        3.2812500000000004        0.0000000000000000     
   6.1718750000000000        3.2812500000000000        0.0000000000000000     
   6.2500000000000000        3.2812500000000000        0.0000000000000000     
   5.6250000000000000        3.3593750000000000        0.0000000000000000     
   5.7031249999999991        3.3593749999999991        0.0000000000000000     
   5.7812500000000000        3.3593750000000004        0.0000000000000000     
   5.8593750000000000        3.3593750000000000        0.0000000000000000     
   5.9374999999999991        3.3593749999999991        0.0000000000000000     
   6.0156250000000009        3.3593750000000004        0.0000000000000000     
   6.0937500000000000        3.3593750000000000        0.0000000000000000     
   6.1718749999999991        3.3593749999999991        0.0000000000000000     
   6.2499999999999991        3.3593750000000000        0.0000000000000000     
   5.6250000000000000        3.4375000000000000        0.0000000000000000     
   5.7031250000000009        3.4375000000000009        0.0000000000000000     
   5.7812499999999991        3.4375000000000000        0.0000000000000000     
   5.8593750000000000        3.4375000000000004        0.0000000000000000     
   5.9375000000000018        3.4375000000000000        0.0000000000000000     
   6.0156250000000000        3.4375000000000000        0.0000000000000000     
   6.0937500000000000        3.4375000000000004        0.0000000000000000     
   6.1718750000000009        3.4375000000000000        0.0000000000000000     
   6.2500000000000000        3.4375000000000000        0.0000000000000000     
   5.6250000000000000        3.5156250000000000        0.0000000000000000     
   5.7031250000000000        3.5156250000000004        0.0000000000000000     
   5.7812500000000000        3.5156250000000000        0.0000000000000000     
   5.8593750000000000        3.5156250000000004        0.0000000000000000     
   5.9375000000000000        3.5156249999999996        0.0000000000000000     
   6.0156250000000009        3.5156250000000000        0.0000000000000000     
   6.0937500000000000        3.5156250000000004        0.0000000000000000     
   6.1718749999999991        3.5156249999999991        0.0000000000000000     
   6.2500000000000009        3.5156249999999996        0.0000000000000000     
   5.6250000000000000        3.5937500000000000        0.0000000000000000     
   5.7031250000000009        3.5937500000000000        0.0000000000000000     
   5.7812500000000009        3.5937500000000004        0.0000000000000000     
   5.8593750000000009        3.5937500000000009        0.0000000000000000     
   5.9374999999999991        3.5937499999999996        0.0000000000000000     
   6.0156250000000000        3.5937500000000004        0.0000000000000000     
   6.0937500000000009        3.5937500000000004        0.0000000000000000     
   6.1718749999999982        3.5937499999999996        0.0000000000000000     
   6.2500000000000000        3.5937500000000000        0.0000000000000000     
   5.6250000000000009        3.6718750000000004        0.0000000000000000     
   5.7031250000000009        3.6718750000000004        0.0000000000000000     
   5.7812500000000000        3.6718750000000004        0.0000000000000000     
   5.8593750000000000        3.6718750000000000        0.0000000000000000     
   5.9375000000000009        3.6718750000000004        0.0000000000000000     
   6.0156250000000000        3.6718750000000000        0.0000000000000000     
   6.0937500000000000        3.6718750000000009        0.0000000000000000     
   6.1718750000000018        3.6718750000000004        0.0000000000000000     
   6.2500000000000000        3.6718749999999996        0.0000000000000000     
   5.6250000000000009        3.7500000000000004        0.0000000000000000     
   5.7031250000000009        3.7500000000000009        0.0000000000000000     
   5.7812500000000009        3.7500000000000000        0.0000000000000000     
   5.8593750000000000        3.7500000000000000        0.0000000000000000     
   5.9375000000000000        3.7500000000000000        0.0000000000000000     
   6.0156250000000009        3.7499999999999996        0.0000000000000000     
   6.0937500000000000        3.7500000000000013        0.0000000000000000     
   6.1718750000000000        3.7500000000000000        0.0000000000000000     
   6.2500000000000009        3.7500000000000000        0.0000000000000000     
   6.2500000000000009        3.1250000000000009        0.0000000000000000     
   6.3281250000000009        3.1249999999999996        0.0000000000000000     
   6.4062500000000000        3.1250000000000004        0.0000000000000000     
   6.4843750000000009        3.1250000000000009        0.0000000000000000     
   6.5625000000000009        3.1249999999999996        0.0000000000000000     
   6.6406250000000000        3.1250000000000004        0.0000000000000000     
   6.7187500000000009        3.1250000000000004        0.0000000000000000     
   6.7968750000000018        3.1249999999999996        0.0000000000000000     
   6.8750000000000009        3.1250000000000009        0.0000000000000000     
   6.2500000000000009        3.2031250000000000        0.0000000000000000     
   6.3281250000000000        3.2031250000000009        0.0000000000000000     
   6.4062500000000009        3.2031250000000000        0.0000000000000000     
   6.4843750000000009        3.2031250000000000        0.0000000000000000     
   6.5625000000000000        3.2031250000000009        0.0000000000000000     
   6.6406250000000018        3.2031250000000000        0.0000000000000000     
   6.7187500000000000        3.2031250000000000        0.0000000000000000     
   6.7968750000000000        3.2031250000000004        0.0000000000000000     
   6.8750000000000018        3.2031250000000000        0.0000000000000000     
   6.2500000000000000        3.2812500000000000        0.0000000000000000     
   6.3281250000000000        3.2812500000000004        0.0000000000000000     
   6.4062500000000000        3.2812500000000000        0.0000000000000000     
   6.4843750000000000        3.2812500000000000        0.0000000000000000     
   6.5625000000000000        3.2812500000000000        0.0000000000000000     
   6.6406250000000000        3.2812500000000000        0.0000000000000000     
   6.7187500000000000        3.2812500000000000        0.0000000000000000     
   6.7968750000000009        3.2812500000000004        0.0000000000000000     
   6.8750000000000000        3.2812500000000000        0.0000000000000000     
   6.2499999999999991        3.3593750000000000        0.0000000000000000     
   6.3281250000000009        3.3593749999999991        0.0000000000000000     
   6.4062500000000000        3.3593750000000000        0.0000000000000000     
   6.4843749999999991        3.3593750000000000        0.0000000000000000     
   6.5625000000000018        3.3593749999999996        0.0000000000000000     
   6.6406250000000009        3.3593750000000004        0.0000000000000000     
   6.7187499999999991        3.3593750000000000        0.0000000000000000     
   6.7968750000000018        3.3593749999999996        0.0000000000000000     
   6.8749999999999991        3.3593750000000000        0.0000000000000000     
   6.2500000000000000        3.4375000000000000        0.0000000000000000     
   6.3281249999999991        3.4375000000000004        0.0000000000000000     
   6.4062500000000009        3.4375000000000000        0.0000000000000000     
   6.4843750000000000        3.4375000000000004        0.0000000000000000     
   6.5625000000000000        3.4375000000000004        0.0000000000000000     
   6.6406250000000009        3.4375000000000000        0.0000000000000000     
   6.7187500000000000        3.4374999999999996        0.0000000000000000     
   6.7968750000000000        3.4375000000000004        0.0000000000000000     
   6.8750000000000009        3.4375000000000000        0.0000000000000000     
   6.2500000000000009        3.5156249999999996        0.0000000000000000     
   6.3281250000000009        3.5156250000000009        0.0000000000000000     
   6.4062500000000000        3.5156250000000000        0.0000000000000000     
   6.4843750000000009        3.5156249999999996        0.0000000000000000     
   6.5625000000000000        3.5156250000000009        0.0000000000000000     
   6.6406250000000009        3.5156250000000000        0.0000000000000000     
   6.7187500000000000        3.5156250000000000        0.0000000000000000     
   6.7968750000000018        3.5156250000000009        0.0000000000000000     
   6.8750000000000000        3.5156249999999996        0.0000000000000000     
   6.2500000000000000        3.5937500000000000        0.0000000000000000     
   6.3281250000000009        3.5937499999999996        0.0000000000000000     
   6.4062500000000000        3.5937500000000004        0.0000000000000000     
   6.4843749999999991        3.5937499999999996        0.0000000000000000     
   6.5625000000000009        3.5937499999999996        0.0000000000000000     
   6.6406250000000000        3.5937500000000004        0.0000000000000000     
   6.7187499999999991        3.5937499999999996        0.0000000000000000     
   6.7968750000000018        3.5937499999999996        0.0000000000000000     
   6.8749999999999982        3.5937500000000000        0.0000000000000000     
   6.2500000000000000        3.6718749999999996        0.0000000000000000     
   6.3281250000000009        3.6718750000000013        0.0000000000000000     
   6.4062500000000000        3.6718750000000004        0.0000000000000000     
   6.4843749999999982        3.6718749999999991        0.0000000000000000     
   6.5625000000000018        3.6718750000000013        0.0000000000000000     
   6.6406250000000000        3.6718750000000000        0.0000000000000000     
   6.7187499999999982        3.6718749999999996        0.0000000000000000     
   6.7968750000000000        3.6718750000000013        0.0000000000000000     
   6.8750000000000000        3.6718749999999996        0.0000000000000000     
   6.2500000000000009        3.7500000000000000        0.0000000000000000     
   6.3281250000000009        3.7500000000000013        0.0000000000000000     
   6.4062500000000000        3.7500000000000000        0.0000000000000000     
   6.4843750000000009        3.7499999999999996        0.0000000000000000     
   6.5625000000000009        3.7500000000000013        0.0000000000000000     
   6.6406250000000000        3.7499999999999996        0.0000000000000000     
   6.7187500000000009        3.7500000000000009        0.0000000000000000     
   6.7968750000000018        3.7500000000000009        0.0000000000000000     
   6.8750000000000009        3.7500000000000000        0.0000000000000000     
   6.8750000000000009        3.1250000000000009        0.0000000000000000     
   6.9531250000000009        3.1249999999999996        0.0000000000000000     
   7.0312500000000000        3.1250000000000004        0.0000000000000000     
   7.1093750000000009        3.1250000000000009        0.0000000000000000     
   7.1875000000000009        3.1249999999999996        0.0000000000000000     
   7.2656250000000000        3.1250000000000004        0.0000000000000000     
   7.3437500000000018        3.1250000000000004        0.0000000000000000     
   7.4218750000000018        3.1249999999999996        0.0000000000000000     
   7.5000000000000027        3.1250000000000009        0.0000000000000000     
   6.8750000000000018        3.2031250000000000        0.0000000000000000     
   6.9531250000000018        3.2031250000000009        0.0000000000000000     
   7.0312500000000009        3.2031250000000000        0.0000000000000000     
   7.1093750000000018        3.2031250000000000        0.0000000000000000     
   7.1875000000000018        3.2031250000000009        0.0000000000000000     
   7.2656250000000000        3.2031250000000000        0.0000000000000000     
   7.3437500000000009        3.2031250000000000        0.0000000000000000     
   7.4218750000000000        3.2031250000000004        0.0000000000000000     
   7.5000000000000009        3.2031250000000000        0.0000000000000000     
   6.8750000000000000        3.2812500000000000        0.0000000000000000     
   6.9531250000000009        3.2812500000000004        0.0000000000000000     
   7.0312500000000000        3.2812500000000000        0.0000000000000000     
   7.1093750000000000        3.2812500000000000        0.0000000000000000     
   7.1875000000000000        3.2812500000000000        0.0000000000000000     
   7.2656250000000009        3.2812500000000000        0.0000000000000000     
   7.3437500000000000        3.2812500000000000        0.0000000000000000     
   7.4218750000000009        3.2812500000000004        0.0000000000000000     
   7.5000000000000009        3.2812500000000000        0.0000000000000000     
   6.8749999999999991        3.3593750000000000        0.0000000000000000     
   6.9531250000000009        3.3593749999999991        0.0000000000000000     
   7.0312500000000000        3.3593750000000000        0.0000000000000000     
   7.1093749999999991        3.3593750000000000        0.0000000000000000     
   7.1875000000000009        3.3593749999999996        0.0000000000000000     
   7.2656250000000000        3.3593750000000004        0.0000000000000000     
   7.3437499999999991        3.3593750000000000        0.0000000000000000     
   7.4218750000000000        3.3593749999999996        0.0000000000000000     
   7.4999999999999982        3.3593750000000000        0.0000000000000000     
   6.8750000000000009        3.4375000000000000        0.0000000000000000     
   6.9531249999999991        3.4375000000000004        0.0000000000000000     
   7.0312500000000000        3.4375000000000000        0.0000000000000000     
   7.1093750000000009        3.4375000000000004        0.0000000000000000     
   7.1874999999999991        3.4375000000000004        0.0000000000000000     
   7.2656250000000000        3.4375000000000000        0.0000000000000000     
   7.3437500000000009        3.4374999999999996        0.0000000000000000     
   7.4218749999999991        3.4375000000000004        0.0000000000000000     
   7.5000000000000000        3.4375000000000000        0.0000000000000000     
   6.8750000000000000        3.5156249999999996        0.0000000000000000     
   6.9531250000000018        3.5156250000000009        0.0000000000000000     
   7.0312500000000000        3.5156250000000000        0.0000000000000000     
   7.1093750000000009        3.5156249999999996        0.0000000000000000     
   7.1875000000000018        3.5156250000000009        0.0000000000000000     
   7.2656250000000009        3.5156250000000000        0.0000000000000000     
   7.3437500000000000        3.5156250000000000        0.0000000000000000     
   7.4218750000000000        3.5156250000000009        0.0000000000000000     
   7.5000000000000009        3.5156249999999996        0.0000000000000000     
   6.8749999999999982        3.5937500000000000        0.0000000000000000     
   6.9531250000000009        3.5937499999999996        0.0000000000000000     
   7.0312500000000000        3.5937500000000004        0.0000000000000000     
   7.1093749999999982        3.5937499999999996        0.0000000000000000     
   7.1875000000000009        3.5937499999999996        0.0000000000000000     
   7.2656250000000000        3.5937500000000004        0.0000000000000000     
   7.3437499999999982        3.5937499999999996        0.0000000000000000     
   7.4218750000000009        3.5937499999999996        0.0000000000000000     
   7.4999999999999982        3.5937500000000000        0.0000000000000000     
   6.8750000000000000        3.6718749999999996        0.0000000000000000     
   6.9531250000000027        3.6718750000000013        0.0000000000000000     
   7.0312500000000000        3.6718750000000004        0.0000000000000000     
   7.1093749999999991        3.6718749999999991        0.0000000000000000     
   7.1875000000000027        3.6718750000000013        0.0000000000000000     
   7.2656250000000000        3.6718750000000000        0.0000000000000000     
   7.3437500000000000        3.6718749999999996        0.0000000000000000     
   7.4218750000000009        3.6718750000000013        0.0000000000000000     
   7.5000000000000000        3.6718749999999996        0.0000000000000000     
   6.8750000000000009        3.7500000000000000        0.0000000000000000     
   6.9531250000000009        3.7500000000000013        0.0000000000000000     
   7.0312500000000000        3.7500000000000000        0.0000000000000000     
   7.1093750000000009        3.7499999999999996        0.0000000000000000     
   7.1875000000000009        3.7500000000000013        0.0000000000000000     
   7.2656250000000000        3.7499999999999996        0.0000000000000000     
   7.3437500000000018        3.7500000000000009        0.0000000000000000     
   7.4218750000000018        3.7500000000000009        0.0000000000000000     
   7.5000000000000027        3.7500000000000000        0.0000000000000000     
   7.5000000000000027        3.1250000000000009        0.0000000000000000     
   7.5781250000000009        3.1249999999999996        0.0000000000000000     
   7.6562500000000018        3.1250000000000004        0.0000000000000000     
   7.7343750000000000        3.1250000000000009        0.0000000000000000     
   7.8124999999999991        3.1249999999999996        0.0000000000000000     
   7.8906249999999991        3.1250000000000004        0.0000000000000000     
   7.9687500000000018        3.1250000000000004        0.0000000000000000     
   8.0468750000000018        3.1249999999999996        0.0000000000000000     
   8.1250000000000000        3.1250000000000009        0.0000000000000000     
   7.5000000000000009        3.2031250000000000        0.0000000000000000     
   7.5781250000000009        3.2031250000000009        0.0000000000000000     
   7.6562500000000018        3.2031250000000000        0.0000000000000000     
   7.7343750000000000        3.2031250000000000        0.0000000000000000     
   7.8125000000000009        3.2031250000000009        0.0000000000000000     
   7.8906250000000009        3.2031250000000000        0.0000000000000000     
   7.9687500000000018        3.2031250000000000        0.0000000000000000     
   8.0468749999999982        3.2031250000000004        0.0000000000000000     
   8.1250000000000018        3.2031250000000000        0.0000000000000000     
   7.5000000000000009        3.2812500000000000        0.0000000000000000     
   7.5781250000000009        3.2812500000000004        0.0000000000000000     
   7.6562500000000000        3.2812500000000000        0.0000000000000000     
   7.7343750000000009        3.2812500000000000        0.0000000000000000     
   7.8125000000000009        3.2812500000000000        0.0000000000000000     
   7.8906250000000000        3.2812500000000000        0.0000000000000000     
   7.9687500000000009        3.2812500000000000        0.0000000000000000     
   8.0468750000000018        3.2812500000000004        0.0000000000000000     
   8.1250000000000018        3.2812500000000000        0.0000000000000000     
   7.4999999999999982        3.3593750000000000        0.0000000000000000     
   7.5781249999999991        3.3593749999999991        0.0000000000000000     
   7.6562500000000000        3.3593750000000000        0.0000000000000000     
   7.7343749999999991        3.3593750000000000        0.0000000000000000     
   7.8124999999999991        3.3593749999999996        0.0000000000000000     
   7.8906250000000000        3.3593750000000004        0.0000000000000000     
   7.9687499999999991        3.3593750000000000        0.0000000000000000     
   8.0468750000000000        3.3593749999999996        0.0000000000000000     
   8.1249999999999982        3.3593750000000000        0.0000000000000000     
   7.5000000000000000        3.4375000000000000        0.0000000000000000     
   7.5781250000000009        3.4375000000000004        0.0000000000000000     
   7.6562500000000018        3.4375000000000000        0.0000000000000000     
   7.7343750000000018        3.4375000000000004        0.0000000000000000     
   7.8125000000000009        3.4375000000000004        0.0000000000000000     
   7.8906250000000018        3.4375000000000000        0.0000000000000000     
   7.9687500000000000        3.4374999999999996        0.0000000000000000     
   8.0468749999999982        3.4375000000000004        0.0000000000000000     
   8.1250000000000000        3.4375000000000000        0.0000000000000000     
   7.5000000000000009        3.5156249999999996        0.0000000000000000     
   7.5781249999999991        3.5156250000000009        0.0000000000000000     
   7.6562500000000000        3.5156250000000000        0.0000000000000000     
   7.7343750000000009        3.5156249999999996        0.0000000000000000     
   7.8124999999999991        3.5156250000000009        0.0000000000000000     
   7.8906250000000000        3.5156250000000000        0.0000000000000000     
   7.9687500000000000        3.5156250000000000        0.0000000000000000     
   8.0468750000000000        3.5156250000000009        0.0000000000000000     
   8.1250000000000000        3.5156249999999996        0.0000000000000000     
   7.4999999999999982        3.5937500000000000        0.0000000000000000     
   7.5781250000000009        3.5937499999999996        0.0000000000000000     
   7.6562500000000000        3.5937500000000004        0.0000000000000000     
   7.7343749999999991        3.5937499999999996        0.0000000000000000     
   7.8124999999999982        3.5937499999999996        0.0000000000000000     
   7.8906249999999991        3.5937500000000004        0.0000000000000000     
   7.9687499999999991        3.5937499999999996        0.0000000000000000     
   8.0468750000000036        3.5937499999999996        0.0000000000000000     
   8.1250000000000000        3.5937500000000000        0.0000000000000000     
   7.5000000000000000        3.6718749999999996        0.0000000000000000     
   7.5781250000000036        3.6718750000000013        0.0000000000000000     
   7.6562500000000018        3.6718750000000004        0.0000000000000000     
   7.7343750000000000        3.6718749999999991        0.0000000000000000     
   7.8125000000000018        3.6718750000000013        0.0000000000000000     
   7.8906250000000018        3.6718750000000000        0.0000000000000000     
   7.9687499999999991        3.6718749999999996        0.0000000000000000     
   8.0468750000000000        3.6718750000000013        0.0000000000000000     
   8.1249999999999982        3.6718749999999996        0.0000000000000000     
   7.5000000000000027        3.7500000000000000        0.0000000000000000     
   7.5781250000000009        3.7500000000000013        0.0000000000000000     
   7.6562500000000018        3.7500000000000000        0.0000000000000000     
   7.7343750000000000        3.7499999999999996        0.0000000000000000     
   7.8124999999999991        3.7500000000000013        0.0000000000000000     
   7.8906249999999991        3.7499999999999996        0.0000000000000000     
   7.9687500000000018        3.7500000000000009        0.0000000000000000     
   8.0468750000000018        3.7500000000000009        0.0000000000000000     
   8.1250000000000000        3.7500000000000000        0.0000000000000000     
   8.1250000000000000        3.1250000000000009        0.0000000000000000     
   8.2031250000000000        3.1249999999999996        0.0000000000000000     
   8.2812500000000018        3.1250000000000004        0.0000000000000000     
   8.3593750000000000        3.1250000000000009        0.0000000000000000     
   8.4375000000000000        3.1249999999999996        0.0000000000000000     
   8.5156250000000000        3.1250000000000004        0.0000000000000000     
   8.5937500000000018        3.1250000000000004        0.0000000000000000     
   8.6718750000000018        3.1249999999999996        0.0000000000000000     
   8.7500000000000036        3.1250000000000009        0.0000000000000000     
   8.1250000000000018        3.2031250000000000        0.0000000000000000     
   8.2031250000000018        3.2031250000000009        0.0000000000000000     
   8.2812500000000000        3.2031250000000000        0.0000000000000000     
   8.3593750000000000        3.2031250000000000        0.0000000000000000     
   8.4375000000000018        3.2031250000000009        0.0000000000000000     
   8.5156250000000000        3.2031250000000000        0.0000000000000000     
   8.5937500000000000        3.2031250000000000        0.0000000000000000     
   8.6718750000000018        3.2031250000000004        0.0000000000000000     
   8.7500000000000018        3.2031250000000000        0.0000000000000000     
   8.1250000000000018        3.2812500000000000        0.0000000000000000     
   8.2031250000000018        3.2812500000000004        0.0000000000000000     
   8.2812500000000000        3.2812500000000000        0.0000000000000000     
   8.3593750000000000        3.2812500000000000        0.0000000000000000     
   8.4375000000000000        3.2812500000000000        0.0000000000000000     
   8.5156250000000000        3.2812500000000000        0.0000000000000000     
   8.5937500000000000        3.2812500000000000        0.0000000000000000     
   8.6718750000000000        3.2812500000000004        0.0000000000000000     
   8.7500000000000018        3.2812500000000000        0.0000000000000000     
   8.1249999999999982        3.3593750000000000        0.0000000000000000     
   8.2031250000000000        3.3593749999999991        0.0000000000000000     
   8.2812500000000000        3.3593750000000000        0.0000000000000000     
   8.3593750000000000        3.3593750000000000        0.0000000000000000     
   8.4375000000000000        3.3593749999999996        0.0000000000000000     
   8.5156250000000000        3.3593750000000004        0.0000000000000000     
   8.5937500000000018        3.3593750000000000        0.0000000000000000     
   8.6718750000000000        3.3593749999999996        0.0000000000000000     
   8.7499999999999964        3.3593750000000000        0.0000000000000000     
   8.1250000000000000        3.4375000000000000        0.0000000000000000     
   8.2031250000000000        3.4375000000000004        0.0000000000000000     
   8.2812500000000018        3.4375000000000000        0.0000000000000000     
   8.3593750000000000        3.4375000000000004        0.0000000000000000     
   8.4375000000000000        3.4375000000000004        0.0000000000000000     
   8.5156250000000036        3.4375000000000000        0.0000000000000000     
   8.5937500000000000        3.4374999999999996        0.0000000000000000     
   8.6718750000000000        3.4375000000000004        0.0000000000000000     
   8.7500000000000036        3.4375000000000000        0.0000000000000000     
   8.1250000000000000        3.5156249999999996        0.0000000000000000     
   8.2031250000000000        3.5156250000000009        0.0000000000000000     
   8.2812500000000000        3.5156250000000000        0.0000000000000000     
   8.3593750000000000        3.5156249999999996        0.0000000000000000     
   8.4375000000000000        3.5156250000000009        0.0000000000000000     
   8.5156250000000000        3.5156250000000000        0.0000000000000000     
   8.5937500000000018        3.5156250000000000        0.0000000000000000     
   8.6718750000000000        3.5156250000000009        0.0000000000000000     
   8.7500000000000018        3.5156249999999996        0.0000000000000000     
   8.1250000000000000        3.5937500000000000        0.0000000000000000     
   8.2031250000000018        3.5937499999999996        0.0000000000000000     
   8.2812500000000000        3.5937500000000004        0.0000000000000000     
   8.3593750000000000        3.5937499999999996        0.0000000000000000     
   8.4375000000000000        3.5937499999999996        0.0000000000000000     
   8.5156250000000000        3.5937500000000004        0.0000000000000000     
   8.5937500000000000        3.5937499999999996        0.0000000000000000     
   8.6718750000000000        3.5937499999999996        0.0000000000000000     
   8.7500000000000000        3.5937500000000000        0.0000000000000000     
   8.1249999999999982        3.6718749999999996        0.0000000000000000     
   8.2031250000000018        3.6718750000000013        0.0000000000000000     
   8.2812500000000018        3.6718750000000004        0.0000000000000000     
   8.3593749999999982        3.6718749999999991        0.0000000000000000     
   8.4375000000000018        3.6718750000000013        0.0000000000000000     
   8.5156250000000036        3.6718750000000000        0.0000000000000000     
   8.5937499999999982        3.6718749999999996        0.0000000000000000     
   8.6718750000000018        3.6718750000000013        0.0000000000000000     
   8.7500000000000018        3.6718749999999996        0.0000000000000000     
   8.1250000000000000        3.7500000000000000        0.0000000000000000     
   8.2031250000000000        3.7500000000000013        0.0000000000000000     
   8.2812500000000018        3.7500000000000000        0.0000000000000000     
   8.3593750000000000        3.7499999999999996        0.0000000000000000     
   8.4375000000000000        3.7500000000000013        0.0000000000000000     
   8.5156250000000000        3.7499999999999996        0.0000000000000000     
   8.5937500000000018        3.7500000000000009        0.0000000000000000     
   8.6718750000000018        3.7500000000000009        0.0000000000000000     
   8.7500000000000036        3.7500000000000000        0.0000000000000000     
   8.7500000000000036        3.1250000000000009        0.0000000000000000     
   8.8281250000000018        3.1250000000000004        0.0000000000000000     
   8.9062500000000018        3.1250000000000009        0.0000000000000000     
   8.9843750000000018        3.1250000000000004        0.0000000000000000     
   9.0625000000000018        3.1250000000000000        0.0000000000000000     
   9.1406250000000000        3.1250000000000000        0.0000000000000000     
   9.2187500000000000        3.1250000000000004        0.0000000000000000     
   9.2968750000000000        3.1250000000000000        0.0000000000000000     
   9.3750000000000018        3.1250000000000009        0.0000000000000000     
   8.7500000000000018        3.2031250000000000        0.0000000000000000     
   8.8281250000000018        3.2031250000000004        0.0000000000000000     
   8.9062500000000018        3.2031250000000004        0.0000000000000000     
   8.9843750000000000        3.2031250000000000        0.0000000000000000     
   9.0625000000000018        3.2031250000000004        0.0000000000000000     
   9.1406250000000000        3.2031250000000004        0.0000000000000000     
   9.2187500000000036        3.2031250000000000        0.0000000000000000     
   9.2968750000000018        3.2031250000000009        0.0000000000000000     
   9.3750000000000018        3.2031250000000004        0.0000000000000000     
   8.7500000000000018        3.2812500000000000        0.0000000000000000     
   8.8281250000000000        3.2812500000000004        0.0000000000000000     
   8.9062500000000000        3.2812500000000000        0.0000000000000000     
   8.9843750000000018        3.2812500000000000        0.0000000000000000     
   9.0625000000000018        3.2812500000000004        0.0000000000000000     
   9.1406250000000000        3.2812500000000000        0.0000000000000000     
   9.2187500000000018        3.2812500000000000        0.0000000000000000     
   9.2968750000000018        3.2812500000000009        0.0000000000000000     
   9.3750000000000000        3.2812500000000000        0.0000000000000000     
   8.7499999999999964        3.3593750000000000        0.0000000000000000     
   8.8281250000000000        3.3593750000000004        0.0000000000000000     
   8.9062500000000000        3.3593749999999996        0.0000000000000000     
   8.9843750000000000        3.3593750000000000        0.0000000000000000     
   9.0624999999999982        3.3593749999999996        0.0000000000000000     
   9.1406250000000000        3.3593750000000000        0.0000000000000000     
   9.2187499999999982        3.3593750000000000        0.0000000000000000     
   9.2968750000000000        3.3593750000000000        0.0000000000000000     
   9.3750000000000000        3.3593750000000004        0.0000000000000000     
   8.7500000000000036        3.4375000000000000        0.0000000000000000     
   8.8281250000000018        3.4375000000000004        0.0000000000000000     
   8.9062500000000000        3.4375000000000004        0.0000000000000000     
   8.9843750000000036        3.4375000000000004        0.0000000000000000     
   9.0625000000000018        3.4375000000000004        0.0000000000000000     
   9.1406250000000000        3.4375000000000004        0.0000000000000000     
   9.2187500000000018        3.4374999999999996        0.0000000000000000     
   9.2968750000000018        3.4375000000000000        0.0000000000000000     
   9.3750000000000000        3.4375000000000000        0.0000000000000000     
   8.7500000000000018        3.5156249999999996        0.0000000000000000     
   8.8281250000000018        3.5156250000000004        0.0000000000000000     
   8.9062500000000000        3.5156250000000009        0.0000000000000000     
   8.9843750000000018        3.5156249999999996        0.0000000000000000     
   9.0625000000000018        3.5156250000000009        0.0000000000000000     
   9.1406250000000000        3.5156250000000004        0.0000000000000000     
   9.2187500000000000        3.5156250000000000        0.0000000000000000     
   9.2968750000000036        3.5156250000000004        0.0000000000000000     
   9.3750000000000018        3.5156250000000000        0.0000000000000000     
   8.7500000000000000        3.5937500000000000        0.0000000000000000     
   8.8281249999999982        3.5937499999999996        0.0000000000000000     
   8.9062500000000000        3.5937500000000000        0.0000000000000000     
   8.9843749999999982        3.5937500000000000        0.0000000000000000     
   9.0624999999999982        3.5937499999999996        0.0000000000000000     
   9.1406250000000036        3.5937500000000013        0.0000000000000000     
   9.2187499999999982        3.5937499999999996        0.0000000000000000     
   9.2968749999999982        3.5937499999999996        0.0000000000000000     
   9.3750000000000000        3.5937500000000000        0.0000000000000000     
   8.7500000000000018        3.6718749999999996        0.0000000000000000     
   8.8281250000000000        3.6718750000000004        0.0000000000000000     
   8.9062500000000000        3.6718750000000009        0.0000000000000000     
   8.9843750000000018        3.6718749999999991        0.0000000000000000     
   9.0625000000000018        3.6718750000000000        0.0000000000000000     
   9.1406250000000018        3.6718750000000000        0.0000000000000000     
   9.2187500000000000        3.6718749999999996        0.0000000000000000     
   9.2968750000000018        3.6718750000000004        0.0000000000000000     
   9.3750000000000000        3.6718750000000009        0.0000000000000000     
   8.7500000000000036        3.7500000000000000        0.0000000000000000     
   8.8281250000000018        3.7500000000000009        0.0000000000000000     
   8.9062500000000018        3.7500000000000009        0.0000000000000000     
   8.9843750000000018        3.7499999999999996        0.0000000000000000     
   9.0625000000000018        3.7500000000000009        0.0000000000000000     
   9.1406250000000000        3.7500000000000000        0.0000000000000000     
   9.2187500000000000        3.7500000000000009        0.0000000000000000     
   9.2968750000000000        3.7500000000000009        0.0000000000000000     
   9.3750000000000018        3.7500000000000004        0.0000000000000000     
   9.3750000000000018        3.1250000000000009        0.0000000000000000     
   9.4531250000000000        3.1250000000000000        0.0000000000000000     
   9.5312500000000018        3.1250000000000004        0.0000000000000000     
   9.6093750000000000        3.1250000000000009        0.0000000000000000     
   9.6875000000000018        3.1250000000000004        0.0000000000000000     
   9.7656250000000000        3.1250000000000004        0.0000000000000000     
   9.8437500000000000        3.1250000000000000        0.0000000000000000     
   9.9218750000000000        3.1250000000000000        0.0000000000000000     
   10.000000000000004        3.1250000000000000        0.0000000000000000     
   9.3750000000000018        3.2031250000000004        0.0000000000000000     
   9.4531250000000000        3.2031250000000000        0.0000000000000000     
   9.5312500000000000        3.2031250000000000        0.0000000000000000     
   9.6093750000000000        3.2031250000000009        0.0000000000000000     
   9.6875000000000018        3.2031250000000000        0.0000000000000000     
   9.7656250000000018        3.2031250000000004        0.0000000000000000     
   9.8437500000000018        3.2031250000000004        0.0000000000000000     
   9.9218750000000000        3.2031250000000000        0.0000000000000000     
   10.000000000000000        3.2031250000000000        0.0000000000000000     
   9.3750000000000000        3.2812500000000000        0.0000000000000000     
   9.4531250000000036        3.2812500000000009        0.0000000000000000     
   9.5312500000000000        3.2812500000000000        0.0000000000000000     
   9.6093750000000018        3.2812500000000000        0.0000000000000000     
   9.6875000000000018        3.2812500000000013        0.0000000000000000     
   9.7656250000000000        3.2812500000000000        0.0000000000000000     
   9.8437500000000018        3.2812500000000000        0.0000000000000000     
   9.9218750000000018        3.2812500000000009        0.0000000000000000     
   9.9999999999999982        3.2812500000000000        0.0000000000000000     
   9.3750000000000000        3.3593750000000004        0.0000000000000000     
   9.4531250000000018        3.3593750000000000        0.0000000000000000     
   9.5312500000000000        3.3593749999999996        0.0000000000000000     
   9.6093750000000000        3.3593750000000004        0.0000000000000000     
   9.6875000000000018        3.3593750000000004        0.0000000000000000     
   9.7656250000000000        3.3593750000000004        0.0000000000000000     
   9.8437500000000018        3.3593750000000000        0.0000000000000000     
   9.9218750000000000        3.3593750000000000        0.0000000000000000     
   10.000000000000002        3.3593750000000004        0.0000000000000000     
   9.3750000000000000        3.4375000000000000        0.0000000000000000     
   9.4531250000000018        3.4375000000000004        0.0000000000000000     
   9.5312500000000018        3.4375000000000004        0.0000000000000000     
   9.6093750000000000        3.4375000000000004        0.0000000000000000     
   9.6875000000000018        3.4375000000000000        0.0000000000000000     
   9.7656250000000018        3.4375000000000000        0.0000000000000000     
   9.8437500000000018        3.4375000000000004        0.0000000000000000     
   9.9218750000000018        3.4374999999999996        0.0000000000000000     
   10.000000000000002        3.4375000000000004        0.0000000000000000     
   9.3750000000000018        3.5156250000000000        0.0000000000000000     
   9.4531250000000018        3.5156250000000013        0.0000000000000000     
   9.5312500000000000        3.5156250000000004        0.0000000000000000     
   9.6093750000000018        3.5156250000000000        0.0000000000000000     
   9.6875000000000000        3.5156250000000000        0.0000000000000000     
   9.7656250000000000        3.5156250000000000        0.0000000000000000     
   9.8437500000000000        3.5156250000000000        0.0000000000000000     
   9.9218750000000000        3.5156250000000004        0.0000000000000000     
   10.000000000000002        3.5156250000000004        0.0000000000000000     
   9.3750000000000000        3.5937500000000000        0.0000000000000000     
   9.4531250000000018        3.5937500000000004        0.0000000000000000     
   9.5312500000000018        3.5937500000000000        0.0000000000000000     
   9.6093750000000018        3.5937500000000000        0.0000000000000000     
   9.6875000000000036        3.5937500000000013        0.0000000000000000     
   9.7656250000000018        3.5937500000000000        0.0000000000000000     
   9.8437500000000000        3.5937500000000000        0.0000000000000000     
   9.9218750000000000        3.5937500000000000        0.0000000000000000     
   10.000000000000002        3.5937500000000004        0.0000000000000000     
   9.3750000000000000        3.6718750000000009        0.0000000000000000     
   9.4531250000000018        3.6718749999999996        0.0000000000000000     
   9.5312500000000000        3.6718750000000000        0.0000000000000000     
   9.6093749999999982        3.6718749999999987        0.0000000000000000     
   9.6875000000000018        3.6718750000000009        0.0000000000000000     
   9.7656250000000000        3.6718750000000000        0.0000000000000000     
   9.8437500000000018        3.6718750000000000        0.0000000000000000     
   9.9218750000000018        3.6718750000000000        0.0000000000000000     
   10.000000000000000        3.6718750000000004        0.0000000000000000     
   9.3750000000000018        3.7500000000000004        0.0000000000000000     
   9.4531250000000000        3.7499999999999996        0.0000000000000000     
   9.5312500000000018        3.7500000000000004        0.0000000000000000     
   9.6093750000000000        3.7500000000000000        0.0000000000000000     
   9.6875000000000018        3.7500000000000000        0.0000000000000000     
   9.7656250000000018        3.7500000000000004        0.0000000000000000     
   9.8437500000000000        3.7500000000000004        0.0000000000000000     
   9.9218750000000000        3.7499999999999991        0.0000000000000000     
   10.000000000000004        3.7500000000000004        0.0000000000000000     
   5.0000000000000018        3.7500000000000004        0.0000000000000000     
   5.0781250000000009        3.7500000000000000        0.0000000000000000     
   5.1562500000000000        3.7500000000000004        0.0000000000000000     
   5.2343750000000009        3.7500000000000004        0.0000000000000000     
   5.3125000000000027        3.7500000000000000        0.0000000000000000     
   5.3906250000000009        3.7500000000000004        0.0000000000000000     
   5.4687500000000000        3.7500000000000004        0.0000000000000000     
   5.5468750000000009        3.7500000000000000        0.0000000000000000     
   5.6250000000000009        3.7500000000000004        0.0000000000000000     
   5.0000000000000000        3.8281249999999996        0.0000000000000000     
   5.0781250000000009        3.8281250000000009        0.0000000000000000     
   5.1562500000000000        3.8281249999999996        0.0000000000000000     
   5.2343750000000000        3.8281249999999996        0.0000000000000000     
   5.3125000000000009        3.8281250000000004        0.0000000000000000     
   5.3906250000000009        3.8281250000000004        0.0000000000000000     
   5.4687500000000000        3.8281249999999991        0.0000000000000000     
   5.5468750000000000        3.8281250000000009        0.0000000000000000     
   5.6250000000000000        3.8281250000000004        0.0000000000000000     
   5.0000000000000000        3.9062500000000000        0.0000000000000000     
   5.0781250000000000        3.9062500000000000        0.0000000000000000     
   5.1562500000000000        3.9062500000000000        0.0000000000000000     
   5.2343750000000000        3.9062500000000000        0.0000000000000000     
   5.3125000000000009        3.9062500000000000        0.0000000000000000     
   5.3906250000000000        3.9062500000000000        0.0000000000000000     
   5.4687500000000000        3.9062500000000000        0.0000000000000000     
   5.5468750000000009        3.9062500000000000        0.0000000000000000     
   5.6250000000000000        3.9062500000000000        0.0000000000000000     
   5.0000000000000009        3.9843750000000009        0.0000000000000000     
   5.0781249999999991        3.9843749999999991        0.0000000000000000     
   5.1562500000000000        3.9843750000000000        0.0000000000000000     
   5.2343750000000009        3.9843750000000004        0.0000000000000000     
   5.3125000000000009        3.9843750000000000        0.0000000000000000     
   5.3906250000000009        3.9843750000000004        0.0000000000000000     
   5.4687500000000000        3.9843750000000004        0.0000000000000000     
   5.5468750000000009        3.9843750000000000        0.0000000000000000     
   5.6250000000000000        3.9843750000000004        0.0000000000000000     
   5.0000000000000000        4.0625000000000000        0.0000000000000000     
   5.0781250000000000        4.0625000000000000        0.0000000000000000     
   5.1562500000000000        4.0625000000000000        0.0000000000000000     
   5.2343750000000000        4.0625000000000000        0.0000000000000000     
   5.3125000000000009        4.0625000000000000        0.0000000000000000     
   5.3906250000000009        4.0625000000000000        0.0000000000000000     
   5.4687500000000000        4.0624999999999991        0.0000000000000000     
   5.5468750000000009        4.0625000000000000        0.0000000000000000     
   5.6250000000000000        4.0625000000000000        0.0000000000000000     
   5.0000000000000009        4.1406250000000000        0.0000000000000000     
   5.0781250000000000        4.1406250000000000        0.0000000000000000     
   5.1562500000000000        4.1406250000000000        0.0000000000000000     
   5.2343750000000000        4.1406250000000000        0.0000000000000000     
   5.3125000000000009        4.1406250000000000        0.0000000000000000     
   5.3906250000000009        4.1406250000000000        0.0000000000000000     
   5.4687500000000009        4.1406250000000000        0.0000000000000000     
   5.5468750000000018        4.1406250000000009        0.0000000000000000     
   5.6250000000000000        4.1406250000000000        0.0000000000000000     
   5.0000000000000009        4.2187500000000000        0.0000000000000000     
   5.0781250000000009        4.2187500000000009        0.0000000000000000     
   5.1562500000000000        4.2187500000000000        0.0000000000000000     
   5.2343750000000000        4.2187500000000000        0.0000000000000000     
   5.3125000000000009        4.2187500000000000        0.0000000000000000     
   5.3906250000000009        4.2187500000000000        0.0000000000000000     
   5.4687500000000000        4.2187499999999991        0.0000000000000000     
   5.5468750000000018        4.2187500000000009        0.0000000000000000     
   5.6250000000000000        4.2187499999999991        0.0000000000000000     
   5.0000000000000000        4.2968750000000000        0.0000000000000000     
   5.0781250000000009        4.2968750000000000        0.0000000000000000     
   5.1562500000000009        4.2968750000000000        0.0000000000000000     
   5.2343750000000000        4.2968750000000000        0.0000000000000000     
   5.3125000000000018        4.2968750000000000        0.0000000000000000     
   5.3906250000000000        4.2968750000000000        0.0000000000000000     
   5.4687500000000000        4.2968750000000000        0.0000000000000000     
   5.5468750000000000        4.2968750000000000        0.0000000000000000     
   5.6250000000000000        4.2968750000000000        0.0000000000000000     
   5.0000000000000000        4.3750000000000000        0.0000000000000000     
   5.0781250000000000        4.3750000000000000        0.0000000000000000     
   5.1562500000000000        4.3750000000000000        0.0000000000000000     
   5.2343750000000009        4.3750000000000009        0.0000000000000000     
   5.3125000000000009        4.3750000000000000        0.0000000000000000     
   5.3906250000000000        4.3750000000000000        0.0000000000000000     
   5.4687500000000000        4.3750000000000009        0.0000000000000000     
   5.5468750000000009        4.3749999999999991        0.0000000000000000     
   5.6250000000000018        4.3750000000000009        0.0000000000000000     
   5.6250000000000009        3.7500000000000004        0.0000000000000000     
   5.7031250000000009        3.7500000000000009        0.0000000000000000     
   5.7812500000000009        3.7500000000000000        0.0000000000000000     
   5.8593750000000000        3.7500000000000000        0.0000000000000000     
   5.9375000000000000        3.7500000000000000        0.0000000000000000     
   6.0156250000000009        3.7499999999999996        0.0000000000000000     
   6.0937500000000000        3.7500000000000013        0.0000000000000000     
   6.1718750000000000        3.7500000000000000        0.0000000000000000     
   6.2500000000000009        3.7500000000000000        0.0000000000000000     
   5.6250000000000000        3.8281250000000004        0.0000000000000000     
   5.7031250000000009        3.8281250000000004        0.0000000000000000     
   5.7812500000000009        3.8281250000000009        0.0000000000000000     
   5.8593750000000000        3.8281249999999996        0.0000000000000000     
   5.9375000000000009        3.8281250000000004        0.0000000000000000     
   6.0156250000000009        3.8281250000000004        0.0000000000000000     
   6.0937500000000000        3.8281250000000004        0.0000000000000000     
   6.1718750000000009        3.8281250000000004        0.0000000000000000     
   6.2499999999999991        3.8281250000000000        0.0000000000000000     
   5.6250000000000000        3.9062500000000000        0.0000000000000000     
   5.7031250000000009        3.9062500000000004        0.0000000000000000     
   5.7812500000000000        3.9062499999999996        0.0000000000000000     
   5.8593750000000018        3.9062500000000009        0.0000000000000000     
   5.9375000000000000        3.9062500000000000        0.0000000000000000     
   6.0156250000000000        3.9062500000000009        0.0000000000000000     
   6.0937500000000009        3.9062500000000004        0.0000000000000000     
   6.1718750000000000        3.9062500000000004        0.0000000000000000     
   6.2500000000000009        3.9062500000000009        0.0000000000000000     
   5.6250000000000000        3.9843750000000004        0.0000000000000000     
   5.7031249999999991        3.9843749999999996        0.0000000000000000     
   5.7812500000000009        3.9843750000000000        0.0000000000000000     
   5.8593750000000000        3.9843750000000004        0.0000000000000000     
   5.9374999999999991        3.9843749999999996        0.0000000000000000     
   6.0156250000000009        3.9843750000000000        0.0000000000000000     
   6.0937500000000000        3.9843750000000013        0.0000000000000000     
   6.1718749999999991        3.9843749999999996        0.0000000000000000     
   6.2499999999999991        3.9843749999999991        0.0000000000000000     
   5.6250000000000000        4.0625000000000000        0.0000000000000000     
   5.7031250000000009        4.0625000000000000        0.0000000000000000     
   5.7812499999999991        4.0625000000000000        0.0000000000000000     
   5.8593750000000000        4.0625000000000000        0.0000000000000000     
   5.9375000000000009        4.0625000000000000        0.0000000000000000     
   6.0156250000000000        4.0625000000000009        0.0000000000000000     
   6.0937500000000000        4.0625000000000009        0.0000000000000000     
   6.1718750000000009        4.0625000000000000        0.0000000000000000     
   6.2499999999999991        4.0624999999999991        0.0000000000000000     
   5.6250000000000000        4.1406250000000000        0.0000000000000000     
   5.7031250000000000        4.1406250000000000        0.0000000000000000     
   5.7812500000000000        4.1406250000000000        0.0000000000000000     
   5.8593750000000000        4.1406250000000000        0.0000000000000000     
   5.9375000000000000        4.1406250000000000        0.0000000000000000     
   6.0156250000000000        4.1406250000000000        0.0000000000000000     
   6.0937500000000000        4.1406250000000000        0.0000000000000000     
   6.1718750000000000        4.1406250000000000        0.0000000000000000     
   6.2500000000000000        4.1406250000000000        0.0000000000000000     
   5.6250000000000000        4.2187499999999991        0.0000000000000000     
   5.7031250000000000        4.2187500000000018        0.0000000000000000     
   5.7812500000000000        4.2187500000000000        0.0000000000000000     
   5.8593750000000009        4.2187500000000009        0.0000000000000000     
   5.9374999999999991        4.2187500000000000        0.0000000000000000     
   6.0156250000000009        4.2187499999999991        0.0000000000000000     
   6.0937500000000018        4.2187500000000009        0.0000000000000000     
   6.1718749999999982        4.2187500000000000        0.0000000000000000     
   6.2500000000000000        4.2187499999999991        0.0000000000000000     
   5.6250000000000000        4.2968750000000000        0.0000000000000000     
   5.7031250000000009        4.2968750000000000        0.0000000000000000     
   5.7812500000000000        4.2968750000000000        0.0000000000000000     
   5.8593750000000000        4.2968750000000000        0.0000000000000000     
   5.9375000000000009        4.2968750000000000        0.0000000000000000     
   6.0156250000000000        4.2968750000000000        0.0000000000000000     
   6.0937500000000000        4.2968750000000000        0.0000000000000000     
   6.1718750000000018        4.2968750000000000        0.0000000000000000     
   6.2500000000000000        4.2968750000000000        0.0000000000000000     
   5.6250000000000018        4.3750000000000009        0.0000000000000000     
   5.7031250000000009        4.3750000000000000        0.0000000000000000     
   5.7812500000000000        4.3750000000000000        0.0000000000000000     
   5.8593750000000000        4.3750000000000000        0.0000000000000000     
   5.9375000000000009        4.3750000000000000        0.0000000000000000     
   6.0156250000000009        4.3750000000000000        0.0000000000000000     
   6.0937500000000000        4.3750000000000000        0.0000000000000000     
   6.1718750000000009        4.3750000000000009        0.0000000000000000     
   6.2500000000000009        4.3750000000000009        0.0000000000000000     
   6.2500000000000009        3.7500000000000000        0.0000000000000000     
   6.3281250000000009        3.7500000000000013        0.0000000000000000     
   6.4062500000000000        3.7500000000000000        0.0000000000000000     
   6.4843750000000009        3.7499999999999996        0.0000000000000000     
   6.5625000000000009        3.7500000000000013        0.0000000000000000     
   6.6406250000000000        3.7499999999999996        0.0000000000000000     
   6.7187500000000009        3.7500000000000009        0.0000000000000000     
   6.7968750000000018        3.7500000000000009        0.0000000000000000     
   6.8750000000000009        3.7500000000000000        0.0000000000000000     
   6.2499999999999991        3.8281250000000000        0.0000000000000000     
   6.3281250000000000        3.8281250000000000        0.0000000000000000     
   6.4062500000000009        3.8281250000000009        0.0000000000000000     
   6.4843750000000009        3.8281250000000004        0.0000000000000000     
   6.5625000000000000        3.8281249999999996        0.0000000000000000     
   6.6406250000000018        3.8281250000000004        0.0000000000000000     
   6.7187500000000000        3.8281250000000004        0.0000000000000000     
   6.7968750000000000        3.8281250000000000        0.0000000000000000     
   6.8750000000000000        3.8281250000000000        0.0000000000000000     
   6.2500000000000009        3.9062500000000009        0.0000000000000000     
   6.3281250000000009        3.9062500000000004        0.0000000000000000     
   6.4062499999999991        3.9062499999999996        0.0000000000000000     
   6.4843750000000000        3.9062500000000004        0.0000000000000000     
   6.5625000000000000        3.9062500000000004        0.0000000000000000     
   6.6406250000000000        3.9062500000000009        0.0000000000000000     
   6.7187500000000009        3.9062500000000004        0.0000000000000000     
   6.7968750000000000        3.9062500000000004        0.0000000000000000     
   6.8750000000000000        3.9062500000000009        0.0000000000000000     
   6.2499999999999991        3.9843749999999991        0.0000000000000000     
   6.3281250000000009        3.9843750000000013        0.0000000000000000     
   6.4062500000000000        3.9843750000000000        0.0000000000000000     
   6.4843749999999991        3.9843749999999987        0.0000000000000000     
   6.5625000000000018        3.9843750000000013        0.0000000000000000     
   6.6406250000000009        3.9843750000000000        0.0000000000000000     
   6.7187499999999991        3.9843749999999991        0.0000000000000000     
   6.7968750000000018        3.9843750000000009        0.0000000000000000     
   6.8749999999999991        3.9843749999999991        0.0000000000000000     
   6.2499999999999991        4.0624999999999991        0.0000000000000000     
   6.3281250000000000        4.0625000000000009        0.0000000000000000     
   6.4062500000000009        4.0625000000000000        0.0000000000000000     
   6.4843750000000000        4.0625000000000000        0.0000000000000000     
   6.5625000000000000        4.0625000000000009        0.0000000000000000     
   6.6406250000000009        4.0625000000000009        0.0000000000000000     
   6.7187500000000000        4.0625000000000000        0.0000000000000000     
   6.7968750000000000        4.0625000000000009        0.0000000000000000     
   6.8750000000000000        4.0624999999999991        0.0000000000000000     
   6.2500000000000000        4.1406250000000000        0.0000000000000000     
   6.3281250000000000        4.1406250000000000        0.0000000000000000     
   6.4062500000000000        4.1406250000000000        0.0000000000000000     
   6.4843750000000000        4.1406250000000000        0.0000000000000000     
   6.5625000000000000        4.1406250000000000        0.0000000000000000     
   6.6406250000000000        4.1406250000000000        0.0000000000000000     
   6.7187500000000000        4.1406250000000009        0.0000000000000000     
   6.7968750000000000        4.1406249999999991        0.0000000000000000     
   6.8750000000000000        4.1406250000000000        0.0000000000000000     
   6.2500000000000000        4.2187499999999991        0.0000000000000000     
   6.3281250000000009        4.2187500000000009        0.0000000000000000     
   6.4062500000000000        4.2187500000000000        0.0000000000000000     
   6.4843750000000000        4.2187500000000000        0.0000000000000000     
   6.5625000000000009        4.2187500000000009        0.0000000000000000     
   6.6406250000000000        4.2187500000000000        0.0000000000000000     
   6.7187500000000009        4.2187500000000000        0.0000000000000000     
   6.7968750000000018        4.2187500000000009        0.0000000000000000     
   6.8749999999999982        4.2187499999999991        0.0000000000000000     
   6.2500000000000000        4.2968750000000000        0.0000000000000000     
   6.3281250000000000        4.2968750000000000        0.0000000000000000     
   6.4062500000000000        4.2968750000000000        0.0000000000000000     
   6.4843750000000000        4.2968750000000000        0.0000000000000000     
   6.5625000000000000        4.2968750000000000        0.0000000000000000     
   6.6406250000000000        4.2968750000000000        0.0000000000000000     
   6.7187500000000000        4.2968750000000009        0.0000000000000000     
   6.7968750000000000        4.2968750000000000        0.0000000000000000     
   6.8750000000000000        4.2968750000000000        0.0000000000000000     
   6.2500000000000009        4.3750000000000009        0.0000000000000000     
   6.3281250000000009        4.3750000000000000        0.0000000000000000     
   6.4062500000000000        4.3750000000000000        0.0000000000000000     
   6.4843750000000009        4.3750000000000009        0.0000000000000000     
   6.5625000000000009        4.3750000000000000        0.0000000000000000     
   6.6406250000000000        4.3750000000000000        0.0000000000000000     
   6.7187500000000000        4.3750000000000000        0.0000000000000000     
   6.7968750000000009        4.3750000000000009        0.0000000000000000     
   6.8750000000000009        4.3750000000000009        0.0000000000000000     
   6.8750000000000009        3.7500000000000000        0.0000000000000000     
   6.9531250000000009        3.7500000000000013        0.0000000000000000     
   7.0312500000000000        3.7500000000000000        0.0000000000000000     
   7.1093750000000009        3.7499999999999996        0.0000000000000000     
   7.1875000000000009        3.7500000000000013        0.0000000000000000     
   7.2656250000000000        3.7499999999999996        0.0000000000000000     
   7.3437500000000018        3.7500000000000009        0.0000000000000000     
   7.4218750000000018        3.7500000000000009        0.0000000000000000     
   7.5000000000000027        3.7500000000000000        0.0000000000000000     
   6.8750000000000000        3.8281250000000000        0.0000000000000000     
   6.9531250000000018        3.8281250000000000        0.0000000000000000     
   7.0312500000000009        3.8281250000000009        0.0000000000000000     
   7.1093750000000018        3.8281250000000004        0.0000000000000000     
   7.1875000000000018        3.8281249999999996        0.0000000000000000     
   7.2656250000000000        3.8281250000000004        0.0000000000000000     
   7.3437500000000009        3.8281250000000004        0.0000000000000000     
   7.4218750000000018        3.8281250000000000        0.0000000000000000     
   7.5000000000000000        3.8281250000000000        0.0000000000000000     
   6.8750000000000000        3.9062500000000009        0.0000000000000000     
   6.9531250000000009        3.9062500000000004        0.0000000000000000     
   7.0312500000000000        3.9062499999999996        0.0000000000000000     
   7.1093750000000000        3.9062500000000004        0.0000000000000000     
   7.1875000000000000        3.9062500000000004        0.0000000000000000     
   7.2656250000000009        3.9062500000000009        0.0000000000000000     
   7.3437500000000000        3.9062500000000004        0.0000000000000000     
   7.4218750000000018        3.9062500000000004        0.0000000000000000     
   7.5000000000000009        3.9062500000000009        0.0000000000000000     
   6.8749999999999991        3.9843749999999991        0.0000000000000000     
   6.9531250000000009        3.9843750000000013        0.0000000000000000     
   7.0312500000000000        3.9843750000000000        0.0000000000000000     
   7.1093749999999991        3.9843749999999987        0.0000000000000000     
   7.1875000000000009        3.9843750000000013        0.0000000000000000     
   7.2656250000000000        3.9843750000000000        0.0000000000000000     
   7.3437499999999991        3.9843749999999991        0.0000000000000000     
   7.4218750000000000        3.9843750000000009        0.0000000000000000     
   7.4999999999999982        3.9843749999999991        0.0000000000000000     
   6.8750000000000000        4.0624999999999991        0.0000000000000000     
   6.9531250000000009        4.0625000000000009        0.0000000000000000     
   7.0312500000000000        4.0625000000000000        0.0000000000000000     
   7.1093750000000009        4.0625000000000000        0.0000000000000000     
   7.1875000000000009        4.0625000000000009        0.0000000000000000     
   7.2656250000000009        4.0625000000000009        0.0000000000000000     
   7.3437500000000009        4.0625000000000000        0.0000000000000000     
   7.4218750000000009        4.0625000000000009        0.0000000000000000     
   7.5000000000000000        4.0624999999999991        0.0000000000000000     
   6.8750000000000000        4.1406250000000000        0.0000000000000000     
   6.9531250000000018        4.1406250000000000        0.0000000000000000     
   7.0312500000000000        4.1406250000000000        0.0000000000000000     
   7.1093750000000009        4.1406250000000000        0.0000000000000000     
   7.1875000000000000        4.1406250000000000        0.0000000000000000     
   7.2656250000000009        4.1406250000000000        0.0000000000000000     
   7.3437500000000000        4.1406250000000009        0.0000000000000000     
   7.4218750000000000        4.1406249999999991        0.0000000000000000     
   7.5000000000000000        4.1406250000000000        0.0000000000000000     
   6.8749999999999982        4.2187499999999991        0.0000000000000000     
   6.9531250000000009        4.2187500000000009        0.0000000000000000     
   7.0312500000000000        4.2187500000000000        0.0000000000000000     
   7.1093750000000000        4.2187500000000000        0.0000000000000000     
   7.1875000000000009        4.2187500000000009        0.0000000000000000     
   7.2656250000000000        4.2187500000000000        0.0000000000000000     
   7.3437499999999991        4.2187500000000000        0.0000000000000000     
   7.4218750000000009        4.2187500000000009        0.0000000000000000     
   7.4999999999999982        4.2187499999999991        0.0000000000000000     
   6.8750000000000000        4.2968750000000000        0.0000000000000000     
   6.9531250000000009        4.2968750000000000        0.0000000000000000     
   7.0312500000000000        4.2968750000000000        0.0000000000000000     
   7.1093750000000000        4.2968750000000000        0.0000000000000000     
   7.1875000000000009        4.2968750000000000        0.0000000000000000     
   7.2656250000000000        4.2968750000000000        0.0000000000000000     
   7.3437500000000000        4.2968750000000009        0.0000000000000000     
   7.4218750000000009        4.2968750000000000        0.0000000000000000     
   7.5000000000000000        4.2968750000000000        0.0000000000000000     
   6.8750000000000009        4.3750000000000009        0.0000000000000000     
   6.9531250000000009        4.3750000000000000        0.0000000000000000     
   7.0312500000000000        4.3750000000000000        0.0000000000000000     
   7.1093750000000009        4.3750000000000009        0.0000000000000000     
   7.1874999999999991        4.3750000000000000        0.0000000000000000     
   7.2656250000000000        4.3750000000000000        0.0000000000000000     
   7.3437500000000000        4.3750000000000000        0.0000000000000000     
   7.4218750000000018        4.3750000000000009        0.0000000000000000     
   7.5000000000000009        4.3750000000000009        0.0000000000000000     
   7.5000000000000027        3.7500000000000000        0.0000000000000000     
   7.5781250000000009        3.7500000000000013        0.0000000000000000     
   7.6562500000000018        3.7500000000000000        0.0000000000000000     
   7.7343750000000000        3.7499999999999996        0.0000000000000000     
   7.8124999999999991        3.7500000000000013        0.0000000000000000     
   7.8906249999999991        3.7499999999999996        0.0000000000000000     
   7.9687500000000018        3.7500000000000009        0.0000000000000000     
   8.0468750000000018        3.7500000000000009        0.0000000000000000     
   8.1250000000000000        3.7500000000000000        0.0000000000000000     
   7.5000000000000000        3.8281250000000000        0.0000000000000000     
   7.5781250000000009        3.8281250000000000        0.0000000000000000     
   7.6562500000000018        3.8281250000000009        0.0000000000000000     
   7.7343750000000009        3.8281250000000004        0.0000000000000000     
   7.8125000000000009        3.8281249999999996        0.0000000000000000     
   7.8906250000000009        3.8281250000000004        0.0000000000000000     
   7.9687500000000018        3.8281250000000004        0.0000000000000000     
   8.0468749999999982        3.8281250000000000        0.0000000000000000     
   8.1250000000000000        3.8281250000000000        0.0000000000000000     
   7.5000000000000009        3.9062500000000009        0.0000000000000000     
   7.5781250000000009        3.9062500000000004        0.0000000000000000     
   7.6562499999999991        3.9062499999999996        0.0000000000000000     
   7.7343750000000009        3.9062500000000004        0.0000000000000000     
   7.8125000000000009        3.9062500000000004        0.0000000000000000     
   7.8906250000000000        3.9062500000000009        0.0000000000000000     
   7.9687500000000009        3.9062500000000004        0.0000000000000000     
   8.0468750000000018        3.9062500000000004        0.0000000000000000     
   8.1250000000000018        3.9062500000000009        0.0000000000000000     
   7.4999999999999982        3.9843749999999991        0.0000000000000000     
   7.5781249999999991        3.9843750000000013        0.0000000000000000     
   7.6562500000000000        3.9843750000000000        0.0000000000000000     
   7.7343749999999991        3.9843749999999987        0.0000000000000000     
   7.8124999999999991        3.9843750000000013        0.0000000000000000     
   7.8906250000000000        3.9843750000000000        0.0000000000000000     
   7.9687499999999991        3.9843749999999991        0.0000000000000000     
   8.0468750000000000        3.9843750000000009        0.0000000000000000     
   8.1249999999999982        3.9843749999999991        0.0000000000000000     
   7.5000000000000000        4.0624999999999991        0.0000000000000000     
   7.5781250000000009        4.0625000000000009        0.0000000000000000     
   7.6562500000000018        4.0625000000000000        0.0000000000000000     
   7.7343750000000018        4.0625000000000000        0.0000000000000000     
   7.8125000000000009        4.0625000000000009        0.0000000000000000     
   7.8906250000000018        4.0625000000000009        0.0000000000000000     
   7.9687500000000009        4.0625000000000000        0.0000000000000000     
   8.0468749999999982        4.0625000000000009        0.0000000000000000     
   8.1249999999999982        4.0624999999999991        0.0000000000000000     
   7.5000000000000000        4.1406250000000000        0.0000000000000000     
   7.5781250000000000        4.1406250000000000        0.0000000000000000     
   7.6562500000000000        4.1406250000000000        0.0000000000000000     
   7.7343749999999991        4.1406250000000000        0.0000000000000000     
   7.8125000000000009        4.1406250000000000        0.0000000000000000     
   7.8906250000000000        4.1406250000000000        0.0000000000000000     
   7.9687499999999991        4.1406250000000009        0.0000000000000000     
   8.0468750000000018        4.1406249999999991        0.0000000000000000     
   8.1250000000000000        4.1406250000000000        0.0000000000000000     
   7.4999999999999982        4.2187499999999991        0.0000000000000000     
   7.5781250000000009        4.2187500000000009        0.0000000000000000     
   7.6562500000000000        4.2187500000000000        0.0000000000000000     
   7.7343750000000009        4.2187500000000000        0.0000000000000000     
   7.8124999999999982        4.2187500000000009        0.0000000000000000     
   7.8906249999999991        4.2187500000000000        0.0000000000000000     
   7.9687500000000000        4.2187500000000000        0.0000000000000000     
   8.0468750000000036        4.2187500000000009        0.0000000000000000     
   8.1250000000000000        4.2187499999999991        0.0000000000000000     
   7.5000000000000000        4.2968750000000000        0.0000000000000000     
   7.5781250000000009        4.2968750000000000        0.0000000000000000     
   7.6562500000000000        4.2968750000000000        0.0000000000000000     
   7.7343750000000000        4.2968750000000000        0.0000000000000000     
   7.8125000000000027        4.2968750000000000        0.0000000000000000     
   7.8906250000000000        4.2968750000000000        0.0000000000000000     
   7.9687500000000000        4.2968750000000009        0.0000000000000000     
   8.0468750000000000        4.2968750000000000        0.0000000000000000     
   8.1249999999999982        4.2968750000000000        0.0000000000000000     
   7.5000000000000009        4.3750000000000009        0.0000000000000000     
   7.5781250000000009        4.3750000000000000        0.0000000000000000     
   7.6562500000000000        4.3750000000000000        0.0000000000000000     
   7.7343750000000000        4.3750000000000009        0.0000000000000000     
   7.8125000000000000        4.3750000000000000        0.0000000000000000     
   7.8906250000000000        4.3750000000000000        0.0000000000000000     
   7.9687499999999991        4.3750000000000000        0.0000000000000000     
   8.0468750000000018        4.3750000000000009        0.0000000000000000     
   8.1250000000000018        4.3750000000000009        0.0000000000000000     
   8.1250000000000000        3.7500000000000000        0.0000000000000000     
   8.2031250000000000        3.7500000000000013        0.0000000000000000     
   8.2812500000000018        3.7500000000000000        0.0000000000000000     
   8.3593750000000000        3.7499999999999996        0.0000000000000000     
   8.4375000000000000        3.7500000000000013        0.0000000000000000     
   8.5156250000000000        3.7499999999999996        0.0000000000000000     
   8.5937500000000018        3.7500000000000009        0.0000000000000000     
   8.6718750000000018        3.7500000000000009        0.0000000000000000     
   8.7500000000000036        3.7500000000000000        0.0000000000000000     
   8.1250000000000000        3.8281250000000000        0.0000000000000000     
   8.2031250000000018        3.8281250000000000        0.0000000000000000     
   8.2812500000000000        3.8281250000000009        0.0000000000000000     
   8.3593750000000000        3.8281250000000004        0.0000000000000000     
   8.4375000000000018        3.8281249999999996        0.0000000000000000     
   8.5156250000000000        3.8281250000000004        0.0000000000000000     
   8.5937500000000000        3.8281250000000004        0.0000000000000000     
   8.6718750000000018        3.8281250000000000        0.0000000000000000     
   8.7499999999999982        3.8281250000000000        0.0000000000000000     
   8.1250000000000018        3.9062500000000009        0.0000000000000000     
   8.2031250000000018        3.9062500000000004        0.0000000000000000     
   8.2812499999999982        3.9062499999999996        0.0000000000000000     
   8.3593750000000000        3.9062500000000004        0.0000000000000000     
   8.4375000000000018        3.9062500000000004        0.0000000000000000     
   8.5156250000000018        3.9062500000000009        0.0000000000000000     
   8.5937500000000000        3.9062500000000004        0.0000000000000000     
   8.6718750000000018        3.9062500000000004        0.0000000000000000     
   8.7500000000000018        3.9062500000000009        0.0000000000000000     
   8.1249999999999982        3.9843749999999991        0.0000000000000000     
   8.2031250000000000        3.9843750000000013        0.0000000000000000     
   8.2812500000000000        3.9843750000000000        0.0000000000000000     
   8.3593750000000000        3.9843749999999987        0.0000000000000000     
   8.4375000000000000        3.9843750000000013        0.0000000000000000     
   8.5156250000000000        3.9843750000000000        0.0000000000000000     
   8.5937500000000018        3.9843749999999991        0.0000000000000000     
   8.6718750000000000        3.9843750000000009        0.0000000000000000     
   8.7499999999999964        3.9843749999999991        0.0000000000000000     
   8.1249999999999982        4.0624999999999991        0.0000000000000000     
   8.2031250000000000        4.0625000000000009        0.0000000000000000     
   8.2812500000000036        4.0625000000000000        0.0000000000000000     
   8.3593750000000000        4.0625000000000000        0.0000000000000000     
   8.4375000000000000        4.0625000000000009        0.0000000000000000     
   8.5156250000000018        4.0625000000000009        0.0000000000000000     
   8.5937500000000000        4.0625000000000000        0.0000000000000000     
   8.6718750000000000        4.0625000000000009        0.0000000000000000     
   8.7500000000000000        4.0624999999999991        0.0000000000000000     
   8.1250000000000000        4.1406250000000000        0.0000000000000000     
   8.2031250000000000        4.1406250000000000        0.0000000000000000     
   8.2812500000000000        4.1406250000000000        0.0000000000000000     
   8.3593750000000018        4.1406250000000000        0.0000000000000000     
   8.4375000000000000        4.1406250000000000        0.0000000000000000     
   8.5156250000000000        4.1406250000000000        0.0000000000000000     
   8.5937500000000018        4.1406250000000009        0.0000000000000000     
   8.6718750000000000        4.1406249999999991        0.0000000000000000     
   8.7500000000000000        4.1406250000000000        0.0000000000000000     
   8.1250000000000000        4.2187499999999991        0.0000000000000000     
   8.2031250000000018        4.2187500000000009        0.0000000000000000     
   8.2812500000000000        4.2187500000000000        0.0000000000000000     
   8.3593750000000018        4.2187500000000000        0.0000000000000000     
   8.4375000000000000        4.2187500000000009        0.0000000000000000     
   8.5156250000000000        4.2187500000000000        0.0000000000000000     
   8.5937500000000018        4.2187500000000000        0.0000000000000000     
   8.6718750000000000        4.2187500000000009        0.0000000000000000     
   8.7500000000000000        4.2187499999999991        0.0000000000000000     
   8.1249999999999982        4.2968750000000000        0.0000000000000000     
   8.2031250000000018        4.2968750000000000        0.0000000000000000     
   8.2812500000000000        4.2968750000000000        0.0000000000000000     
   8.3593750000000000        4.2968750000000000        0.0000000000000000     
   8.4375000000000018        4.2968750000000000        0.0000000000000000     
   8.5156250000000000        4.2968750000000000        0.0000000000000000     
   8.5937500000000000        4.2968750000000009        0.0000000000000000     
   8.6718750000000000        4.2968750000000000        0.0000000000000000     
   8.7500000000000018        4.2968750000000000        0.0000000000000000     
   8.1250000000000018        4.3750000000000009        0.0000000000000000     
   8.2031250000000000        4.3750000000000000        0.0000000000000000     
   8.2812500000000000        4.3750000000000000        0.0000000000000000     
   8.3593750000000018        4.3750000000000009        0.0000000000000000     
   8.4375000000000000        4.3750000000000000        0.0000000000000000     
   8.5156250000000000        4.3750000000000000        0.0000000000000000     
   8.5937500000000018        4.3750000000000000        0.0000000000000000     
   8.6718750000000000        4.3750000000000009        0.0000000000000000     
   8.7500000000000018        4.3750000000000009        0.0000000000000000     
   8.7500000000000036        3.7500000000000000        0.0000000000000000     
   8.8281250000000018        3.7500000000000009        0.0000000000000000     
   8.9062500000000018        3.7500000000000009        0.0000000000000000     
   8.9843750000000018        3.7499999999999996        0.0000000000000000     
   9.0625000000000018        3.7500000000000009        0.0000000000000000     
   9.1406250000000000        3.7500000000000000        0.0000000000000000     
   9.2187500000000000        3.7500000000000009        0.0000000000000000     
   9.2968750000000000        3.7500000000000009        0.0000000000000000     
   9.3750000000000018        3.7500000000000004        0.0000000000000000     
   8.7499999999999982        3.8281250000000000        0.0000000000000000     
   8.8281250000000036        3.8281250000000004        0.0000000000000000     
   8.9062500000000018        3.8281250000000004        0.0000000000000000     
   8.9843750000000000        3.8281250000000004        0.0000000000000000     
   9.0625000000000018        3.8281250000000009        0.0000000000000000     
   9.1406250000000000        3.8281250000000000        0.0000000000000000     
   9.2187500000000018        3.8281250000000004        0.0000000000000000     
   9.2968750000000018        3.8281250000000004        0.0000000000000000     
   9.3750000000000018        3.8281250000000004        0.0000000000000000     
   8.7500000000000018        3.9062500000000009        0.0000000000000000     
   8.8281250000000018        3.9062500000000004        0.0000000000000000     
   8.9062500000000000        3.9062499999999996        0.0000000000000000     
   8.9843750000000018        3.9062500000000004        0.0000000000000000     
   9.0625000000000018        3.9062500000000004        0.0000000000000000     
   9.1406250000000000        3.9062500000000000        0.0000000000000000     
   9.2187500000000018        3.9062500000000004        0.0000000000000000     
   9.2968750000000018        3.9062500000000004        0.0000000000000000     
   9.3750000000000000        3.9062500000000000        0.0000000000000000     
   8.7499999999999964        3.9843749999999991        0.0000000000000000     
   8.8281250000000000        3.9843750000000009        0.0000000000000000     
   8.9062500000000000        3.9843750000000009        0.0000000000000000     
   8.9843750000000000        3.9843749999999991        0.0000000000000000     
   9.0624999999999982        3.9843750000000000        0.0000000000000000     
   9.1406250000000000        3.9843750000000004        0.0000000000000000     
   9.2187499999999982        3.9843749999999987        0.0000000000000000     
   9.2968750000000000        3.9843750000000004        0.0000000000000000     
   9.3750000000000000        3.9843750000000000        0.0000000000000000     
   8.7500000000000000        4.0624999999999991        0.0000000000000000     
   8.8281250000000018        4.0625000000000009        0.0000000000000000     
   8.9062500000000000        4.0625000000000009        0.0000000000000000     
   8.9843750000000036        4.0625000000000000        0.0000000000000000     
   9.0625000000000018        4.0625000000000000        0.0000000000000000     
   9.1406250000000000        4.0625000000000009        0.0000000000000000     
   9.2187500000000018        4.0625000000000000        0.0000000000000000     
   9.2968750000000018        4.0625000000000009        0.0000000000000000     
   9.3750000000000000        4.0625000000000000        0.0000000000000000     
   8.7500000000000000        4.1406250000000000        0.0000000000000000     
   8.8281250000000018        4.1406250000000000        0.0000000000000000     
   8.9062500000000000        4.1406250000000000        0.0000000000000000     
   8.9843749999999982        4.1406250000000000        0.0000000000000000     
   9.0625000000000018        4.1406250000000000        0.0000000000000000     
   9.1406250000000000        4.1406250000000000        0.0000000000000000     
   9.2187499999999982        4.1406250000000009        0.0000000000000000     
   9.2968750000000018        4.1406249999999991        0.0000000000000000     
   9.3750000000000000        4.1406250000000000        0.0000000000000000     
   8.7500000000000000        4.2187499999999991        0.0000000000000000     
   8.8281249999999982        4.2187500000000000        0.0000000000000000     
   8.9062500000000036        4.2187500000000009        0.0000000000000000     
   8.9843750000000000        4.2187500000000000        0.0000000000000000     
   9.0624999999999982        4.2187500000000000        0.0000000000000000     
   9.1406250000000036        4.2187500000000009        0.0000000000000000     
   9.2187500000000000        4.2187500000000000        0.0000000000000000     
   9.2968749999999982        4.2187500000000000        0.0000000000000000     
   9.3750000000000036        4.2187500000000018        0.0000000000000000     
   8.7500000000000018        4.2968750000000000        0.0000000000000000     
   8.8281250000000018        4.2968750000000000        0.0000000000000000     
   8.9062500000000018        4.2968750000000009        0.0000000000000000     
   8.9843750000000018        4.2968750000000000        0.0000000000000000     
   9.0625000000000018        4.2968750000000000        0.0000000000000000     
   9.1406250000000018        4.2968750000000000        0.0000000000000000     
   9.2187500000000018        4.2968750000000009        0.0000000000000000     
   9.2968750000000018        4.2968750000000000        0.0000000000000000     
   9.3750000000000036        4.2968750000000018        0.0000000000000000     
   8.7500000000000018        4.3750000000000009        0.0000000000000000     
   8.8281250000000018        4.3750000000000000        0.0000000000000000     
   8.9062500000000000        4.3750000000000000        0.0000000000000000     
   8.9843750000000018        4.3750000000000009        0.0000000000000000     
   9.0625000000000018        4.3750000000000009        0.0000000000000000     
   9.1406250000000000        4.3750000000000000        0.0000000000000000     
   9.2187499999999982        4.3750000000000000        0.0000000000000000     
   9.2968750000000000        4.3750000000000000        0.0000000000000000     
   9.3750000000000000        4.3750000000000000        0.0000000000000000     
   9.3750000000000018        3.7500000000000004        0.0000000000000000     
   9.4531250000000000        3.7499999999999996        0.0000000000000000     
   9.5312500000000018        3.7500000000000004        0.0000000000000000     
   9.6093750000000000        3.7500000000000000        0.0000000000000000     
   9.6875000000000018        3.7500000000000000        0.0000000000000000     
   9.7656250000000018        3.7500000000000004        0.0000000000000000     
   9.8437500000000000        3.7500000000000004        0.0000000000000000     
   9.9218750000000000        3.7499999999999991        0.0000000000000000     
   10.000000000000004        3.7500000000000004        0.0000000000000000     
   9.3750000000000018        3.8281250000000004        0.0000000000000000     
   9.4531250000000000        3.8281250000000004        0.0000000000000000     
   9.5312500000000000        3.8281249999999996        0.0000000000000000     
   9.6093750000000000        3.8281250000000000        0.0000000000000000     
   9.6875000000000036        3.8281250000000013        0.0000000000000000     
   9.7656250000000018        3.8281250000000000        0.0000000000000000     
   9.8437500000000018        3.8281250000000004        0.0000000000000000     
   9.9218750000000000        3.8281250000000009        0.0000000000000000     
   10.000000000000000        3.8281249999999996        0.0000000000000000     
   9.3750000000000000        3.9062500000000000        0.0000000000000000     
   9.4531250000000018        3.9062500000000004        0.0000000000000000     
   9.5312500000000000        3.9062500000000000        0.0000000000000000     
   9.6093750000000018        3.9062500000000000        0.0000000000000000     
   9.6875000000000018        3.9062500000000013        0.0000000000000000     
   9.7656250000000000        3.9062499999999996        0.0000000000000000     
   9.8437500000000018        3.9062500000000000        0.0000000000000000     
   9.9218750000000000        3.9062500000000009        0.0000000000000000     
   10.000000000000000        3.9062500000000000        0.0000000000000000     
   9.3750000000000000        3.9843750000000000        0.0000000000000000     
   9.4531250000000018        3.9843750000000004        0.0000000000000000     
   9.5312500000000000        3.9843750000000004        0.0000000000000000     
   9.6093750000000000        3.9843750000000004        0.0000000000000000     
   9.6875000000000018        3.9843750000000000        0.0000000000000000     
   9.7656250000000000        3.9843750000000004        0.0000000000000000     
   9.8437500000000018        3.9843750000000004        0.0000000000000000     
   9.9218750000000000        3.9843749999999991        0.0000000000000000     
   10.000000000000002        3.9843750000000009        0.0000000000000000     
   9.3750000000000000        4.0625000000000000        0.0000000000000000     
   9.4531250000000000        4.0625000000000000        0.0000000000000000     
   9.5312500000000018        4.0625000000000009        0.0000000000000000     
   9.6093750000000000        4.0625000000000009        0.0000000000000000     
   9.6875000000000053        4.0625000000000009        0.0000000000000000     
   9.7656250000000018        4.0625000000000000        0.0000000000000000     
   9.8437500000000000        4.0625000000000000        0.0000000000000000     
   9.9218750000000018        4.0625000000000000        0.0000000000000000     
   10.000000000000000        4.0625000000000000        0.0000000000000000     
   9.3750000000000000        4.1406250000000000        0.0000000000000000     
   9.4531250000000018        4.1406250000000000        0.0000000000000000     
   9.5312500000000000        4.1406250000000000        0.0000000000000000     
   9.6093750000000018        4.1406250000000000        0.0000000000000000     
   9.6875000000000000        4.1406249999999991        0.0000000000000000     
   9.7656250000000018        4.1406250000000000        0.0000000000000000     
   9.8437500000000018        4.1406250000000000        0.0000000000000000     
   9.9218750000000000        4.1406250000000000        0.0000000000000000     
   10.000000000000002        4.1406250000000000        0.0000000000000000     
   9.3750000000000036        4.2187500000000018        0.0000000000000000     
   9.4531250000000018        4.2187500000000009        0.0000000000000000     
   9.5312500000000018        4.2187500000000009        0.0000000000000000     
   9.6093750000000018        4.2187500000000000        0.0000000000000000     
   9.6875000000000036        4.2187500000000009        0.0000000000000000     
   9.7656250000000036        4.2187500000000009        0.0000000000000000     
   9.8437500000000000        4.2187500000000000        0.0000000000000000     
   9.9218750000000018        4.2187500000000009        0.0000000000000000     
   10.000000000000002        4.2187500000000000        0.0000000000000000     
   9.3750000000000036        4.2968750000000018        0.0000000000000000     
   9.4531250000000000        4.2968749999999991        0.0000000000000000     
   9.5312500000000018        4.2968750000000000        0.0000000000000000     
   9.6093749999999982        4.2968749999999991        0.0000000000000000     
   9.6875000000000018        4.2968750000000000        0.0000000000000000     
   9.7656250000000000        4.2968750000000000        0.0000000000000000     
   9.8437500000000000        4.2968750000000000        0.0000000000000000     
   9.9218750000000000        4.2968750000000000        0.0000000000000000     
   10.000000000000000        4.2968750000000000        0.0000000000000000     
   9.3750000000000000        4.3750000000000000        0.0000000000000000     
   9.4531249999999982        4.3750000000000000        0.0000000000000000     
   9.5312500000000036        4.3750000000000000        0.0000000000000000     
   9.6093750000000000        4.3750000000000000        0.0000000000000000     
   9.6875000000000000        4.3749999999999991        0.0000000000000000     
   9.7656250000000000        4.3750000000000000        0.0000000000000000     
   9.8437500000000000        4.3750000000000000        0.0000000000000000     
   9.9218750000000018        4.3750000000000009        0.0000000000000000     
   10.000000000000000        4.3750000000000000        0.0000000000000000     
   5.0000000000000000        4.3750000000000000        0.0000000000000000     
   5.0781250000000000        4.3750000000000000        0.0000000000000000     
   5.1562500000000000        4.3750000000000000        0.0000000000000000     
   5.2343750000000009        4.3750000000000009        0.0000000000000000     
   5.3125000000000009        4.3750000000000000        0.0000000000000000     
   5.3906250000000000        4.3750000000000000        0.0000000000000000     
   5.4687500000000000        4.3750000000000009        0.0000000000000000     
   5.5468750000000009        4.3749999999999991        0.0000000000000000     
   5.6250000000000018        4.3750000000000009        0.0000000000000000     
   5.0000000000000009        4.4531250000000000        0.0000000000000000     
   5.0781250000000000        4.4531250000000000        0.0000000000000000     
   5.1562500000000000        4.4531250000000000        0.0000000000000000     
   5.2343750000000009        4.4531250000000000        0.0000000000000000     
   5.3125000000000009        4.4531250000000009        0.0000000000000000     
   5.3906250000000018        4.4531250000000009        0.0000000000000000     
   5.4687500000000009        4.4531250000000000        0.0000000000000000     
   5.5468750000000018        4.4531250000000009        0.0000000000000000     
   5.6250000000000009        4.4531250000000000        0.0000000000000000     
   5.0000000000000000        4.5312500000000000        0.0000000000000000     
   5.0781250000000000        4.5312500000000000        0.0000000000000000     
   5.1562500000000009        4.5312500000000000        0.0000000000000000     
   5.2343749999999991        4.5312499999999991        0.0000000000000000     
   5.3125000000000009        4.5312500000000000        0.0000000000000000     
   5.3906250000000000        4.5312499999999991        0.0000000000000000     
   5.4687500000000009        4.5312500000000000        0.0000000000000000     
   5.5468750000000009        4.5312500000000000        0.0000000000000000     
   5.6250000000000000        4.5312500000000000        0.0000000000000000     
   5.0000000000000000        4.6093750000000009        0.0000000000000000     
   5.0781250000000009        4.6093749999999991        0.0000000000000000     
   5.1562500000000009        4.6093750000000009        0.0000000000000000     
   5.2343750000000009        4.6093750000000000        0.0000000000000000     
   5.3125000000000009        4.6093750000000000        0.0000000000000000     
   5.3906250000000018        4.6093750000000009        0.0000000000000000     
   5.4687500000000000        4.6093749999999991        0.0000000000000000     
   5.5468750000000009        4.6093750000000009        0.0000000000000000     
   5.6250000000000009        4.6093750000000000        0.0000000000000000     
   5.0000000000000009        4.6875000000000000        0.0000000000000000     
   5.0781250000000000        4.6875000000000000        0.0000000000000000     
   5.1562500000000009        4.6875000000000000        0.0000000000000000     
   5.2343750000000000        4.6875000000000000        0.0000000000000000     
   5.3125000000000018        4.6875000000000000        0.0000000000000000     
   5.3906249999999991        4.6875000000000000        0.0000000000000000     
   5.4687500000000009        4.6875000000000009        0.0000000000000000     
   5.5468750000000027        4.6875000000000009        0.0000000000000000     
   5.6250000000000000        4.6875000000000000        0.0000000000000000     
   5.0000000000000000        4.7656250000000000        0.0000000000000000     
   5.0781250000000000        4.7656250000000000        0.0000000000000000     
   5.1562500000000000        4.7656250000000000        0.0000000000000000     
   5.2343750000000009        4.7656250000000000        0.0000000000000000     
   5.3125000000000000        4.7656250000000000        0.0000000000000000     
   5.3906250000000000        4.7656250000000000        0.0000000000000000     
   5.4687500000000000        4.7656249999999991        0.0000000000000000     
   5.5468750000000000        4.7656249999999991        0.0000000000000000     
   5.6250000000000009        4.7656250000000000        0.0000000000000000     
   5.0000000000000000        4.8437499999999991        0.0000000000000000     
   5.0781250000000000        4.8437500000000000        0.0000000000000000     
   5.1562500000000000        4.8437499999999991        0.0000000000000000     
   5.2343750000000000        4.8437499999999991        0.0000000000000000     
   5.3125000000000009        4.8437500000000000        0.0000000000000000     
   5.3906250000000000        4.8437499999999991        0.0000000000000000     
   5.4687500000000000        4.8437500000000000        0.0000000000000000     
   5.5468750000000009        4.8437500000000000        0.0000000000000000     
   5.6250000000000000        4.8437500000000000        0.0000000000000000     
   5.0000000000000000        4.9218750000000000        0.0000000000000000     
   5.0781250000000000        4.9218749999999991        0.0000000000000000     
   5.1562500000000000        4.9218750000000000        0.0000000000000000     
   5.2343750000000000        4.9218750000000000        0.0000000000000000     
   5.3125000000000018        4.9218750000000000        0.0000000000000000     
   5.3906250000000009        4.9218750000000000        0.0000000000000000     
   5.4687500000000000        4.9218750000000000        0.0000000000000000     
   5.5468749999999991        4.9218750000000009        0.0000000000000000     
   5.6250000000000000        4.9218750000000000        0.0000000000000000     
   5.0000000000000000        5.0000000000000000        0.0000000000000000     
   5.0781250000000000        5.0000000000000000        0.0000000000000000     
   5.1562500000000000        5.0000000000000000        0.0000000000000000     
   5.2343750000000009        5.0000000000000000        0.0000000000000000     
   5.3125000000000000        5.0000000000000000        0.0000000000000000     
   5.3906250000000000        5.0000000000000000        0.0000000000000000     
   5.4687500000000000        5.0000000000000000        0.0000000000000000     
   5.5468750000000000        4.9999999999999991        0.0000000000000000     
   5.6250000000000000        5.0000000000000000        0.0000000000000000     
   5.6250000000000018        4.3750000000000009        0.0000000000000000     
   5.7031250000000009        4.3750000000000000        0.0000000000000000     
   5.7812500000000000        4.3750000000000000        0.0000000000000000     
   5.8593750000000000        4.3750000000000000        0.0000000000000000     
   5.9375000000000009        4.3750000000000000        0.0000000000000000     
   6.0156250000000009        4.3750000000000000        0.0000000000000000     
   6.0937500000000000        4.3750000000000000        0.0000000000000000     
   6.1718750000000009        4.3750000000000009        0.0000000000000000     
   6.2500000000000009        4.3750000000000009        0.0000000000000000     
   5.6250000000000009        4.4531250000000000        0.0000000000000000     
   5.7031250000000009        4.4531250000000000        0.0000000000000000     
   5.7812500000000000        4.4531249999999991        0.0000000000000000     
   5.8593750000000000        4.4531250000000000        0.0000000000000000     
   5.9375000000000000        4.4531250000000000        0.0000000000000000     
   6.0156250000000000        4.4531249999999991        0.0000000000000000     
   6.0937500000000000        4.4531250000000009        0.0000000000000000     
   6.1718750000000000        4.4531250000000000        0.0000000000000000     
   6.2500000000000000        4.4531250000000000        0.0000000000000000     
   5.6250000000000000        4.5312500000000000        0.0000000000000000     
   5.7031250000000000        4.5312499999999991        0.0000000000000000     
   5.7812500000000000        4.5312500000000000        0.0000000000000000     
   5.8593750000000000        4.5312500000000000        0.0000000000000000     
   5.9375000000000009        4.5312500000000000        0.0000000000000000     
   6.0156250000000000        4.5312500000000000        0.0000000000000000     
   6.0937500000000000        4.5312500000000000        0.0000000000000000     
   6.1718750000000000        4.5312500000000000        0.0000000000000000     
   6.2500000000000000        4.5312500000000000        0.0000000000000000     
   5.6250000000000009        4.6093750000000000        0.0000000000000000     
   5.7031250000000018        4.6093750000000000        0.0000000000000000     
   5.7812500000000009        4.6093750000000009        0.0000000000000000     
   5.8593750000000000        4.6093750000000000        0.0000000000000000     
   5.9375000000000009        4.6093750000000000        0.0000000000000000     
   6.0156250000000009        4.6093750000000018        0.0000000000000000     
   6.0937500000000000        4.6093750000000000        0.0000000000000000     
   6.1718750000000009        4.6093750000000000        0.0000000000000000     
   6.2500000000000009        4.6093750000000009        0.0000000000000000     
   5.6250000000000000        4.6875000000000000        0.0000000000000000     
   5.7031250000000000        4.6875000000000000        0.0000000000000000     
   5.7812500000000000        4.6874999999999991        0.0000000000000000     
   5.8593750000000009        4.6875000000000000        0.0000000000000000     
   5.9375000000000018        4.6875000000000009        0.0000000000000000     
   6.0156250000000009        4.6874999999999991        0.0000000000000000     
   6.0937500000000009        4.6875000000000000        0.0000000000000000     
   6.1718750000000009        4.6875000000000000        0.0000000000000000     
   6.2500000000000018        4.6875000000000009        0.0000000000000000     
   5.6250000000000009        4.7656250000000000        0.0000000000000000     
   5.7031250000000000        4.7656250000000000        0.0000000000000000     
   5.7812500000000000        4.7656250000000000        0.0000000000000000     
   5.8593750000000000        4.7656250000000000        0.0000000000000000     
   5.9375000000000000        4.7656250000000000        0.0000000000000000     
   6.0156250000000000        4.7656250000000000        0.0000000000000000     
   6.0937500000000000        4.7656250000000000        0.0000000000000000     
   6.1718750000000000        4.7656250000000000        0.0000000000000000     
   6.2500000000000009        4.7656250000000009        0.0000000000000000     
   5.6250000000000000        4.8437500000000000        0.0000000000000000     
   5.7031250000000000        4.8437500000000000        0.0000000000000000     
   5.7812500000000000        4.8437500000000009        0.0000000000000000     
   5.8593750000000000        4.8437500000000009        0.0000000000000000     
   5.9375000000000000        4.8437500000000000        0.0000000000000000     
   6.0156250000000000        4.8437500000000009        0.0000000000000000     
   6.0937500000000000        4.8437500000000000        0.0000000000000000     
   6.1718750000000009        4.8437500000000009        0.0000000000000000     
   6.2500000000000000        4.8437500000000018        0.0000000000000000     
   5.6250000000000000        4.9218750000000000        0.0000000000000000     
   5.7031250000000000        4.9218749999999991        0.0000000000000000     
   5.7812500000000000        4.9218749999999982        0.0000000000000000     
   5.8593750000000009        4.9218750000000009        0.0000000000000000     
   5.9375000000000000        4.9218750000000000        0.0000000000000000     
   6.0156249999999991        4.9218749999999982        0.0000000000000000     
   6.0937500000000009        4.9218750000000009        0.0000000000000000     
   6.1718750000000009        4.9218750000000000        0.0000000000000000     
   6.2500000000000000        4.9218749999999982        0.0000000000000000     
   5.6250000000000000        5.0000000000000000        0.0000000000000000     
   5.7031250000000000        5.0000000000000000        0.0000000000000000     
   5.7812500000000000        4.9999999999999991        0.0000000000000000     
   5.8593750000000000        5.0000000000000009        0.0000000000000000     
   5.9375000000000000        5.0000000000000000        0.0000000000000000     
   6.0156250000000009        5.0000000000000009        0.0000000000000000     
   6.0937499999999991        5.0000000000000000        0.0000000000000000     
   6.1718750000000000        5.0000000000000000        0.0000000000000000     
   6.2500000000000000        5.0000000000000018        0.0000000000000000     
   6.2500000000000009        4.3750000000000009        0.0000000000000000     
   6.3281250000000009        4.3750000000000000        0.0000000000000000     
   6.4062500000000000        4.3750000000000000        0.0000000000000000     
   6.4843750000000009        4.3750000000000009        0.0000000000000000     
   6.5625000000000009        4.3750000000000000        0.0000000000000000     
   6.6406250000000000        4.3750000000000000        0.0000000000000000     
   6.7187500000000000        4.3750000000000000        0.0000000000000000     
   6.7968750000000009        4.3750000000000009        0.0000000000000000     
   6.8750000000000009        4.3750000000000009        0.0000000000000000     
   6.2500000000000000        4.4531250000000000        0.0000000000000000     
   6.3281250000000018        4.4531250000000018        0.0000000000000000     
   6.4062500000000009        4.4531249999999991        0.0000000000000000     
   6.4843750000000000        4.4531249999999991        0.0000000000000000     
   6.5625000000000000        4.4531250000000000        0.0000000000000000     
   6.6406250000000018        4.4531249999999991        0.0000000000000000     
   6.7187500000000000        4.4531249999999991        0.0000000000000000     
   6.7968750000000000        4.4531250000000009        0.0000000000000000     
   6.8750000000000018        4.4531250000000000        0.0000000000000000     
   6.2500000000000000        4.5312500000000000        0.0000000000000000     
   6.3281250000000000        4.5312500000000000        0.0000000000000000     
   6.4062500000000000        4.5312500000000000        0.0000000000000000     
   6.4843750000000000        4.5312500000000000        0.0000000000000000     
   6.5625000000000000        4.5312500000000000        0.0000000000000000     
   6.6406250000000000        4.5312500000000000        0.0000000000000000     
   6.7187500000000000        4.5312500000000000        0.0000000000000000     
   6.7968750000000000        4.5312500000000000        0.0000000000000000     
   6.8750000000000000        4.5312500000000000        0.0000000000000000     
   6.2500000000000009        4.6093750000000009        0.0000000000000000     
   6.3281250000000027        4.6093750000000000        0.0000000000000000     
   6.4062500000000000        4.6093750000000018        0.0000000000000000     
   6.4843750000000009        4.6093750000000009        0.0000000000000000     
   6.5625000000000009        4.6093750000000000        0.0000000000000000     
   6.6406250000000009        4.6093750000000018        0.0000000000000000     
   6.7187500000000009        4.6093750000000018        0.0000000000000000     
   6.7968750000000009        4.6093750000000000        0.0000000000000000     
   6.8750000000000009        4.6093750000000009        0.0000000000000000     
   6.2500000000000018        4.6875000000000009        0.0000000000000000     
   6.3281250000000018        4.6875000000000009        0.0000000000000000     
   6.4062499999999991        4.6874999999999991        0.0000000000000000     
   6.4843750000000000        4.6874999999999991        0.0000000000000000     
   6.5625000000000018        4.6875000000000009        0.0000000000000000     
   6.6406250000000009        4.6874999999999991        0.0000000000000000     
   6.7187500000000000        4.6874999999999982        0.0000000000000000     
   6.7968750000000018        4.6875000000000009        0.0000000000000000     
   6.8750000000000036        4.6875000000000009        0.0000000000000000     
   6.2500000000000009        4.7656250000000009        0.0000000000000000     
   6.3281250000000000        4.7656250000000000        0.0000000000000000     
   6.4062500000000000        4.7656250000000000        0.0000000000000000     
   6.4843750000000000        4.7656250000000000        0.0000000000000000     
   6.5625000000000000        4.7656250000000000        0.0000000000000000     
   6.6406250000000000        4.7656250000000000        0.0000000000000000     
   6.7187500000000000        4.7656250000000000        0.0000000000000000     
   6.7968750000000000        4.7656250000000000        0.0000000000000000     
   6.8750000000000009        4.7656250000000009        0.0000000000000000     
   6.2500000000000000        4.8437500000000018        0.0000000000000000     
   6.3281250000000009        4.8437500000000009        0.0000000000000000     
   6.4062500000000009        4.8437500000000018        0.0000000000000000     
   6.4843750000000018        4.8437500000000027        0.0000000000000000     
   6.5625000000000009        4.8437500000000009        0.0000000000000000     
   6.6406250000000000        4.8437500000000009        0.0000000000000000     
   6.7187500000000009        4.8437500000000018        0.0000000000000000     
   6.7968750000000009        4.8437500000000009        0.0000000000000000     
   6.8750000000000009        4.8437500000000018        0.0000000000000000     
   6.2500000000000000        4.9218749999999982        0.0000000000000000     
   6.3281250000000027        4.9218750000000009        0.0000000000000000     
   6.4062499999999991        4.9218749999999982        0.0000000000000000     
   6.4843750000000000        4.9218749999999991        0.0000000000000000     
   6.5625000000000018        4.9218750000000018        0.0000000000000000     
   6.6406249999999991        4.9218749999999982        0.0000000000000000     
   6.7187500000000018        4.9218750000000000        0.0000000000000000     
   6.7968750000000018        4.9218750000000009        0.0000000000000000     
   6.8749999999999991        4.9218749999999982        0.0000000000000000     
   6.2500000000000000        5.0000000000000018        0.0000000000000000     
   6.3281249999999991        5.0000000000000000        0.0000000000000000     
   6.4062500000000000        4.9999999999999991        0.0000000000000000     
   6.4843750000000009        5.0000000000000009        0.0000000000000000     
   6.5625000000000009        5.0000000000000009        0.0000000000000000     
   6.6406250000000009        5.0000000000000009        0.0000000000000000     
   6.7187500000000009        5.0000000000000009        0.0000000000000000     
   6.7968750000000000        5.0000000000000000        0.0000000000000000     
   6.8750000000000009        5.0000000000000018        0.0000000000000000     
   6.8750000000000009        4.3750000000000009        0.0000000000000000     
   6.9531250000000009        4.3750000000000000        0.0000000000000000     
   7.0312500000000000        4.3750000000000000        0.0000000000000000     
   7.1093750000000009        4.3750000000000009        0.0000000000000000     
   7.1874999999999991        4.3750000000000000        0.0000000000000000     
   7.2656250000000000        4.3750000000000000        0.0000000000000000     
   7.3437500000000000        4.3750000000000000        0.0000000000000000     
   7.4218750000000018        4.3750000000000009        0.0000000000000000     
   7.5000000000000009        4.3750000000000009        0.0000000000000000     
   6.8750000000000018        4.4531250000000000        0.0000000000000000     
   6.9531250000000036        4.4531250000000018        0.0000000000000000     
   7.0312500000000000        4.4531249999999991        0.0000000000000000     
   7.1093750000000018        4.4531249999999991        0.0000000000000000     
   7.1875000000000000        4.4531250000000000        0.0000000000000000     
   7.2656250000000009        4.4531249999999991        0.0000000000000000     
   7.3437500000000009        4.4531249999999991        0.0000000000000000     
   7.4218750000000018        4.4531250000000009        0.0000000000000000     
   7.5000000000000009        4.4531250000000000        0.0000000000000000     
   6.8750000000000000        4.5312500000000000        0.0000000000000000     
   6.9531250000000000        4.5312500000000000        0.0000000000000000     
   7.0312500000000000        4.5312500000000000        0.0000000000000000     
   7.1093750000000000        4.5312500000000000        0.0000000000000000     
   7.1875000000000000        4.5312500000000000        0.0000000000000000     
   7.2656250000000000        4.5312500000000000        0.0000000000000000     
   7.3437500000000000        4.5312500000000000        0.0000000000000000     
   7.4218750000000000        4.5312500000000000        0.0000000000000000     
   7.5000000000000000        4.5312500000000000        0.0000000000000000     
   6.8750000000000009        4.6093750000000009        0.0000000000000000     
   6.9531250000000009        4.6093750000000000        0.0000000000000000     
   7.0312500000000009        4.6093750000000018        0.0000000000000000     
   7.1093750000000009        4.6093750000000009        0.0000000000000000     
   7.1875000000000000        4.6093750000000000        0.0000000000000000     
   7.2656250000000000        4.6093750000000018        0.0000000000000000     
   7.3437500000000009        4.6093750000000018        0.0000000000000000     
   7.4218750000000000        4.6093750000000000        0.0000000000000000     
   7.4999999999999991        4.6093750000000009        0.0000000000000000     
   6.8750000000000036        4.6875000000000009        0.0000000000000000     
   6.9531250000000009        4.6875000000000009        0.0000000000000000     
   7.0312500000000000        4.6874999999999991        0.0000000000000000     
   7.1093749999999991        4.6874999999999991        0.0000000000000000     
   7.1875000000000009        4.6875000000000009        0.0000000000000000     
   7.2656250000000009        4.6874999999999991        0.0000000000000000     
   7.3437499999999991        4.6874999999999982        0.0000000000000000     
   7.4218750000000027        4.6875000000000009        0.0000000000000000     
   7.5000000000000027        4.6875000000000009        0.0000000000000000     
   6.8750000000000009        4.7656250000000009        0.0000000000000000     
   6.9531249999999991        4.7656250000000000        0.0000000000000000     
   7.0312500000000000        4.7656250000000000        0.0000000000000000     
   7.1093750000000000        4.7656250000000000        0.0000000000000000     
   7.1875000000000000        4.7656250000000000        0.0000000000000000     
   7.2656250000000000        4.7656250000000000        0.0000000000000000     
   7.3437500000000000        4.7656250000000000        0.0000000000000000     
   7.4218750000000000        4.7656250000000000        0.0000000000000000     
   7.5000000000000018        4.7656250000000009        0.0000000000000000     
   6.8750000000000009        4.8437500000000018        0.0000000000000000     
   6.9531250000000009        4.8437500000000009        0.0000000000000000     
   7.0312500000000000        4.8437500000000018        0.0000000000000000     
   7.1093750000000036        4.8437500000000027        0.0000000000000000     
   7.1875000000000009        4.8437500000000009        0.0000000000000000     
   7.2656250000000000        4.8437500000000009        0.0000000000000000     
   7.3437500000000000        4.8437500000000018        0.0000000000000000     
   7.4218750000000000        4.8437500000000009        0.0000000000000000     
   7.4999999999999991        4.8437500000000018        0.0000000000000000     
   6.8749999999999991        4.9218749999999982        0.0000000000000000     
   6.9531250000000027        4.9218750000000009        0.0000000000000000     
   7.0312499999999991        4.9218749999999982        0.0000000000000000     
   7.1093750000000009        4.9218749999999991        0.0000000000000000     
   7.1875000000000036        4.9218750000000018        0.0000000000000000     
   7.2656249999999982        4.9218749999999982        0.0000000000000000     
   7.3437500000000009        4.9218750000000000        0.0000000000000000     
   7.4218750000000027        4.9218750000000009        0.0000000000000000     
   7.4999999999999991        4.9218749999999982        0.0000000000000000     
   6.8750000000000009        5.0000000000000018        0.0000000000000000     
   6.9531249999999991        5.0000000000000000        0.0000000000000000     
   7.0312499999999991        4.9999999999999991        0.0000000000000000     
   7.1093750000000009        5.0000000000000009        0.0000000000000000     
   7.1875000000000009        5.0000000000000009        0.0000000000000000     
   7.2656250000000018        5.0000000000000009        0.0000000000000000     
   7.3437500000000009        5.0000000000000009        0.0000000000000000     
   7.4218749999999991        5.0000000000000000        0.0000000000000000     
   7.5000000000000018        5.0000000000000018        0.0000000000000000     
   7.5000000000000009        4.3750000000000009        0.0000000000000000     
   7.5781250000000009        4.3750000000000000        0.0000000000000000     
   7.6562500000000000        4.3750000000000000        0.0000000000000000     
   7.7343750000000000        4.3750000000000009        0.0000000000000000     
   7.8125000000000000        4.3750000000000000        0.0000000000000000     
   7.8906250000000000        4.3750000000000000        0.0000000000000000     
   7.9687499999999991        4.3750000000000000        0.0000000000000000     
   8.0468750000000018        4.3750000000000009        0.0000000000000000     
   8.1250000000000018        4.3750000000000009        0.0000000000000000     
   7.5000000000000009        4.4531250000000000        0.0000000000000000     
   7.5781250000000018        4.4531250000000018        0.0000000000000000     
   7.6562500000000000        4.4531249999999991        0.0000000000000000     
   7.7343750000000009        4.4531249999999991        0.0000000000000000     
   7.8125000000000000        4.4531250000000000        0.0000000000000000     
   7.8906250000000018        4.4531249999999991        0.0000000000000000     
   7.9687500000000000        4.4531249999999991        0.0000000000000000     
   8.0468750000000000        4.4531250000000009        0.0000000000000000     
   8.1250000000000000        4.4531250000000000        0.0000000000000000     
   7.5000000000000000        4.5312500000000000        0.0000000000000000     
   7.5781250000000000        4.5312500000000000        0.0000000000000000     
   7.6562500000000000        4.5312500000000000        0.0000000000000000     
   7.7343750000000000        4.5312500000000000        0.0000000000000000     
   7.8125000000000009        4.5312500000000000        0.0000000000000000     
   7.8906250000000000        4.5312500000000000        0.0000000000000000     
   7.9687500000000000        4.5312500000000000        0.0000000000000000     
   8.0468750000000000        4.5312500000000000        0.0000000000000000     
   8.1250000000000000        4.5312500000000000        0.0000000000000000     
   7.4999999999999991        4.6093750000000009        0.0000000000000000     
   7.5781250000000000        4.6093750000000000        0.0000000000000000     
   7.6562500000000000        4.6093750000000018        0.0000000000000000     
   7.7343749999999991        4.6093750000000009        0.0000000000000000     
   7.8125000000000009        4.6093750000000000        0.0000000000000000     
   7.8906250000000009        4.6093750000000018        0.0000000000000000     
   7.9687500000000009        4.6093750000000018        0.0000000000000000     
   8.0468750000000018        4.6093750000000000        0.0000000000000000     
   8.1250000000000018        4.6093750000000009        0.0000000000000000     
   7.5000000000000027        4.6875000000000009        0.0000000000000000     
   7.5781250000000018        4.6875000000000009        0.0000000000000000     
   7.6562500000000000        4.6874999999999991        0.0000000000000000     
   7.7343750000000009        4.6874999999999991        0.0000000000000000     
   7.8125000000000018        4.6875000000000009        0.0000000000000000     
   7.8906250000000009        4.6874999999999991        0.0000000000000000     
   7.9687500000000009        4.6874999999999982        0.0000000000000000     
   8.0468750000000000        4.6875000000000009        0.0000000000000000     
   8.1250000000000018        4.6875000000000009        0.0000000000000000     
   7.5000000000000018        4.7656250000000009        0.0000000000000000     
   7.5781250000000000        4.7656250000000000        0.0000000000000000     
   7.6562500000000000        4.7656250000000000        0.0000000000000000     
   7.7343750000000009        4.7656250000000000        0.0000000000000000     
   7.8125000000000009        4.7656250000000000        0.0000000000000000     
   7.8906250000000000        4.7656250000000000        0.0000000000000000     
   7.9687500000000000        4.7656250000000000        0.0000000000000000     
   8.0468750000000000        4.7656250000000000        0.0000000000000000     
   8.1250000000000018        4.7656250000000009        0.0000000000000000     
   7.4999999999999991        4.8437500000000018        0.0000000000000000     
   7.5781250000000009        4.8437500000000009        0.0000000000000000     
   7.6562500000000000        4.8437500000000018        0.0000000000000000     
   7.7343750000000009        4.8437500000000027        0.0000000000000000     
   7.8125000000000009        4.8437500000000009        0.0000000000000000     
   7.8906250000000009        4.8437500000000009        0.0000000000000000     
   7.9687500000000009        4.8437500000000018        0.0000000000000000     
   8.0468750000000036        4.8437500000000009        0.0000000000000000     
   8.1250000000000018        4.8437500000000018        0.0000000000000000     
   7.4999999999999991        4.9218749999999982        0.0000000000000000     
   7.5781250000000018        4.9218750000000009        0.0000000000000000     
   7.6562500000000000        4.9218749999999982        0.0000000000000000     
   7.7343750000000018        4.9218749999999991        0.0000000000000000     
   7.8125000000000018        4.9218750000000018        0.0000000000000000     
   7.8906250000000000        4.9218749999999982        0.0000000000000000     
   7.9687500000000018        4.9218750000000000        0.0000000000000000     
   8.0468750000000000        4.9218750000000009        0.0000000000000000     
   8.1250000000000000        4.9218749999999982        0.0000000000000000     
   7.5000000000000018        5.0000000000000018        0.0000000000000000     
   7.5781250000000000        5.0000000000000000        0.0000000000000000     
   7.6562500000000000        4.9999999999999991        0.0000000000000000     
   7.7343750000000009        5.0000000000000009        0.0000000000000000     
   7.8125000000000009        5.0000000000000009        0.0000000000000000     
   7.8906250000000000        5.0000000000000009        0.0000000000000000     
   7.9687500000000000        5.0000000000000009        0.0000000000000000     
   8.0468749999999982        5.0000000000000000        0.0000000000000000     
   8.1250000000000000        5.0000000000000018        0.0000000000000000     
   8.1250000000000018        4.3750000000000009        0.0000000000000000     
   8.2031250000000000        4.3750000000000000        0.0000000000000000     
   8.2812500000000000        4.3750000000000000        0.0000000000000000     
   8.3593750000000018        4.3750000000000009        0.0000000000000000     
   8.4375000000000000        4.3750000000000000        0.0000000000000000     
   8.5156250000000000        4.3750000000000000        0.0000000000000000     
   8.5937500000000018        4.3750000000000000        0.0000000000000000     
   8.6718750000000000        4.3750000000000009        0.0000000000000000     
   8.7500000000000018        4.3750000000000009        0.0000000000000000     
   8.1250000000000000        4.4531250000000000        0.0000000000000000     
   8.2031250000000036        4.4531250000000018        0.0000000000000000     
   8.2812500000000000        4.4531249999999991        0.0000000000000000     
   8.3593750000000000        4.4531249999999991        0.0000000000000000     
   8.4375000000000000        4.4531250000000000        0.0000000000000000     
   8.5156250000000000        4.4531249999999991        0.0000000000000000     
   8.5937500000000000        4.4531249999999991        0.0000000000000000     
   8.6718750000000018        4.4531250000000009        0.0000000000000000     
   8.7500000000000000        4.4531250000000000        0.0000000000000000     
   8.1250000000000000        4.5312500000000000        0.0000000000000000     
   8.2031250000000000        4.5312500000000000        0.0000000000000000     
   8.2812500000000000        4.5312500000000000        0.0000000000000000     
   8.3593750000000000        4.5312500000000000        0.0000000000000000     
   8.4375000000000018        4.5312500000000000        0.0000000000000000     
   8.5156250000000000        4.5312500000000000        0.0000000000000000     
   8.5937500000000000        4.5312500000000000        0.0000000000000000     
   8.6718750000000000        4.5312500000000000        0.0000000000000000     
   8.7500000000000000        4.5312500000000000        0.0000000000000000     
   8.1250000000000018        4.6093750000000009        0.0000000000000000     
   8.2031250000000000        4.6093750000000000        0.0000000000000000     
   8.2812500000000000        4.6093750000000018        0.0000000000000000     
   8.3593750000000018        4.6093750000000009        0.0000000000000000     
   8.4375000000000018        4.6093750000000000        0.0000000000000000     
   8.5156250000000000        4.6093750000000018        0.0000000000000000     
   8.5937500000000018        4.6093750000000018        0.0000000000000000     
   8.6718750000000036        4.6093750000000000        0.0000000000000000     
   8.7500000000000000        4.6093750000000009        0.0000000000000000     
   8.1250000000000018        4.6875000000000009        0.0000000000000000     
   8.2031250000000018        4.6875000000000009        0.0000000000000000     
   8.2812500000000036        4.6874999999999991        0.0000000000000000     
   8.3593750000000000        4.6874999999999991        0.0000000000000000     
   8.4375000000000018        4.6875000000000009        0.0000000000000000     
   8.5156250000000018        4.6874999999999991        0.0000000000000000     
   8.5937499999999982        4.6874999999999982        0.0000000000000000     
   8.6718750000000036        4.6875000000000009        0.0000000000000000     
   8.7500000000000053        4.6875000000000009        0.0000000000000000     
   8.1250000000000018        4.7656250000000009        0.0000000000000000     
   8.2031250000000000        4.7656250000000000        0.0000000000000000     
   8.2812500000000000        4.7656250000000000        0.0000000000000000     
   8.3593750000000018        4.7656250000000000        0.0000000000000000     
   8.4375000000000018        4.7656250000000000        0.0000000000000000     
   8.5156250000000000        4.7656250000000000        0.0000000000000000     
   8.5937500000000000        4.7656250000000000        0.0000000000000000     
   8.6718750000000000        4.7656250000000000        0.0000000000000000     
   8.7500000000000018        4.7656250000000009        0.0000000000000000     
   8.1250000000000018        4.8437500000000018        0.0000000000000000     
   8.2031250000000018        4.8437500000000009        0.0000000000000000     
   8.2812500000000000        4.8437500000000018        0.0000000000000000     
   8.3593750000000018        4.8437500000000027        0.0000000000000000     
   8.4375000000000018        4.8437500000000009        0.0000000000000000     
   8.5156250000000000        4.8437500000000009        0.0000000000000000     
   8.5937500000000000        4.8437500000000018        0.0000000000000000     
   8.6718750000000018        4.8437500000000009        0.0000000000000000     
   8.7500000000000000        4.8437500000000018        0.0000000000000000     
   8.1250000000000000        4.9218749999999982        0.0000000000000000     
   8.2031250000000036        4.9218750000000009        0.0000000000000000     
   8.2812500000000000        4.9218749999999982        0.0000000000000000     
   8.3593750000000000        4.9218749999999991        0.0000000000000000     
   8.4375000000000018        4.9218750000000018        0.0000000000000000     
   8.5156250000000000        4.9218749999999982        0.0000000000000000     
   8.5937500000000018        4.9218750000000000        0.0000000000000000     
   8.6718750000000036        4.9218750000000009        0.0000000000000000     
   8.7500000000000000        4.9218749999999982        0.0000000000000000     
   8.1250000000000000        5.0000000000000018        0.0000000000000000     
   8.2031250000000000        5.0000000000000000        0.0000000000000000     
   8.2812500000000000        4.9999999999999991        0.0000000000000000     
   8.3593750000000000        5.0000000000000009        0.0000000000000000     
   8.4375000000000018        5.0000000000000009        0.0000000000000000     
   8.5156250000000018        5.0000000000000009        0.0000000000000000     
   8.5937500000000000        5.0000000000000009        0.0000000000000000     
   8.6718750000000000        5.0000000000000000        0.0000000000000000     
   8.7500000000000000        5.0000000000000018        0.0000000000000000     
   8.7500000000000018        4.3750000000000009        0.0000000000000000     
   8.8281250000000018        4.3750000000000000        0.0000000000000000     
   8.9062500000000000        4.3750000000000000        0.0000000000000000     
   8.9843750000000018        4.3750000000000009        0.0000000000000000     
   9.0625000000000018        4.3750000000000009        0.0000000000000000     
   9.1406250000000000        4.3750000000000000        0.0000000000000000     
   9.2187499999999982        4.3750000000000000        0.0000000000000000     
   9.2968750000000000        4.3750000000000000        0.0000000000000000     
   9.3750000000000000        4.3750000000000000        0.0000000000000000     
   8.7500000000000000        4.4531250000000000        0.0000000000000000     
   8.8281250000000036        4.4531250000000018        0.0000000000000000     
   8.9062500000000018        4.4531250000000000        0.0000000000000000     
   8.9843750000000018        4.4531249999999991        0.0000000000000000     
   9.0625000000000018        4.4531250000000000        0.0000000000000000     
   9.1406250000000018        4.4531250000000000        0.0000000000000000     
   9.2187500000000018        4.4531249999999991        0.0000000000000000     
   9.2968750000000000        4.4531250000000009        0.0000000000000000     
   9.3750000000000000        4.4531250000000000        0.0000000000000000     
   8.7500000000000000        4.5312500000000000        0.0000000000000000     
   8.8281250000000000        4.5312500000000000        0.0000000000000000     
   8.9062500000000018        4.5312500000000000        0.0000000000000000     
   8.9843750000000000        4.5312500000000000        0.0000000000000000     
   9.0625000000000018        4.5312500000000000        0.0000000000000000     
   9.1406250000000000        4.5312500000000000        0.0000000000000000     
   9.2187500000000000        4.5312500000000000        0.0000000000000000     
   9.2968750000000018        4.5312500000000000        0.0000000000000000     
   9.3750000000000000        4.5312500000000000        0.0000000000000000     
   8.7500000000000000        4.6093750000000009        0.0000000000000000     
   8.8281250000000000        4.6093750000000000        0.0000000000000000     
   8.9062500000000018        4.6093750000000000        0.0000000000000000     
   8.9843750000000000        4.6093750000000009        0.0000000000000000     
   9.0625000000000018        4.6093750000000009        0.0000000000000000     
   9.1406250000000018        4.6093750000000009        0.0000000000000000     
   9.2187500000000000        4.6093750000000018        0.0000000000000000     
   9.2968750000000036        4.6093750000000000        0.0000000000000000     
   9.3750000000000018        4.6093750000000009        0.0000000000000000     
   8.7500000000000053        4.6875000000000009        0.0000000000000000     
   8.8281250000000018        4.6875000000000009        0.0000000000000000     
   8.9062500000000000        4.6875000000000000        0.0000000000000000     
   8.9843750000000018        4.6874999999999991        0.0000000000000000     
   9.0625000000000018        4.6875000000000000        0.0000000000000000     
   9.1406250000000000        4.6875000000000000        0.0000000000000000     
   9.2187500000000000        4.6874999999999982        0.0000000000000000     
   9.2968750000000036        4.6875000000000009        0.0000000000000000     
   9.3750000000000000        4.6874999999999991        0.0000000000000000     
   8.7500000000000018        4.7656250000000009        0.0000000000000000     
   8.8281250000000000        4.7656250000000000        0.0000000000000000     
   8.9062500000000000        4.7656250000000000        0.0000000000000000     
   8.9843750000000018        4.7656250000000000        0.0000000000000000     
   9.0625000000000000        4.7656250000000000        0.0000000000000000     
   9.1406250000000000        4.7656250000000000        0.0000000000000000     
   9.2187500000000000        4.7656250000000000        0.0000000000000000     
   9.2968750000000000        4.7656249999999991        0.0000000000000000     
   9.3750000000000000        4.7656250000000000        0.0000000000000000     
   8.7500000000000000        4.8437500000000018        0.0000000000000000     
   8.8281250000000018        4.8437500000000009        0.0000000000000000     
   8.9062500000000018        4.8437500000000000        0.0000000000000000     
   8.9843750000000018        4.8437500000000027        0.0000000000000000     
   9.0625000000000018        4.8437500000000009        0.0000000000000000     
   9.1406250000000018        4.8437500000000000        0.0000000000000000     
   9.2187500000000000        4.8437500000000018        0.0000000000000000     
   9.2968750000000000        4.8437500000000000        0.0000000000000000     
   9.3750000000000018        4.8437500000000000        0.0000000000000000     
   8.7500000000000000        4.9218749999999982        0.0000000000000000     
   8.8281250000000018        4.9218750000000000        0.0000000000000000     
   8.9062500000000018        4.9218750000000009        0.0000000000000000     
   8.9843750000000018        4.9218749999999991        0.0000000000000000     
   9.0625000000000000        4.9218749999999991        0.0000000000000000     
   9.1406250000000000        4.9218750000000000        0.0000000000000000     
   9.2187500000000018        4.9218749999999991        0.0000000000000000     
   9.2968750000000018        4.9218750000000000        0.0000000000000000     
   9.3749999999999982        4.9218750000000000        0.0000000000000000     
   8.7500000000000000        5.0000000000000018        0.0000000000000000     
   8.8281250000000000        5.0000000000000000        0.0000000000000000     
   8.9062500000000000        5.0000000000000000        0.0000000000000000     
   8.9843750000000018        5.0000000000000009        0.0000000000000000     
   9.0625000000000000        5.0000000000000000        0.0000000000000000     
   9.1406250000000000        5.0000000000000009        0.0000000000000000     
   9.2187500000000000        5.0000000000000009        0.0000000000000000     
   9.2968750000000000        5.0000000000000000        0.0000000000000000     
   9.3750000000000000        5.0000000000000000        0.0000000000000000     
   9.3750000000000000        4.3750000000000000        0.0000000000000000     
   9.4531249999999982        4.3750000000000000        0.0000000000000000     
   9.5312500000000036        4.3750000000000000        0.0000000000000000     
   9.6093750000000000        4.3750000000000000        0.0000000000000000     
   9.6875000000000000        4.3749999999999991        0.0000000000000000     
   9.7656250000000000        4.3750000000000000        0.0000000000000000     
   9.8437500000000000        4.3750000000000000        0.0000000000000000     
   9.9218750000000018        4.3750000000000009        0.0000000000000000     
   10.000000000000000        4.3750000000000000        0.0000000000000000     
   9.3750000000000000        4.4531250000000000        0.0000000000000000     
   9.4531250000000018        4.4531250000000009        0.0000000000000000     
   9.5312500000000018        4.4531250000000000        0.0000000000000000     
   9.6093750000000000        4.4531250000000000        0.0000000000000000     
   9.6875000000000018        4.4531250000000009        0.0000000000000000     
   9.7656250000000018        4.4531250000000000        0.0000000000000000     
   9.8437500000000000        4.4531250000000000        0.0000000000000000     
   9.9218750000000000        4.4531250000000000        0.0000000000000000     
   10.000000000000002        4.4531250000000000        0.0000000000000000     
   9.3750000000000000        4.5312500000000000        0.0000000000000000     
   9.4531250000000000        4.5312500000000000        0.0000000000000000     
   9.5312500000000018        4.5312500000000000        0.0000000000000000     
   9.6093750000000000        4.5312500000000000        0.0000000000000000     
   9.6875000000000000        4.5312500000000000        0.0000000000000000     
   9.7656250000000000        4.5312500000000000        0.0000000000000000     
   9.8437500000000000        4.5312500000000000        0.0000000000000000     
   9.9218750000000000        4.5312500000000000        0.0000000000000000     
   10.000000000000000        4.5312500000000000        0.0000000000000000     
   9.3750000000000018        4.6093750000000009        0.0000000000000000     
   9.4531250000000036        4.6093750000000000        0.0000000000000000     
   9.5312500000000000        4.6093750000000009        0.0000000000000000     
   9.6093750000000018        4.6093750000000009        0.0000000000000000     
   9.6875000000000018        4.6093750000000000        0.0000000000000000     
   9.7656250000000018        4.6093750000000000        0.0000000000000000     
   9.8437500000000000        4.6093750000000000        0.0000000000000000     
   9.9218750000000018        4.6093750000000009        0.0000000000000000     
   10.000000000000000        4.6093750000000009        0.0000000000000000     
   9.3750000000000000        4.6874999999999991        0.0000000000000000     
   9.4531250000000018        4.6875000000000009        0.0000000000000000     
   9.5312500000000018        4.6875000000000000        0.0000000000000000     
   9.6093750000000018        4.6875000000000000        0.0000000000000000     
   9.6875000000000000        4.6875000000000009        0.0000000000000000     
   9.7656250000000018        4.6874999999999991        0.0000000000000000     
   9.8437500000000000        4.6875000000000000        0.0000000000000000     
   9.9218749999999982        4.6875000000000000        0.0000000000000000     
   10.000000000000002        4.6875000000000000        0.0000000000000000     
   9.3750000000000000        4.7656250000000000        0.0000000000000000     
   9.4531250000000000        4.7656250000000000        0.0000000000000000     
   9.5312500000000000        4.7656249999999991        0.0000000000000000     
   9.6093750000000018        4.7656250000000000        0.0000000000000000     
   9.6875000000000000        4.7656250000000000        0.0000000000000000     
   9.7656250000000000        4.7656250000000000        0.0000000000000000     
   9.8437500000000000        4.7656249999999991        0.0000000000000000     
   9.9218749999999982        4.7656250000000000        0.0000000000000000     
   10.000000000000000        4.7656250000000000        0.0000000000000000     
   9.3750000000000018        4.8437500000000000        0.0000000000000000     
   9.4531250000000000        4.8437500000000009        0.0000000000000000     
   9.5312500000000000        4.8437499999999991        0.0000000000000000     
   9.6093750000000018        4.8437500000000000        0.0000000000000000     
   9.6875000000000000        4.8437500000000009        0.0000000000000000     
   9.7656250000000000        4.8437499999999991        0.0000000000000000     
   9.8437500000000000        4.8437499999999991        0.0000000000000000     
   9.9218749999999982        4.8437500000000000        0.0000000000000000     
   10.000000000000000        4.8437499999999991        0.0000000000000000     
   9.3749999999999982        4.9218750000000000        0.0000000000000000     
   9.4531250000000018        4.9218749999999991        0.0000000000000000     
   9.5312500000000000        4.9218750000000000        0.0000000000000000     
   9.6093749999999982        4.9218750000000000        0.0000000000000000     
   9.6875000000000018        4.9218750000000000        0.0000000000000000     
   9.7656250000000000        4.9218750000000000        0.0000000000000000     
   9.8437499999999982        4.9218750000000000        0.0000000000000000     
   9.9218749999999982        4.9218749999999991        0.0000000000000000     
   10.000000000000000        4.9218750000000000        0.0000000000000000     
   9.3750000000000000        5.0000000000000000        0.0000000000000000     
   9.4531250000000018        5.0000000000000009        0.0000000000000000     
   9.5312500000000000        5.0000000000000000        0.0000000000000000     
   9.6093750000000018        5.0000000000000000        0.0000000000000000     
   9.6875000000000000        5.0000000000000009        0.0000000000000000     
   9.7656250000000018        5.0000000000000000        0.0000000000000000     
   9.8437500000000018        5.0000000000000000        0.0000000000000000     
   9.9218749999999982        5.0000000000000000        0.0000000000000000     
   10.000000000000000        5.0000000000000000        0.0000000000000000     
 </DataArray>
 </Points>
 <Cells>
 <DataArray  type="Int32"  Name="connectivity"  format="ascii">
           0           1          10           9
           1           2          11          10
           2           3          12          11
           3           4          13          12
           4           5          14          13
           5           6          15          14
           6           7          16          15
           7           8          17          16
           9          10          19          18
          10          11          20          19
          11          12          21          20
          12          13          22          21
          13          14          23          22
          14          15          24          23
          15          16          25          24
          16          17          26          25
          18          19          28          27
          19          20          29          28
          20          21          30          29
          21          22          31          30
          22          23          32          31
          23          24          33          32
          24          25          34          33
          25          26          35          34
          27          28          37          36
          28          29          38          37
          29          30          39          38
          30          31          40          39
          31          32          41          40
          32          33          42          41
          33          34          43          42
          34          35          44          43
          36          37          46          45
          37          38          47          46
          38          39          48          47
          39          40          49          48
          40          41          50          49
          41          42          51          50
          42          43          52          51
          43          44          53          52
          45          46          55          54
          46          47          56          55
          47          48          57          56
          48          49          58          57
          49          50          59          58
          50          51          60          59
          51          52          61          60
          52          53          62          61
          54          55          64          63
          55          56          65          64
          56          57          66          65
          57          58          67          66
          58          59          68          67
          59          60          69          68
          60          61          70          69
          61          62          71          70
          63          64          73          72
          64          65          74          73
          65          66          75          74
          66          67          76          75
          67          68          77          76
          68          69          78          77
          69          70          79          78
          70          71          80          79
          81          82          91          90
          82          83          92          91
          83          84          93          92
          84          85          94          93
          85          86          95          94
          86          87          96          95
          87          88          97          96
          88          89          98          97
          90          91         100          99
          91          92         101         100
          92          93         102         101
          93          94         103         102
          94          95         104         103
          95          96         105         104
          96          97         106         105
          97          98         107         106
          99         100         109         108
         100         101         110         109
         101         102         111         110
         102         103         112         111
         103         104         113         112
         104         105         114         113
         105         106         115         114
         106         107         116         115
         108         109         118         117
         109         110         119         118
         110         111         120         119
         111         112         121         120
         112         113         122         121
         113         114         123         122
         114         115         124         123
         115         116         125         124
         117         118         127         126
         118         119         128         127
         119         120         129         128
         120         121         130         129
         121         122         131         130
         122         123         132         131
         123         124         133         132
         124         125         134         133
         126         127         136         135
         127         128         137         136
         128         129         138         137
         129         130         139         138
         130         131         140         139
         131         132         141         140
         132         133         142         141
         133         134         143         142
         135         136         145         144
         136         137         146         145
         137         138         147         146
         138         139         148         147
         139         140         149         148
         140         141         150         149
         141         142         151         150
         142         143         152         151
         144         145         154         153
         145         146         155         154
         146         147         156         155
         147         148         157         156
         148         149         158         157
         149         150         159         158
         150         151         160         159
         151         152         161         160
         162         163         172         171
         163         164         173         172
         164         165         174         173
         165         166         175         174
         166         167         176         175
         167         168         177         176
         168         169         178         177
         169         170         179         178
         171         172         181         180
         172         173         182         181
         173         174         183         182
         174         175         184         183
         175         176         185         184
         176         177         186         185
         177         178         187         186
         178         179         188         187
         180         181         190         189
         181         182         191         190
         182         183         192         191
         183         184         193         192
         184         185         194         193
         185         186         195         194
         186         187         196         195
         187         188         197         196
         189         190         199         198
         190         191         200         199
         191         192         201         200
         192         193         202         201
         193         194         203         202
         194         195         204         203
         195         196         205         204
         196         197         206         205
         198         199         208         207
         199         200         209         208
         200         201         210         209
         201         202         211         210
         202         203         212         211
         203         204         213         212
         204         205         214         213
         205         206         215         214
         207         208         217         216
         208         209         218         217
         209         210         219         218
         210         211         220         219
         211         212         221         220
         212         213         222         221
         213         214         223         222
         214         215         224         223
         216         217         226         225
         217         218         227         226
         218         219         228         227
         219         220         229         228
         220         221         230         229
         221         222         231         230
         222         223         232         231
         223         224         233         232
         225         226         235         234
         226         227         236         235
         227         228         237         236
         228         229         238         237
         229         230         239         238
         230         231         240         239
         231         232         241         240
         232         233         242         241
         243         244         253         252
         244         245         254         253
         245         246         255         254
         246         247         256         255
         247         248         257         256
         248         249         258         257
         249         250         259         258
         250         251         260         259
         252         253         262         261
         253         254         263         262
         254         255         264         263
         255         256         265         264
         256         257         266         265
         257         258         267         266
         258         259         268         267
         259         260         269         268
         261         262         271         270
         262         263         272         271
         263         264         273         272
         264         265         274         273
         265         266         275         274
         266         267         276         275
         267         268         277         276
         268         269         278         277
         270         271         280         279
         271         272         281         280
         272         273         282         281
         273         274         283         282
         274         275         284         283
         275         276         285         284
         276         277         286         285
         277         278         287         286
         279         280         289         288
         280         281         290         289
         281         282         291         290
         282         283         292         291
         283         284         293         292
         284         285         294         293
         285         286         295         294
         286         287         296         295
         288         289         298         297
         289         290         299         298
         290         291         300         299
         291         292         301         300
         292         293         302         301
         293         294         303         302
         294         295         304         303
         295         296         305         304
         297         298         307         306
         298         299         308         307
         299         300         309         308
         300         301         310         309
         301         302         311         310
         302         303         312         311
         303         304         313         312
         304         305         314         313
         306         307         316         315
         307         308         317         316
         308         309         318         317
         309         310         319         318
         310         311         320         319
         311         312         321         320
         312         313         322         321
         313         314         323         322
         324         325         334         333
         325         326         335         334
         326         327         336         335
         327         328         337         336
         328         329         338         337
         329         330         339         338
         330         331         340         339
         331         332         341         340
         333         334         343         342
         334         335         344         343
         335         336         345         344
         336         337         346         345
         337         338         347         346
         338         339         348         347
         339         340         349         348
         340         341         350         349
         342         343         352         351
         343         344         353         352
         344         345         354         353
         345         346         355         354
         346         347         356         355
         347         348         357         356
         348         349         358         357
         349         350         359         358
         351         352         361         360
         352         353         362         361
         353         354         363         362
         354         355         364         363
         355         356         365         364
         356         357         366         365
         357         358         367         366
         358         359         368         367
         360         361         370         369
         361         362         371         370
         362         363         372         371
         363         364         373         372
         364         365         374         373
         365         366         375         374
         366         367         376         375
         367         368         377         376
         369         370         379         378
         370         371         380         379
         371         372         381         380
         372         373         382         381
         373         374         383         382
         374         375         384         383
         375         376         385         384
         376         377         386         385
         378         379         388         387
         379         380         389         388
         380         381         390         389
         381         382         391         390
         382         383         392         391
         383         384         393         392
         384         385         394         393
         385         386         395         394
         387         388         397         396
         388         389         398         397
         389         390         399         398
         390         391         400         399
         391         392         401         400
         392         393         402         401
         393         394         403         402
         394         395         404         403
         405         406         415         414
         406         407         416         415
         407         408         417         416
         408         409         418         417
         409         410         419         418
         410         411         420         419
         411         412         421         420
         412         413         422         421
         414         415         424         423
         415         416         425         424
         416         417         426         425
         417         418         427         426
         418         419         428         427
         419         420         429         428
         420         421         430         429
         421         422         431         430
         423         424         433         432
         424         425         434         433
         425         426         435         434
         426         427         436         435
         427         428         437         436
         428         429         438         437
         429         430         439         438
         430         431         440         439
         432         433         442         441
         433         434         443         442
         434         435         444         443
         435         436         445         444
         436         437         446         445
         437         438         447         446
         438         439         448         447
         439         440         449         448
         441         442         451         450
         442         443         452         451
         443         444         453         452
         444         445         454         453
         445         446         455         454
         446         447         456         455
         447         448         457         456
         448         449         458         457
         450         451         460         459
         451         452         461         460
         452         453         462         461
         453         454         463         462
         454         455         464         463
         455         456         465         464
         456         457         466         465
         457         458         467         466
         459         460         469         468
         460         461         470         469
         461         462         471         470
         462         463         472         471
         463         464         473         472
         464         465         474         473
         465         466         475         474
         466         467         476         475
         468         469         478         477
         469         470         479         478
         470         471         480         479
         471         472         481         480
         472         473         482         481
         473         474         483         482
         474         475         484         483
         475         476         485         484
         486         487         496         495
         487         488         497         496
         488         489         498         497
         489         490         499         498
         490         491         500         499
         491         492         501         500
         492         493         502         501
         493         494         503         502
         495         496         505         504
         496         497         506         505
         497         498         507         506
         498         499         508         507
         499         500         509         508
         500         501         510         509
         501         502         511         510
         502         503         512         511
         504         505         514         513
         505         506         515         514
         506         507         516         515
         507         508         517         516
         508         509         518         517
         509         510         519         518
         510         511         520         519
         511         512         521         520
         513         514         523         522
         514         515         524         523
         515         516         525         524
         516         517         526         525
         517         518         527         526
         518         519         528         527
         519         520         529         528
         520         521         530         529
         522         523         532         531
         523         524         533         532
         524         525         534         533
         525         526         535         534
         526         527         536         535
         527         528         537         536
         528         529         538         537
         529         530         539         538
         531         532         541         540
         532         533         542         541
         533         534         543         542
         534         535         544         543
         535         536         545         544
         536         537         546         545
         537         538         547         546
         538         539         548         547
         540         541         550         549
         541         542         551         550
         542         543         552         551
         543         544         553         552
         544         545         554         553
         545         546         555         554
         546         547         556         555
         547         548         557         556
         549         550         559         558
         550         551         560         559
         551         552         561         560
         552         553         562         561
         553         554         563         562
         554         555         564         563
         555         556         565         564
         556         557         566         565
         567         568         577         576
         568         569         578         577
         569         570         579         578
         570         571         580         579
         571         572         581         580
         572         573         582         581
         573         574         583         582
         574         575         584         583
         576         577         586         585
         577         578         587         586
         578         579         588         587
         579         580         589         588
         580         581         590         589
         581         582         591         590
         582         583         592         591
         583         584         593         592
         585         586         595         594
         586         587         596         595
         587         588         597         596
         588         589         598         597
         589         590         599         598
         590         591         600         599
         591         592         601         600
         592         593         602         601
         594         595         604         603
         595         596         605         604
         596         597         606         605
         597         598         607         606
         598         599         608         607
         599         600         609         608
         600         601         610         609
         601         602         611         610
         603         604         613         612
         604         605         614         613
         605         606         615         614
         606         607         616         615
         607         608         617         616
         608         609         618         617
         609         610         619         618
         610         611         620         619
         612         613         622         621
         613         614         623         622
         614         615         624         623
         615         616         625         624
         616         617         626         625
         617         618         627         626
         618         619         628         627
         619         620         629         628
         621         622         631         630
         622         623         632         631
         623         624         633         632
         624         625         634         633
         625         626         635         634
         626         627         636         635
         627         628         637         636
         628         629         638         637
         630         631         640         639
         631         632         641         640
         632         633         642         641
         633         634         643         642
         634         635         644         643
         635         636         645         644
         636         637         646         645
         637         638         647         646
         648         649         658         657
         649         650         659         658
         650         651         660         659
         651         652         661         660
         652         653         662         661
         653         654         663         662
         654         655         664         663
         655         656         665         664
         657         658         667         666
         658         659         668         667
         659         660         669         668
         660         661         670         669
         661         662         671         670
         662         663         672         671
         663         664         673         672
         664         665         674         673
         666         667         676         675
         667         668         677         676
         668         669         678         677
         669         670         679         678
         670         671         680         679
         671         672         681         680
         672         673         682         681
         673         674         683         682
         675         676         685         684
         676         677         686         685
         677         678         687         686
         678         679         688         687
         679         680         689         688
         680         681         690         689
         681         682         691         690
         682         683         692         691
         684         685         694         693
         685         686         695         694
         686         687         696         695
         687         688         697         696
         688         689         698         697
         689         690         699         698
         690         691         700         699
         691         692         701         700
         693         694         703         702
         694         695         704         703
         695         696         705         704
         696         697         706         705
         697         698         707         706
         698         699         708         707
         699         700         709         708
         700         701         710         709
         702         703         712         711
         703         704         713         712
         704         705         714         713
         705         706         715         714
         706         707         716         715
         707         708         717         716
         708         709         718         717
         709         710         719         718
         711         712         721         720
         712         713         722         721
         713         714         723         722
         714         715         724         723
         715         716         725         724
         716         717         726         725
         717         718         727         726
         718         719         728         727
         729         730         739         738
         730         731         740         739
         731         732         741         740
         732         733         742         741
         733         734         743         742
         734         735         744         743
         735         736         745         744
         736         737         746         745
         738         739         748         747
         739         740         749         748
         740         741         750         749
         741         742         751         750
         742         743         752         751
         743         744         753         752
         744         745         754         753
         745         746         755         754
         747         748         757         756
         748         749         758         757
         749         750         759         758
         750         751         760         759
         751         752         761         760
         752         753         762         761
         753         754         763         762
         754         755         764         763
         756         757         766         765
         757         758         767         766
         758         759         768         767
         759         760         769         768
         760         761         770         769
         761         762         771         770
         762         763         772         771
         763         764         773         772
         765         766         775         774
         766         767         776         775
         767         768         777         776
         768         769         778         777
         769         770         779         778
         770         771         780         779
         771         772         781         780
         772         773         782         781
         774         775         784         783
         775         776         785         784
         776         777         786         785
         777         778         787         786
         778         779         788         787
         779         780         789         788
         780         781         790         789
         781         782         791         790
         783         784         793         792
         784         785         794         793
         785         786         795         794
         786         787         796         795
         787         788         797         796
         788         789         798         797
         789         790         799         798
         790         791         800         799
         792         793         802         801
         793         794         803         802
         794         795         804         803
         795         796         805         804
         796         797         806         805
         797         798         807         806
         798         799         808         807
         799         800         809         808
         810         811         820         819
         811         812         821         820
         812         813         822         821
         813         814         823         822
         814         815         824         823
         815         816         825         824
         816         817         826         825
         817         818         827         826
         819         820         829         828
         820         821         830         829
         821         822         831         830
         822         823         832         831
         823         824         833         832
         824         825         834         833
         825         826         835         834
         826         827         836         835
         828         829         838         837
         829         830         839         838
         830         831         840         839
         831         832         841         840
         832         833         842         841
         833         834         843         842
         834         835         844         843
         835         836         845         844
         837         838         847         846
         838         839         848         847
         839         840         849         848
         840         841         850         849
         841         842         851         850
         842         843         852         851
         843         844         853         852
         844         845         854         853
         846         847         856         855
         847         848         857         856
         848         849         858         857
         849         850         859         858
         850         851         860         859
         851         852         861         860
         852         853         862         861
         853         854         863         862
         855         856         865         864
         856         857         866         865
         857         858         867         866
         858         859         868         867
         859         860         869         868
         860         861         870         869
         861         862         871         870
         862         863         872         871
         864         865         874         873
         865         866         875         874
         866         867         876         875
         867         868         877         876
         868         869         878         877
         869         870         879         878
         870         871         880         879
         871         872         881         880
         873         874         883         882
         874         875         884         883
         875         876         885         884
         876         877         886         885
         877         878         887         886
         878         879         888         887
         879         880         889         888
         880         881         890         889
         891         892         901         900
         892         893         902         901
         893         894         903         902
         894         895         904         903
         895         896         905         904
         896         897         906         905
         897         898         907         906
         898         899         908         907
         900         901         910         909
         901         902         911         910
         902         903         912         911
         903         904         913         912
         904         905         914         913
         905         906         915         914
         906         907         916         915
         907         908         917         916
         909         910         919         918
         910         911         920         919
         911         912         921         920
         912         913         922         921
         913         914         923         922
         914         915         924         923
         915         916         925         924
         916         917         926         925
         918         919         928         927
         919         920         929         928
         920         921         930         929
         921         922         931         930
         922         923         932         931
         923         924         933         932
         924         925         934         933
         925         926         935         934
         927         928         937         936
         928         929         938         937
         929         930         939         938
         930         931         940         939
         931         932         941         940
         932         933         942         941
         933         934         943         942
         934         935         944         943
         936         937         946         945
         937         938         947         946
         938         939         948         947
         939         940         949         948
         940         941         950         949
         941         942         951         950
         942         943         952         951
         943         944         953         952
         945         946         955         954
         946         947         956         955
         947         948         957         956
         948         949         958         957
         949         950         959         958
         950         951         960         959
         951         952         961         960
         952         953         962         961
         954         955         964         963
         955         956         965         964
         956         957         966         965
         957         958         967         966
         958         959         968         967
         959         960         969         968
         960         961         970         969
         961         962         971         970
         972         973         982         981
         973         974         983         982
         974         975         984         983
         975         976         985         984
         976         977         986         985
         977         978         987         986
         978         979         988         987
         979         980         989         988
         981         982         991         990
         982         983         992         991
         983         984         993         992
         984         985         994         993
         985         986         995         994
         986         987         996         995
         987         988         997         996
         988         989         998         997
         990         991        1000         999
         991         992        1001        1000
         992         993        1002        1001
         993         994        1003        1002
         994         995        1004        1003
         995         996        1005        1004
         996         997        1006        1005
         997         998        1007        1006
         999        1000        1009        1008
        1000        1001        1010        1009
        1001        1002        1011        1010
        1002        1003        1012        1011
        1003        1004        1013        1012
        1004        1005        1014        1013
        1005        1006        1015        1014
        1006        1007        1016        1015
        1008        1009        1018        1017
        1009        1010        1019        1018
        1010        1011        1020        1019
        1011        1012        1021        1020
        1012        1013        1022        1021
        1013        1014        1023        1022
        1014        1015        1024        1023
        1015        1016        1025        1024
        1017        1018        1027        1026
        1018        1019        1028        1027
        1019        1020        1029        1028
        1020        1021        1030        1029
        1021        1022        1031        1030
        1022        1023        1032        1031
        1023        1024        1033        1032
        1024        1025        1034        1033
        1026        1027        1036        1035
        1027        1028        1037        1036
        1028        1029        1038        1037
        1029        1030        1039        1038
        1030        1031        1040        1039
        1031        1032        1041        1040
        1032        1033        1042        1041
        1033        1034        1043        1042
        1035        1036        1045        1044
        1036        1037        1046        1045
        1037        1038        1047        1046
        1038        1039        1048        1047
        1039        1040        1049        1048
        1040        1041        1050        1049
        1041        1042        1051        1050
        1042        1043        1052        1051
        1053        1054        1063        1062
        1054        1055        1064        1063
        1055        1056        1065        1064
        1056        1057        1066        1065
        1057        1058        1067        1066
        1058        1059        1068        1067
        1059        1060        1069        1068
        1060        1061        1070        1069
        1062        1063        1072        1071
        1063        1064        1073        1072
        1064        1065        1074        1073
        1065        1066        1075        1074
        1066        1067        1076        1075
        1067        1068        1077        1076
        1068        1069        1078        1077
        1069        1070        1079        1078
        1071        1072        1081        1080
        1072        1073        1082        1081
        1073        1074        1083        1082
        1074        1075        1084        1083
        1075        1076        1085        1084
        1076        1077        1086        1085
        1077        1078        1087        1086
        1078        1079        1088        1087
        1080        1081        1090        1089
        1081        1082        1091        1090
        1082        1083        1092        1091
        1083        1084        1093        1092
        1084        1085        1094        1093
        1085        1086        1095        1094
        1086        1087        1096        1095
        1087        1088        1097        1096
        1089        1090        1099        1098
        1090        1091        1100        1099
        1091        1092        1101        1100
        1092        1093        1102        1101
        1093        1094        1103        1102
        1094        1095        1104        1103
        1095        1096        1105        1104
        1096        1097        1106        1105
        1098        1099        1108        1107
        1099        1100        1109        1108
        1100        1101        1110        1109
        1101        1102        1111        1110
        1102        1103        1112        1111
        1103        1104        1113        1112
        1104        1105        1114        1113
        1105        1106        1115        1114
        1107        1108        1117        1116
        1108        1109        1118        1117
        1109        1110        1119        1118
        1110        1111        1120        1119
        1111        1112        1121        1120
        1112        1113        1122        1121
        1113        1114        1123        1122
        1114        1115        1124        1123
        1116        1117        1126        1125
        1117        1118        1127        1126
        1118        1119        1128        1127
        1119        1120        1129        1128
        1120        1121        1130        1129
        1121        1122        1131        1130
        1122        1123        1132        1131
        1123        1124        1133        1132
        1134        1135        1144        1143
        1135        1136        1145        1144
        1136        1137        1146        1145
        1137        1138        1147        1146
        1138        1139        1148        1147
        1139        1140        1149        1148
        1140        1141        1150        1149
        1141        1142        1151        1150
        1143        1144        1153        1152
        1144        1145        1154        1153
        1145        1146        1155        1154
        1146        1147        1156        1155
        1147        1148        1157        1156
        1148        1149        1158        1157
        1149        1150        1159        1158
        1150        1151        1160        1159
        1152        1153        1162        1161
        1153        1154        1163        1162
        1154        1155        1164        1163
        1155        1156        1165        1164
        1156        1157        1166        1165
        1157        1158        1167        1166
        1158        1159        1168        1167
        1159        1160        1169        1168
        1161        1162        1171        1170
        1162        1163        1172        1171
        1163        1164        1173        1172
        1164        1165        1174        1173
        1165        1166        1175        1174
        1166        1167        1176        1175
        1167        1168        1177        1176
        1168        1169        1178        1177
        1170        1171        1180        1179
        1171        1172        1181        1180
        1172        1173        1182        1181
        1173        1174        1183        1182
        1174        1175        1184        1183
        1175        1176        1185        1184
        1176        1177        1186        1185
        1177        1178        1187        1186
        1179        1180        1189        1188
        1180        1181        1190        1189
        1181        1182        1191        1190
        1182        1183        1192        1191
        1183        1184        1193        1192
        1184        1185        1194        1193
        1185        1186        1195        1194
        1186        1187        1196        1195
        1188        1189        1198        1197
        1189        1190        1199        1198
        1190        1191        1200        1199
        1191        1192        1201        1200
        1192        1193        1202        1201
        1193        1194        1203        1202
        1194        1195        1204        1203
        1195        1196        1205        1204
        1197        1198        1207        1206
        1198        1199        1208        1207
        1199        1200        1209        1208
        1200        1201        1210        1209
        1201        1202        1211        1210
        1202        1203        1212        1211
        1203        1204        1213        1212
        1204        1205        1214        1213
        1215        1216        1225        1224
        1216        1217        1226        1225
        1217        1218        1227        1226
        1218        1219        1228        1227
        1219        1220        1229        1228
        1220        1221        1230        1229
        1221        1222        1231        1230
        1222        1223        1232        1231
        1224        1225        1234        1233
        1225        1226        1235        1234
        1226        1227        1236        1235
        1227        1228        1237        1236
        1228        1229        1238        1237
        1229        1230        1239        1238
        1230        1231        1240        1239
        1231        1232        1241        1240
        1233        1234        1243        1242
        1234        1235        1244        1243
        1235        1236        1245        1244
        1236        1237        1246        1245
        1237        1238        1247        1246
        1238        1239        1248        1247
        1239        1240        1249        1248
        1240        1241        1250        1249
        1242        1243        1252        1251
        1243        1244        1253        1252
        1244        1245        1254        1253
        1245        1246        1255        1254
        1246        1247        1256        1255
        1247        1248        1257        1256
        1248        1249        1258        1257
        1249        1250        1259        1258
        1251        1252        1261        1260
        1252        1253        1262        1261
        1253        1254        1263        1262
        1254        1255        1264        1263
        1255        1256        1265        1264
        1256        1257        1266        1265
        1257        1258        1267        1266
        1258        1259        1268        1267
        1260        1261        1270        1269
        1261        1262        1271        1270
        1262        1263        1272        1271
        1263        1264        1273        1272
        1264        1265        1274        1273
        1265        1266        1275        1274
        1266        1267        1276        1275
        1267        1268        1277        1276
        1269        1270        1279        1278
        1270        1271        1280        1279
        1271        1272        1281        1280
        1272        1273        1282        1281
        1273        1274        1283        1282
        1274        1275        1284        1283
        1275        1276        1285        1284
        1276        1277        1286        1285
        1278        1279        1288        1287
        1279        1280        1289        1288
        1280        1281        1290        1289
        1281        1282        1291        1290
        1282        1283        1292        1291
        1283        1284        1293        1292
        1284        1285        1294        1293
        1285        1286        1295        1294
        1296        1297        1306        1305
        1297        1298        1307        1306
        1298        1299        1308        1307
        1299        1300        1309        1308
        1300        1301        1310        1309
        1301        1302        1311        1310
        1302        1303        1312        1311
        1303        1304        1313        1312
        1305        1306        1315        1314
        1306        1307        1316        1315
        1307        1308        1317        1316
        1308        1309        1318        1317
        1309        1310        1319        1318
        1310        1311        1320        1319
        1311        1312        1321        1320
        1312        1313        1322        1321
        1314        1315        1324        1323
        1315        1316        1325        1324
        1316        1317        1326        1325
        1317        1318        1327        1326
        1318        1319        1328        1327
        1319        1320        1329        1328
        1320        1321        1330        1329
        1321        1322        1331        1330
        1323        1324        1333        1332
        1324        1325        1334        1333
        1325        1326        1335        1334
        1326        1327        1336        1335
        1327        1328        1337        1336
        1328        1329        1338        1337
        1329        1330        1339        1338
        1330        1331        1340        1339
        1332        1333        1342        1341
        1333        1334        1343        1342
        1334        1335        1344        1343
        1335        1336        1345        1344
        1336        1337        1346        1345
        1337        1338        1347        1346
        1338        1339        1348        1347
        1339        1340        1349        1348
        1341        1342        1351        1350
        1342        1343        1352        1351
        1343        1344        1353        1352
        1344        1345        1354        1353
        1345        1346        1355        1354
        1346        1347        1356        1355
        1347        1348        1357        1356
        1348        1349        1358        1357
        1350        1351        1360        1359
        1351        1352        1361        1360
        1352        1353        1362        1361
        1353        1354        1363        1362
        1354        1355        1364        1363
        1355        1356        1365        1364
        1356        1357        1366        1365
        1357        1358        1367        1366
        1359        1360        1369        1368
        1360        1361        1370        1369
        1361        1362        1371        1370
        1362        1363        1372        1371
        1363        1364        1373        1372
        1364        1365        1374        1373
        1365        1366        1375        1374
        1366        1367        1376        1375
        1377        1378        1387        1386
        1378        1379        1388        1387
        1379        1380        1389        1388
        1380        1381        1390        1389
        1381        1382        1391        1390
        1382        1383        1392        1391
        1383        1384        1393        1392
        1384        1385        1394        1393
        1386        1387        1396        1395
        1387        1388        1397        1396
        1388        1389        1398        1397
        1389        1390        1399        1398
        1390        1391        1400        1399
        1391        1392        1401        1400
        1392        1393        1402        1401
        1393        1394        1403        1402
        1395        1396        1405        1404
        1396        1397        1406        1405
        1397        1398        1407        1406
        1398        1399        1408        1407
        1399        1400        1409        1408
        1400        1401        1410        1409
        1401        1402        1411        1410
        1402        1403        1412        1411
        1404        1405        1414        1413
        1405        1406        1415        1414
        1406        1407        1416        1415
        1407        1408        1417        1416
        1408        1409        1418        1417
        1409        1410        1419        1418
        1410        1411        1420        1419
        1411        1412        1421        1420
        1413        1414        1423        1422
        1414        1415        1424        1423
        1415        1416        1425        1424
        1416        1417        1426        1425
        1417        1418        1427        1426
        1418        1419        1428        1427
        1419        1420        1429        1428
        1420        1421        1430        1429
        1422        1423        1432        1431
        1423        1424        1433        1432
        1424        1425        1434        1433
        1425        1426        1435        1434
        1426        1427        1436        1435
        1427        1428        1437        1436
        1428        1429        1438        1437
        1429        1430        1439        1438
        1431        1432        1441        1440
        1432        1433        1442        1441
        1433        1434        1443        1442
        1434        1435        1444        1443
        1435        1436        1445        1444
        1436        1437        1446        1445
        1437        1438        1447        1446
        1438        1439        1448        1447
        1440        1441        1450        1449
        1441        1442        1451        1450
        1442        1443        1452        1451
        1443        1444        1453        1452
        1444        1445        1454        1453
        1445        1446        1455        1454
        1446        1447        1456        1455
        1447        1448        1457        1456
        1458        1459        1468        1467
        1459        1460        1469        1468
        1460        1461        1470        1469
        1461        1462        1471        1470
        1462        1463        1472        1471
        1463        1464        1473        1472
        1464        1465        1474        1473
        1465        1466        1475        1474
        1467        1468        1477        1476
        1468        1469        1478        1477
        1469        1470        1479        1478
        1470        1471        1480        1479
        1471        1472        1481        1480
        1472        1473        1482        1481
        1473        1474        1483        1482
        1474        1475        1484        1483
        1476        1477        1486        1485
        1477        1478        1487        1486
        1478        1479        1488        1487
        1479        1480        1489        1488
        1480        1481        1490        1489
        1481        1482        1491        1490
        1482        1483        1492        1491
        1483        1484        1493        1492
        1485        1486        1495        1494
        1486        1487        1496        1495
        1487        1488        1497        1496
        1488        1489        1498        1497
        1489        1490        1499        1498
        1490        1491        1500        1499
        1491        1492        1501        1500
        1492        1493        1502        1501
        1494        1495        1504        1503
        1495        1496        1505        1504
        1496        1497        1506        1505
        1497        1498        1507        1506
        1498        1499        1508        1507
        1499        1500        1509        1508
        1500        1501        1510        1509
        1501        1502        1511        1510
        1503        1504        1513        1512
        1504        1505        1514        1513
        1505        1506        1515        1514
        1506        1507        1516        1515
        1507        1508        1517        1516
        1508        1509        1518        1517
        1509        1510        1519        1518
        1510        1511        1520        1519
        1512        1513        1522        1521
        1513        1514        1523        1522
        1514        1515        1524        1523
        1515        1516        1525        1524
        1516        1517        1526        1525
        1517        1518        1527        1526
        1518        1519        1528        1527
        1519        1520        1529        1528
        1521        1522        1531        1530
        1522        1523        1532        1531
        1523        1524        1533        1532
        1524        1525        1534        1533
        1525        1526        1535        1534
        1526        1527        1536        1535
        1527        1528        1537        1536
        1528        1529        1538        1537
        1539        1540        1549        1548
        1540        1541        1550        1549
        1541        1542        1551        1550
        1542        1543        1552        1551
        1543        1544        1553        1552
        1544        1545        1554        1553
        1545        1546        1555        1554
        1546        1547        1556        1555
        1548        1549        1558        1557
        1549        1550        1559        1558
        1550        1551        1560        1559
        1551        1552        1561        1560
        1552        1553        1562        1561
        1553        1554        1563        1562
        1554        1555        1564        1563
        1555        1556        1565        1564
        1557        1558        1567        1566
        1558        1559        1568        1567
        1559        1560        1569        1568
        1560        1561        1570        1569
        1561        1562        1571        1570
        1562        1563        1572        1571
        1563        1564        1573        1572
        1564        1565        1574        1573
        1566        1567        1576        1575
        1567        1568        1577        1576
        1568        1569        1578        1577
        1569        1570        1579        1578
        1570        1571        1580        1579
        1571        1572        1581        1580
        1572        1573        1582        1581
        1573        1574        1583        1582
        1575        1576        1585        1584
        1576        1577        1586        1585
        1577        1578        1587        1586
        1578        1579        1588        1587
        1579        1580        1589        1588
        1580        1581        1590        1589
        1581        1582        1591        1590
        1582        1583        1592        1591
        1584        1585        1594        1593
        1585        1586        1595        1594
        1586        1587        1596        1595
        1587        1588        1597        1596
        1588        1589        1598        1597
        1589        1590        1599        1598
        1590        1591        1600        1599
        1591        1592        1601        1600
        1593        1594        1603        1602
        1594        1595        1604        1603
        1595        1596        1605        1604
        1596        1597        1606        1605
        1597        1598        1607        1606
        1598        1599        1608        1607
        1599        1600        1609        1608
        1600        1601        1610        1609
        1602        1603        1612        1611
        1603        1604        1613        1612
        1604        1605        1614        1613
        1605        1606        1615        1614
        1606        1607        1616        1615
        1607        1608        1617        1616
        1608        1609        1618        1617
        1609        1610        1619        1618
        1620        1621        1630        1629
        1621        1622        1631        1630
        1622        1623        1632        1631
        1623        1624        1633        1632
        1624        1625        1634        1633
        1625        1626        1635        1634
        1626        1627        1636        1635
        1627        1628        1637        1636
        1629        1630        1639        1638
        1630        1631        1640        1639
        1631        1632        1641        1640
        1632        1633        1642        1641
        1633        1634        1643        1642
        1634        1635        1644        1643
        1635        1636        1645        1644
        1636        1637        1646        1645
        1638        1639        1648        1647
        1639        1640        1649        1648
        1640        1641        1650        1649
        1641        1642        1651        1650
        1642        1643        1652        1651
        1643        1644        1653        1652
        1644        1645        1654        1653
        1645        1646        1655        1654
        1647        1648        1657        1656
        1648        1649        1658        1657
        1649        1650        1659        1658
        1650        1651        1660        1659
        1651        1652        1661        1660
        1652        1653        1662        1661
        1653        1654        1663        1662
        1654        1655        1664        1663
        1656        1657        1666        1665
        1657        1658        1667        1666
        1658        1659        1668        1667
        1659        1660        1669        1668
        1660        1661        1670        1669
        1661        1662        1671        1670
        1662        1663        1672        1671
        1663        1664        1673        1672
        1665        1666        1675        1674
        1666        1667        1676        1675
        1667        1668        1677        1676
        1668        1669        1678        1677
        1669        1670        1679        1678
        1670        1671        1680        1679
        1671        1672        1681        1680
        1672        1673        1682        1681
        1674        1675        1684        1683
        1675        1676        1685        1684
        1676        1677        1686        1685
        1677        1678        1687        1686
        1678        1679        1688        1687
        1679        1680        1689        1688
        1680        1681        1690        1689
        1681        1682        1691        1690
        1683        1684        1693        1692
        1684        1685        1694        1693
        1685        1686        1695        1694
        1686        1687        1696        1695
        1687        1688        1697        1696
        1688        1689        1698        1697
        1689        1690        1699        1698
        1690        1691        1700        1699
        1701        1702        1711        1710
        1702        1703        1712        1711
        1703        1704        1713        1712
        1704        1705        1714        1713
        1705        1706        1715        1714
        1706        1707        1716        1715
        1707        1708        1717        1716
        1708        1709        1718        1717
        1710        1711        1720        1719
        1711        1712        1721        1720
        1712        1713        1722        1721
        1713        1714        1723        1722
        1714        1715        1724        1723
        1715        1716        1725        1724
        1716        1717        1726        1725
        1717        1718        1727        1726
        1719        1720        1729        1728
        1720        1721        1730        1729
        1721        1722        1731        1730
        1722        1723        1732        1731
        1723        1724        1733        1732
        1724        1725        1734        1733
        1725        1726        1735        1734
        1726        1727        1736        1735
        1728        1729        1738        1737
        1729        1730        1739        1738
        1730        1731        1740        1739
        1731        1732        1741        1740
        1732        1733        1742        1741
        1733        1734        1743        1742
        1734        1735        1744        1743
        1735        1736        1745        1744
        1737        1738        1747        1746
        1738        1739        1748        1747
        1739        1740        1749        1748
        1740        1741        1750        1749
        1741        1742        1751        1750
        1742        1743        1752        1751
        1743        1744        1753        1752
        1744        1745        1754        1753
        1746        1747        1756        1755
        1747        1748        1757        1756
        1748        1749        1758        1757
        1749        1750        1759        1758
        1750        1751        1760        1759
        1751        1752        1761        1760
        1752        1753        1762        1761
        1753        1754        1763        1762
        1755        1756        1765        1764
        1756        1757        1766        1765
        1757        1758        1767        1766
        1758        1759        1768        1767
        1759        1760        1769        1768
        1760        1761        1770        1769
        1761        1762        1771        1770
        1762        1763        1772        1771
        1764        1765        1774        1773
        1765        1766        1775        1774
        1766        1767        1776        1775
        1767        1768        1777        1776
        1768        1769        1778        1777
        1769        1770        1779        1778
        1770        1771        1780        1779
        1771        1772        1781        1780
        1782        1783        1792        1791
        1783        1784        1793        1792
        1784        1785        1794        1793
        1785        1786        1795        1794
        1786        1787        1796        1795
        1787        1788        1797        1796
        1788        1789        1798        1797
        1789        1790        1799        1798
        1791        1792        1801        1800
        1792        1793        1802        1801
        1793        1794        1803        1802
        1794        1795        1804        1803
        1795        1796        1805        1804
        1796        1797        1806        1805
        1797        1798        1807        1806
        1798        1799        1808        1807
        1800        1801        1810        1809
        1801        1802        1811        1810
        1802        1803        1812        1811
        1803        1804        1813        1812
        1804        1805        1814        1813
        1805        1806        1815        1814
        1806        1807        1816        1815
        1807        1808        1817        1816
        1809        1810        1819        1818
        1810        1811        1820        1819
        1811        1812        1821        1820
        1812        1813        1822        1821
        1813        1814        1823        1822
        1814        1815        1824        1823
        1815        1816        1825        1824
        1816        1817        1826        1825
        1818        1819        1828        1827
        1819        1820        1829        1828
        1820        1821        1830        1829
        1821        1822        1831        1830
        1822        1823        1832        1831
        1823        1824        1833        1832
        1824        1825        1834        1833
        1825        1826        1835        1834
        1827        1828        1837        1836
        1828        1829        1838        1837
        1829        1830        1839        1838
        1830        1831        1840        1839
        1831        1832        1841        1840
        1832        1833        1842        1841
        1833        1834        1843        1842
        1834        1835        1844        1843
        1836        1837        1846        1845
        1837        1838        1847        1846
        1838        1839        1848        1847
        1839        1840        1849        1848
        1840        1841        1850        1849
        1841        1842        1851        1850
        1842        1843        1852        1851
        1843        1844        1853        1852
        1845        1846        1855        1854
        1846        1847        1856        1855
        1847        1848        1857        1856
        1848        1849        1858        1857
        1849        1850        1859        1858
        1850        1851        1860        1859
        1851        1852        1861        1860
        1852        1853        1862        1861
        1863        1864        1873        1872
        1864        1865        1874        1873
        1865        1866        1875        1874
        1866        1867        1876        1875
        1867        1868        1877        1876
        1868        1869        1878        1877
        1869        1870        1879        1878
        1870        1871        1880        1879
        1872        1873        1882        1881
        1873        1874        1883        1882
        1874        1875        1884        1883
        1875        1876        1885        1884
        1876        1877        1886        1885
        1877        1878        1887        1886
        1878        1879        1888        1887
        1879        1880        1889        1888
        1881        1882        1891        1890
        1882        1883        1892        1891
        1883        1884        1893        1892
        1884        1885        1894        1893
        1885        1886        1895        1894
        1886        1887        1896        1895
        1887        1888        1897        1896
        1888        1889        1898        1897
        1890        1891        1900        1899
        1891        1892        1901        1900
        1892        1893        1902        1901
        1893        1894        1903        1902
        1894        1895        1904        1903
        1895        1896        1905        1904
        1896        1897        1906        1905
        1897        1898        1907        1906
        1899        1900        1909        1908
        1900        1901        1910        1909
        1901        1902        1911        1910
        1902        1903        1912        1911
        1903        1904        1913        1912
        1904        1905        1914        1913
        1905        1906        1915        1914
        1906        1907        1916        1915
        1908        1909        1918        1917
        1909        1910        1919        1918
        1910        1911        1920        1919
        1911        1912        1921        1920
        1912        1913        1922        1921
        1913        1914        1923        1922
        1914        1915        1924        1923
        1915        1916        1925        1924
        1917        1918        1927        1926
        1918        1919        1928        1927
        1919        1920        1929        1928
        1920        1921        1930        1929
        1921        1922        1931        1930
        1922        1923        1932        1931
        1923        1924        1933        1932
        1924        1925        1934        1933
        1926        1927        1936        1935
        1927        1928        1937        1936
        1928        1929        1938        1937
        1929        1930        1939        1938
        1930        1931        1940        1939
        1931        1932        1941        1940
        1932        1933        1942        1941
        1933        1934        1943        1942
        1944        1945        1954        1953
        1945        1946        1955        1954
        1946        1947        1956        1955
        1947        1948        1957        1956
        1948        1949        1958        1957
        1949        1950        1959        1958
        1950        1951        1960        1959
        1951        1952        1961        1960
        1953        1954        1963        1962
        1954        1955        1964        1963
        1955        1956        1965        1964
        1956        1957        1966        1965
        1957        1958        1967        1966
        1958        1959        1968        1967
        1959        1960        1969        1968
        1960        1961        1970        1969
        1962        1963        1972        1971
        1963        1964        1973        1972
        1964        1965        1974        1973
        1965        1966        1975        1974
        1966        1967        1976        1975
        1967        1968        1977        1976
        1968        1969        1978        1977
        1969        1970        1979        1978
        1971        1972        1981        1980
        1972        1973        1982        1981
        1973        1974        1983        1982
        1974        1975        1984        1983
        1975        1976        1985        1984
        1976        1977        1986        1985
        1977        1978        1987        1986
        1978        1979        1988        1987
        1980        1981        1990        1989
        1981        1982        1991        1990
        1982        1983        1992        1991
        1983        1984        1993        1992
        1984        1985        1994        1993
        1985        1986        1995        1994
        1986        1987        1996        1995
        1987        1988        1997        1996
        1989        1990        1999        1998
        1990        1991        2000        1999
        1991        1992        2001        2000
        1992        1993        2002        2001
        1993        1994        2003        2002
        1994        1995        2004        2003
        1995        1996        2005        2004
        1996        1997        2006        2005
        1998        1999        2008        2007
        1999        2000        2009        2008
        2000        2001        2010        2009
        2001        2002        2011        2010
        2002        2003        2012        2011
        2003        2004        2013        2012
        2004        2005        2014        2013
        2005        2006        2015        2014
        2007        2008        2017        2016
        2008        2009        2018        2017
        2009        2010        2019        2018
        2010        2011        2020        2019
        2011        2012        2021        2020
        2012        2013        2022        2021
        2013        2014        2023        2022
        2014        2015        2024        2023
        2025        2026        2035        2034
        2026        2027        2036        2035
        2027        2028        2037        2036
        2028        2029        2038        2037
        2029        2030        2039        2038
        2030        2031        2040        2039
        2031        2032        2041        2040
        2032        2033        2042        2041
        2034        2035        2044        2043
        2035        2036        2045        2044
        2036        2037        2046        2045
        2037        2038        2047        2046
        2038        2039        2048        2047
        2039        2040        2049        2048
        2040        2041        2050        2049
        2041        2042        2051        2050
        2043        2044        2053        2052
        2044        2045        2054        2053
        2045        2046        2055        2054
        2046        2047        2056        2055
        2047        2048        2057        2056
        2048        2049        2058        2057
        2049        2050        2059        2058
        2050        2051        2060        2059
        2052        2053        2062        2061
        2053        2054        2063        2062
        2054        2055        2064        2063
        2055        2056        2065        2064
        2056        2057        2066        2065
        2057        2058        2067        2066
        2058        2059        2068        2067
        2059        2060        2069        2068
        2061        2062        2071        2070
        2062        2063        2072        2071
        2063        2064        2073        2072
        2064        2065        2074        2073
        2065        2066        2075        2074
        2066        2067        2076        2075
        2067        2068        2077        2076
        2068        2069        2078        2077
        2070        2071        2080        2079
        2071        2072        2081        2080
        2072        2073        2082        2081
        2073        2074        2083        2082
        2074        2075        2084        2083
        2075        2076        2085        2084
        2076        2077        2086        2085
        2077        2078        2087        2086
        2079        2080        2089        2088
        2080        2081        2090        2089
        2081        2082        2091        2090
        2082        2083        2092        2091
        2083        2084        2093        2092
        2084        2085        2094        2093
        2085        2086        2095        2094
        2086        2087        2096        2095
        2088        2089        2098        2097
        2089        2090        2099        2098
        2090        2091        2100        2099
        2091        2092        2101        2100
        2092        2093        2102        2101
        2093        2094        2103        2102
        2094        2095        2104        2103
        2095        2096        2105        2104
        2106        2107        2116        2115
        2107        2108        2117        2116
        2108        2109        2118        2117
        2109        2110        2119        2118
        2110        2111        2120        2119
        2111        2112        2121        2120
        2112        2113        2122        2121
        2113        2114        2123        2122
        2115        2116        2125        2124
        2116        2117        2126        2125
        2117        2118        2127        2126
        2118        2119        2128        2127
        2119        2120        2129        2128
        2120        2121        2130        2129
        2121        2122        2131        2130
        2122        2123        2132        2131
        2124        2125        2134        2133
        2125        2126        2135        2134
        2126        2127        2136        2135
        2127        2128        2137        2136
        2128        2129        2138        2137
        2129        2130        2139        2138
        2130        2131        2140        2139
        2131        2132        2141        2140
        2133        2134        2143        2142
        2134        2135        2144        2143
        2135        2136        2145        2144
        2136        2137        2146        2145
        2137        2138        2147        2146
        2138        2139        2148        2147
        2139        2140        2149        2148
        2140        2141        2150        2149
        2142        2143        2152        2151
        2143        2144        2153        2152
        2144        2145        2154        2153
        2145        2146        2155        2154
        2146        2147        2156        2155
        2147        2148        2157        2156
        2148        2149        2158        2157
        2149        2150        2159        2158
        2151        2152        2161        2160
        2152        2153        2162        2161
        2153        2154        2163        2162
        2154        2155        2164        2163
        2155        2156        2165        2164
        2156        2157        2166        2165
        2157        2158        2167        2166
        2158        2159        2168        2167
        2160        2161        2170        2169
        2161        2162        2171        2170
        2162        2163        2172        2171
        2163        2164        2173        2172
        2164        2165        2174        2173
        2165        2166        2175        2174
        2166        2167        2176        2175
        2167        2168        2177        2176
        2169        2170        2179        2178
        2170        2171        2180        2179
        2171        2172        2181        2180
        2172        2173        2182        2181
        2173        2174        2183        2182
        2174        2175        2184        2183
        2175        2176        2185        2184
        2176        2177        2186        2185
        2187        2188        2197        2196
        2188        2189        2198        2197
        2189        2190        2199        2198
        2190        2191        2200        2199
        2191        2192        2201        2200
        2192        2193        2202        2201
        2193        2194        2203        2202
        2194        2195        2204        2203
        2196        2197        2206        2205
        2197        2198        2207        2206
        2198        2199        2208        2207
        2199        2200        2209        2208
        2200        2201        2210        2209
        2201        2202        2211        2210
        2202        2203        2212        2211
        2203        2204        2213        2212
        2205        2206        2215        2214
        2206        2207        2216        2215
        2207        2208        2217        2216
        2208        2209        2218        2217
        2209        2210        2219        2218
        2210        2211        2220        2219
        2211        2212        2221        2220
        2212        2213        2222        2221
        2214        2215        2224        2223
        2215        2216        2225        2224
        2216        2217        2226        2225
        2217        2218        2227        2226
        2218        2219        2228        2227
        2219        2220        2229        2228
        2220        2221        2230        2229
        2221        2222        2231        2230
        2223        2224        2233        2232
        2224        2225        2234        2233
        2225        2226        2235        2234
        2226        2227        2236        2235
        2227        2228        2237        2236
        2228        2229        2238        2237
        2229        2230        2239        2238
        2230        2231        2240        2239
        2232        2233        2242        2241
        2233        2234        2243        2242
        2234        2235        2244        2243
        2235        2236        2245        2244
        2236        2237        2246        2245
        2237        2238        2247        2246
        2238        2239        2248        2247
        2239        2240        2249        2248
        2241        2242        2251        2250
        2242        2243        2252        2251
        2243        2244        2253        2252
        2244        2245        2254        2253
        2245        2246        2255        2254
        2246        2247        2256        2255
        2247        2248        2257        2256
        2248        2249        2258        2257
        2250        2251        2260        2259
        2251        2252        2261        2260
        2252        2253        2262        2261
        2253        2254        2263        2262
        2254        2255        2264        2263
        2255        2256        2265        2264
        2256        2257        2266        2265
        2257        2258        2267        2266
        2268        2269        2278        2277
        2269        2270        2279        2278
        2270        2271        2280        2279
        2271        2272        2281        2280
        2272        2273        2282        2281
        2273        2274        2283        2282
        2274        2275        2284        2283
        2275        2276        2285        2284
        2277        2278        2287        2286
        2278        2279        2288        2287
        2279        2280        2289        2288
        2280        2281        2290        2289
        2281        2282        2291        2290
        2282        2283        2292        2291
        2283        2284        2293        2292
        2284        2285        2294        2293
        2286        2287        2296        2295
        2287        2288        2297        2296
        2288        2289        2298        2297
        2289        2290        2299        2298
        2290        2291        2300        2299
        2291        2292        2301        2300
        2292        2293        2302        2301
        2293        2294        2303        2302
        2295        2296        2305        2304
        2296        2297        2306        2305
        2297        2298        2307        2306
        2298        2299        2308        2307
        2299        2300        2309        2308
        2300        2301        2310        2309
        2301        2302        2311        2310
        2302        2303        2312        2311
        2304        2305        2314        2313
        2305        2306        2315        2314
        2306        2307        2316        2315
        2307        2308        2317        2316
        2308        2309        2318        2317
        2309        2310        2319        2318
        2310        2311        2320        2319
        2311        2312        2321        2320
        2313        2314        2323        2322
        2314        2315        2324        2323
        2315        2316        2325        2324
        2316        2317        2326        2325
        2317        2318        2327        2326
        2318        2319        2328        2327
        2319        2320        2329        2328
        2320        2321        2330        2329
        2322        2323        2332        2331
        2323        2324        2333        2332
        2324        2325        2334        2333
        2325        2326        2335        2334
        2326        2327        2336        2335
        2327        2328        2337        2336
        2328        2329        2338        2337
        2329        2330        2339        2338
        2331        2332        2341        2340
        2332        2333        2342        2341
        2333        2334        2343        2342
        2334        2335        2344        2343
        2335        2336        2345        2344
        2336        2337        2346        2345
        2337        2338        2347        2346
        2338        2339        2348        2347
        2349        2350        2359        2358
        2350        2351        2360        2359
        2351        2352        2361        2360
        2352        2353        2362        2361
        2353        2354        2363        2362
        2354        2355        2364        2363
        2355        2356        2365        2364
        2356        2357        2366        2365
        2358        2359        2368        2367
        2359        2360        2369        2368
        2360        2361        2370        2369
        2361        2362        2371        2370
        2362        2363        2372        2371
        2363        2364        2373        2372
        2364        2365        2374        2373
        2365        2366        2375        2374
        2367        2368        2377        2376
        2368        2369        2378        2377
        2369        2370        2379        2378
        2370        2371        2380        2379
        2371        2372        2381        2380
        2372        2373        2382        2381
        2373        2374        2383        2382
        2374        2375        2384        2383
        2376        2377        2386        2385
        2377        2378        2387        2386
        2378        2379        2388        2387
        2379        2380        2389        2388
        2380        2381        2390        2389
        2381        2382        2391        2390
        2382        2383        2392        2391
        2383        2384        2393        2392
        2385        2386        2395        2394
        2386        2387        2396        2395
        2387        2388        2397        2396
        2388        2389        2398        2397
        2389        2390        2399        2398
        2390        2391        2400        2399
        2391        2392        2401        2400
        2392        2393        2402        2401
        2394        2395        2404        2403
        2395        2396        2405        2404
        2396        2397        2406        2405
        2397        2398        2407        2406
        2398        2399        2408        2407
        2399        2400        2409        2408
        2400        2401        2410        2409
        2401        2402        2411        2410
        2403        2404        2413        2412
        2404        2405        2414        2413
        2405        2406        2415        2414
        2406        2407        2416        2415
        2407        2408        2417        2416
        2408        2409        2418        2417
        2409        2410        2419        2418
        2410        2411        2420        2419
        2412        2413        2422        2421
        2413        2414        2423        2422
        2414        2415        2424        2423
        2415        2416        2425        2424
        2416        2417        2426        2425
        2417        2418        2427        2426
        2418        2419        2428        2427
        2419        2420        2429        2428
        2430        2431        2440        2439
        2431        2432        2441        2440
        2432        2433        2442        2441
        2433        2434        2443        2442
        2434        2435        2444        2443
        2435        2436        2445        2444
        2436        2437        2446        2445
        2437        2438        2447        2446
        2439        2440        2449        2448
        2440        2441        2450        2449
        2441        2442        2451        2450
        2442        2443        2452        2451
        2443        2444        2453        2452
        2444        2445        2454        2453
        2445        2446        2455        2454
        2446        2447        2456        2455
        2448        2449        2458        2457
        2449        2450        2459        2458
        2450        2451        2460        2459
        2451        2452        2461        2460
        2452        2453        2462        2461
        2453        2454        2463        2462
        2454        2455        2464        2463
        2455        2456        2465        2464
        2457        2458        2467        2466
        2458        2459        2468        2467
        2459        2460        2469        2468
        2460        2461        2470        2469
        2461        2462        2471        2470
        2462        2463        2472        2471
        2463        2464        2473        2472
        2464        2465        2474        2473
        2466        2467        2476        2475
        2467        2468        2477        2476
        2468        2469        2478        2477
        2469        2470        2479        2478
        2470        2471        2480        2479
        2471        2472        2481        2480
        2472        2473        2482        2481
        2473        2474        2483        2482
        2475        2476        2485        2484
        2476        2477        2486        2485
        2477        2478        2487        2486
        2478        2479        2488        2487
        2479        2480        2489        2488
        2480        2481        2490        2489
        2481        2482        2491        2490
        2482        2483        2492        2491
        2484        2485        2494        2493
        2485        2486        2495        2494
        2486        2487        2496        2495
        2487        2488        2497        2496
        2488        2489        2498        2497
        2489        2490        2499        2498
        2490        2491        2500        2499
        2491        2492        2501        2500
        2493        2494        2503        2502
        2494        2495        2504        2503
        2495        2496        2505        2504
        2496        2497        2506        2505
        2497        2498        2507        2506
        2498        2499        2508        2507
        2499        2500        2509        2508
        2500        2501        2510        2509
        2511        2512        2521        2520
        2512        2513        2522        2521
        2513        2514        2523        2522
        2514        2515        2524        2523
        2515        2516        2525        2524
        2516        2517        2526        2525
        2517        2518        2527        2526
        2518        2519        2528        2527
        2520        2521        2530        2529
        2521        2522        2531        2530
        2522        2523        2532        2531
        2523        2524        2533        2532
        2524        2525        2534        2533
        2525        2526        2535        2534
        2526        2527        2536        2535
        2527        2528        2537        2536
        2529        2530        2539        2538
        2530        2531        2540        2539
        2531        2532        2541        2540
        2532        2533        2542        2541
        2533        2534        2543        2542
        2534        2535        2544        2543
        2535        2536        2545        2544
        2536        2537        2546        2545
        2538        2539        2548        2547
        2539        2540        2549        2548
        2540        2541        2550        2549
        2541        2542        2551        2550
        2542        2543        2552        2551
        2543        2544        2553        2552
        2544        2545        2554        2553
        2545        2546        2555        2554
        2547        2548        2557        2556
        2548        2549        2558        2557
        2549        2550        2559        2558
        2550        2551        2560        2559
        2551        2552        2561        2560
        2552        2553        2562        2561
        2553        2554        2563        2562
        2554        2555        2564        2563
        2556        2557        2566        2565
        2557        2558        2567        2566
        2558        2559        2568        2567
        2559        2560        2569        2568
        2560        2561        2570        2569
        2561        2562        2571        2570
        2562        2563        2572        2571
        2563        2564        2573        2572
        2565        2566        2575        2574
        2566        2567        2576        2575
        2567        2568        2577        2576
        2568        2569        2578        2577
        2569        2570        2579        2578
        2570        2571        2580        2579
        2571        2572        2581        2580
        2572        2573        2582        2581
        2574        2575        2584        2583
        2575        2576        2585        2584
        2576        2577        2586        2585
        2577        2578        2587        2586
        2578        2579        2588        2587
        2579        2580        2589        2588
        2580        2581        2590        2589
        2581        2582        2591        2590
        2592        2593        2602        2601
        2593        2594        2603        2602
        2594        2595        2604        2603
        2595        2596        2605        2604
        2596        2597        2606        2605
        2597        2598        2607        2606
        2598        2599        2608        2607
        2599        2600        2609        2608
        2601        2602        2611        2610
        2602        2603        2612        2611
        2603        2604        2613        2612
        2604        2605        2614        2613
        2605        2606        2615        2614
        2606        2607        2616        2615
        2607        2608        2617        2616
        2608        2609        2618        2617
        2610        2611        2620        2619
        2611        2612        2621        2620
        2612        2613        2622        2621
        2613        2614        2623        2622
        2614        2615        2624        2623
        2615        2616        2625        2624
        2616        2617        2626        2625
        2617        2618        2627        2626
        2619        2620        2629        2628
        2620        2621        2630        2629
        2621        2622        2631        2630
        2622        2623        2632        2631
        2623        2624        2633        2632
        2624        2625        2634        2633
        2625        2626        2635        2634
        2626        2627        2636        2635
        2628        2629        2638        2637
        2629        2630        2639        2638
        2630        2631        2640        2639
        2631        2632        2641        2640
        2632        2633        2642        2641
        2633        2634        2643        2642
        2634        2635        2644        2643
        2635        2636        2645        2644
        2637        2638        2647        2646
        2638        2639        2648        2647
        2639        2640        2649        2648
        2640        2641        2650        2649
        2641        2642        2651        2650
        2642        2643        2652        2651
        2643        2644        2653        2652
        2644        2645        2654        2653
        2646        2647        2656        2655
        2647        2648        2657        2656
        2648        2649        2658        2657
        2649        2650        2659        2658
        2650        2651        2660        2659
        2651        2652        2661        2660
        2652        2653        2662        2661
        2653        2654        2663        2662
        2655        2656        2665        2664
        2656        2657        2666        2665
        2657        2658        2667        2666
        2658        2659        2668        2667
        2659        2660        2669        2668
        2660        2661        2670        2669
        2661        2662        2671        2670
        2662        2663        2672        2671
        2673        2674        2683        2682
        2674        2675        2684        2683
        2675        2676        2685        2684
        2676        2677        2686        2685
        2677        2678        2687        2686
        2678        2679        2688        2687
        2679        2680        2689        2688
        2680        2681        2690        2689
        2682        2683        2692        2691
        2683        2684        2693        2692
        2684        2685        2694        2693
        2685        2686        2695        2694
        2686        2687        2696        2695
        2687        2688        2697        2696
        2688        2689        2698        2697
        2689        2690        2699        2698
        2691        2692        2701        2700
        2692        2693        2702        2701
        2693        2694        2703        2702
        2694        2695        2704        2703
        2695        2696        2705        2704
        2696        2697        2706        2705
        2697        2698        2707        2706
        2698        2699        2708        2707
        2700        2701        2710        2709
        2701        2702        2711        2710
        2702        2703        2712        2711
        2703        2704        2713        2712
        2704        2705        2714        2713
        2705        2706        2715        2714
        2706        2707        2716        2715
        2707        2708        2717        2716
        2709        2710        2719        2718
        2710        2711        2720        2719
        2711        2712        2721        2720
        2712        2713        2722        2721
        2713        2714        2723        2722
        2714        2715        2724        2723
        2715        2716        2725        2724
        2716        2717        2726        2725
        2718        2719        2728        2727
        2719        2720        2729        2728
        2720        2721        2730        2729
        2721        2722        2731        2730
        2722        2723        2732        2731
        2723        2724        2733        2732
        2724        2725        2734        2733
        2725        2726        2735        2734
        2727        2728        2737        2736
        2728        2729        2738        2737
        2729        2730        2739        2738
        2730        2731        2740        2739
        2731        2732        2741        2740
        2732        2733        2742        2741
        2733        2734        2743        2742
        2734        2735        2744        2743
        2736        2737        2746        2745
        2737        2738        2747        2746
        2738        2739        2748        2747
        2739        2740        2749        2748
        2740        2741        2750        2749
        2741        2742        2751        2750
        2742        2743        2752        2751
        2743        2744        2753        2752
        2754        2755        2764        2763
        2755        2756        2765        2764
        2756        2757        2766        2765
        2757        2758        2767        2766
        2758        2759        2768        2767
        2759        2760        2769        2768
        2760        2761        2770        2769
        2761        2762        2771        2770
        2763        2764        2773        2772
        2764        2765        2774        2773
        2765        2766        2775        2774
        2766        2767        2776        2775
        2767        2768        2777        2776
        2768        2769        2778        2777
        2769        2770        2779        2778
        2770        2771        2780        2779
        2772        2773        2782        2781
        2773        2774        2783        2782
        2774        2775        2784        2783
        2775        2776        2785        2784
        2776        2777        2786        2785
        2777        2778        2787        2786
        2778        2779        2788        2787
        2779        2780        2789        2788
        2781        2782        2791        2790
        2782        2783        2792        2791
        2783        2784        2793        2792
        2784        2785        2794        2793
        2785        2786        2795        2794
        2786        2787        2796        2795
        2787        2788        2797        2796
        2788        2789        2798        2797
        2790        2791        2800        2799
        2791        2792        2801        2800
        2792        2793        2802        2801
        2793        2794        2803        2802
        2794        2795        2804        2803
        2795        2796        2805        2804
        2796        2797        2806        2805
        2797        2798        2807        2806
        2799        2800        2809        2808
        2800        2801        2810        2809
        2801        2802        2811        2810
        2802        2803        2812        2811
        2803        2804        2813        2812
        2804        2805        2814        2813
        2805        2806        2815        2814
        2806        2807        2816        2815
        2808        2809        2818        2817
        2809        2810        2819        2818
        2810        2811        2820        2819
        2811        2812        2821        2820
        2812        2813        2822        2821
        2813        2814        2823        2822
        2814        2815        2824        2823
        2815        2816        2825        2824
        2817        2818        2827        2826
        2818        2819        2828        2827
        2819        2820        2829        2828
        2820        2821        2830        2829
        2821        2822        2831        2830
        2822        2823        2832        2831
        2823        2824        2833        2832
        2824        2825        2834        2833
        2835        2836        2845        2844
        2836        2837        2846        2845
        2837        2838        2847        2846
        2838        2839        2848        2847
        2839        2840        2849        2848
        2840        2841        2850        2849
        2841        2842        2851        2850
        2842        2843        2852        2851
        2844        2845        2854        2853
        2845        2846        2855        2854
        2846        2847        2856        2855
        2847        2848        2857        2856
        2848        2849        2858        2857
        2849        2850        2859        2858
        2850        2851        2860        2859
        2851        2852        2861        2860
        2853        2854        2863        2862
        2854        2855        2864        2863
        2855        2856        2865        2864
        2856        2857        2866        2865
        2857        2858        2867        2866
        2858        2859        2868        2867
        2859        2860        2869        2868
        2860        2861        2870        2869
        2862        2863        2872        2871
        2863        2864        2873        2872
        2864        2865        2874        2873
        2865        2866        2875        2874
        2866        2867        2876        2875
        2867        2868        2877        2876
        2868        2869        2878        2877
        2869        2870        2879        2878
        2871        2872        2881        2880
        2872        2873        2882        2881
        2873        2874        2883        2882
        2874        2875        2884        2883
        2875        2876        2885        2884
        2876        2877        2886        2885
        2877        2878        2887        2886
        2878        2879        2888        2887
        2880        2881        2890        2889
        2881        2882        2891        2890
        2882        2883        2892        2891
        2883        2884        2893        2892
        2884        2885        2894        2893
        2885        2886        2895        2894
        2886        2887        2896        2895
        2887        2888        2897        2896
        2889        2890        2899        2898
        2890        2891        2900        2899
        2891        2892        2901        2900
        2892        2893        2902        2901
        2893        2894        2903        2902
        2894        2895        2904        2903
        2895        2896        2905        2904
        2896        2897        2906        2905
        2898        2899        2908        2907
        2899        2900        2909        2908
        2900        2901        2910        2909
        2901        2902        2911        2910
        2902        2903        2912        2911
        2903        2904        2913        2912
        2904        2905        2914        2913
        2905        2906        2915        2914
        2916        2917        2926        2925
        2917        2918        2927        2926
        2918        2919        2928        2927
        2919        2920        2929        2928
        2920        2921        2930        2929
        2921        2922        2931        2930
        2922        2923        2932        2931
        2923        2924        2933        2932
        2925        2926        2935        2934
        2926        2927        2936        2935
        2927        2928        2937        2936
        2928        2929        2938        2937
        2929        2930        2939        2938
        2930        2931        2940        2939
        2931        2932        2941        2940
        2932        2933        2942        2941
        2934        2935        2944        2943
        2935        2936        2945        2944
        2936        2937        2946        2945
        2937        2938        2947        2946
        2938        2939        2948        2947
        2939        2940        2949        2948
        2940        2941        2950        2949
        2941        2942        2951        2950
        2943        2944        2953        2952
        2944        2945        2954        2953
        2945        2946        2955        2954
        2946        2947        2956        2955
        2947        2948        2957        2956
        2948        2949        2958        2957
        2949        2950        2959        2958
        2950        2951        2960        2959
        2952        2953        2962        2961
        2953        2954        2963        2962
        2954        2955        2964        2963
        2955        2956        2965        2964
        2956        2957        2966        2965
        2957        2958        2967        2966
        2958        2959        2968        2967
        2959        2960        2969        2968
        2961        2962        2971        2970
        2962        2963        2972        2971
        2963        2964        2973        2972
        2964        2965        2974        2973
        2965        2966        2975        2974
        2966        2967        2976        2975
        2967        2968        2977        2976
        2968        2969        2978        2977
        2970        2971        2980        2979
        2971        2972        2981        2980
        2972        2973        2982        2981
        2973        2974        2983        2982
        2974        2975        2984        2983
        2975        2976        2985        2984
        2976        2977        2986        2985
        2977        2978        2987        2986
        2979        2980        2989        2988
        2980        2981        2990        2989
        2981        2982        2991        2990
        2982        2983        2992        2991
        2983        2984        2993        2992
        2984        2985        2994        2993
        2985        2986        2995        2994
        2986        2987        2996        2995
        2997        2998        3007        3006
        2998        2999        3008        3007
        2999        3000        3009        3008
        3000        3001        3010        3009
        3001        3002        3011        3010
        3002        3003        3012        3011
        3003        3004        3013        3012
        3004        3005        3014        3013
        3006        3007        3016        3015
        3007        3008        3017        3016
        3008        3009        3018        3017
        3009        3010        3019        3018
        3010        3011        3020        3019
        3011        3012        3021        3020
        3012        3013        3022        3021
        3013        3014        3023        3022
        3015        3016        3025        3024
        3016        3017        3026        3025
        3017        3018        3027        3026
        3018        3019        3028        3027
        3019        3020        3029        3028
        3020        3021        3030        3029
        3021        3022        3031        3030
        3022        3023        3032        3031
        3024        3025        3034        3033
        3025        3026        3035        3034
        3026        3027        3036        3035
        3027        3028        3037        3036
        3028        3029        3038        3037
        3029        3030        3039        3038
        3030        3031        3040        3039
        3031        3032        3041        3040
        3033        3034        3043        3042
        3034        3035        3044        3043
        3035        3036        3045        3044
        3036        3037        3046        3045
        3037        3038        3047        3046
        3038        3039        3048        3047
        3039        3040        3049        3048
        3040        3041        3050        3049
        3042        3043        3052        3051
        3043        3044        3053        3052
        3044        3045        3054        3053
        3045        3046        3055        3054
        3046        3047        3056        3055
        3047        3048        3057        3056
        3048        3049        3058        3057
        3049        3050        3059        3058
        3051        3052        3061        3060
        3052        3053        3062        3061
        3053        3054        3063        3062
        3054        3055        3064        3063
        3055        3056        3065        3064
        3056        3057        3066        3065
        3057        3058        3067        3066
        3058        3059        3068        3067
        3060        3061        3070        3069
        3061        3062        3071        3070
        3062        3063        3072        3071
        3063        3064        3073        3072
        3064        3065        3074        3073
        3065        3066        3075        3074
        3066        3067        3076        3075
        3067        3068        3077        3076
        3078        3079        3088        3087
        3079        3080        3089        3088
        3080        3081        3090        3089
        3081        3082        3091        3090
        3082        3083        3092        3091
        3083        3084        3093        3092
        3084        3085        3094        3093
        3085        3086        3095        3094
        3087        3088        3097        3096
        3088        3089        3098        3097
        3089        3090        3099        3098
        3090        3091        3100        3099
        3091        3092        3101        3100
        3092        3093        3102        3101
        3093        3094        3103        3102
        3094        3095        3104        3103
        3096        3097        3106        3105
        3097        3098        3107        3106
        3098        3099        3108        3107
        3099        3100        3109        3108
        3100        3101        3110        3109
        3101        3102        3111        3110
        3102        3103        3112        3111
        3103        3104        3113        3112
        3105        3106        3115        3114
        3106        3107        3116        3115
        3107        3108        3117        3116
        3108        3109        3118        3117
        3109        3110        3119        3118
        3110        3111        3120        3119
        3111        3112        3121        3120
        3112        3113        3122        3121
        3114        3115        3124        3123
        3115        3116        3125        3124
        3116        3117        3126        3125
        3117        3118        3127        3126
        3118        3119        3128        3127
        3119        3120        3129        3128
        3120        3121        3130        3129
        3121        3122        3131        3130
        3123        3124        3133        3132
        3124        3125        3134        3133
        3125        3126        3135        3134
        3126        3127        3136        3135
        3127        3128        3137        3136
        3128        3129        3138        3137
        3129        3130        3139        3138
        3130        3131        3140        3139
        3132        3133        3142        3141
        3133        3134        3143        3142
        3134        3135        3144        3143
        3135        3136        3145        3144
        3136        3137        3146        3145
        3137        3138        3147        3146
        3138        3139        3148        3147
        3139        3140        3149        3148
        3141        3142        3151        3150
        3142        3143        3152        3151
        3143        3144        3153        3152
        3144        3145        3154        3153
        3145        3146        3155        3154
        3146        3147        3156        3155
        3147        3148        3157        3156
        3148        3149        3158        3157
        3159        3160        3169        3168
        3160        3161        3170        3169
        3161        3162        3171        3170
        3162        3163        3172        3171
        3163        3164        3173        3172
        3164        3165        3174        3173
        3165        3166        3175        3174
        3166        3167        3176        3175
        3168        3169        3178        3177
        3169        3170        3179        3178
        3170        3171        3180        3179
        3171        3172        3181        3180
        3172        3173        3182        3181
        3173        3174        3183        3182
        3174        3175        3184        3183
        3175        3176        3185        3184
        3177        3178        3187        3186
        3178        3179        3188        3187
        3179        3180        3189        3188
        3180        3181        3190        3189
        3181        3182        3191        3190
        3182        3183        3192        3191
        3183        3184        3193        3192
        3184        3185        3194        3193
        3186        3187        3196        3195
        3187        3188        3197        3196
        3188        3189        3198        3197
        3189        3190        3199        3198
        3190        3191        3200        3199
        3191        3192        3201        3200
        3192        3193        3202        3201
        3193        3194        3203        3202
        3195        3196        3205        3204
        3196        3197        3206        3205
        3197        3198        3207        3206
        3198        3199        3208        3207
        3199        3200        3209        3208
        3200        3201        3210        3209
        3201        3202        3211        3210
        3202        3203        3212        3211
        3204        3205        3214        3213
        3205        3206        3215        3214
        3206        3207        3216        3215
        3207        3208        3217        3216
        3208        3209        3218        3217
        3209        3210        3219        3218
        3210        3211        3220        3219
        3211        3212        3221        3220
        3213        3214        3223        3222
        3214        3215        3224        3223
        3215        3216        3225        3224
        3216        3217        3226        3225
        3217        3218        3227        3226
        3218        3219        3228        3227
        3219        3220        3229        3228
        3220        3221        3230        3229
        3222        3223        3232        3231
        3223        3224        3233        3232
        3224        3225        3234        3233
        3225        3226        3235        3234
        3226        3227        3236        3235
        3227        3228        3237        3236
        3228        3229        3238        3237
        3229        3230        3239        3238
        3240        3241        3250        3249
        3241        3242        3251        3250
        3242        3243        3252        3251
        3243        3244        3253        3252
        3244        3245        3254        3253
        3245        3246        3255        3254
        3246        3247        3256        3255
        3247        3248        3257        3256
        3249        3250        3259        3258
        3250        3251        3260        3259
        3251        3252        3261        3260
        3252        3253        3262        3261
        3253        3254        3263        3262
        3254        3255        3264        3263
        3255        3256        3265        3264
        3256        3257        3266        3265
        3258        3259        3268        3267
        3259        3260        3269        3268
        3260        3261        3270        3269
        3261        3262        3271        3270
        3262        3263        3272        3271
        3263        3264        3273        3272
        3264        3265        3274        3273
        3265        3266        3275        3274
        3267        3268        3277        3276
        3268        3269        3278        3277
        3269        3270        3279        3278
        3270        3271        3280        3279
        3271        3272        3281        3280
        3272        3273        3282        3281
        3273        3274        3283        3282
        3274        3275        3284        3283
        3276        3277        3286        3285
        3277        3278        3287        3286
        3278        3279        3288        3287
        3279        3280        3289        3288
        3280        3281        3290        3289
        3281        3282        3291        3290
        3282        3283        3292        3291
        3283        3284        3293        3292
        3285        3286        3295        3294
        3286        3287        3296        3295
        3287        3288        3297        3296
        3288        3289        3298        3297
        3289        3290        3299        3298
        3290        3291        3300        3299
        3291        3292        3301        3300
        3292        3293        3302        3301
        3294        3295        3304        3303
        3295        3296        3305        3304
        3296        3297        3306        3305
        3297        3298        3307        3306
        3298        3299        3308        3307
        3299        3300        3309        3308
        3300        3301        3310        3309
        3301        3302        3311        3310
        3303        3304        3313        3312
        3304        3305        3314        3313
        3305        3306        3315        3314
        3306        3307        3316        3315
        3307        3308        3317        3316
        3308        3309        3318        3317
        3309        3310        3319        3318
        3310        3311        3320        3319
        3321        3322        3331        3330
        3322        3323        3332        3331
        3323        3324        3333        3332
        3324        3325        3334        3333
        3325        3326        3335        3334
        3326        3327        3336        3335
        3327        3328        3337        3336
        3328        3329        3338        3337
        3330        3331        3340        3339
        3331        3332        3341        3340
        3332        3333        3342        3341
        3333        3334        3343        3342
        3334        3335        3344        3343
        3335        3336        3345        3344
        3336        3337        3346        3345
        3337        3338        3347        3346
        3339        3340        3349        3348
        3340        3341        3350        3349
        3341        3342        3351        3350
        3342        3343        3352        3351
        3343        3344        3353        3352
        3344        3345        3354        3353
        3345        3346        3355        3354
        3346        3347        3356        3355
        3348        3349        3358        3357
        3349        3350        3359        3358
        3350        3351        3360        3359
        3351        3352        3361        3360
        3352        3353        3362        3361
        3353        3354        3363        3362
        3354        3355        3364        3363
        3355        3356        3365        3364
        3357        3358        3367        3366
        3358        3359        3368        3367
        3359        3360        3369        3368
        3360        3361        3370        3369
        3361        3362        3371        3370
        3362        3363        3372        3371
        3363        3364        3373        3372
        3364        3365        3374        3373
        3366        3367        3376        3375
        3367        3368        3377        3376
        3368        3369        3378        3377
        3369        3370        3379        3378
        3370        3371        3380        3379
        3371        3372        3381        3380
        3372        3373        3382        3381
        3373        3374        3383        3382
        3375        3376        3385        3384
        3376        3377        3386        3385
        3377        3378        3387        3386
        3378        3379        3388        3387
        3379        3380        3389        3388
        3380        3381        3390        3389
        3381        3382        3391        3390
        3382        3383        3392        3391
        3384        3385        3394        3393
        3385        3386        3395        3394
        3386        3387        3396        3395
        3387        3388        3397        3396
        3388        3389        3398        3397
        3389        3390        3399        3398
        3390        3391        3400        3399
        3391        3392        3401        3400
        3402        3403        3412        3411
        3403        3404        3413        3412
        3404        3405        3414        3413
        3405        3406        3415        3414
        3406        3407        3416        3415
        3407        3408        3417        3416
        3408        3409        3418        3417
        3409        3410        3419        3418
        3411        3412        3421        3420
        3412        3413        3422        3421
        3413        3414        3423        3422
        3414        3415        3424        3423
        3415        3416        3425        3424
        3416        3417        3426        3425
        3417        3418        3427        3426
        3418        3419        3428        3427
        3420        3421        3430        3429
        3421        3422        3431        3430
        3422        3423        3432        3431
        3423        3424        3433        3432
        3424        3425        3434        3433
        3425        3426        3435        3434
        3426        3427        3436        3435
        3427        3428        3437        3436
        3429        3430        3439        3438
        3430        3431        3440        3439
        3431        3432        3441        3440
        3432        3433        3442        3441
        3433        3434        3443        3442
        3434        3435        3444        3443
        3435        3436        3445        3444
        3436        3437        3446        3445
        3438        3439        3448        3447
        3439        3440        3449        3448
        3440        3441        3450        3449
        3441        3442        3451        3450
        3442        3443        3452        3451
        3443        3444        3453        3452
        3444        3445        3454        3453
        3445        3446        3455        3454
        3447        3448        3457        3456
        3448        3449        3458        3457
        3449        3450        3459        3458
        3450        3451        3460        3459
        3451        3452        3461        3460
        3452        3453        3462        3461
        3453        3454        3463        3462
        3454        3455        3464        3463
        3456        3457        3466        3465
        3457        3458        3467        3466
        3458        3459        3468        3467
        3459        3460        3469        3468
        3460        3461        3470        3469
        3461        3462        3471        3470
        3462        3463        3472        3471
        3463        3464        3473        3472
        3465        3466        3475        3474
        3466        3467        3476        3475
        3467        3468        3477        3476
        3468        3469        3478        3477
        3469        3470        3479        3478
        3470        3471        3480        3479
        3471        3472        3481        3480
        3472        3473        3482        3481
        3483        3484        3493        3492
        3484        3485        3494        3493
        3485        3486        3495        3494
        3486        3487        3496        3495
        3487        3488        3497        3496
        3488        3489        3498        3497
        3489        3490        3499        3498
        3490        3491        3500        3499
        3492        3493        3502        3501
        3493        3494        3503        3502
        3494        3495        3504        3503
        3495        3496        3505        3504
        3496        3497        3506        3505
        3497        3498        3507        3506
        3498        3499        3508        3507
        3499        3500        3509        3508
        3501        3502        3511        3510
        3502        3503        3512        3511
        3503        3504        3513        3512
        3504        3505        3514        3513
        3505        3506        3515        3514
        3506        3507        3516        3515
        3507        3508        3517        3516
        3508        3509        3518        3517
        3510        3511        3520        3519
        3511        3512        3521        3520
        3512        3513        3522        3521
        3513        3514        3523        3522
        3514        3515        3524        3523
        3515        3516        3525        3524
        3516        3517        3526        3525
        3517        3518        3527        3526
        3519        3520        3529        3528
        3520        3521        3530        3529
        3521        3522        3531        3530
        3522        3523        3532        3531
        3523        3524        3533        3532
        3524        3525        3534        3533
        3525        3526        3535        3534
        3526        3527        3536        3535
        3528        3529        3538        3537
        3529        3530        3539        3538
        3530        3531        3540        3539
        3531        3532        3541        3540
        3532        3533        3542        3541
        3533        3534        3543        3542
        3534        3535        3544        3543
        3535        3536        3545        3544
        3537        3538        3547        3546
        3538        3539        3548        3547
        3539        3540        3549        3548
        3540        3541        3550        3549
        3541        3542        3551        3550
        3542        3543        3552        3551
        3543        3544        3553        3552
        3544        3545        3554        3553
        3546        3547        3556        3555
        3547        3548        3557        3556
        3548        3549        3558        3557
        3549        3550        3559        3558
        3550        3551        3560        3559
        3551        3552        3561        3560
        3552        3553        3562        3561
        3553        3554        3563        3562
        3564        3565        3574        3573
        3565        3566        3575        3574
        3566        3567        3576        3575
        3567        3568        3577        3576
        3568        3569        3578        3577
        3569        3570        3579        3578
        3570        3571        3580        3579
        3571        3572        3581        3580
        3573        3574        3583        3582
        3574        3575        3584        3583
        3575        3576        3585        3584
        3576        3577        3586        3585
        3577        3578        3587        3586
        3578        3579        3588        3587
        3579        3580        3589        3588
        3580        3581        3590        3589
        3582        3583        3592        3591
        3583        3584        3593        3592
        3584        3585        3594        3593
        3585        3586        3595        3594
        3586        3587        3596        3595
        3587        3588        3597        3596
        3588        3589        3598        3597
        3589        3590        3599        3598
        3591        3592        3601        3600
        3592        3593        3602        3601
        3593        3594        3603        3602
        3594        3595        3604        3603
        3595        3596        3605        3604
        3596        3597        3606        3605
        3597        3598        3607        3606
        3598        3599        3608        3607
        3600        3601        3610        3609
        3601        3602        3611        3610
        3602        3603        3612        3611
        3603        3604        3613        3612
        3604        3605        3614        3613
        3605        3606        3615        3614
        3606        3607        3616        3615
        3607        3608        3617        3616
        3609        3610        3619        3618
        3610        3611        3620        3619
        3611        3612        3621        3620
        3612        3613        3622        3621
        3613        3614        3623        3622
        3614        3615        3624        3623
        3615        3616        3625        3624
        3616        3617        3626        3625
        3618        3619        3628        3627
        3619        3620        3629        3628
        3620        3621        3630        3629
        3621        3622        3631        3630
        3622        3623        3632        3631
        3623        3624        3633        3632
        3624        3625        3634        3633
        3625        3626        3635        3634
        3627        3628        3637        3636
        3628        3629        3638        3637
        3629        3630        3639        3638
        3630        3631        3640        3639
        3631        3632        3641        3640
        3632        3633        3642        3641
        3633        3634        3643        3642
        3634        3635        3644        3643
        3645        3646        3655        3654
        3646        3647        3656        3655
        3647        3648        3657        3656
        3648        3649        3658        3657
        3649        3650        3659        3658
        3650        3651        3660        3659
        3651        3652        3661        3660
        3652        3653        3662        3661
        3654        3655        3664        3663
        3655        3656        3665        3664
        3656        3657        3666        3665
        3657        3658        3667        3666
        3658        3659        3668        3667
        3659        3660        3669        3668
        3660        3661        3670        3669
        3661        3662        3671        3670
        3663        3664        3673        3672
        3664        3665        3674        3673
        3665        3666        3675        3674
        3666        3667        3676        3675
        3667        3668        3677        3676
        3668        3669        3678        3677
        3669        3670        3679        3678
        3670        3671        3680        3679
        3672        3673        3682        3681
        3673        3674        3683        3682
        3674        3675        3684        3683
        3675        3676        3685        3684
        3676        3677        3686        3685
        3677        3678        3687        3686
        3678        3679        3688        3687
        3679        3680        3689        3688
        3681        3682        3691        3690
        3682        3683        3692        3691
        3683        3684        3693        3692
        3684        3685        3694        3693
        3685        3686        3695        3694
        3686        3687        3696        3695
        3687        3688        3697        3696
        3688        3689        3698        3697
        3690        3691        3700        3699
        3691        3692        3701        3700
        3692        3693        3702        3701
        3693        3694        3703        3702
        3694        3695        3704        3703
        3695        3696        3705        3704
        3696        3697        3706        3705
        3697        3698        3707        3706
        3699        3700        3709        3708
        3700        3701        3710        3709
        3701        3702        3711        3710
        3702        3703        3712        3711
        3703        3704        3713        3712
        3704        3705        3714        3713
        3705        3706        3715        3714
        3706        3707        3716        3715
        3708        3709        3718        3717
        3709        3710        3719        3718
        3710        3711        3720        3719
        3711        3712        3721        3720
        3712        3713        3722        3721
        3713        3714        3723        3722
        3714        3715        3724        3723
        3715        3716        3725        3724
        3726        3727        3736        3735
        3727        3728        3737        3736
        3728        3729        3738        3737
        3729        3730        3739        3738
        3730        3731        3740        3739
        3731        3732        3741        3740
        3732        3733        3742        3741
        3733        3734        3743        3742
        3735        3736        3745        3744
        3736        3737        3746        3745
        3737        3738        3747        3746
        3738        3739        3748        3747
        3739        3740        3749        3748
        3740        3741        3750        3749
        3741        3742        3751        3750
        3742        3743        3752        3751
        3744        3745        3754        3753
        3745        3746        3755        3754
        3746        3747        3756        3755
        3747        3748        3757        3756
        3748        3749        3758        3757
        3749        3750        3759        3758
        3750        3751        3760        3759
        3751        3752        3761        3760
        3753        3754        3763        3762
        3754        3755        3764        3763
        3755        3756        3765        3764
        3756        3757        3766        3765
        3757        3758        3767        3766
        3758        3759        3768        3767
        3759        3760        3769        3768
        3760        3761        3770        3769
        3762        3763        3772        3771
        3763        3764        3773        3772
        3764        3765        3774        3773
        3765        3766        3775        3774
        3766        3767        3776        3775
        3767        3768        3777        3776
        3768        3769        3778        3777
        3769        3770        3779        3778
        3771        3772        3781        3780
        3772        3773        3782        3781
        3773        3774        3783        3782
        3774        3775        3784        3783
        3775        3776        3785        3784
        3776        3777        3786        3785
        3777        3778        3787        3786
        3778        3779        3788        3787
        3780        3781        3790        3789
        3781        3782        3791        3790
        3782        3783        3792        3791
        3783        3784        3793        3792
        3784        3785        3794        3793
        3785        3786        3795        3794
        3786        3787        3796        3795
        3787        3788        3797        3796
        3789        3790        3799        3798
        3790        3791        3800        3799
        3791        3792        3801        3800
        3792        3793        3802        3801
        3793        3794        3803        3802
        3794        3795        3804        3803
        3795        3796        3805        3804
        3796        3797        3806        3805
        3807        3808        3817        3816
        3808        3809        3818        3817
        3809        3810        3819        3818
        3810        3811        3820        3819
        3811        3812        3821        3820
        3812        3813        3822        3821
        3813        3814        3823        3822
        3814        3815        3824        3823
        3816        3817        3826        3825
        3817        3818        3827        3826
        3818        3819        3828        3827
        3819        3820        3829        3828
        3820        3821        3830        3829
        3821        3822        3831        3830
        3822        3823        3832        3831
        3823        3824        3833        3832
        3825        3826        3835        3834
        3826        3827        3836        3835
        3827        3828        3837        3836
        3828        3829        3838        3837
        3829        3830        3839        3838
        3830        3831        3840        3839
        3831        3832        3841        3840
        3832        3833        3842        3841
        3834        3835        3844        3843
        3835        3836        3845        3844
        3836        3837        3846        3845
        3837        3838        3847        3846
        3838        3839        3848        3847
        3839        3840        3849        3848
        3840        3841        3850        3849
        3841        3842        3851        3850
        3843        3844        3853        3852
        3844        3845        3854        3853
        3845        3846        3855        3854
        3846        3847        3856        3855
        3847        3848        3857        3856
        3848        3849        3858        3857
        3849        3850        3859        3858
        3850        3851        3860        3859
        3852        3853        3862        3861
        3853        3854        3863        3862
        3854        3855        3864        3863
        3855        3856        3865        3864
        3856        3857        3866        3865
        3857        3858        3867        3866
        3858        3859        3868        3867
        3859        3860        3869        3868
        3861        3862        3871        3870
        3862        3863        3872        3871
        3863        3864        3873        3872
        3864        3865        3874        3873
        3865        3866        3875        3874
        3866        3867        3876        3875
        3867        3868        3877        3876
        3868        3869        3878        3877
        3870        3871        3880        3879
        3871        3872        3881        3880
        3872        3873        3882        3881
        3873        3874        3883        3882
        3874        3875        3884        3883
        3875        3876        3885        3884
        3876        3877        3886        3885
        3877        3878        3887        3886
        3888        3889        3898        3897
        3889        3890        3899        3898
        3890        3891        3900        3899
        3891        3892        3901        3900
        3892        3893        3902        3901
        3893        3894        3903        3902
        3894        3895        3904        3903
        3895        3896        3905        3904
        3897        3898        3907        3906
        3898        3899        3908        3907
        3899        3900        3909        3908
        3900        3901        3910        3909
        3901        3902        3911        3910
        3902        3903        3912        3911
        3903        3904        3913        3912
        3904        3905        3914        3913
        3906        3907        3916        3915
        3907        3908        3917        3916
        3908        3909        3918        3917
        3909        3910        3919        3918
        3910        3911        3920        3919
        3911        3912        3921        3920
        3912        3913        3922        3921
        3913        3914        3923        3922
        3915        3916        3925        3924
        3916        3917        3926        3925
        3917        3918        3927        3926
        3918        3919        3928        3927
        3919        3920        3929        3928
        3920        3921        3930        3929
        3921        3922        3931        3930
        3922        3923        3932        3931
        3924        3925        3934        3933
        3925        3926        3935        3934
        3926        3927        3936        3935
        3927        3928        3937        3936
        3928        3929        3938        3937
        3929        3930        3939        3938
        3930        3931        3940        3939
        3931        3932        3941        3940
        3933        3934        3943        3942
        3934        3935        3944        3943
        3935        3936        3945        3944
        3936        3937        3946        3945
        3937        3938        3947        3946
        3938        3939        3948        3947
        3939        3940        3949        3948
        3940        3941        3950        3949
        3942        3943        3952        3951
        3943        3944        3953        3952
        3944        3945        3954        3953
        3945        3946        3955        3954
        3946        3947        3956        3955
        3947        3948        3957        3956
        3948        3949        3958        3957
        3949        3950        3959        3958
        3951        3952        3961        3960
        3952        3953        3962        3961
        3953        3954        3963        3962
        3954        3955        3964        3963
        3955        3956        3965        3964
        3956        3957        3966        3965
        3957        3958        3967        3966
        3958        3959        3968        3967
        3969        3970        3979        3978
        3970        3971        3980        3979
        3971        3972        3981        3980
        3972        3973        3982        3981
        3973        3974        3983        3982
        3974        3975        3984        3983
        3975        3976        3985        3984
        3976        3977        3986        3985
        3978        3979        3988        3987
        3979        3980        3989        3988
        3980        3981        3990        3989
        3981        3982        3991        3990
        3982        3983        3992        3991
        3983        3984        3993        3992
        3984        3985        3994        3993
        3985        3986        3995        3994
        3987        3988        3997        3996
        3988        3989        3998        3997
        3989        3990        3999        3998
        3990        3991        4000        3999
        3991        3992        4001        4000
        3992        3993        4002        4001
        3993        3994        4003        4002
        3994        3995        4004        4003
        3996        3997        4006        4005
        3997        3998        4007        4006
        3998        3999        4008        4007
        3999        4000        4009        4008
        4000        4001        4010        4009
        4001        4002        4011        4010
        4002        4003        4012        4011
        4003        4004        4013        4012
        4005        4006        4015        4014
        4006        4007        4016        4015
        4007        4008        4017        4016
        4008        4009        4018        4017
        4009        4010        4019        4018
        4010        4011        4020        4019
        4011        4012        4021        4020
        4012        4013        4022        4021
        4014        4015        4024        4023
        4015        4016        4025        4024
        4016        4017        4026        4025
        4017        4018        4027        4026
        4018        4019        4028        4027
        4019        4020        4029        4028
        4020        4021        4030        4029
        4021        4022        4031        4030
        4023        4024        4033        4032
        4024        4025        4034        4033
        4025        4026        4035        4034
        4026        4027        4036        4035
        4027        4028        4037        4036
        4028        4029        4038        4037
        4029        4030        4039        4038
        4030        4031        4040        4039
        4032        4033        4042        4041
        4033        4034        4043        4042
        4034        4035        4044        4043
        4035        4036        4045        4044
        4036        4037        4046        4045
        4037        4038        4047        4046
        4038        4039        4048        4047
        4039        4040        4049        4048
        4050        4051        4060        4059
        4051        4052        4061        4060
        4052        4053        4062        4061
        4053        4054        4063        4062
        4054        4055        4064        4063
        4055        4056        4065        4064
        4056        4057        4066        4065
        4057        4058        4067        4066
        4059        4060        4069        4068
        4060        4061        4070        4069
        4061        4062        4071        4070
        4062        4063        4072        4071
        4063        4064        4073        4072
        4064        4065        4074        4073
        4065        4066        4075        4074
        4066        4067        4076        4075
        4068        4069        4078        4077
        4069        4070        4079        4078
        4070        4071        4080        4079
        4071        4072        4081        4080
        4072        4073        4082        4081
        4073        4074        4083        4082
        4074        4075        4084        4083
        4075        4076        4085        4084
        4077        4078        4087        4086
        4078        4079        4088        4087
        4079        4080        4089        4088
        4080        4081        4090        4089
        4081        4082        4091        4090
        4082        4083        4092        4091
        4083        4084        4093        4092
        4084        4085        4094        4093
        4086        4087        4096        4095
        4087        4088        4097        4096
        4088        4089        4098        4097
        4089        4090        4099        4098
        4090        4091        4100        4099
        4091        4092        4101        4100
        4092        4093        4102        4101
        4093        4094        4103        4102
        4095        4096        4105        4104
        4096        4097        4106        4105
        4097        4098        4107        4106
        4098        4099        4108        4107
        4099        4100        4109        4108
        4100        4101        4110        4109
        4101        4102        4111        4110
        4102        4103        4112        4111
        4104        4105        4114        4113
        4105        4106        4115        4114
        4106        4107        4116        4115
        4107        4108        4117        4116
        4108        4109        4118        4117
        4109        4110        4119        4118
        4110        4111        4120        4119
        4111        4112        4121        4120
        4113        4114        4123        4122
        4114        4115        4124        4123
        4115        4116        4125        4124
        4116        4117        4126        4125
        4117        4118        4127        4126
        4118        4119        4128        4127
        4119        4120        4129        4128
        4120        4121        4130        4129
        4131        4132        4141        4140
        4132        4133        4142        4141
        4133        4134        4143        4142
        4134        4135        4144        4143
        4135        4136        4145        4144
        4136        4137        4146        4145
        4137        4138        4147        4146
        4138        4139        4148        4147
        4140        4141        4150        4149
        4141        4142        4151        4150
        4142        4143        4152        4151
        4143        4144        4153        4152
        4144        4145        4154        4153
        4145        4146        4155        4154
        4146        4147        4156        4155
        4147        4148        4157        4156
        4149        4150        4159        4158
        4150        4151        4160        4159
        4151        4152        4161        4160
        4152        4153        4162        4161
        4153        4154        4163        4162
        4154        4155        4164        4163
        4155        4156        4165        4164
        4156        4157        4166        4165
        4158        4159        4168        4167
        4159        4160        4169        4168
        4160        4161        4170        4169
        4161        4162        4171        4170
        4162        4163        4172        4171
        4163        4164        4173        4172
        4164        4165        4174        4173
        4165        4166        4175        4174
        4167        4168        4177        4176
        4168        4169        4178        4177
        4169        4170        4179        4178
        4170        4171        4180        4179
        4171        4172        4181        4180
        4172        4173        4182        4181
        4173        4174        4183        4182
        4174        4175        4184        4183
        4176        4177        4186        4185
        4177        4178        4187        4186
        4178        4179        4188        4187
        4179        4180        4189        4188
        4180        4181        4190        4189
        4181        4182        4191        4190
        4182        4183        4192        4191
        4183        4184        4193        4192
        4185        4186        4195        4194
        4186        4187        4196        4195
        4187        4188        4197        4196
        4188        4189        4198        4197
        4189        4190        4199        4198
        4190        4191        4200        4199
        4191        4192        4201        4200
        4192        4193        4202        4201
        4194        4195        4204        4203
        4195        4196        4205        4204
        4196        4197        4206        4205
        4197        4198        4207        4206
        4198        4199        4208        4207
        4199        4200        4209        4208
        4200        4201        4210        4209
        4201        4202        4211        4210
        4212        4213        4222        4221
        4213        4214        4223        4222
        4214        4215        4224        4223
        4215        4216        4225        4224
        4216        4217        4226        4225
        4217        4218        4227        4226
        4218        4219        4228        4227
        4219        4220        4229        4228
        4221        4222        4231        4230
        4222        4223        4232        4231
        4223        4224        4233        4232
        4224        4225        4234        4233
        4225        4226        4235        4234
        4226        4227        4236        4235
        4227        4228        4237        4236
        4228        4229        4238        4237
        4230        4231        4240        4239
        4231        4232        4241        4240
        4232        4233        4242        4241
        4233        4234        4243        4242
        4234        4235        4244        4243
        4235        4236        4245        4244
        4236        4237        4246        4245
        4237        4238        4247        4246
        4239        4240        4249        4248
        4240        4241        4250        4249
        4241        4242        4251        4250
        4242        4243        4252        4251
        4243        4244        4253        4252
        4244        4245        4254        4253
        4245        4246        4255        4254
        4246        4247        4256        4255
        4248        4249        4258        4257
        4249        4250        4259        4258
        4250        4251        4260        4259
        4251        4252        4261        4260
        4252        4253        4262        4261
        4253        4254        4263        4262
        4254        4255        4264        4263
        4255        4256        4265        4264
        4257        4258        4267        4266
        4258        4259        4268        4267
        4259        4260        4269        4268
        4260        4261        4270        4269
        4261        4262        4271        4270
        4262        4263        4272        4271
        4263        4264        4273        4272
        4264        4265        4274        4273
        4266        4267        4276        4275
        4267        4268        4277        4276
        4268        4269        4278        4277
        4269        4270        4279        4278
        4270        4271        4280        4279
        4271        4272        4281        4280
        4272        4273        4282        4281
        4273        4274        4283        4282
        4275        4276        4285        4284
        4276        4277        4286        4285
        4277        4278        4287        4286
        4278        4279        4288        4287
        4279        4280        4289        4288
        4280        4281        4290        4289
        4281        4282        4291        4290
        4282        4283        4292        4291
        4293        4294        4303        4302
        4294        4295        4304        4303
        4295        4296        4305        4304
        4296        4297        4306        4305
        4297        4298        4307        4306
        4298        4299        4308        4307
        4299        4300        4309        4308
        4300        4301        4310        4309
        4302        4303        4312        4311
        4303        4304        4313        4312
        4304        4305        4314        4313
        4305        4306        4315        4314
        4306        4307        4316        4315
        4307        4308        4317        4316
        4308        4309        4318        4317
        4309        4310        4319        4318
        4311        4312        4321        4320
        4312        4313        4322        4321
        4313        4314        4323        4322
        4314        4315        4324        4323
        4315        4316        4325        4324
        4316        4317        4326        4325
        4317        4318        4327        4326
        4318        4319        4328        4327
        4320        4321        4330        4329
        4321        4322        4331        4330
        4322        4323        4332        4331
        4323        4324        4333        4332
        4324        4325        4334        4333
        4325        4326        4335        4334
        4326        4327        4336        4335
        4327        4328        4337        4336
        4329        4330        4339        4338
        4330        4331        4340        4339
        4331        4332        4341        4340
        4332        4333        4342        4341
        4333        4334        4343        4342
        4334        4335        4344        4343
        4335        4336        4345        4344
        4336        4337        4346        4345
        4338        4339        4348        4347
        4339        4340        4349        4348
        4340        4341        4350        4349
        4341        4342        4351        4350
        4342        4343        4352        4351
        4343        4344        4353        4352
        4344        4345        4354        4353
        4345        4346        4355        4354
        4347        4348        4357        4356
        4348        4349        4358        4357
        4349        4350        4359        4358
        4350        4351        4360        4359
        4351        4352        4361        4360
        4352        4353        4362        4361
        4353        4354        4363        4362
        4354        4355        4364        4363
        4356        4357        4366        4365
        4357        4358        4367        4366
        4358        4359        4368        4367
        4359        4360        4369        4368
        4360        4361        4370        4369
        4361        4362        4371        4370
        4362        4363        4372        4371
        4363        4364        4373        4372
        4374        4375        4384        4383
        4375        4376        4385        4384
        4376        4377        4386        4385
        4377        4378        4387        4386
        4378        4379        4388        4387
        4379        4380        4389        4388
        4380        4381        4390        4389
        4381        4382        4391        4390
        4383        4384        4393        4392
        4384        4385        4394        4393
        4385        4386        4395        4394
        4386        4387        4396        4395
        4387        4388        4397        4396
        4388        4389        4398        4397
        4389        4390        4399        4398
        4390        4391        4400        4399
        4392        4393        4402        4401
        4393        4394        4403        4402
        4394        4395        4404        4403
        4395        4396        4405        4404
        4396        4397        4406        4405
        4397        4398        4407        4406
        4398        4399        4408        4407
        4399        4400        4409        4408
        4401        4402        4411        4410
        4402        4403        4412        4411
        4403        4404        4413        4412
        4404        4405        4414        4413
        4405        4406        4415        4414
        4406        4407        4416        4415
        4407        4408        4417        4416
        4408        4409        4418        4417
        4410        4411        4420        4419
        4411        4412        4421        4420
        4412        4413        4422        4421
        4413        4414        4423        4422
        4414        4415        4424        4423
        4415        4416        4425        4424
        4416        4417        4426        4425
        4417        4418        4427        4426
        4419        4420        4429        4428
        4420        4421        4430        4429
        4421        4422        4431        4430
        4422        4423        4432        4431
        4423        4424        4433        4432
        4424        4425        4434        4433
        4425        4426        4435        4434
        4426        4427        4436        4435
        4428        4429        4438        4437
        4429        4430        4439        4438
        4430        4431        4440        4439
        4431        4432        4441        4440
        4432        4433        4442        4441
        4433        4434        4443        4442
        4434        4435        4444        4443
        4435        4436        4445        4444
        4437        4438        4447        4446
        4438        4439        4448        4447
        4439        4440        4449        4448
        4440        4441        4450        4449
        4441        4442        4451        4450
        4442        4443        4452        4451
        4443        4444        4453        4452
        4444        4445        4454        4453
        4455        4456        4465        4464
        4456        4457        4466        4465
        4457        4458        4467        4466
        4458        4459        4468        4467
        4459        4460        4469        4468
        4460        4461        4470        4469
        4461        4462        4471        4470
        4462        4463        4472        4471
        4464        4465        4474        4473
        4465        4466        4475        4474
        4466        4467        4476        4475
        4467        4468        4477        4476
        4468        4469        4478        4477
        4469        4470        4479        4478
        4470        4471        4480        4479
        4471        4472        4481        4480
        4473        4474        4483        4482
        4474        4475        4484        4483
        4475        4476        4485        4484
        4476        4477        4486        4485
        4477        4478        4487        4486
        4478        4479        4488        4487
        4479        4480        4489        4488
        4480        4481        4490        4489
        4482        4483        4492        4491
        4483        4484        4493        4492
        4484        4485        4494        4493
        4485        4486        4495        4494
        4486        4487        4496        4495
        4487        4488        4497        4496
        4488        4489        4498        4497
        4489        4490        4499        4498
        4491        4492        4501        4500
        4492        4493        4502        4501
        4493        4494        4503        4502
        4494        4495        4504        4503
        4495        4496        4505        4504
        4496        4497        4506        4505
        4497        4498        4507        4506
        4498        4499        4508        4507
        4500        4501        4510        4509
        4501        4502        4511        4510
        4502        4503        4512        4511
        4503        4504        4513        4512
        4504        4505        4514        4513
        4505        4506        4515        4514
        4506        4507        4516        4515
        4507        4508        4517        4516
        4509        4510        4519        4518
        4510        4511        4520        4519
        4511        4512        4521        4520
        4512        4513        4522        4521
        4513        4514        4523        4522
        4514        4515        4524        4523
        4515        4516        4525        4524
        4516        4517        4526        4525
        4518        4519        4528        4527
        4519        4520        4529        4528
        4520        4521        4530        4529
        4521        4522        4531        4530
        4522        4523        4532        4531
        4523        4524        4533        4532
        4524        4525        4534        4533
        4525        4526        4535        4534
        4536        4537        4546        4545
        4537        4538        4547        4546
        4538        4539        4548        4547
        4539        4540        4549        4548
        4540        4541        4550        4549
        4541        4542        4551        4550
        4542        4543        4552        4551
        4543        4544        4553        4552
        4545        4546        4555        4554
        4546        4547        4556        4555
        4547        4548        4557        4556
        4548        4549        4558        4557
        4549        4550        4559        4558
        4550        4551        4560        4559
        4551        4552        4561        4560
        4552        4553        4562        4561
        4554        4555        4564        4563
        4555        4556        4565        4564
        4556        4557        4566        4565
        4557        4558        4567        4566
        4558        4559        4568        4567
        4559        4560        4569        4568
        4560        4561        4570        4569
        4561        4562        4571        4570
        4563        4564        4573        4572
        4564        4565        4574        4573
        4565        4566        4575        4574
        4566        4567        4576        4575
        4567        4568        4577        4576
        4568        4569        4578        4577
        4569        4570        4579        4578
        4570        4571        4580        4579
        4572        4573        4582        4581
        4573        4574        4583        4582
        4574        4575        4584        4583
        4575        4576        4585        4584
        4576        4577        4586        4585
        4577        4578        4587        4586
        4578        4579        4588        4587
        4579        4580        4589        4588
        4581        4582        4591        4590
        4582        4583        4592        4591
        4583        4584        4593        4592
        4584        4585        4594        4593
        4585        4586        4595        4594
        4586        4587        4596        4595
        4587        4588        4597        4596
        4588        4589        4598        4597
        4590        4591        4600        4599
        4591        4592        4601        4600
        4592        4593        4602        4601
        4593        4594        4603        4602
        4594        4595        4604        4603
        4595        4596        4605        4604
        4596        4597        4606        4605
        4597        4598        4607        4606
        4599        4600        4609        4608
        4600        4601        4610        4609
        4601        4602        4611        4610
        4602        4603        4612        4611
        4603        4604        4613        4612
        4604        4605        4614        4613
        4605        4606        4615        4614
        4606        4607        4616        4615
        4617        4618        4627        4626
        4618        4619        4628        4627
        4619        4620        4629        4628
        4620        4621        4630        4629
        4621        4622        4631        4630
        4622        4623        4632        4631
        4623        4624        4633        4632
        4624        4625        4634        4633
        4626        4627        4636        4635
        4627        4628        4637        4636
        4628        4629        4638        4637
        4629        4630        4639        4638
        4630        4631        4640        4639
        4631        4632        4641        4640
        4632        4633        4642        4641
        4633        4634        4643        4642
        4635        4636        4645        4644
        4636        4637        4646        4645
        4637        4638        4647        4646
        4638        4639        4648        4647
        4639        4640        4649        4648
        4640        4641        4650        4649
        4641        4642        4651        4650
        4642        4643        4652        4651
        4644        4645        4654        4653
        4645        4646        4655        4654
        4646        4647        4656        4655
        4647        4648        4657        4656
        4648        4649        4658        4657
        4649        4650        4659        4658
        4650        4651        4660        4659
        4651        4652        4661        4660
        4653        4654        4663        4662
        4654        4655        4664        4663
        4655        4656        4665        4664
        4656        4657        4666        4665
        4657        4658        4667        4666
        4658        4659        4668        4667
        4659        4660        4669        4668
        4660        4661        4670        4669
        4662        4663        4672        4671
        4663        4664        4673        4672
        4664        4665        4674        4673
        4665        4666        4675        4674
        4666        4667        4676        4675
        4667        4668        4677        4676
        4668        4669        4678        4677
        4669        4670        4679        4678
        4671        4672        4681        4680
        4672        4673        4682        4681
        4673        4674        4683        4682
        4674        4675        4684        4683
        4675        4676        4685        4684
        4676        4677        4686        4685
        4677        4678        4687        4686
        4678        4679        4688        4687
        4680        4681        4690        4689
        4681        4682        4691        4690
        4682        4683        4692        4691
        4683        4684        4693        4692
        4684        4685        4694        4693
        4685        4686        4695        4694
        4686        4687        4696        4695
        4687        4688        4697        4696
        4698        4699        4708        4707
        4699        4700        4709        4708
        4700        4701        4710        4709
        4701        4702        4711        4710
        4702        4703        4712        4711
        4703        4704        4713        4712
        4704        4705        4714        4713
        4705        4706        4715        4714
        4707        4708        4717        4716
        4708        4709        4718        4717
        4709        4710        4719        4718
        4710        4711        4720        4719
        4711        4712        4721        4720
        4712        4713        4722        4721
        4713        4714        4723        4722
        4714        4715        4724        4723
        4716        4717        4726        4725
        4717        4718        4727        4726
        4718        4719        4728        4727
        4719        4720        4729        4728
        4720        4721        4730        4729
        4721        4722        4731        4730
        4722        4723        4732        4731
        4723        4724        4733        4732
        4725        4726        4735        4734
        4726        4727        4736        4735
        4727        4728        4737        4736
        4728        4729        4738        4737
        4729        4730        4739        4738
        4730        4731        4740        4739
        4731        4732        4741        4740
        4732        4733        4742        4741
        4734        4735        4744        4743
        4735        4736        4745        4744
        4736        4737        4746        4745
        4737        4738        4747        4746
        4738        4739        4748        4747
        4739        4740        4749        4748
        4740        4741        4750        4749
        4741        4742        4751        4750
        4743        4744        4753        4752
        4744        4745        4754        4753
        4745        4746        4755        4754
        4746        4747        4756        4755
        4747        4748        4757        4756
        4748        4749        4758        4757
        4749        4750        4759        4758
        4750        4751        4760        4759
        4752        4753        4762        4761
        4753        4754        4763        4762
        4754        4755        4764        4763
        4755        4756        4765        4764
        4756        4757        4766        4765
        4757        4758        4767        4766
        4758        4759        4768        4767
        4759        4760        4769        4768
        4761        4762        4771        4770
        4762        4763        4772        4771
        4763        4764        4773        4772
        4764        4765        4774        4773
        4765        4766        4775        4774
        4766        4767        4776        4775
        4767        4768        4777        4776
        4768        4769        4778        4777
        4779        4780        4789        4788
        4780        4781        4790        4789
        4781        4782        4791        4790
        4782        4783        4792        4791
        4783        4784        4793        4792
        4784        4785        4794        4793
        4785        4786        4795        4794
        4786        4787        4796        4795
        4788        4789        4798        4797
        4789        4790        4799        4798
        4790        4791        4800        4799
        4791        4792        4801        4800
        4792        4793        4802        4801
        4793        4794        4803        4802
        4794        4795        4804        4803
        4795        4796        4805        4804
        4797        4798        4807        4806
        4798        4799        4808        4807
        4799        4800        4809        4808
        4800        4801        4810        4809
        4801        4802        4811        4810
        4802        4803        4812        4811
        4803        4804        4813        4812
        4804        4805        4814        4813
        4806        4807        4816        4815
        4807        4808        4817        4816
        4808        4809        4818        4817
        4809        4810        4819        4818
        4810        4811        4820        4819
        4811        4812        4821        4820
        4812        4813        4822        4821
        4813        4814        4823        4822
        4815        4816        4825        4824
        4816        4817        4826        4825
        4817        4818        4827        4826
        4818        4819        4828        4827
        4819        4820        4829        4828
        4820        4821        4830        4829
        4821        4822        4831        4830
        4822        4823        4832        4831
        4824        4825        4834        4833
        4825        4826        4835        4834
        4826        4827        4836        4835
        4827        4828        4837        4836
        4828        4829        4838        4837
        4829        4830        4839        4838
        4830        4831        4840        4839
        4831        4832        4841        4840
        4833        4834        4843        4842
        4834        4835        4844        4843
        4835        4836        4845        4844
        4836        4837        4846        4845
        4837        4838        4847        4846
        4838        4839        4848        4847
        4839        4840        4849        4848
        4840        4841        4850        4849
        4842        4843        4852        4851
        4843        4844        4853        4852
        4844        4845        4854        4853
        4845        4846        4855        4854
        4846        4847        4856        4855
        4847        4848        4857        4856
        4848        4849        4858        4857
        4849        4850        4859        4858
        4860        4861        4870        4869
        4861        4862        4871        4870
        4862        4863        4872        4871
        4863        4864        4873        4872
        4864        4865        4874        4873
        4865        4866        4875        4874
        4866        4867        4876        4875
        4867        4868        4877        4876
        4869        4870        4879        4878
        4870        4871        4880        4879
        4871        4872        4881        4880
        4872        4873        4882        4881
        4873        4874        4883        4882
        4874        4875        4884        4883
        4875        4876        4885        4884
        4876        4877        4886        4885
        4878        4879        4888        4887
        4879        4880        4889        4888
        4880        4881        4890        4889
        4881        4882        4891        4890
        4882        4883        4892        4891
        4883        4884        4893        4892
        4884        4885        4894        4893
        4885        4886        4895        4894
        4887        4888        4897        4896
        4888        4889        4898        4897
        4889        4890        4899        4898
        4890        4891        4900        4899
        4891        4892        4901        4900
        4892        4893        4902        4901
        4893        4894        4903        4902
        4894        4895        4904        4903
        4896        4897        4906        4905
        4897        4898        4907        4906
        4898        4899        4908        4907
        4899        4900        4909        4908
        4900        4901        4910        4909
        4901        4902        4911        4910
        4902        4903        4912        4911
        4903        4904        4913        4912
        4905        4906        4915        4914
        4906        4907        4916        4915
        4907        4908        4917        4916
        4908        4909        4918        4917
        4909        4910        4919        4918
        4910        4911        4920        4919
        4911        4912        4921        4920
        4912        4913        4922        4921
        4914        4915        4924        4923
        4915        4916        4925        4924
        4916        4917        4926        4925
        4917        4918        4927        4926
        4918        4919        4928        4927
        4919        4920        4929        4928
        4920        4921        4930        4929
        4921        4922        4931        4930
        4923        4924        4933        4932
        4924        4925        4934        4933
        4925        4926        4935        4934
        4926        4927        4936        4935
        4927        4928        4937        4936
        4928        4929        4938        4937
        4929        4930        4939        4938
        4930        4931        4940        4939
        4941        4942        4951        4950
        4942        4943        4952        4951
        4943        4944        4953        4952
        4944        4945        4954        4953
        4945        4946        4955        4954
        4946        4947        4956        4955
        4947        4948        4957        4956
        4948        4949        4958        4957
        4950        4951        4960        4959
        4951        4952        4961        4960
        4952        4953        4962        4961
        4953        4954        4963        4962
        4954        4955        4964        4963
        4955        4956        4965        4964
        4956        4957        4966        4965
        4957        4958        4967        4966
        4959        4960        4969        4968
        4960        4961        4970        4969
        4961        4962        4971        4970
        4962        4963        4972        4971
        4963        4964        4973        4972
        4964        4965        4974        4973
        4965        4966        4975        4974
        4966        4967        4976        4975
        4968        4969        4978        4977
        4969        4970        4979        4978
        4970        4971        4980        4979
        4971        4972        4981        4980
        4972        4973        4982        4981
        4973        4974        4983        4982
        4974        4975        4984        4983
        4975        4976        4985        4984
        4977        4978        4987        4986
        4978        4979        4988        4987
        4979        4980        4989        4988
        4980        4981        4990        4989
        4981        4982        4991        4990
        4982        4983        4992        4991
        4983        4984        4993        4992
        4984        4985        4994        4993
        4986        4987        4996        4995
        4987        4988        4997        4996
        4988        4989        4998        4997
        4989        4990        4999        4998
        4990        4991        5000        4999
        4991        4992        5001        5000
        4992        4993        5002        5001
        4993        4994        5003        5002
        4995        4996        5005        5004
        4996        4997        5006        5005
        4997        4998        5007        5006
        4998        4999        5008        5007
        4999        5000        5009        5008
        5000        5001        5010        5009
        5001        5002        5011        5010
        5002        5003        5012        5011
        5004        5005        5014        5013
        5005        5006        5015        5014
        5006        5007        5016        5015
        5007        5008        5017        5016
        5008        5009        5018        5017
        5009        5010        5019        5018
        5010        5011        5020        5019
        5011        5012        5021        5020
        5022        5023        5032        5031
        5023        5024        5033        5032
        5024        5025        5034        5033
        5025        5026        5035        5034
        5026        5027        5036        5035
        5027        5028        5037        5036
        5028        5029        5038        5037
        5029        5030        5039        5038
        5031        5032        5041        5040
        5032        5033        5042        5041
        5033        5034        5043        5042
        5034        5035        5044        5043
        5035        5036        5045        5044
        5036        5037        5046        5045
        5037        5038        5047        5046
        5038        5039        5048        5047
        5040        5041        5050        5049
        5041        5042        5051        5050
        5042        5043        5052        5051
        5043        5044        5053        5052
        5044        5045        5054        5053
        5045        5046        5055        5054
        5046        5047        5056        5055
        5047        5048        5057        5056
        5049        5050        5059        5058
        5050        5051        5060        5059
        5051        5052        5061        5060
        5052        5053        5062        5061
        5053        5054        5063        5062
        5054        5055        5064        5063
        5055        5056        5065        5064
        5056        5057        5066        5065
        5058        5059        5068        5067
        5059        5060        5069        5068
        5060        5061        5070        5069
        5061        5062        5071        5070
        5062        5063        5072        5071
        5063        5064        5073        5072
        5064        5065        5074        5073
        5065        5066        5075        5074
        5067        5068        5077        5076
        5068        5069        5078        5077
        5069        5070        5079        5078
        5070        5071        5080        5079
        5071        5072        5081        5080
        5072        5073        5082        5081
        5073        5074        5083        5082
        5074        5075        5084        5083
        5076        5077        5086        5085
        5077        5078        5087        5086
        5078        5079        5088        5087
        5079        5080        5089        5088
        5080        5081        5090        5089
        5081        5082        5091        5090
        5082        5083        5092        5091
        5083        5084        5093        5092
        5085        5086        5095        5094
        5086        5087        5096        5095
        5087        5088        5097        5096
        5088        5089        5098        5097
        5089        5090        5099        5098
        5090        5091        5100        5099
        5091        5092        5101        5100
        5092        5093        5102        5101
        5103        5104        5113        5112
        5104        5105        5114        5113
        5105        5106        5115        5114
        5106        5107        5116        5115
        5107        5108        5117        5116
        5108        5109        5118        5117
        5109        5110        5119        5118
        5110        5111        5120        5119
        5112        5113        5122        5121
        5113        5114        5123        5122
        5114        5115        5124        5123
        5115        5116        5125        5124
        5116        5117        5126        5125
        5117        5118        5127        5126
        5118        5119        5128        5127
        5119        5120        5129        5128
        5121        5122        5131        5130
        5122        5123        5132        5131
        5123        5124        5133        5132
        5124        5125        5134        5133
        5125        5126        5135        5134
        5126        5127        5136        5135
        5127        5128        5137        5136
        5128        5129        5138        5137
        5130        5131        5140        5139
        5131        5132        5141        5140
        5132        5133        5142        5141
        5133        5134        5143        5142
        5134        5135        5144        5143
        5135        5136        5145        5144
        5136        5137        5146        5145
        5137        5138        5147        5146
        5139        5140        5149        5148
        5140        5141        5150        5149
        5141        5142        5151        5150
        5142        5143        5152        5151
        5143        5144        5153        5152
        5144        5145        5154        5153
        5145        5146        5155        5154
        5146        5147        5156        5155
        5148        5149        5158        5157
        5149        5150        5159        5158
        5150        5151        5160        5159
        5151        5152        5161        5160
        5152        5153        5162        5161
        5153        5154        5163        5162
        5154        5155        5164        5163
        5155        5156        5165        5164
        5157        5158        5167        5166
        5158        5159        5168        5167
        5159        5160        5169        5168
        5160        5161        5170        5169
        5161        5162        5171        5170
        5162        5163        5172        5171
        5163        5164        5173        5172
        5164        5165        5174        5173
        5166        5167        5176        5175
        5167        5168        5177        5176
        5168        5169        5178        5177
        5169        5170        5179        5178
        5170        5171        5180        5179
        5171        5172        5181        5180
        5172        5173        5182        5181
        5173        5174        5183        5182
 </DataArray>
 <DataArray  type="Int32"  Name="offsets"  format="ascii"> 
           4
           8
          12
          16
          20
          24
          28
          32
          36
          40
          44
          48
          52
          56
          60
          64
          68
          72
          76
          80
          84
          88
          92
          96
         100
         104
         108
         112
         116
         120
         124
         128
         132
         136
         140
         144
         148
         152
         156
         160
         164
         168
         172
         176
         180
         184
         188
         192
         196
         200
         204
         208
         212
         216
         220
         224
         228
         232
         236
         240
         244
         248
         252
         256
         260
         264
         268
         272
         276
         280
         284
         288
         292
         296
         300
         304
         308
         312
         316
         320
         324
         328
         332
         336
         340
         344
         348
         352
         356
         360
         364
         368
         372
         376
         380
         384
         388
         392
         396
         400
         404
         408
         412
         416
         420
         424
         428
         432
         436
         440
         444
         448
         452
         456
         460
         464
         468
         472
         476
         480
         484
         488
         492
         496
         500
         504
         508
         512
         516
         520
         524
         528
         532
         536
         540
         544
         548
         552
         556
         560
         564
         568
         572
         576
         580
         584
         588
         592
         596
         600
         604
         608
         612
         616
         620
         624
         628
         632
         636
         640
         644
         648
         652
         656
         660
         664
         668
         672
         676
         680
         684
         688
         692
         696
         700
         704
         708
         712
         716
         720
         724
         728
         732
         736
         740
         744
         748
         752
         756
         760
         764
         768
         772
         776
         780
         784
         788
         792
         796
         800
         804
         808
         812
         816
         820
         824
         828
         832
         836
         840
         844
         848
         852
         856
         860
         864
         868
         872
         876
         880
         884
         888
         892
         896
         900
         904
         908
         912
         916
         920
         924
         928
         932
         936
         940
         944
         948
         952
         956
         960
         964
         968
         972
         976
         980
         984
         988
         992
         996
        1000
        1004
        1008
        1012
        1016
        1020
        1024
        1028
        1032
        1036
        1040
        1044
        1048
        1052
        1056
        1060
        1064
        1068
        1072
        1076
        1080
        1084
        1088
        1092
        1096
        1100
        1104
        1108
        1112
        1116
        1120
        1124
        1128
        1132
        1136
        1140
        1144
        1148
        1152
        1156
        1160
        1164
        1168
        1172
        1176
        1180
        1184
        1188
        1192
        1196
        1200
        1204
        1208
        1212
        1216
        1220
        1224
        1228
        1232
        1236
        1240
        1244
        1248
        1252
        1256
        1260
        1264
        1268
        1272
        1276
        1280
        1284
        1288
        1292
        1296
        1300
        1304
        1308
        1312
        1316
        1320
        1324
        1328
        1332
        1336
        1340
        1344
        1348
        1352
        1356
        1360
        1364
        1368
        1372
        1376
        1380
        1384
        1388
        1392
        1396
        1400
        1404
        1408
        1412
        1416
        1420
        1424
        1428
        1432
        1436
        1440
        1444
        1448
        1452
        1456
        1460
        1464
        1468
        1472
        1476
        1480
        1484
        1488
        1492
        1496
        1500
        1504
        1508
        1512
        1516
        1520
        1524
        1528
        1532
        1536
        1540
        1544
        1548
        1552
        1556
        1560
        1564
        1568
        1572
        1576
        1580
        1584
        1588
        1592
        1596
        1600
        1604
        1608
        1612
        1616
        1620
        1624
        1628
        1632
        1636
        1640
        1644
        1648
        1652
        1656
        1660
        1664
        1668
        1672
        1676
        1680
        1684
        1688
        1692
        1696
        1700
        1704
        1708
        1712
        1716
        1720
        1724
        1728
        1732
        1736
        1740
        1744
        1748
        1752
        1756
        1760
        1764
        1768
        1772
        1776
        1780
        1784
        1788
        1792
        1796
        1800
        1804
        1808
        1812
        1816
        1820
        1824
        1828
        1832
        1836
        1840
        1844
        1848
        1852
        1856
        1860
        1864
        1868
        1872
        1876
        1880
        1884
        1888
        1892
        1896
        1900
        1904
        1908
        1912
        1916
        1920
        1924
        1928
        1932
        1936
        1940
        1944
        1948
        1952
        1956
        1960
        1964
        1968
        1972
        1976
        1980
        1984
        1988
        1992
        1996
        2000
        2004
        2008
        2012
        2016
        2020
        2024
        2028
        2032
        2036
        2040
        2044
        2048
        2052
        2056
        2060
        2064
        2068
        2072
        2076
        2080
        2084
        2088
        2092
        2096
        2100
        2104
        2108
        2112
        2116
        2120
        2124
        2128
        2132
        2136
        2140
        2144
        2148
        2152
        2156
        2160
        2164
        2168
        2172
        2176
        2180
        2184
        2188
        2192
        2196
        2200
        2204
        2208
        2212
        2216
        2220
        2224
        2228
        2232
        2236
        2240
        2244
        2248
        2252
        2256
        2260
        2264
        2268
        2272
        2276
        2280
        2284
        2288
        2292
        2296
        2300
        2304
        2308
        2312
        2316
        2320
        2324
        2328
        2332
        2336
        2340
        2344
        2348
        2352
        2356
        2360
        2364
        2368
        2372
        2376
        2380
        2384
        2388
        2392
        2396
        2400
        2404
        2408
        2412
        2416
        2420
        2424
        2428
        2432
        2436
        2440
        2444
        2448
        2452
        2456
        2460
        2464
        2468
        2472
        2476
        2480
        2484
        2488
        2492
        2496
        2500
        2504
        2508
        2512
        2516
        2520
        2524
        2528
        2532
        2536
        2540
        2544
        2548
        2552
        2556
        2560
        2564
        2568
        2572
        2576
        2580
        2584
        2588
        2592
        2596
        2600
        2604
        2608
        2612
        2616
        2620
        2624
        2628
        2632
        2636
        2640
        2644
        2648
        2652
        2656
        2660
        2664
        2668
        2672
        2676
        2680
        2684
        2688
        2692
        2696
        2700
        2704
        2708
        2712
        2716
        2720
        2724
        2728
        2732
        2736
        2740
        2744
        2748
        2752
        2756
        2760
        2764
        2768
        2772
        2776
        2780
        2784
        2788
        2792
        2796
        2800
        2804
        2808
        2812
        2816
        2820
        2824
        2828
        2832
        2836
        2840
        2844
        2848
        2852
        2856
        2860
        2864
        2868
        2872
        2876
        2880
        2884
        2888
        2892
        2896
        2900
        2904
        2908
        2912
        2916
        2920
        2924
        2928
        2932
        2936
        2940
        2944
        2948
        2952
        2956
        2960
        2964
        2968
        2972
        2976
        2980
        2984
        2988
        2992
        2996
        3000
        3004
        3008
        3012
        3016
        3020
        3024
        3028
        3032
        3036
        3040
        3044
        3048
        3052
        3056
        3060
        3064
        3068
        3072
        3076
        3080
        3084
        3088
        3092
        3096
        3100
        3104
        3108
        3112
        3116
        3120
        3124
        3128
        3132
        3136
        3140
        3144
        3148
        3152
        3156
        3160
        3164
        3168
        3172
        3176
        3180
        3184
        3188
        3192
        3196
        3200
        3204
        3208
        3212
        3216
        3220
        3224
        3228
        3232
        3236
        3240
        3244
        3248
        3252
        3256
        3260
        3264
        3268
        3272
        3276
        3280
        3284
        3288
        3292
        3296
        3300
        3304
        3308
        3312
        3316
        3320
        3324
        3328
        3332
        3336
        3340
        3344
        3348
        3352
        3356
        3360
        3364
        3368
        3372
        3376
        3380
        3384
        3388
        3392
        3396
        3400
        3404
        3408
        3412
        3416
        3420
        3424
        3428
        3432
        3436
        3440
        3444
        3448
        3452
        3456
        3460
        3464
        3468
        3472
        3476
        3480
        3484
        3488
        3492
        3496
        3500
        3504
        3508
        3512
        3516
        3520
        3524
        3528
        3532
        3536
        3540
        3544
        3548
        3552
        3556
        3560
        3564
        3568
        3572
        3576
        3580
        3584
        3588
        3592
        3596
        3600
        3604
        3608
        3612
        3616
        3620
        3624
        3628
        3632
        3636
        3640
        3644
        3648
        3652
        3656
        3660
        3664
        3668
        3672
        3676
        3680
        3684
        3688
        3692
        3696
        3700
        3704
        3708
        3712
        3716
        3720
        3724
        3728
        3732
        3736
        3740
        3744
        3748
        3752
        3756
        3760
        3764
        3768
        3772
        3776
        3780
        3784
        3788
        3792
        3796
        3800
        3804
        3808
        3812
        3816
        3820
        3824
        3828
        3832
        3836
        3840
        3844
        3848
        3852
        3856
        3860
        3864
        3868
        3872
        3876
        3880
        3884
        3888
        3892
        3896
        3900
        3904
        3908
        3912
        3916
        3920
        3924
        3928
        3932
        3936
        3940
        3944
        3948
        3952
        3956
        3960
        3964
        3968
        3972
        3976
        3980
        3984
        3988
        3992
        3996
        4000
        4004
        4008
        4012
        4016
        4020
        4024
        4028
        4032
        4036
        4040
        4044
        4048
        4052
        4056
        4060
        4064
        4068
        4072
        4076
        4080
        4084
        4088
        4092
        4096
        4100
        4104
        4108
        4112
        4116
        4120
        4124
        4128
        4132
        4136
        4140
        4144
        4148
        4152
        4156
        4160
        4164
        4168
        4172
        4176
        4180
        4184
        4188
        4192
        4196
        4200
        4204
        4208
        4212
        4216
        4220
        4224
        4228
        4232
        4236
        4240
        4244
        4248
        4252
        4256
        4260
        4264
        4268
        4272
        4276
        4280
        4284
        4288
        4292
        4296
        4300
        4304
        4308
        4312
        4316
        4320
        4324
        4328
        4332
        4336
        4340
        4344
        4348
        4352
        4356
        4360
        4364
        4368
        4372
        4376
        4380
        4384
        4388
        4392
        4396
        4400
        4404
        4408
        4412
        4416
        4420
        4424
        4428
        4432
        4436
        4440
        4444
        4448
        4452
        4456
        4460
        4464
        4468
        4472
        4476
        4480
        4484
        4488
        4492
        4496
        4500
        4504
        4508
        4512
        4516
        4520
        4524
        4528
        4532
        4536
        4540
        4544
        4548
        4552
        4556
        4560
        4564
        4568
        4572
        4576
        4580
        4584
        4588
        4592
        4596
        4600
        4604
        4608
        4612
        4616
        4620
        4624
        4628
        4632
        4636
        4640
        4644
        4648
        4652
        4656
        4660
        4664
        4668
        4672
        4676
        4680
        4684
        4688
        4692
        4696
        4700
        4704
        4708
        4712
        4716
        4720
        4724
        4728
        4732
        4736
        4740
        4744
        4748
        4752
        4756
        4760
        4764
        4768
        4772
        4776
        4780
        4784
        4788
        4792
        4796
        4800
        4804
        4808
        4812
        4816
        4820
        4824
        4828
        4832
        4836
        4840
        4844
        4848
        4852
        4856
        4860
        4864
        4868
        4872
        4876
        4880
        4884
        4888
        4892
        4896
        4900
        4904
        4908
        4912
        4916
        4920
        4924
        4928
        4932
        4936
        4940
        4944
        4948
        4952
        4956
        4960
        4964
        4968
        4972
        4976
        4980
        4984
        4988
        4992
        4996
        5000
        5004
        5008
        5012
        5016
        5020
        5024
        5028
        5032
        5036
        5040
        5044
        5048
        5052
        5056
        5060
        5064
        5068
        5072
        5076
        5080
        5084
        5088
        5092
        5096
        5100
        5104
        5108
        5112
        5116
        5120
        5124
        5128
        5132
        5136
        5140
        5144
        5148
        5152
        5156
        5160
        5164
        5168
        5172
        5176
        5180
        5184
        5188
        5192
        5196
        5200
        5204
        5208
        5212
        5216
        5220
        5224
        5228
        5232
        5236
        5240
        5244
        5248
        5252
        5256
        5260
        5264
        5268
        5272
        5276
        5280
        5284
        5288
        5292
        5296
        5300
        5304
        5308
        5312
        5316
        5320
        5324
        5328
        5332
        5336
        5340
        5344
        5348
        5352
        5356
        5360
        5364
        5368
        5372
        5376
        5380
        5384
        5388
        5392
        5396
        5400
        5404
        5408
        5412
        5416
        5420
        5424
        5428
        5432
        5436
        5440
        5444
        5448
        5452
        5456
        5460
        5464
        5468
        5472
        5476
        5480
        5484
        5488
        5492
        5496
        5500
        5504
        5508
        5512
        5516
        5520
        5524
        5528
        5532
        5536
        5540
        5544
        5548
        5552
        5556
        5560
        5564
        5568
        5572
        5576
        5580
        5584
        5588
        5592
        5596
        5600
        5604
        5608
        5612
        5616
        5620
        5624
        5628
        5632
        5636
        5640
        5644
        5648
        5652
        5656
        5660
        5664
        5668
        5672
        5676
        5680
        5684
        5688
        5692
        5696
        5700
        5704
        5708
        5712
        5716
        5720
        5724
        5728
        5732
        5736
        5740
        5744
        5748
        5752
        5756
        5760
        5764
        5768
        5772
        5776
        5780
        5784
        5788
        5792
        5796
        5800
        5804
        5808
        5812
        5816
        5820
        5824
        5828
        5832
        5836
        5840
        5844
        5848
        5852
        5856
        5860
        5864
        5868
        5872
        5876
        5880
        5884
        5888
        5892
        5896
        5900
        5904
        5908
        5912
        5916
        5920
        5924
        5928
        5932
        5936
        5940
        5944
        5948
        5952
        5956
        5960
        5964
        5968
        5972
        5976
        5980
        5984
        5988
        5992
        5996
        6000
        6004
        6008
        6012
        6016
        6020
        6024
        6028
        6032
        6036
        6040
        6044
        6048
        6052
        6056
        6060
        6064
        6068
        6072
        6076
        6080
        6084
        6088
        6092
        6096
        6100
        6104
        6108
        6112
        6116
        6120
        6124
        6128
        6132
        6136
        6140
        6144
        6148
        6152
        6156
        6160
        6164
        6168
        6172
        6176
        6180
        6184
        6188
        6192
        6196
        6200
        6204
        6208
        6212
        6216
        6220
        6224
        6228
        6232
        6236
        6240
        6244
        6248
        6252
        6256
        6260
        6264
        6268
        6272
        6276
        6280
        6284
        6288
        6292
        6296
        6300
        6304
        6308
        6312
        6316
        6320
        6324
        6328
        6332
        6336
        6340
        6344
        6348
        6352
        6356
        6360
        6364
        6368
        6372
        6376
        6380
        6384
        6388
        6392
        6396
        6400
        6404
        6408
        6412
        6416
        6420
        6424
        6428
        6432
        6436
        6440
        6444
        6448
        6452
        6456
        6460
        6464
        6468
        6472
        6476
        6480
        6484
        6488
        6492
        6496
        6500
        6504
        6508
        6512
        6516
        6520
        6524
        6528
        6532
        6536
        6540
        6544
        6548
        6552
        6556
        6560
        6564
        6568
        6572
        6576
        6580
        6584
        6588
        6592
        6596
        6600
        6604
        6608
        6612
        6616
        6620
        6624
        6628
        6632
        6636
        6640
        6644
        6648
        6652
        6656
        6660
        6664
        6668
        6672
        6676
        6680
        6684
        6688
        6692
        6696
        6700
        6704
        6708
        6712
        6716
        6720
        6724
        6728
        6732
        6736
        6740
        6744
        6748
        6752
        6756
        6760
        6764
        6768
        6772
        6776
        6780
        6784
        6788
        6792
        6796
        6800
        6804
        6808
        6812
        6816
        6820
        6824
        6828
        6832
        6836
        6840
        6844
        6848
        6852
        6856
        6860
        6864
        6868
        6872
        6876
        6880
        6884
        6888
        6892
        6896
        6900
        6904
        6908
        6912
        6916
        6920
        6924
        6928
        6932
        6936
        6940
        6944
        6948
        6952
        6956
        6960
        6964
        6968
        6972
        6976
        6980
        6984
        6988
        6992
        6996
        7000
        7004
        7008
        7012
        7016
        7020
        7024
        7028
        7032
        7036
        7040
        7044
        7048
        7052
        7056
        7060
        7064
        7068
        7072
        7076
        7080
        7084
        7088
        7092
        7096
        7100
        7104
        7108
        7112
        7116
        7120
        7124
        7128
        7132
        7136
        7140
        7144
        7148
        7152
        7156
        7160
        7164
        7168
        7172
        7176
        7180
        7184
        7188
        7192
        7196
        7200
        7204
        7208
        7212
        7216
        7220
        7224
        7228
        7232
        7236
        7240
        7244
        7248
        7252
        7256
        7260
        7264
        7268
        7272
        7276
        7280
        7284
        7288
        7292
        7296
        7300
        7304
        7308
        7312
        7316
        7320
        7324
        7328
        7332
        7336
        7340
        7344
        7348
        7352
        7356
        7360
        7364
        7368
        7372
        7376
        7380
        7384
        7388
        7392
        7396
        7400
        7404
        7408
        7412
        7416
        7420
        7424
        7428
        7432
        7436
        7440
        7444
        7448
        7452
        7456
        7460
        7464
        7468
        7472
        7476
        7480
        7484
        7488
        7492
        7496
        7500
        7504
        7508
        7512
        7516
        7520
        7524
        7528
        7532
        7536
        7540
        7544
        7548
        7552
        7556
        7560
        7564
        7568
        7572
        7576
        7580
        7584
        7588
        7592
        7596
        7600
        7604
        7608
        7612
        7616
        7620
        7624
        7628
        7632
        7636
        7640
        7644
        7648
        7652
        7656
        7660
        7664
        7668
        7672
        7676
        7680
        7684
        7688
        7692
        7696
        7700
        7704
        7708
        7712
        7716
        7720
        7724
        7728
        7732
        7736
        7740
        7744
        7748
        7752
        7756
        7760
        7764
        7768
        7772
        7776
        7780
        7784
        7788
        7792
        7796
        7800
        7804
        7808
        7812
        7816
        7820
        7824
        7828
        7832
        7836
        7840
        7844
        7848
        7852
        7856
        7860
        7864
        7868
        7872
        7876
        7880
        7884
        7888
        7892
        7896
        7900
        7904
        7908
        7912
        7916
        7920
        7924
        7928
        7932
        7936
        7940
        7944
        7948
        7952
        7956
        7960
        7964
        7968
        7972
        7976
        7980
        7984
        7988
        7992
        7996
        8000
        8004
        8008
        8012
        8016
        8020
        8024
        8028
        8032
        8036
        8040
        8044
        8048
        8052
        8056
        8060
        8064
        8068
        8072
        8076
        8080
        8084
        8088
        8092
        8096
        8100
        8104
        8108
        8112
        8116
        8120
        8124
        8128
        8132
        8136
        8140
        8144
        8148
        8152
        8156
        8160
        8164
        8168
        8172
        8176
        8180
        8184
        8188
        8192
        8196
        8200
        8204
        8208
        8212
        8216
        8220
        8224
        8228
        8232
        8236
        8240
        8244
        8248
        8252
        8256
        8260
        8264
        8268
        8272
        8276
        8280
        8284
        8288
        8292
        8296
        8300
        8304
        8308
        8312
        8316
        8320
        8324
        8328
        8332
        8336
        8340
        8344
        8348
        8352
        8356
        8360
        8364
        8368
        8372
        8376
        8380
        8384
        8388
        8392
        8396
        8400
        8404
        8408
        8412
        8416
        8420
        8424
        8428
        8432
        8436
        8440
        8444
        8448
        8452
        8456
        8460
        8464
        8468
        8472
        8476
        8480
        8484
        8488
        8492
        8496
        8500
        8504
        8508
        8512
        8516
        8520
        8524
        8528
        8532
        8536
        8540
        8544
        8548
        8552
        8556
        8560
        8564
        8568
        8572
        8576
        8580
        8584
        8588
        8592
        8596
        8600
        8604
        8608
        8612
        8616
        8620
        8624
        8628
        8632
        8636
        8640
        8644
        8648
        8652
        8656
        8660
        8664
        8668
        8672
        8676
        8680
        8684
        8688
        8692
        8696
        8700
        8704
        8708
        8712
        8716
        8720
        8724
        8728
        8732
        8736
        8740
        8744
        8748
        8752
        8756
        8760
        8764
        8768
        8772
        8776
        8780
        8784
        8788
        8792
        8796
        8800
        8804
        8808
        8812
        8816
        8820
        8824
        8828
        8832
        8836
        8840
        8844
        8848
        8852
        8856
        8860
        8864
        8868
        8872
        8876
        8880
        8884
        8888
        8892
        8896
        8900
        8904
        8908
        8912
        8916
        8920
        8924
        8928
        8932
        8936
        8940
        8944
        8948
        8952
        8956
        8960
        8964
        8968
        8972
        8976
        8980
        8984
        8988
        8992
        8996
        9000
        9004
        9008
        9012
        9016
        9020
        9024
        9028
        9032
        9036
        9040
        9044
        9048
        9052
        9056
        9060
        9064
        9068
        9072
        9076
        9080
        9084
        9088
        9092
        9096
        9100
        9104
        9108
        9112
        9116
        9120
        9124
        9128
        9132
        9136
        9140
        9144
        9148
        9152
        9156
        9160
        9164
        9168
        9172
        9176
        9180
        9184
        9188
        9192
        9196
        9200
        9204
        9208
        9212
        9216
        9220
        9224
        9228
        9232
        9236
        9240
        9244
        9248
        9252
        9256
        9260
        9264
        9268
        9272
        9276
        9280
        9284
        9288
        9292
        9296
        9300
        9304
        9308
        9312
        9316
        9320
        9324
        9328
        9332
        9336
        9340
        9344
        9348
        9352
        9356
        9360
        9364
        9368
        9372
        9376
        9380
        9384
        9388
        9392
        9396
        9400
        9404
        9408
        9412
        9416
        9420
        9424
        9428
        9432
        9436
        9440
        9444
        9448
        9452
        9456
        9460
        9464
        9468
        9472
        9476
        9480
        9484
        9488
        9492
        9496
        9500
        9504
        9508
        9512
        9516
        9520
        9524
        9528
        9532
        9536
        9540
        9544
        9548
        9552
        9556
        9560
        9564
        9568
        9572
        9576
        9580
        9584
        9588
        9592
        9596
        9600
        9604
        9608
        9612
        9616
        9620
        9624
        9628
        9632
        9636
        9640
        9644
        9648
        9652
        9656
        9660
        9664
        9668
        9672
        9676
        9680
        9684
        9688
        9692
        9696
        9700
        9704
        9708
        9712
        9716
        9720
        9724
        9728
        9732
        9736
        9740
        9744
        9748
        9752
        9756
        9760
        9764
        9768
        9772
        9776
        9780
        9784
        9788
        9792
        9796
        9800
        9804
        9808
        9812
        9816
        9820
        9824
        9828
        9832
        9836
        9840
        9844
        9848
        9852
        9856
        9860
        9864
        9868
        9872
        9876
        9880
        9884
        9888
        9892
        9896
        9900
        9904
        9908
        9912
        9916
        9920
        9924
        9928
        9932
        9936
        9940
        9944
        9948
        9952
        9956
        9960
        9964
        9968
        9972
        9976
        9980
        9984
        9988
        9992
        9996
       10000
       10004
       10008
       10012
       10016
       10020
       10024
       10028
       10032
       10036
       10040
       10044
       10048
       10052
       10056
       10060
       10064
       10068
       10072
       10076
       10080
       10084
       10088
       10092
       10096
       10100
       10104
       10108
       10112
       10116
       10120
       10124
       10128
       10132
       10136
       10140
       10144
       10148
       10152
       10156
       10160
       10164
       10168
       10172
       10176
       10180
       10184
       10188
       10192
       10196
       10200
       10204
       10208
       10212
       10216
       10220
       10224
       10228
       10232
       10236
       10240
       10244
       10248
       10252
       10256
       10260
       10264
       10268
       10272
       10276
       10280
       10284
       10288
       10292
       10296
       10300
       10304
       10308
       10312
       10316
       10320
       10324
       10328
       10332
       10336
       10340
       10344
       10348
       10352
       10356
       10360
       10364
       10368
       10372
       10376
       10380
       10384
       10388
       10392
       10396
       10400
       10404
       10408
       10412
       10416
       10420
       10424
       10428
       10432
       10436
       10440
       10444
       10448
       10452
       10456
       10460
       10464
       10468
       10472
       10476
       10480
       10484
       10488
       10492
       10496
       10500
       10504
       10508
       10512
       10516
       10520
       10524
       10528
       10532
       10536
       10540
       10544
       10548
       10552
       10556
       10560
       10564
       10568
       10572
       10576
       10580
       10584
       10588
       10592
       10596
       10600
       10604
       10608
       10612
       10616
       10620
       10624
       10628
       10632
       10636
       10640
       10644
       10648
       10652
       10656
       10660
       10664
       10668
       10672
       10676
       10680
       10684
       10688
       10692
       10696
       10700
       10704
       10708
       10712
       10716
       10720
       10724
       10728
       10732
       10736
       10740
       10744
       10748
       10752
       10756
       10760
       10764
       10768
       10772
       10776
       10780
       10784
       10788
       10792
       10796
       10800
       10804
       10808
       10812
       10816
       10820
       10824
       10828
       10832
       10836
       10840
       10844
       10848
       10852
       10856
       10860
       10864
       10868
       10872
       10876
       10880
       10884
       10888
       10892
       10896
       10900
       10904
       10908
       10912
       10916
       10920
       10924
       10928
       10932
       10936
       10940
       10944
       10948
       10952
       10956
       10960
       10964
       10968
       10972
       10976
       10980
       10984
       10988
       10992
       10996
       11000
       11004
       11008
       11012
       11016
       11020
       11024
       11028
       11032
       11036
       11040
       11044
       11048
       11052
       11056
       11060
       11064
       11068
       11072
       11076
       11080
       11084
       11088
       11092
       11096
       11100
       11104
       11108
       11112
       11116
       11120
       11124
       11128
       11132
       11136
       11140
       11144
       11148
       11152
       11156
       11160
       11164
       11168
       11172
       11176
       11180
       11184
       11188
       11192
       11196
       11200
       11204
       11208
       11212
       11216
       11220
       11224
       11228
       11232
       11236
       11240
       11244
       11248
       11252
       11256
       11260
       11264
       11268
       11272
       11276
       11280
       11284
       11288
       11292
       11296
       11300
       11304
       11308
       11312
       11316
       11320
       11324
       11328
       11332
       11336
       11340
       11344
       11348
       11352
       11356
       11360
       11364
       11368
       11372
       11376
       11380
       11384
       11388
       11392
       11396
       11400
       11404
       11408
       11412
       11416
       11420
       11424
       11428
       11432
       11436
       11440
       11444
       11448
       11452
       11456
       11460
       11464
       11468
       11472
       11476
       11480
       11484
       11488
       11492
       11496
       11500
       11504
       11508
       11512
       11516
       11520
       11524
       11528
       11532
       11536
       11540
       11544
       11548
       11552
       11556
       11560
       11564
       11568
       11572
       11576
       11580
       11584
       11588
       11592
       11596
       11600
       11604
       11608
       11612
       11616
       11620
       11624
       11628
       11632
       11636
       11640
       11644
       11648
       11652
       11656
       11660
       11664
       11668
       11672
       11676
       11680
       11684
       11688
       11692
       11696
       11700
       11704
       11708
       11712
       11716
       11720
       11724
       11728
       11732
       11736
       11740
       11744
       11748
       11752
       11756
       11760
       11764
       11768
       11772
       11776
       11780
       11784
       11788
       11792
       11796
       11800
       11804
       11808
       11812
       11816
       11820
       11824
       11828
       11832
       11836
       11840
       11844
       11848
       11852
       11856
       11860
       11864
       11868
       11872
       11876
       11880
       11884
       11888
       11892
       11896
       11900
       11904
       11908
       11912
       11916
       11920
       11924
       11928
       11932
       11936
       11940
       11944
       11948
       11952
       11956
       11960
       11964
       11968
       11972
       11976
       11980
       11984
       11988
       11992
       11996
       12000
       12004
       12008
       12012
       12016
       12020
       12024
       12028
       12032
       12036
       12040
       12044
       12048
       12052
       12056
       12060
       12064
       12068
       12072
       12076
       12080
       12084
       12088
       12092
       12096
       12100
       12104
       12108
       12112
       12116
       12120
       12124
       12128
       12132
       12136
       12140
       12144
       12148
       12152
       12156
       12160
       12164
       12168
       12172
       12176
       12180
       12184
       12188
       12192
       12196
       12200
       12204
       12208
       12212
       12216
       12220
       12224
       12228
       12232
       12236
       12240
       12244
       12248
       12252
       12256
       12260
       12264
       12268
       12272
       12276
       12280
       12284
       12288
       12292
       12296
       12300
       12304
       12308
       12312
       12316
       12320
       12324
       12328
       12332
       12336
       12340
       12344
       12348
       12352
       12356
       12360
       12364
       12368
       12372
       12376
       12380
       12384
       12388
       12392
       12396
       12400
       12404
       12408
       12412
       12416
       12420
       12424
       12428
       12432
       12436
       12440
       12444
       12448
       12452
       12456
       12460
       12464
       12468
       12472
       12476
       12480
       12484
       12488
       12492
       12496
       12500
       12504
       12508
       12512
       12516
       12520
       12524
       12528
       12532
       12536
       12540
       12544
       12548
       12552
       12556
       12560
       12564
       12568
       12572
       12576
       12580
       12584
       12588
       12592
       12596
       12600
       12604
       12608
       12612
       12616
       12620
       12624
       12628
       12632
       12636
       12640
       12644
       12648
       12652
       12656
       12660
       12664
       12668
       12672
       12676
       12680
       12684
       12688
       12692
       12696
       12700
       12704
       12708
       12712
       12716
       12720
       12724
       12728
       12732
       12736
       12740
       12744
       12748
       12752
       12756
       12760
       12764
       12768
       12772
       12776
       12780
       12784
       12788
       12792
       12796
       12800
       12804
       12808
       12812
       12816
       12820
       12824
       12828
       12832
       12836
       12840
       12844
       12848
       12852
       12856
       12860
       12864
       12868
       12872
       12876
       12880
       12884
       12888
       12892
       12896
       12900
       12904
       12908
       12912
       12916
       12920
       12924
       12928
       12932
       12936
       12940
       12944
       12948
       12952
       12956
       12960
       12964
       12968
       12972
       12976
       12980
       12984
       12988
       12992
       12996
       13000
       13004
       13008
       13012
       13016
       13020
       13024
       13028
       13032
       13036
       13040
       13044
       13048
       13052
       13056
       13060
       13064
       13068
       13072
       13076
       13080
       13084
       13088
       13092
       13096
       13100
       13104
       13108
       13112
       13116
       13120
       13124
       13128
       13132
       13136
       13140
       13144
       13148
       13152
       13156
       13160
       13164
       13168
       13172
       13176
       13180
       13184
       13188
       13192
       13196
       13200
       13204
       13208
       13212
       13216
       13220
       13224
       13228
       13232
       13236
       13240
       13244
       13248
       13252
       13256
       13260
       13264
       13268
       13272
       13276
       13280
       13284
       13288
       13292
       13296
       13300
       13304
       13308
       13312
       13316
       13320
       13324
       13328
       13332
       13336
       13340
       13344
       13348
       13352
       13356
       13360
       13364
       13368
       13372
       13376
       13380
       13384
       13388
       13392
       13396
       13400
       13404
       13408
       13412
       13416
       13420
       13424
       13428
       13432
       13436
       13440
       13444
       13448
       13452
       13456
       13460
       13464
       13468
       13472
       13476
       13480
       13484
       13488
       13492
       13496
       13500
       13504
       13508
       13512
       13516
       13520
       13524
       13528
       13532
       13536
       13540
       13544
       13548
       13552
       13556
       13560
       13564
       13568
       13572
       13576
       13580
       13584
       13588
       13592
       13596
       13600
       13604
       13608
       13612
       13616
       13620
       13624
       13628
       13632
       13636
       13640
       13644
       13648
       13652
       13656
       13660
       13664
       13668
       13672
       13676
       13680
       13684
       13688
       13692
       13696
       13700
       13704
       13708
       13712
       13716
       13720
       13724
       13728
       13732
       13736
       13740
       13744
       13748
       13752
       13756
       13760
       13764
       13768
       13772
       13776
       13780
       13784
       13788
       13792
       13796
       13800
       13804
       13808
       13812
       13816
       13820
       13824
       13828
       13832
       13836
       13840
       13844
       13848
       13852
       13856
       13860
       13864
       13868
       13872
       13876
       13880
       13884
       13888
       13892
       13896
       13900
       13904
       13908
       13912
       13916
       13920
       13924
       13928
       13932
       13936
       13940
       13944
       13948
       13952
       13956
       13960
       13964
       13968
       13972
       13976
       13980
       13984
       13988
       13992
       13996
       14000
       14004
       14008
       14012
       14016
       14020
       14024
       14028
       14032
       14036
       14040
       14044
       14048
       14052
       14056
       14060
       14064
       14068
       14072
       14076
       14080
       14084
       14088
       14092
       14096
       14100
       14104
       14108
       14112
       14116
       14120
       14124
       14128
       14132
       14136
       14140
       14144
       14148
       14152
       14156
       14160
       14164
       14168
       14172
       14176
       14180
       14184
       14188
       14192
       14196
       14200
       14204
       14208
       14212
       14216
       14220
       14224
       14228
       14232
       14236
       14240
       14244
       14248
       14252
       14256
       14260
       14264
       14268
       14272
       14276
       14280
       14284
       14288
       14292
       14296
       14300
       14304
       14308
       14312
       14316
       14320
       14324
       14328
       14332
       14336
       14340
       14344
       14348
       14352
       14356
       14360
       14364
       14368
       14372
       14376
       14380
       14384
       14388
       14392
       14396
       14400
       14404
       14408
       14412
       14416
       14420
       14424
       14428
       14432
       14436
       14440
       14444
       14448
       14452
       14456
       14460
       14464
       14468
       14472
       14476
       14480
       14484
       14488
       14492
       14496
       14500
       14504
       14508
       14512
       14516
       14520
       14524
       14528
       14532
       14536
       14540
       14544
       14548
       14552
       14556
       14560
       14564
       14568
       14572
       14576
       14580
       14584
       14588
       14592
       14596
       14600
       14604
       14608
       14612
       14616
       14620
       14624
       14628
       14632
       14636
       14640
       14644
       14648
       14652
       14656
       14660
       14664
       14668
       14672
       14676
       14680
       14684
       14688
       14692
       14696
       14700
       14704
       14708
       14712
       14716
       14720
       14724
       14728
       14732
       14736
       14740
       14744
       14748
       14752
       14756
       14760
       14764
       14768
       14772
       14776
       14780
       14784
       14788
       14792
       14796
       14800
       14804
       14808
       14812
       14816
       14820
       14824
       14828
       14832
       14836
       14840
       14844
       14848
       14852
       14856
       14860
       14864
       14868
       14872
       14876
       14880
       14884
       14888
       14892
       14896
       14900
       14904
       14908
       14912
       14916
       14920
       14924
       14928
       14932
       14936
       14940
       14944
       14948
       14952
       14956
       14960
       14964
       14968
       14972
       14976
       14980
       14984
       14988
       14992
       14996
       15000
       15004
       15008
       15012
       15016
       15020
       15024
       15028
       15032
       15036
       15040
       15044
       15048
       15052
       15056
       15060
       15064
       15068
       15072
       15076
       15080
       15084
       15088
       15092
       15096
       15100
       15104
       15108
       15112
       15116
       15120
       15124
       15128
       15132
       15136
       15140
       15144
       15148
       15152
       15156
       15160
       15164
       15168
       15172
       15176
       15180
       15184
       15188
       15192
       15196
       15200
       15204
       15208
       15212
       15216
       15220
       15224
       15228
       15232
       15236
       15240
       15244
       15248
       15252
       15256
       15260
       15264
       15268
       15272
       15276
       15280
       15284
       15288
       15292
       15296
       15300
       15304
       15308
       15312
       15316
       15320
       15324
       15328
       15332
       15336
       15340
       15344
       15348
       15352
       15356
       15360
       15364
       15368
       15372
       15376
       15380
       15384
       15388
       15392
       15396
       15400
       15404
       15408
       15412
       15416
       15420
       15424
       15428
       15432
       15436
       15440
       15444
       15448
       15452
       15456
       15460
       15464
       15468
       15472
       15476
       15480
       15484
       15488
       15492
       15496
       15500
       15504
       15508
       15512
       15516
       15520
       15524
       15528
       15532
       15536
       15540
       15544
       15548
       15552
       15556
       15560
       15564
       15568
       15572
       15576
       15580
       15584
       15588
       15592
       15596
       15600
       15604
       15608
       15612
       15616
       15620
       15624
       15628
       15632
       15636
       15640
       15644
       15648
       15652
       15656
       15660
       15664
       15668
       15672
       15676
       15680
       15684
       15688
       15692
       15696
       15700
       15704
       15708
       15712
       15716
       15720
       15724
       15728
       15732
       15736
       15740
       15744
       15748
       15752
       15756
       15760
       15764
       15768
       15772
       15776
       15780
       15784
       15788
       15792
       15796
       15800
       15804
       15808
       15812
       15816
       15820
       15824
       15828
       15832
       15836
       15840
       15844
       15848
       15852
       15856
       15860
       15864
       15868
       15872
       15876
       15880
       15884
       15888
       15892
       15896
       15900
       15904
       15908
       15912
       15916
       15920
       15924
       15928
       15932
       15936
       15940
       15944
       15948
       15952
       15956
       15960
       15964
       15968
       15972
       15976
       15980
       15984
       15988
       15992
       15996
       16000
       16004
       16008
       16012
       16016
       16020
       16024
       16028
       16032
       16036
       16040
       16044
       16048
       16052
       16056
       16060
       16064
       16068
       16072
       16076
       16080
       16084
       16088
       16092
       16096
       16100
       16104
       16108
       16112
       16116
       16120
       16124
       16128
       16132
       16136
       16140
       16144
       16148
       16152
       16156
       16160
       16164
       16168
       16172
       16176
       16180
       16184
       16188
       16192
       16196
       16200
       16204
       16208
       16212
       16216
       16220
       16224
       16228
       16232
       16236
       16240
       16244
       16248
       16252
       16256
       16260
       16264
       16268
       16272
       16276
       16280
       16284
       16288
       16292
       16296
       16300
       16304
       16308
       16312
       16316
       16320
       16324
       16328
       16332
       16336
       16340
       16344
       16348
       16352
       16356
       16360
       16364
       16368
       16372
       16376
       16380
       16384
 </DataArray>
 <DataArray  type="UInt8"  Name="types"  format="ascii">
 9
 9
 9
 9
 9
 9
 9
 9
 9
 9
 9
 9
 9
 9
 9
 9
 9
 9
 9
 9
 9
 9
 9
 9
 9
 9
 9
 9
 9
 9
 9
 9
 9
 9
 9
 9
 9
 9
 9
 9
 9
 9
 9
 9
 9
 9
 9
 9
 9
 9
 9
 9
 9
 9
 9
 9
 9
 9
 9
 9
 9
 9
 9
 9
 9
 9
 9
 9
 9
 9
 9
 9
 9
 9
 9
 9
 9
 9
 9
 9
 9
 9
 9
 9
 9
 9
 9
 9
 9
 9
 9
 9
 9
 9
 9
 9
 9
 9
 9
 9
 9
 9
 9
 9
 9
 9
 9
 9
 9
 9
 9
 9
 9
 9
 9
 9
 9
 9
 9
 9
 9
 9
 9
 9
 9
 9
 9
 9
 9
 9
 9
 9
 9
 9
 9
 9
 9
 9
 9
 9
 9
 9
 9
 9
 9
 9
 9
 9
 9
 9
 9
 9
 9
 9
 9
 9
 9
 9
 9
 9
 9
 9
 9
 9
 9
 9
 9
 9
 9
 9
 9
 9
 9
 9
 9
 9
 9
 9
 9
 9
 9
 9
 9
 9
 9
 9
 9
 9
 9
 9
 9
 9
 9
 9
 9
 9
 9
 9
 9
 9
 9
 9
 9
 9
 9
 9
 9
 9
 9
 9
 9
 9
 9
 9
 9
 9
 9
 9
 9
 9
 9
 9
 9
 9
 9
 9
 9
 9
 9
 9
 9
 9
 9
 9
 9
 9
 9
 9
 9
 9
 9
 9
 9
 9
 9
 9
 9
 9
 9
 9
 9
 9
 9
 9
 9
 9
 9
 9
 9
 9
 9
 9
 9
 9
 9
 9
 9
 9
 9
 9
 9
 9
 9
 9
 9
 9
 9
 9
 9
 9
 9
 9
 9
 9
 9
 9
 9
 9
 9
 9
 9
 9
 9
 9
 9
 9
 9
 9
 9
 9
 9
 9
 9
 9
 9
 9
 9
 9
 9
 9
 9
 9
 9
 9
 9
 9
 9
 9
 9
 9
 9
 9
 9
 9
 9
 9
 9
 9
 9
 9
 9
 9
 9
 9
 9
 9
 9
 9
 9
 9
 9
 9
 9
 9
 9
 9
 9
 9
 9
 9
 9
 9
 9
 9
 9
 9
 9
 9
 9
 9
 9
 9
 9
 9
 9
 9
 9
 9
 9
 9
 9
 9
 9
 9
 9
 9
 9
 9
 9
 9
 9
 9
 9
 9
 9
 9
 9
 9
 9
 9
 9
 9
 9
 9
 9
 9
 9
 9
 9
 9
 9
 9
 9
 9
 9
 9
 9
 9
 9
 9
 9
 9
 9
 9
 9
 9
 9
 9
 9
 9
 9
 9
 9
 9
 9
 9
 9
 9
 9
 9
 9
 9
 9
 9
 9
 9
 9
 9
 9
 9
 9
 9
 9
 9
 9
 9
 9
 9
 9
 9
 9
 9
 9
 9
 9
 9
 9
 9
 9
 9
 9
 9
 9
 9
 9
 9
 9
 9
 9
 9
 9
 9
 9
 9
 9
 9
 9
 9
 9
 9
 9
 9
 9
 9
 9
 9
 9
 9
 9
 9
 9
 9
 9
 9
 9
 9
 9
 9
 9
 9
 9
 9
 9
 9
 9
 9
 9
 9
 9
 9
 9
 9
 9
 9
 9
 9
 9
 9
 9
 9
 9
 9
 9
 9
 9
 9
 9
 9
 9
 9
 9
 9
 9
 9
 9
 9
 9
 9
 9
 9
 9
 9
 9
 9
 9
 9
 9
 9
 9
 9
 9
 9
 9
 9
 9
 9
 9
 9
 9
 9
 9
 9
 9
 9
 9
 9
 9
 9
 9
 9
 9
 9
 9
 9
 9
 9
 9
 9
 9
 9
 9
 9
 9
 9
 9
 9
 9
 9
 9
 9
 9
 9
 9
 9
 9
 9
 9
 9
 9
 9
 9
 9
 9
 9
 9
 9
 9
 9
 9
 9
 9
 9
 9
 9
 9
 9
 9
 9
 9
 9
 9
 9
 9
 9
 9
 9
 9
 9
 9
 9
 9
 9
 9
 9
 9
 9
 9
 9
 9
 9
 9
 9
 9
 9
 9
 9
 9
 9
 9
 9
 9
 9
 9
 9
 9
 9
 9
 9
 9
 9
 9
 9
 9
 9
 9
 9
 9
 9
 9
 9
 9
 9
 9
 9
 9
 9
 9
 9
 9
 9
 9
 9
 9
 9
 9
 9
 9
 9
 9
 9
 9
 9
 9
 9
 9
 9
 9
 9
 9
 9
 9
 9
 9
 9
 9
 9
 9
 9
 9
 9
 9
 9
 9
 9
 9
 9
 9
 9
 9
 9
 9
 9
 9
 9
 9
 9
 9
 9
 9
 9
 9
 9
 9
 9
 9
 9
 9
 9
 9
 9
 9
 9
 9
 9
 9
 9
 9
 9
 9
 9
 9
 9
 9
 9
 9
 9
 9
 9
 9
 9
 9
 9
 9
 9
 9
 9
 9
 9
 9
 9
 9
 9
 9
 9
 9
 9
 9
 9
 9
 9
 9
 9
 9
 9
 9
 9
 9
 9
 9
 9
 9
 9
 9
 9
 9
 9
 9
 9
 9
 9
 9
 9
 9
 9
 9
 9
 9
 9
 9
 9
 9
 9
 9
 9
 9
 9
 9
 9
 9
 9
 9
 9
 9
 9
 9
 9
 9
 9
 9
 9
 9
 9
 9
 9
 9
 9
 9
 9
 9
 9
 9
 9
 9
 9
 9
 9
 9
 9
 9
 9
 9
 9
 9
 9
 9
 9
 9
 9
 9
 9
 9
 9
 9
 9
 9
 9
 9
 9
 9
 9
 9
 9
 9
 9
 9
 9
 9
 9
 9
 9
 9
 9
 9
 9
 9
 9
 9
 9
 9
 9
 9
 9
 9
 9
 9
 9
 9
 9
 9
 9
 9
 9
 9
 9
 9
 9
 9
 9
 9
 9
 9
 9
 9
 9
 9
 9
 9
 9
 9
 9
 9
 9
 9
 9
 9
 9
 9
 9
 9
 9
 9
 9
 9
 9
 9
 9
 9
 9
 9
 9
 9
 9
 9
 9
 9
 9
 9
 9
 9
 9
 9
 9
 9
 9
 9
 9
 9
 9
 9
 9
 9
 9
 9
 9
 9
 9
 9
 9
 9
 9
 9
 9
 9
 9
 9
 9
 9
 9
 9
 9
 9
 9
 9
 9
 9
 9
 9
 9
 9
 9
 9
 9
 9
 9
 9
 9
 9
 9
 9
 9
 9
 9
 9
 9
 9
 9
 9
 9
 9
 9
 9
 9
 9
 9
 9
 9
 9
 9
 9
 9
 9
 9
 9
 9
 9
 9
 9
 9
 9
 9
 9
 9
 9
 9
 9
 9
 9
 9
 9
 9
 9
 9
 9
 9
 9
 9
 9
 9
 9
 9
 9
 9
 9
 9
 9
 9
 9
 9
 9
 9
 9
 9
 9
 9
 9
 9
 9
 9
 9
 9
 9
 9
 9
 9
 9
 9
 9
 9
 9
 9
 9
 9
 9
 9
 9
 9
 9
 9
 9
 9
 9
 9
 9
 9
 9
 9
 9
 9
 9
 9
 9
 9
 9
 9
 9
 9
 9
 9
 9
 9
 9
 9
 9
 9
 9
 9
 9
 9
 9
 9
 9
 9
 9
 9
 9
 9
 9
 9
 9
 9
 9
 9
 9
 9
 9
 9
 9
 9
 9
 9
 9
 9
 9
 9
 9
 9
 9
 9
 9
 9
 9
 9
 9
 9
 9
 9
 9
 9
 9
 9
 9
 9
 9
 9
 9
 9
 9
 9
 9
 9
 9
 9
 9
 9
 9
 9
 9
 9
 9
 9
 9
 9
 9
 9
 9
 9
 9
 9
 9
 9
 9
 9
 9
 9
 9
 9
 9
 9
 9
 9
 9
 9
 9
 9
 9
 9
 9
 9
 9
 9
 9
 9
 9
 9
 9
 9
 9
 9
 9
 9
 9
 9
 9
 9
 9
 9
 9
 9
 9
 9
 9
 9
 9
 9
 9
 9
 9
 9
 9
 9
 9
 9
 9
 9
 9
 9
 9
 9
 9
 9
 9
 9
 9
 9
 9
 9
 9
 9
 9
 9
 9
 9
 9
 9
 9
 9
 9
 9
 9
 9
 9
 9
 9
 9
 9
 9
 9
 9
 9
 9
 9
 9
 9
 9
 9
 9
 9
 9
 9
 9
 9
 9
 9
 9
 9
 9
 9
 9
 9
 9
 9
 9
 9
 9
 9
 9
 9
 9
 9
 9
 9
 9
 9
 9
 9
 9
 9
 9
 9
 9
 9
 9
 9
 9
 9
 9
 9
 9
 9
 9
 9
 9
 9
 9
 9
 9
 9
 9
 9
 9
 9
 9
 9
 9
 9
 9
 9
 9
 9
 9
 9
 9
 9
 9
 9
 9
 9
 9
 9
 9
 9
 9
 9
 9
 9
 9
 9
 9
 9
 9
 9
 9
 9
 9
 9
 9
 9
 9
 9
 9
 9
 9
 9
 9
 9
 9
 9
 9
 9
 9
 9
 9
 9
 9
 9
 9
 9
 9
 9
 9
 9
 9
 9
 9
 9
 9
 9
 9
 9
 9
 9
 9
 9
 9
 9
 9
 9
 9
 9
 9
 9
 9
 9
 9
 9
 9
 9
 9
 9
 9
 9
 9
 9
 9
 9
 9
 9
 9
 9
 9
 9
 9
 9
 9
 9
 9
 9
 9
 9
 9
 9
 9
 9
 9
 9
 9
 9
 9
 9
 9
 9
 9
 9
 9
 9
 9
 9
 9
 9
 9
 9
 9
 9
 9
 9
 9
 9
 9
 9
 9
 9
 9
 9
 9
 9
 9
 9
 9
 9
 9
 9
 9
 9
 9
 9
 9
 9
 9
 9
 9
 9
 9
 9
 9
 9
 9
 9
 9
 9
 9
 9
 9
 9
 9
 9
 9
 9
 9
 9
 9
 9
 9
 9
 9
 9
 9
 9
 9
 9
 9
 9
 9
 9
 9
 9
 9
 9
 9
 9
 9
 9
 9
 9
 9
 9
 9
 9
 9
 9
 9
 9
 9
 9
 9
 9
 9
 9
 9
 9
 9
 9
 9
 9
 9
 9
 9
 9
 9
 9
 9
 9
 9
 9
 9
 9
 9
 9
 9
 9
 9
 9
 9
 9
 9
 9
 9
 9
 9
 9
 9
 9
 9
 9
 9
 9
 9
 9
 9
 9
 9
 9
 9
 9
 9
 9
 9
 9
 9
 9
 9
 9
 9
 9
 9
 9
 9
 9
 9
 9
 9
 9
 9
 9
 9
 9
 9
 9
 9
 9
 9
 9
 9
 9
 9
 9
 9
 9
 9
 9
 9
 9
 9
 9
 9
 9
 9
 9
 9
 9
 9
 9
 9
 9
 9
 9
 9
 9
 9
 9
 9
 9
 9
 9
 9
 9
 9
 9
 9
 9
 9
 9
 9
 9
 9
 9
 9
 9
 9
 9
 9
 9
 9
 9
 9
 9
 9
 9
 9
 9
 9
 9
 9
 9
 9
 9
 9
 9
 9
 9
 9
 9
 9
 9
 9
 9
 9
 9
 9
 9
 9
 9
 9
 9
 9
 9
 9
 9
 9
 9
 9
 9
 9
 9
 9
 9
 9
 9
 9
 9
 9
 9
 9
 9
 9
 9
 9
 9
 9
 9
 9
 9
 9
 9
 9
 9
 9
 9
 9
 9
 9
 9
 9
 9
 9
 9
 9
 9
 9
 9
 9
 9
 9
 9
 9
 9
 9
 9
 9
 9
 9
 9
 9
 9
 9
 9
 9
 9
 9
 9
 9
 9
 9
 9
 9
 9
 9
 9
 9
 9
 9
 9
 9
 9
 9
 9
 9
 9
 9
 9
 9
 9
 9
 9
 9
 9
 9
 9
 9
 9
 9
 9
 9
 9
 9
 9
 9
 9
 9
 9
 9
 9
 9
 9
 9
 9
 9
 9
 9
 9
 9
 9
 9
 9
 9
 9
 9
 9
 9
 9
 9
 9
 9
 9
 9
 9
 9
 9
 9
 9
 9
 9
 9
 9
 9
 9
 9
 9
 9
 9
 9
 9
 9
 9
 9
 9
 9
 9
 9
 9
 9
 9
 9
 9
 9
 9
 9
 9
 9
 9
 9
 9
 9
 9
 9
 9
 9
 9
 9
 9
 9
 9
 9
 9
 9
 9
 9
 9
 9
 9
 9
 9
 9
 9
 9
 9
 9
 9
 9
 9
 9
 9
 9
 9
 9
 9
 9
 9
 9
 9
 9
 9
 9
 9
 9
 9
 9
 9
 9
 9
 9
 9
 9
 9
 9
 9
 9
 9
 9
 9
 9
 9
 9
 9
 9
 9
 9
 9
 9
 9
 9
 9
 9
 9
 9
 9
 9
 9
 9
 9
 9
 9
 9
 9
 9
 9
 9
 9
 9
 9
 9
 9
 9
 9
 9
 9
 9
 9
 9
 9
 9
 9
 9
 9
 9
 9
 9
 9
 9
 9
 9
 9
 9
 9
 9
 9
 9
 9
 9
 9
 9
 9
 9
 9
 9
 9
 9
 9
 9
 9
 9
 9
 9
 9
 9
 9
 9
 9
 9
 9
 9
 9
 9
 9
 9
 9
 9
 9
 9
 9
 9
 9
 9
 9
 9
 9
 9
 9
 9
 9
 9
 9
 9
 9
 9
 9
 9
 9
 9
 9
 9
 9
 9
 9
 9
 9
 9
 9
 9
 9
 9
 9
 9
 9
 9
 9
 9
 9
 9
 9
 9
 9
 9
 9
 9
 9
 9
 9
 9
 9
 9
 9
 9
 9
 9
 9
 9
 9
 9
 9
 9
 9
 9
 9
 9
 9
 9
 9
 9
 9
 9
 9
 9
 9
 9
 9
 9
 9
 9
 9
 9
 9
 9
 9
 9
 9
 9
 9
 9
 9
 9
 9
 9
 9
 9
 9
 9
 9
 9
 9
 9
 9
 9
 9
 9
 9
 9
 9
 9
 9
 9
 9
 9
 9
 9
 9
 9
 9
 9
 9
 9
 9
 9
 9
 9
 9
 9
 9
 9
 9
 9
 9
 9
 9
 9
 9
 9
 9
 9
 9
 9
 9
 9
 9
 9
 9
 9
 9
 9
 9
 9
 9
 9
 9
 9
 9
 9
 9
 9
 9
 9
 9
 9
 9
 9
 9
 9
 9
 9
 9
 9
 9
 9
 9
 9
 9
 9
 9
 9
 9
 9
 9
 9
 9
 9
 9
 9
 9
 9
 9
 9
 9
 9
 9
 9
 9
 9
 9
 9
 9
 9
 9
 9
 9
 9
 9
 9
 9
 9
 9
 9
 9
 9
 9
 9
 9
 9
 9
 9
 9
 9
 9
 9
 9
 9
 9
 9
 9
 9
 9
 9
 9
 9
 9
 9
 9
 9
 9
 9
 9
 9
 9
 9
 9
 9
 9
 9
 9
 9
 9
 9
 9
 9
 9
 9
 9
 9
 9
 9
 9
 9
 9
 9
 9
 9
 9
 9
 9
 9
 9
 9
 9
 9
 9
 9
 9
 9
 9
 9
 9
 9
 9
 9
 9
 9
 9
 9
 9
 9
 9
 9
 9
 9
 9
 9
 9
 9
 9
 9
 9
 9
 9
 9
 9
 9
 9
 9
 9
 9
 9
 9
 9
 9
 9
 9
 9
 9
 9
 9
 9
 9
 9
 9
 9
 9
 9
 9
 9
 9
 9
 9
 9
 9
 9
 9
 9
 9
 9
 9
 9
 9
 9
 9
 9
 9
 9
 9
 9
 9
 9
 9
 9
 9
 9
 9
 9
 9
 9
 9
 9
 9
 9
 9
 9
 9
 9
 9
 9
 9
 9
 9
 9
 9
 9
 9
 9
 9
 9
 9
 9
 9
 9
 9
 9
 9
 9
 9
 9
 9
 9
 9
 9
 9
 9
 9
 9
 9
 9
 9
 9
 9
 9
 9
 9
 9
 9
 9
 9
 9
 9
 9
 9
 9
 9
 9
 9
 9
 9
 9
 9
 9
 9
 9
 9
 9
 9
 9
 9
 9
 9
 9
 9
 9
 9
 9
 9
 9
 9
 9
 9
 9
 9
 9
 9
 9
 9
 9
 9
 9
 9
 9
 9
 9
 9
 9
 9
 9
 9
 9
 9
 9
 9
 9
 9
 9
 9
 9
 9
 9
 9
 9
 9
 9
 9
 9
 9
 9
 9
 9
 9
 9
 9
 9
 9
 9
 9
 9
 9
 9
 9
 9
 9
 9
 9
 9
 9
 9
 9
 9
 9
 9
 9
 9
 9
 9
 9
 9
 9
 9
 9
 9
 9
 9
 9
 9
 9
 9
 9
 9
 9
 9
 9
 9
 9
 9
 9
 9
 9
 9
 9
 9
 9
 9
 9
 9
 9
 9
 9
 9
 9
 9
 9
 9
 9
 9
 9
 9
 9
 9
 9
 9
 9
 9
 9
 9
 9
 9
 9
 9
 9
 9
 9
 9
 9
 9
 9
 9
 9
 9
 9
 9
 9
 9
 9
 9
 9
 9
 9
 9
 9
 9
 9
 9
 9
 9
 9
 9
 9
 9
 9
 9
 9
 9
 9
 9
 9
 9
 9
 9
 9
 9
 9
 9
 9
 9
 9
 9
 9
 9
 9
 9
 9
 9
 9
 9
 9
 9
 9
 9
 9
 9
 9
 9
 9
 9
 9
 9
 9
 9
 9
 9
 9
 9
 9
 9
 9
 9
 9
 9
 9
 9
 9
 9
 9
 9
 9
 9
 9
 9
 9
 9
 9
 9
 9
 9
 9
 9
 9
 9
 9
 9
 9
 9
 9
 9
 9
 9
 9
 9
 9
 9
 9
 9
 9
 9
 9
 9
 9
 9
 9
 9
 9
 9
 9
 9
 9
 9
 9
 9
 9
 9
 9
 9
 9
 9
 9
 9
 9
 9
 9
 9
 9
 9
 9
 9
 9
 9
 9
 9
 9
 9
 9
 9
 9
 9
 9
 9
 9
 9
 9
 9
 9
 9
 9
 9
 9
 9
 9
 9
 9
 9
 9
 9
 9
 9
 9
 9
 9
 9
 9
 9
 9
 9
 9
 9
 9
 9
 9
 9
 9
 9
 9
 9
 9
 9
 9
 9
 9
 9
 9
 9
 9
 9
 9
 9
 9
 9
 9
 9
 9
 9
 9
 9
 9
 9
 9
 9
 9
 9
 9
 9
 9
 9
 9
 9
 9
 9
 9
 9
 9
 9
 9
 9
 9
 9
 9
 9
 9
 9
 9
 9
 9
 9
 9
 9
 9
 9
 9
 9
 9
 9
 9
 9
 9
 9
 9
 9
 9
 9
 9
 9
 9
 9
 9
 9
 9
 9
 9
 9
 9
 9
 9
 9
 9
 9
 9
 9
 9
 9
 9
 9
 9
 9
 9
 9
 9
 9
 9
 9
 9
 9
 9
 9
 9
 9
 9
 9
 9
 9
 9
 9
 9
 9
 9
 9
 9
 9
 9
 9
 9
 9
 9
 9
 9
 9
 9
 9
 9
 9
 9
 9
 9
 9
 9
 9
 9
 9
 9
 9
 9
 9
 9
 9
 9
 9
 9
 9
 9
 9
 9
 9
 9
 9
 9
 9
 9
 9
 9
 9
 9
 9
 9
 9
 9
 9
 9
 9
 9
 9
 9
 9
 9
 9
 9
 9
 9
 9
 9
 9
 9
 9
 9
 9
 9
 9
 9
 9
 9
 9
 9
 9
 9
 9
 9
 9
 9
 9
 9
 9
 9
 9
 9
 9
 9
 9
 9
 9
 9
 9
 9
 9
 9
 9
 9
 9
 9
 9
 9
 9
 9
 9
 9
 9
 9
 9
 9
 9
 9
 9
 9
 9
 9
 9
 9
 9
 9
 9
 9
 9
 9
 9
 9
 9
 9
 9
 9
 9
 9
 9
 9
 9
 9
 9
 9
 9
 9
 9
 9
 9
 9
 9
 9
 9
 9
 9
 9
 9
 9
 9
 9
 9
 9
 9
 9
 9
 9
 9
 9
 9
 9
 9
 9
 9
 9
 9
 9
 9
 9
 9
 9
 9
 9
 9
 9
 9
 9
 9
 9
 9
 9
 9
 9
 9
 9
 9
 9
 9
 9
 9
 9
 9
 9
 9
 9
 9
 9
 9
 9
 9
 9
 9
 9
 9
 9
 9
 9
 9
 9
 9
 9
 9
 9
 9
 9
 9
 9
 9
 9
 9
 9
 9
 9
 9
 9
 9
 9
 9
 9
 9
 9
 9
 9
 9
 9
 9
 9
 9
 9
 9
 9
 9
 9
 9
 9
 9
 9
 9
 9
 9
 9
 9
 9
 9
 9
 9
 9
 9
 9
 9
 9
 9
 9
 9
 9
 9
 9
 9
 9
 9
 9
 9
 9
 9
 9
 9
 9
 9
 9
 9
 9
 9
 9
 9
 9
 9
 9
 9
 9
 9
 9
 9
 9
 9
 9
 9
 9
 9
 9
 9
 9
 9
 9
 9
 9
 9
 9
 9
 9
 9
 9
 9
 9
 9
 9
 9
 9
 9
 9
 9
 9
 9
 9
 9
 9
 9
 9
 9
 9
 9
 9
 9
 9
 9
 9
 9
 9
 9
 9
 9
 9
 9
 9
 9
 9
 9
 9
 9
 9
 9
 9
 9
 9
 9
 9
 9
 9
 9
 9
 9
 9
 9
 9
 9
 9
 9
 9
 9
 9
 9
 9
 9
 9
 9
 9
 9
 9
 9
 9
 9
 9
 9
 9
 9
 9
 9
 9
 9
 9
 9
 9
 9
 9
 9
 9
 9
 9
 9
 9
 9
 9
 9
 9
 9
 9
 9
 9
 9
 9
 9
 9
 9
 9
 9
 9
 9
 9
 9
 9
 9
 9
 9
 9
 9
 9
 9
 9
 9
 9
 9
 9
 9
 9
 9
 9
 9
 9
 9
 9
 9
 9
 9
 9
 9
 9
 9
 9
 9
 9
 9
 9
 9
 9
 9
 9
 9
 9
 9
 9
 9
 9
 9
 9
 9
 9
 9
 9
 9
 9
 9
 9
 9
 9
 9
 9
 9
 9
 9
 9
 9
 9
 9
 9
 9
 9
 9
 9
 9
 9
 9
 9
 9
 9
 9
 9
 9
 9
 9
 9
 9
 9
 9
 9
 9
 9
 9
 9
 9
 9
 9
 9
 9
 9
 9
 9
 9
 9
 9
 9
 9
 9
 9
 9
 9
 9
 9
 9
 9
 9
 9
 9
 9
 9
 9
 9
 9
 9
 9
 9
 9
 9
 9
 9
 9
 9
 9
 9
 9
 9
 9
 9
 9
 9
 9
 9
 9
 9
 9
 9
 9
 9
 9
 9
 9
 9
 9
 9
 9
 9
 9
 9
 9
 9
 9
 9
 9
 9
 9
 9
 9
 9
 9
 9
 9
 9
 9
 9
 9
 9
 9
 9
 9
 9
 9
 9
 9
 9
 9
 9
 9
 9
 9
 9
 9
 9
 9
 9
 9
 9
 9
 9
 9
 9
 9
 9
 9
 9
 9
 9
 9
 9
 9
 9
 9
 9
 9
 9
 9
 9
 9
 9
 9
 9
 9
 9
 9
 9
 9
 9
 9
 9
 9
 9
 9
 9
 9
 9
 9
 9
 9
 9
 9
 9
 9
 9
 9
 9
 9
 9
 9
 9
 9
 9
 9
 9
 9
 9
 9
 9
 9
 9
 9
 9
 9
 9
 9
 9
 9
 9
 9
 9
 9
 9
 9
 9
 9
 9
 9
 9
 9
 9
 9
 9
 9
 9
 9
 9
 9
 9
 9
 9
 9
 9
 9
 9
 9
 9
 9
 9
 9
 9
 9
 9
 9
 9
 9
 9
 9
 9
 9
 9
 9
 9
 9
 9
 9
 9
 9
 9
 9
 9
 9
 9
 9
 9
 9
 9
 9
 9
 9
 9
 9
 9
 9
 9
 9
 9
 9
 9
 9
 9
 9
 9
 9
 9
 9
 9
 9
 9
 9
 9
 9
 9
 9
 9
 9
 9
 9
 9
 9
 9
 9
 9
 9
 9
 9
 9
 9
 9
 9
 9
 9
 9
 9
 9
 9
 9
 9
 9
 9
 9
 9
 9
 9
 9
 9
 9
 9
 9
 9
 9
 9
 9
 9
 9
 9
 9
 9
 9
 9
 9
 9
 9
 9
 9
 9
 9
 9
 9
 9
 9
 9
 9
 9
 9
 9
 9
 9
 9
 9
 9
 9
 9
 9
 9
 9
 9
 9
 9
 9
 9
 9
 9
 9
 9
 9
 9
 9
 9
 9
 9
 9
 9
 9
 9
 9
 9
 9
 9
 9
 9
 9
 9
 9
 9
 9
 9
 9
 9
 9
 9
 9
 9
 9
 9
 9
 9
 9
 9
 9
 9
 9
 9
 9
 9
 9
 9
 9
 9
 9
 9
 9
 9
 9
 9
 9
 9
 9
 9
 9
 9
 9
 9
 9
 9
 9
 9
 9
 9
 9
 9
 9
 9
 9
 9
 9
 9
 9
 9
 9
 9
 9
 9
 9
 9
 9
 9
 9
 9
 9
 9
 9
 9
 9
 9
 9
 9
 9
 9
 9
 9
 9
 9
 9
 9
 9
 9
 9
 9
 9
 9
 9
 9
 9
 9
 9
 9
 9
 9
 9
 9
 9
 9
 9
 9
 9
 9
 9
 9
 9
 9
 9
 9
 9
 9
 9
 9
 9
 9
 9
 9
 9
 9
 9
 9
 9
 9
 9
 9
 9
 9
 9
 9
 9
 9
 9
 9
 9
 9
 9
 9
 9
 9
 9
 9
 9
 9
 9
 9
 9
 9
 9
 9
 9
 9
 9
 9
 9
 9
 9
 9
 9
 9
 9
 9
 9
 9
 9
 9
 9
 9
 9
 9
 9
 9
 9
 9
 9
 9
 9
 9
 9
 9
 9
 9
 9
 9
 9
 9
 9
 9
 9
 9
 9
 9
 9
 9
 9
 9
 9
 9
 9
 9
 9
 9
 9
 9
 9
 9
 9
 9
 9
 9
 9
 9
 9
 9
 9
 9
 9
 9
 9
 9
 9
 9
 9
 9
 9
 9
 9
 9
 9
 9
 9
 9
 9
 9
 9
 9
 9
 9
 9
 9
 9
 9
 9
 9
 9
 9
 9
 9
 9
 9
 9
 9
 9
 9
 9
 9
 9
 9
 9
 9
 9
 9
 9
 9
 9
 9
 9
 9
 9
 9
 9
 9
 9
 9
 9
 9
 9
 9
 9
 9
 9
 9
 9
 9
 9
 9
 9
 9
 9
 9
 9
 9
 9
 9
 9
 9
 9
 9
 9
 9
 9
 9
 9
 9
 9
 9
 9
 9
 9
 9
 9
 9
 9
 9
 9
 9
 9
 9
 9
 9
 9
 9
 9
 9
 9
 9
 9
 9
 9
 9
 9
 9
 9
 9
 9
 </DataArray>
 </Cells> 
 <PointData>
 <DataArray  type="Float64" Name="disp" NumberOfComponents="3" format="ascii">
   3.7559801091963112E-006   1.4218158479147589E-005   0.0000000000000000     
   3.7637305631860911E-006   1.4338648592999242E-005   0.0000000000000000     
   3.7713594100390092E-006   1.4459378177057942E-005   0.0000000000000000     
   3.7788665960946829E-006   1.4580343540933955E-005   0.0000000000000000     
   3.7862520676927268E-006   1.4701540994237542E-005   0.0000000000000000     
   3.7935157711727582E-006   1.4822966846578962E-005   0.0000000000000000     
   3.8006576528743942E-006   1.4944617407568482E-005   0.0000000000000000     
   3.8076776591372502E-006   1.5066488986816359E-005   0.0000000000000000     
   3.8145757363009440E-006   1.5188577893932866E-005   0.0000000000000000     
   3.6357506411367043E-006   1.4215851559387280E-005   0.0000000000000000     
   3.6432592925276897E-006   1.4336377865810103E-005   0.0000000000000000     
   3.6506501702756287E-006   1.4457143464457369E-005   0.0000000000000000     
   3.6579232044832705E-006   1.4578144713583017E-005   0.0000000000000000     
   3.6650783252533619E-006   1.4699377971440978E-005   0.0000000000000000     
   3.6721154626886538E-006   1.4820839596285185E-005   0.0000000000000000     
   3.6790345468918918E-006   1.4942525946369569E-005   0.0000000000000000     
   3.6858355079658252E-006   1.5064433379948065E-005   0.0000000000000000     
   3.6925182760132015E-006   1.5186558255274602E-005   0.0000000000000000     
   3.5157931964984439E-006   1.4213618025153126E-005   0.0000000000000000     
   3.5230599825767965E-006   1.4334179116116855E-005   0.0000000000000000     
   3.5302127677326174E-006   1.4454979493146901E-005   0.0000000000000000     
   3.5372514852147899E-006   1.4576015519345556E-005   0.0000000000000000     
   3.5441760682721973E-006   1.4697283557815110E-005   0.0000000000000000     
   3.5509864501537231E-006   1.4818779971657854E-005   0.0000000000000000     
   3.5576825641082522E-006   1.4940501123976077E-005   0.0000000000000000     
   3.5642643433846655E-006   1.5062443377872071E-005   0.0000000000000000     
   3.5707317212318483E-006   1.5184603096448120E-005   0.0000000000000000     
   3.3960989565655952E-006   1.4211457844657447E-005   0.0000000000000000     
   3.4031238139484113E-006   1.4332052383139141E-005   0.0000000000000000     
   3.4100383973208749E-006   1.4452886332851836E-005   0.0000000000000000     
   3.4168426575775787E-006   1.4573956028236801E-005   0.0000000000000000     
   3.4235365456131183E-006   1.4695257803735319E-005   0.0000000000000000     
   3.4301200123220853E-006   1.4816787993788642E-005   0.0000000000000000     
   3.4365930085990741E-006   1.4938542932838062E-005   0.0000000000000000     
   3.4429554853386790E-006   1.5060518955324832E-005   0.0000000000000000     
   3.4492073934354935E-006   1.5182712395690248E-005   0.0000000000000000     
   3.2766591026222194E-006   1.4209370986112550E-005   0.0000000000000000     
   3.2834419672575320E-006   1.4329997706096611E-005   0.0000000000000000     
   3.2901182539513024E-006   1.4450864053297491E-005   0.0000000000000000     
   3.2966879408599794E-006   1.4571966310272008E-005   0.0000000000000000     
   3.3031510061400145E-006   1.4693300759576982E-005   0.0000000000000000     
   3.3095074279478584E-006   1.4814863683769232E-005   0.0000000000000000     
   3.3157571844399618E-006   1.4936651365405570E-005   0.0000000000000000     
   3.3219002537727739E-006   1.5058660087042818E-005   0.0000000000000000     
   3.3279366141027459E-006   1.5180886131237795E-005   0.0000000000000000     
   3.1574648159523791E-006   1.4207357417730754E-005   0.0000000000000000     
   3.1640056231191545E-006   1.4328015124208895E-005   0.0000000000000000     
   3.1704435325347951E-006   1.4448912724209149E-005   0.0000000000000000     
   3.1767785543503270E-006   1.4570046435466396E-005   0.0000000000000000     
   3.1830106987167732E-006   1.4691412475715486E-005   0.0000000000000000     
   3.1891399757851614E-006   1.4813007062691290E-005   0.0000000000000000     
   3.1951663957065141E-006   1.4934826414128668E-005   0.0000000000000000     
   3.2010899686318563E-006   1.5056866747762480E-005   0.0000000000000000     
   3.2069107047122141E-006   1.5179124281327600E-005   0.0000000000000000     
   3.0385072778401388E-006   1.4205417107724377E-005   0.0000000000000000     
   3.0448059621482768E-006   1.4326104676695634E-005   0.0000000000000000     
   3.0510054279822545E-006   1.4447032415312129E-005   0.0000000000000000     
   3.0571057173369609E-006   1.4568196473835209E-005   0.0000000000000000     
   3.0631068722072854E-006   1.4689593002526223E-005   0.0000000000000000     
   3.0690089345881125E-006   1.4811218151646503E-005   0.0000000000000000     
   3.0748119464743326E-006   1.4933068071457412E-005   0.0000000000000000     
   3.0805159498608346E-006   1.5055138912220279E-005   0.0000000000000000     
   3.0861209867425049E-006   1.5177426824196464E-005   0.0000000000000000     
   2.9197776695695612E-006   1.4203550024305736E-005   0.0000000000000000     
   2.9258341649598970E-006   1.4324266402776477E-005   0.0000000000000000     
   2.9317951352045799E-006   1.4445223196331727E-005   0.0000000000000000     
   2.9376606491082217E-006   1.4566416495393688E-005   0.0000000000000000     
   2.9434307754754349E-006   1.4687842390384558E-005   0.0000000000000000     
   2.9491055831108316E-006   1.4809496971726545E-005   0.0000000000000000     
   2.9546851408190213E-006   1.4931376329841853E-005   0.0000000000000000     
   2.9601695174046165E-006   1.5053476555152675E-005   0.0000000000000000     
   2.9655587816722298E-006   1.5175793738081221E-005   0.0000000000000000     
   2.8012671724247092E-006   1.4201756135687148E-005   0.0000000000000000     
   2.8070814121690116E-006   1.4322500341671062E-005   0.0000000000000000     
   2.8128038491126684E-006   1.4443485136993245E-005   0.0000000000000000     
   2.8184345689524466E-006   1.4564706570157061E-005   0.0000000000000000     
   2.8239736573851137E-006   1.4686160689665890E-005   0.0000000000000000     
   2.8294212001074358E-006   1.4807843544023096E-005   0.0000000000000000     
   2.8347772828161780E-006   1.4929751181732050E-005   0.0000000000000000     
   2.8400419912081095E-006   1.5051879651296123E-005   0.0000000000000000     
   2.8452154109799956E-006   1.5174225001218692E-005   0.0000000000000000     
   3.8145757363009440E-006   1.5188577893932866E-005   0.0000000000000000     
   3.8213518608794140E-006   1.5310880388671471E-005   0.0000000000000000     
   3.8280061300838991E-006   1.5433392531358515E-005   0.0000000000000000     
   3.8345386712999628E-006   1.5556110332463558E-005   0.0000000000000000     
   3.8409496119131629E-006   1.5679029802456144E-005   0.0000000000000000     
   3.8472390793090647E-006   1.5802146951805846E-005   0.0000000000000000     
   3.8534072008732267E-006   1.5925457790982196E-005   0.0000000000000000     
   3.8594541039912133E-006   1.6048958330454760E-005   0.0000000000000000     
   3.8653799160485857E-006   1.6172644580693095E-005   0.0000000000000000     
   3.6925182760132015E-006   1.5186558255274602E-005   0.0000000000000000     
   3.6990828233043190E-006   1.5308896862206019E-005   0.0000000000000000     
   3.7055292907796859E-006   1.5431445217010830E-005   0.0000000000000000     
   3.7118578615473543E-006   1.5554199267560420E-005   0.0000000000000000     
   3.7180687187153835E-006   1.5677154961726213E-005   0.0000000000000000     
   3.7241620453918283E-006   1.5800308247379615E-005   0.0000000000000000     
   3.7301380246847448E-006   1.5923655072392032E-005   0.0000000000000000     
   3.7359968397021890E-006   1.6047191384634863E-005   0.0000000000000000     
   3.7417386735522194E-006   1.6170913131979538E-005   0.0000000000000000     
   3.5707317212318483E-006   1.5184603096448120E-005   0.0000000000000000     
   3.5770846752287807E-006   1.5306976570311717E-005   0.0000000000000000     
   3.5833233602748271E-006   1.5429559800091137E-005   0.0000000000000000     
   3.5894479755994520E-006   1.5552348713919858E-005   0.0000000000000000     
   3.5954587204321180E-006   1.5675339239931351E-005   0.0000000000000000     
   3.6013557940022860E-006   1.5798527306259089E-005   0.0000000000000000     
   3.6071393955394207E-006   1.5921908841036567E-005   0.0000000000000000     
   3.6128097242729848E-006   1.6045479772397239E-005   0.0000000000000000     
   3.6183669794324397E-006   1.6169236028474587E-005   0.0000000000000000     
   3.4492073934354935E-006   1.5182712395690248E-005   0.0000000000000000     
   3.4553487226321768E-006   1.5305119522987289E-005   0.0000000000000000     
   3.4613796180636524E-006   1.5427736344715877E-005   0.0000000000000000     
   3.4673002637129057E-006   1.5550558802987646E-005   0.0000000000000000     
   3.4731108435629253E-006   1.5673582839914228E-005   0.0000000000000000     
   3.4788115415966986E-006   1.5796804397607262E-005   0.0000000000000000     
   3.4844025417972137E-006   1.5920219418178383E-005   0.0000000000000000     
   3.4898840281474573E-006   1.6043823843739233E-005   0.0000000000000000     
   3.4952561846304192E-006   1.6167613616401437E-005   0.0000000000000000     
   3.3279366141027459E-006   1.5180886131237795E-005   0.0000000000000000     
   3.3338662714938932E-006   1.5303325730231479E-005   0.0000000000000000     
   3.3396893436404882E-006   1.5425974915001483E-005   0.0000000000000000     
   3.3454059761443669E-006   1.5548829666209569E-005   0.0000000000000000     
   3.3510163146073674E-006   1.5671885964517515E-005   0.0000000000000000     
   3.3565205046313265E-006   1.5795139790587089E-005   0.0000000000000000     
   3.3619186918180815E-006   1.5918587125080056E-005   0.0000000000000000     
   3.3672110217694678E-006   1.6042223948658198E-005   0.0000000000000000     
   3.3723976400873253E-006   1.6166046241983276E-005   0.0000000000000000     
   3.2069107047122141E-006   1.5179124281327600E-005   0.0000000000000000     
   3.2126286277933092E-006   1.5301595202043025E-005   0.0000000000000000     
   3.2182438164996610E-006   1.5424275575064379E-005   0.0000000000000000     
   3.2237563631504874E-006   1.5547161435031405E-005   0.0000000000000000     
   3.2291663600650041E-006   1.5670248816583874E-005   0.0000000000000000     
   3.2344738995624307E-006   1.5793533754361543E-005   0.0000000000000000     
   3.2396790739619807E-006   1.5917012283004160E-005   0.0000000000000000     
   3.2447819755828736E-006   1.6040680437151480E-005   0.0000000000000000     
   3.2497826967443269E-006   1.6164534251443279E-005   0.0000000000000000     
   3.0861209867425049E-006   1.5177426824196464E-005   0.0000000000000000     
   3.0916270975098060E-006   1.5299927948420663E-005   0.0000000000000000     
   3.0970343161354991E-006   1.5422638389020997E-005   0.0000000000000000     
   3.1023426749879182E-006   1.5545554240898945E-005   0.0000000000000000     
   3.1075522064353963E-006   1.5668671598955979E-005   0.0000000000000000     
   3.1126629428462692E-006   1.5791986558093596E-005   0.0000000000000000     
   3.1176749165888703E-006   1.5915495213213256E-005   0.0000000000000000     
   3.1225881600315344E-006   1.6039193659216440E-005   0.0000000000000000     
   3.1274027055425956E-006   1.6163077991004647E-005   0.0000000000000000     
   2.9655587816722298E-006   1.5175793738081221E-005   0.0000000000000000     
   2.9708529866227676E-006   1.5298323979363121E-005   0.0000000000000000     
   2.9760521220423300E-006   1.5421063420987771E-005   0.0000000000000000     
   2.9811561619133112E-006   1.5544008215257954E-005   0.0000000000000000     
   2.9861650802181041E-006   1.5667154514476505E-005   0.0000000000000000     
   2.9910788509391043E-006   1.5790498470946224E-005   0.0000000000000000     
   2.9958974480587079E-006   1.5914036236969927E-005   0.0000000000000000     
   3.0006208455593075E-006   1.6037763964850432E-005   0.0000000000000000     
   3.0052490174232987E-006   1.6161677806890543E-005   0.0000000000000000     
   2.8452154109799956E-006   1.5174225001218692E-005   0.0000000000000000     
   2.8502976011115747E-006   1.5296783304869159E-005   0.0000000000000000     
   2.8552885137144805E-006   1.5419550735081125E-005   0.0000000000000000     
   2.8601880741833152E-006   1.5542523489554224E-005   0.0000000000000000     
   2.8649962079126860E-006   1.5665697765988103E-005   0.0000000000000000     
   2.8697128402971957E-006   1.5789069762082403E-005   0.0000000000000000     
   2.8743378967314498E-006   1.5912635675536751E-005   0.0000000000000000     
   2.8788713026100526E-006   1.6036391704050804E-005   0.0000000000000000     
   2.8833129833276080E-006   1.6160334045324186E-005   0.0000000000000000     
   3.8653799160485857E-006   1.6172644580693095E-005   0.0000000000000000     
   3.8711847934045519E-006   1.6296512619822883E-005   0.0000000000000000     
   3.8768690083129112E-006   1.6420558796594360E-005   0.0000000000000000     
   3.8824328620011133E-006   1.6544779527413878E-005   0.0000000000000000     
   3.8878766556966001E-006   1.6669171228687803E-005   0.0000000000000000     
   3.8932006906268213E-006   1.6793730316822493E-005   0.0000000000000000     
   3.8984052680192233E-006   1.6918453208224313E-005   0.0000000000000000     
   3.9034906891012522E-006   1.7043336319299615E-005   0.0000000000000000     
   3.9084572551003552E-006   1.7168376066454777E-005   0.0000000000000000     
   3.7417386735522194E-006   1.6170913131979538E-005   0.0000000000000000     
   3.7473636996035017E-006   1.6294816357186715E-005   0.0000000000000000     
   3.7528720522671601E-006   1.6418897482574150E-005   0.0000000000000000     
   3.7582638562149272E-006   1.6543153025348856E-005   0.0000000000000000     
   3.7635392361185390E-006   1.6667579502717851E-005   0.0000000000000000     
   3.7686983166497292E-006   1.6792173431888159E-005   0.0000000000000000     
   3.7737412224802332E-006   1.6916931330066787E-005   0.0000000000000000     
   3.7786680782817841E-006   1.7041849714460752E-005   0.0000000000000000     
   3.7834790087261177E-006   1.7166925102277068E-005   0.0000000000000000     
   3.6183669794324397E-006   1.6169236028474587E-005   0.0000000000000000     
   3.6238113308394530E-006   1.6293173640918729E-005   0.0000000000000000     
   3.6291428306845058E-006   1.6417289055446322E-005   0.0000000000000000     
   3.6343615017502835E-006   1.6541578821290672E-005   0.0000000000000000     
   3.6394673668194714E-006   1.6666039487685073E-005   0.0000000000000000     
   3.6444604486747533E-006   1.6790667603862830E-005   0.0000000000000000     
   3.6493407700988159E-006   1.6915459719057242E-005   0.0000000000000000     
   3.6541083538743447E-006   1.7040412382501610E-005   0.0000000000000000     
   3.6587632227840232E-006   1.7165522143429238E-005   0.0000000000000000     
   3.4952561846304192E-006   1.6167613616401437E-005   0.0000000000000000     
   3.5005191612931472E-006   1.6291584775799114E-005   0.0000000000000000     
   3.5056729724389498E-006   1.6415733751656292E-005   0.0000000000000000     
   3.5107175984351973E-006   1.6540057071219445E-005   0.0000000000000000     
   3.5156530196492567E-006   1.6664551261735067E-005   0.0000000000000000     
   3.5204792164484993E-006   1.6789212850449666E-005   0.0000000000000000     
   3.5251961692002955E-006   1.6914038364609718E-005   0.0000000000000000     
   3.5298038582720139E-006   1.7039024331461719E-005   0.0000000000000000     
   3.5343022640310259E-006   1.7164167278252177E-005   0.0000000000000000     
   3.3723976400873253E-006   1.6166046241983276E-005   0.0000000000000000     
   3.3774786651453245E-006   1.6290050066608077E-005   0.0000000000000000     
   3.3824541064044904E-006   1.6414231807649460E-005   0.0000000000000000     
   3.3873239460976798E-006   1.6538587931115295E-005   0.0000000000000000     
   3.3920881664577554E-006   1.6663114903013461E-005   0.0000000000000000     
   3.3967467497175717E-006   1.6787809189351817E-005   0.0000000000000000     
   3.4012996781099921E-006   1.6912667256138235E-005   0.0000000000000000     
   3.4057469338678748E-006   1.7037685569380602E-005   0.0000000000000000     
   3.4100884992240780E-006   1.7162860595086770E-005   0.0000000000000000     
   3.2497826967443269E-006   1.6164534251443279E-005   0.0000000000000000     
   3.2546813165767252E-006   1.6288569818125793E-005   0.0000000000000000     
   3.2594778614551247E-006   1.6412783459871253E-005   0.0000000000000000     
   3.2641723445657503E-006   1.6537171556958372E-005   0.0000000000000000     
   3.2687647790948255E-006   1.6661730489665863E-005   0.0000000000000000     
   3.2732551782285772E-006   1.6786456638272450E-005   0.0000000000000000     
   3.2776435551532290E-006   1.6911346383056841E-005   0.0000000000000000     
   3.2819299230550051E-006   1.7036396104297756E-005   0.0000000000000000     
   3.2861142951201313E-006   1.7161602182273918E-005   0.0000000000000000     
   3.1274027055425956E-006   1.6163077991004647E-005   0.0000000000000000     
   3.1321185897680887E-006   1.6287144335132457E-005   0.0000000000000000     
   3.1367358664648503E-006   1.6411388944767072E-005   0.0000000000000000     
   3.1412545936674182E-006   1.6535808104728780E-005   0.0000000000000000     
   3.1456748294103276E-006   1.6660398099837888E-005   0.0000000000000000     
   3.1499966317281185E-006   1.6785155214914719E-005   0.0000000000000000     
   3.1542200586553260E-006   1.6910075734779558E-005   0.0000000000000000     
   3.1583451682264863E-006   1.7035155944252722E-005   0.0000000000000000     
   3.1623720184761409E-006   1.7160392128154524E-005   0.0000000000000000     
   3.0052490174232987E-006   1.6161677806890543E-005   0.0000000000000000     
   3.0097819589001575E-006   1.6285773922408270E-005   0.0000000000000000     
   3.0142197503076675E-006   1.6410048498782326E-005   0.0000000000000000     
   3.0185624932306996E-006   1.6534497730406649E-005   0.0000000000000000     
   3.0228102892541226E-006   1.6659117811675164E-005   0.0000000000000000     
   3.0269632399628009E-006   1.6783904936981776E-005   0.0000000000000000     
   3.0310214469416058E-006   1.6908855300720420E-005   0.0000000000000000     
   3.0349850117754029E-006   1.7033965097285011E-005   0.0000000000000000     
   3.0388540360490584E-006   1.7159230521069457E-005   0.0000000000000000     
   2.8833129833276080E-006   1.6160334045324186E-005   0.0000000000000000     
   2.8876628981536681E-006   1.6284458884733403E-005   0.0000000000000000     
   2.8919211418575736E-006   1.6408762358362436E-005   0.0000000000000000     
   2.8960878430836112E-006   1.6533240589972118E-005   0.0000000000000000     
   2.9001631304760677E-006   1.6657889703323289E-005   0.0000000000000000     
   2.9041471326792316E-006   1.6782705822176791E-005   0.0000000000000000     
   2.9080399783373888E-006   1.6907685070293455E-005   0.0000000000000000     
   2.9118417960948294E-006   1.7032823571434132E-005   0.0000000000000000     
   2.9155527145958376E-006   1.7158117449359646E-005   0.0000000000000000     
   3.9084572551003552E-006   1.7168376066454777E-005   0.0000000000000000     
   3.9133052900702256E-006   1.7293568805288903E-005   0.0000000000000000     
   3.9180352093695492E-006   1.7418910648172204E-005   0.0000000000000000     
   3.9226474511832613E-006   1.7544397646667635E-005   0.0000000000000000     
   3.9271424536962914E-006   1.7670025852338135E-005   0.0000000000000000     
   3.9315206550935730E-006   1.7795791316746678E-005   0.0000000000000000     
   3.9357824935600400E-006   1.7921690091456208E-005   0.0000000000000000     
   3.9399284072806250E-006   1.8047718228029685E-005   0.0000000000000000     
   3.9439588344402625E-006   1.8173871778030079E-005   0.0000000000000000     
   3.7834790087261177E-006   1.7166925102277068E-005   0.0000000000000000     
   3.7881742500450371E-006   1.7292153890529351E-005   0.0000000000000000     
   3.7927544847106225E-006   1.7417531995457567E-005   0.0000000000000000     
   3.7972205067550239E-006   1.7543055213108267E-005   0.0000000000000000     
   3.8015731102103922E-006   1.7668719339528011E-005   0.0000000000000000     
   3.8058130891088751E-006   1.7794520170763365E-005   0.0000000000000000     
   3.8099412374826234E-006   1.7920453502860886E-005   0.0000000000000000     
   3.8139583493637865E-006   1.8046515131867124E-005   0.0000000000000000     
   3.8178652187845144E-006   1.8172700853828648E-005   0.0000000000000000     
   3.6587632227840232E-006   1.7165522143429238E-005   0.0000000000000000     
   3.6633055534125002E-006   1.7290785405541502E-005   0.0000000000000000     
   3.6677361375522712E-006   1.7416197990412077E-005   0.0000000000000000     
   3.6720559207977968E-006   1.7541755574082725E-005   0.0000000000000000     
   3.6762658487435336E-006   1.7667453832595211E-005   0.0000000000000000     
   3.6803668669839421E-006   1.7793288441991291E-005   0.0000000000000000     
   3.6843599211134800E-006   1.7919255078312726E-005   0.0000000000000000     
   3.6882459567266077E-006   1.8045349417601269E-005   0.0000000000000000     
   3.6920259194177821E-006   1.8171567135898681E-005   0.0000000000000000     
   3.5343022640310259E-006   1.7164167278252177E-005   0.0000000000000000     
   3.5386915255369424E-006   1.7289463588570113E-005   0.0000000000000000     
   3.5429724166183625E-006   1.7414909071374814E-005   0.0000000000000000     
   3.5471458697961196E-006   1.7540499391968091E-005   0.0000000000000000     
   3.5512128175910539E-006   1.7666230215651765E-005   0.0000000000000000     
   3.5551741925240058E-006   1.7792097207727655E-005   0.0000000000000000     
   3.5590309271158099E-006   1.7918096033497571E-005   0.0000000000000000     
   3.5627839538873070E-006   1.8044222358263348E-005   0.0000000000000000     
   3.5664342053593353E-006   1.8170471847326806E-005   0.0000000000000000     
   3.4100884992240780E-006   1.7162860595086770E-005   0.0000000000000000     
   3.4143244917826945E-006   1.7288188677859975E-005   0.0000000000000000     
   3.4184555706327581E-006   1.7413665676684864E-005   0.0000000000000000     
   3.4224825302345343E-006   1.7539287329141436E-005   0.0000000000000000     
   3.4264061650482920E-006   1.7665049372809699E-005   0.0000000000000000     
   3.4302272695342935E-006   1.7790947545269645E-005   0.0000000000000000     
   3.4339466381528071E-006   1.7916977584101274E-005   0.0000000000000000     
   3.4375650653641019E-006   1.8043135226884611E-005   0.0000000000000000     
   3.4410833456284387E-006   1.8169416211199628E-005   0.0000000000000000     
   3.2861142951201313E-006   1.7161602182273918E-005   0.0000000000000000     
   3.2901967775140807E-006   1.7286960911655845E-005   0.0000000000000000     
   3.2941778483193249E-006   1.7412468244681295E-005   0.0000000000000000     
   3.2980580785975856E-006   1.7538120047979841E-005   0.0000000000000000     
   3.3018380394105839E-006   1.7663912188181042E-005   0.0000000000000000     
   3.3055183018200394E-006   1.7789840531914468E-005   0.0000000000000000     
   3.3090994368876726E-006   1.7915900945809687E-005   0.0000000000000000     
   3.3125820156752055E-006   1.8042089296496264E-005   0.0000000000000000     
   3.3159666092443593E-006   1.8168401450603777E-005   0.0000000000000000     
   3.1623720184761409E-006   1.7160392128154524E-005   0.0000000000000000     
   3.1663007080954290E-006   1.7285780528202494E-005   0.0000000000000000     
   3.1701314984019265E-006   1.7411317213703191E-005   0.0000000000000000     
   3.1738646913698130E-006   1.7536998210860371E-005   0.0000000000000000     
   3.1775005889732651E-006   1.7662819545877825E-005   0.0000000000000000     
   3.1810394931864693E-006   1.7788777244959328E-005   0.0000000000000000     
   3.1844817059835994E-006   1.7914867334308647E-005   0.0000000000000000     
   3.1878275293388382E-006   1.8041085840129566E-005   0.0000000000000000     
   3.1910772652263647E-006   1.8167428788625870E-005   0.0000000000000000     
   3.0388540360490584E-006   1.7159230521069457E-005   0.0000000000000000     
   3.0426286088910697E-006   1.7284647765744705E-005   0.0000000000000000     
   3.0463087696044278E-006   1.7410213022089627E-005   0.0000000000000000     
   3.0498945450357565E-006   1.7535922480160124E-005   0.0000000000000000     
   3.0533859620316798E-006   1.7661772330012094E-005   0.0000000000000000     
   3.0567830474388149E-006   1.7787758761701423E-005   0.0000000000000000     
   3.0600858281037869E-006   1.7913877965284007E-005   0.0000000000000000     
   3.0632943308732151E-006   1.8040126130815746E-005   0.0000000000000000     
   3.0664085825937201E-006   1.8166499448352513E-005   0.0000000000000000     
   2.9155527145958376E-006   1.7158117449359646E-005   0.0000000000000000     
   2.9191728052653245E-006   1.7283562862527231E-005   0.0000000000000000     
   2.9227019106506923E-006   1.7409156108179676E-005   0.0000000000000000     
   2.9261398160799623E-006   1.7534893518256161E-005   0.0000000000000000     
   2.9294863068811596E-006   1.7660771424695855E-005   0.0000000000000000     
   2.9327411683823080E-006   1.7786786159437946E-005   0.0000000000000000     
   2.9359041859114307E-006   1.7912934054421608E-005   0.0000000000000000     
   2.9389751447965521E-006   1.8039211441586019E-005   0.0000000000000000     
   2.9419538303656950E-006   1.8165614652870352E-005   0.0000000000000000     
   3.9439588344402625E-006   1.8173871778030079E-005   0.0000000000000000     
   3.9478745492135521E-006   1.8300147105079753E-005   0.0000000000000000     
   3.9516776697337762E-006   1.8426541821038844E-005   0.0000000000000000     
   3.9553706501238874E-006   1.8553053849826894E-005   0.0000000000000000     
   3.9589559445068340E-006   1.8679681115363429E-005   0.0000000000000000     
   3.9624360070055686E-006   1.8806421541568019E-005   0.0000000000000000     
   3.9658132917430396E-006   1.8933273052360199E-005   0.0000000000000000     
   3.9690902528422002E-006   1.9060233571659512E-005   0.0000000000000000     
   3.9722693444260023E-006   1.9187301023385517E-005   0.0000000000000000     
   3.8178652187845144E-006   1.8172700853828648E-005   0.0000000000000000     
   3.8216627069955782E-006   1.8299006894996088E-005   0.0000000000000000     
   3.8253519441222413E-006   1.8425431202436419E-005   0.0000000000000000     
   3.8289341275083846E-006   1.8551972153420680E-005   0.0000000000000000     
   3.8324104544978952E-006   1.8678628125219921E-005   0.0000000000000000     
   3.8357821224346574E-006   1.8805397495105191E-005   0.0000000000000000     
   3.8390503286625522E-006   1.8932278640347535E-005   0.0000000000000000     
   3.8422162705254664E-006   1.9059269938218000E-005   0.0000000000000000     
   3.8452811453672819E-006   1.9186369765987637E-005   0.0000000000000000     
   3.6920259194177821E-006   1.8171567135898681E-005   0.0000000000000000     
   3.6957006559339097E-006   1.8297904397633509E-005   0.0000000000000000     
   3.6992706176316781E-006   1.8424359320781423E-005   0.0000000000000000     
   3.7027361570202228E-006   1.8550930511704890E-005   0.0000000000000000     
   3.7060976266086796E-006   1.8677616576766366E-005   0.0000000000000000     
   3.7093553789061822E-006   1.8804416122328308E-005   0.0000000000000000     
   3.7125097664218649E-006   1.8931327754753180E-005   0.0000000000000000     
   3.7155611416648654E-006   1.9058350080403441E-005   0.0000000000000000     
   3.7185098571443159E-006   1.9185481705641548E-005   0.0000000000000000     
   3.5664342053593353E-006   1.8170471847326806E-005   0.0000000000000000     
   3.5699824334154657E-006   1.8296840663800175E-005   0.0000000000000000     
   3.5734286673902047E-006   1.8423326962037441E-005   0.0000000000000000     
   3.5767727559807911E-006   1.8549929394202987E-005   0.0000000000000000     
   3.5800145478844612E-006   1.8676646612461202E-005   0.0000000000000000     
   3.5831538917984564E-006   1.8803477268976496E-005   0.0000000000000000     
   3.5861906364200144E-006   1.8930420015913241E-005   0.0000000000000000     
   3.5891246304463718E-006   1.9057473505435850E-005   0.0000000000000000     
   3.5919557225747726E-006   1.9184636389708710E-005   0.0000000000000000     
   3.4410833456284387E-006   1.8169416211199628E-005   0.0000000000000000     
   3.4445020768271647E-006   1.8295816744304258E-005   0.0000000000000000     
   3.4478210705259332E-006   1.8422334912168034E-005   0.0000000000000000     
   3.4510399417114734E-006   1.8548969270438419E-005   0.0000000000000000     
   3.4541583053705174E-006   1.8675718374762884E-005   0.0000000000000000     
   3.4571757764897925E-006   1.8802580780788862E-005   0.0000000000000000     
   3.4600919700560300E-006   1.8929555044163830E-005   0.0000000000000000     
   3.4629065010559640E-006   1.9056639720535244E-005   0.0000000000000000     
   3.4656189844763202E-006   1.9183833365550548E-005   0.0000000000000000     
   3.3159666092443593E-006   1.8168401450603777E-005   0.0000000000000000     
   3.3192536235559261E-006   1.8294833689953892E-005   0.0000000000000000     
   3.3224428041669777E-006   1.8421383957136771E-005   0.0000000000000000     
   3.3255337315336623E-006   1.8548050609934665E-005   0.0000000000000000     
   3.3285259861121222E-006   1.8674832006129832E-005   0.0000000000000000     
   3.3314191483585041E-006   1.8801726503504544E-005   0.0000000000000000     
   3.3342127987289509E-006   1.8928732459841049E-005   0.0000000000000000     
   3.3369065176796105E-006   1.9055848232921615E-005   0.0000000000000000     
   3.3394998856666262E-006   1.9183072180528521E-005   0.0000000000000000     
   3.1910772652263647E-006   1.8167428788625870E-005   0.0000000000000000     
   3.1942311109886656E-006   1.8293892551557256E-005   0.0000000000000000     
   3.1972888454414528E-006   1.8420474882907225E-005   0.0000000000000000     
   3.2002501427687424E-006   1.8547173882215159E-005   0.0000000000000000     
   3.2031146771545527E-006   1.8673987649020495E-005   0.0000000000000000     
   3.2058821227829031E-006   1.8800914282862638E-005   0.0000000000000000     
   3.2085521538378084E-006   1.8927951883281009E-005   0.0000000000000000     
   3.2111244445032869E-006   1.9055098549815010E-005   0.0000000000000000     
   3.2135986689633588E-006   1.9182352382004060E-005   0.0000000000000000     
   3.0664085825937201E-006   1.8166499448352513E-005   0.0000000000000000     
   3.0694285765123047E-006   1.8292994379922510E-005   0.0000000000000000     
   3.0723541714774707E-006   1.8419608475442948E-005   0.0000000000000000     
   3.0751851927381031E-006   1.8546339556803378E-005   0.0000000000000000     
   3.0779214655430871E-006   1.8673185445893321E-005   0.0000000000000000     
   3.0805628151413021E-006   1.8800143964602287E-005   0.0000000000000000     
   3.0831090667816350E-006   1.8927212934819808E-005   0.0000000000000000     
   3.0855600457129696E-006   1.9054390178435413E-005   0.0000000000000000     
   3.0879155771841854E-006   1.9181673517338606E-005   0.0000000000000000     
   2.9419538303656950E-006   1.8165614652870352E-005   0.0000000000000000     
   2.9448400575137586E-006   1.8292140225857791E-005   0.0000000000000000     
   2.9476337594031459E-006   1.8418785520707537E-005   0.0000000000000000     
   2.9503348987631323E-006   1.8545548103222781E-005   0.0000000000000000     
   2.9529434383229961E-006   1.8672425539206737E-005   0.0000000000000000     
   2.9554593408120164E-006   1.8799415394462592E-005   0.0000000000000000     
   2.9578825689594672E-006   1.8926515234793555E-005   0.0000000000000000     
   2.9602130854946278E-006   1.9053722626002837E-005   0.0000000000000000     
   2.9624508531467755E-006   1.9181035133893622E-005   0.0000000000000000     
   3.9722693444260023E-006   1.9187301023385517E-005   0.0000000000000000     
   3.9753527482704011E-006   1.9314473755678335E-005   0.0000000000000000     
   3.9783415567633885E-006   1.9441751813560482E-005   0.0000000000000000     
   3.9812365899459627E-006   1.9569135666275037E-005   0.0000000000000000     
   3.9840386678591202E-006   1.9696625783065099E-005   0.0000000000000000     
   3.9867486105438589E-006   1.9824222633173756E-005   0.0000000000000000     
   3.9893672380411754E-006   1.9951926685844108E-005   0.0000000000000000     
   3.9918953703920685E-006   2.0079738410319234E-005   0.0000000000000000     
   3.9943338276375363E-006   2.0207658275842240E-005   0.0000000000000000     
   3.8452811453672819E-006   1.9186369765987637E-005   0.0000000000000000     
   3.8482463585527734E-006   1.9313576655268542E-005   0.0000000000000000     
   3.8511141475302740E-006   1.9440889755037084E-005   0.0000000000000000     
   3.8538869577690039E-006   1.9568308368610669E-005   0.0000000000000000     
   3.8565672347381858E-006   1.9695831799306720E-005   0.0000000000000000     
   3.8591574239070440E-006   1.9823459350442655E-005   0.0000000000000000     
   3.8616599707447987E-006   1.9951190325335884E-005   0.0000000000000000     
   3.8640773207206708E-006   2.0079024027303820E-005   0.0000000000000000     
   3.8664119193038829E-006   2.0206959759663893E-005   0.0000000000000000     
   3.7185098571443159E-006   1.9185481705641548E-005   0.0000000000000000     
   3.7213567379406586E-006   1.9312721239380113E-005   0.0000000000000000     
   3.7241044994195566E-006   1.9440067300732343E-005   0.0000000000000000     
   3.7267563295179826E-006   1.9567518511361601E-005   0.0000000000000000     
   3.7293154161729040E-006   1.9695073492931247E-005   0.0000000000000000     
   3.7317849473212924E-006   1.9822730867104641E-005   0.0000000000000000     
   3.7341681109001194E-006   1.9950489255545142E-005   0.0000000000000000     
   3.7364680948463539E-006   2.0078347279916107E-005   0.0000000000000000     
   3.7386880870969662E-006   2.0206303561880896E-005   0.0000000000000000     
   3.5919557225747726E-006   1.9184636389708710E-005   0.0000000000000000     
   3.5946843239916173E-006   1.9311907267602621E-005   0.0000000000000000     
   3.5973130958399848E-006   1.9439284524814084E-005   0.0000000000000000     
   3.5998452617521153E-006   1.9566766493745999E-005   0.0000000000000000     
   3.6022840453602518E-006   1.9694351506801261E-005   0.0000000000000000     
   3.6046326702966372E-006   1.9822037896382783E-005   0.0000000000000000     
   3.6068943601935119E-006   1.9949823994893461E-005   0.0000000000000000     
   3.6090723386831203E-006   2.0077708134736201E-005   0.0000000000000000     
   3.6111698293977057E-006   2.0205688648313908E-005   0.0000000000000000     
   3.4656189844763202E-006   1.9183833365550548E-005   0.0000000000000000     
   3.4682295542632150E-006   1.9311134499525641E-005   0.0000000000000000     
   3.4707404202003023E-006   1.9438541501450118E-005   0.0000000000000000     
   3.4731543110306203E-006   1.9566052714981999E-005   0.0000000000000000     
   3.4754739554972093E-006   1.9693666483779335E-005   0.0000000000000000     
   3.4777020823431046E-006   1.9821381151500121E-005   0.0000000000000000     
   3.4798414203113460E-006   1.9949195061802405E-005   0.0000000000000000     
   3.4818946981449728E-006   2.0077106558344218E-005   0.0000000000000000     
   3.4838646445870212E-006   2.0205113984783570E-005   0.0000000000000000     
   3.3394998856666262E-006   1.9183072180528521E-005   0.0000000000000000     
   3.3419928663130118E-006   1.9310402694738747E-005   0.0000000000000000     
   3.3443869559092563E-006   1.9437838304808261E-005   0.0000000000000000     
   3.3466840339127192E-006   1.9565377574287791E-005   0.0000000000000000     
   3.3488859797807567E-006   1.9693019066728044E-005   0.0000000000000000     
   3.3509946729707302E-006   1.9820761345679728E-005   0.0000000000000000     
   3.3530119929399950E-006   1.9948602974693565E-005   0.0000000000000000     
   3.3549398191459086E-006   2.0076542517320255E-005   0.0000000000000000     
   3.3567800310458345E-006   2.0204578537110523E-005   0.0000000000000000     
   3.2135986689633588E-006   1.9182352382004060E-005   0.0000000000000000     
   3.2159746976985686E-006   1.9309711612831491E-005   0.0000000000000000     
   3.2182531863755905E-006   1.9437175009056330E-005   0.0000000000000000     
   3.2204349869576256E-006   1.9564741470881507E-005   0.0000000000000000     
   3.2225209514078747E-006   1.9692409898509964E-005   0.0000000000000000     
   3.2245119316895411E-006   1.9820179192144653E-005   0.0000000000000000     
   3.2264087797658265E-006   1.9948048251988494E-005   0.0000000000000000     
   3.2282123475999330E-006   2.0076015978244432E-005   0.0000000000000000     
   3.2299234871550633E-006   2.0204081271115419E-005   0.0000000000000000     
   3.0879155771841854E-006   1.9181673517338606E-005   0.0000000000000000     
   3.0901754859774510E-006   1.9309061013393476E-005   0.0000000000000000     
   3.0923395950080517E-006   1.9436551688362147E-005   0.0000000000000000     
   3.0944077267245586E-006   1.9564144803981320E-005   0.0000000000000000     
   3.0963797035755431E-006   1.9691839621987694E-005   0.0000000000000000     
   3.0982553480095718E-006   1.9819635404117947E-005   0.0000000000000000     
   3.1000344824752163E-006   1.9947531412108776E-005   0.0000000000000000     
   3.1017169294210463E-006   2.0075526907696870E-005   0.0000000000000000     
   3.1033025112956284E-006   2.0203621152618896E-005   0.0000000000000000     
   2.9624508531467755E-006   1.9181035133893622E-005   0.0000000000000000     
   2.9645956687072174E-006   1.9308450656014241E-005   0.0000000000000000     
   2.9666466652153851E-006   1.9435968416893524E-005   0.0000000000000000     
   2.9686028097727386E-006   1.9563587972805385E-005   0.0000000000000000     
   2.9704630694807398E-006   1.9691308880023787E-005   0.0000000000000000     
   2.9722264114408513E-006   1.9819130694822672E-005   0.0000000000000000     
   2.9738918027545324E-006   1.9947052973475975E-005   0.0000000000000000     
   2.9754582105232457E-006   2.0075075272257642E-005   0.0000000000000000     
   2.9769246018484517E-006   2.0203197147441614E-005   0.0000000000000000     
   3.9943338276375363E-006   2.0207658275842240E-005   0.0000000000000000     
   3.9966857403348564E-006   2.0335688814710603E-005   0.0000000000000000     
   3.9989634811064324E-006   2.0463840811439415E-005   0.0000000000000000     
   4.0011817330909498E-006   2.0592127113598156E-005   0.0000000000000000     
   4.0033551794270891E-006   2.0720560568756305E-005   0.0000000000000000     
   4.0054985032535366E-006   2.0849154024483339E-005   0.0000000000000000     
   4.0076263877089772E-006   2.0977920328348740E-005   0.0000000000000000     
   4.0097535159320922E-006   2.1106872327921995E-005   0.0000000000000000     
   4.0118945710615687E-006   2.1236022870772575E-005   0.0000000000000000     
   3.8664119193038829E-006   2.0206959759663893E-005   0.0000000000000000     
   3.8686664484171148E-006   2.0334999622722687E-005   0.0000000000000000     
   3.8708445357968671E-006   2.0463156904743539E-005   0.0000000000000000     
   3.8729500456331020E-006   2.0591447690978978E-005   0.0000000000000000     
   3.8749868421157738E-006   2.0719888066681502E-005   0.0000000000000000     
   3.8769587894348436E-006   2.0848494117103635E-005   0.0000000000000000     
   3.8788697517802710E-006   2.0977281927497884E-005   0.0000000000000000     
   3.8807235933420136E-006   2.1106267583116774E-005   0.0000000000000000     
   3.8825241783100301E-006   2.1235467169212815E-005   0.0000000000000000     
   3.7386880870969662E-006   2.0206303561880896E-005   0.0000000000000000     
   3.7408302162476895E-006   2.0334359973209256E-005   0.0000000000000000     
   3.7428923735293058E-006   2.0462531386096419E-005   0.0000000000000000     
   3.7448713908313634E-006   2.0590835922844024E-005   0.0000000000000000     
   3.7467641000434071E-006   2.0719291705753695E-005   0.0000000000000000     
   3.7485673330549809E-006   2.0847916857127043E-005   0.0000000000000000     
   3.7502779217556319E-006   2.0976729499265710E-005   0.0000000000000000     
   3.7518926980349071E-006   2.1105747754471323E-005   0.0000000000000000     
   3.7534084937823507E-006   2.1234989745045497E-005   0.0000000000000000     
   3.6111698293977057E-006   2.0205688648313908E-005   0.0000000000000000     
   3.6131883460838036E-006   2.0333767329335929E-005   0.0000000000000000     
   3.6151225629451412E-006   2.0461959816737421E-005   0.0000000000000000     
   3.6169654442997373E-006   2.0590285210759975E-005   0.0000000000000000     
   3.6187099544656116E-006   2.0718762611645193E-005   0.0000000000000000     
   3.6203490577607849E-006   2.0847411119634662E-005   0.0000000000000000     
   3.6218757185032776E-006   2.0976249834969990E-005   0.0000000000000000     
   3.6232829010111086E-006   2.1105297857892754E-005   0.0000000000000000     
   3.6245635696023017E-006   2.1234574288644583E-005   0.0000000000000000     
   3.4838646445870212E-006   2.0205113984783570E-005   0.0000000000000000     
   3.4857521401826844E-006   2.0333219154268361E-005   0.0000000000000000     
   3.4875506726857656E-006   2.0461437757905940E-005   0.0000000000000000     
   3.4892518816522222E-006   2.0589788956293524E-005   0.0000000000000000     
   3.4908474066380143E-006   2.0718291910028336E-005   0.0000000000000000     
   3.4923288871990941E-006   2.0846965779707560E-005   0.0000000000000000     
   3.4936879628914220E-006   2.0975829725928441E-005   0.0000000000000000     
   3.4949162732709572E-006   2.1104902909288196E-005   0.0000000000000000     
   3.4960054578936522E-006   2.1234204490384011E-005   0.0000000000000000     
   3.3567800310458345E-006   2.0204578537110523E-005   0.0000000000000000     
   3.3585329008015537E-006   2.0332712911172168E-005   0.0000000000000000     
   3.3601922713925740E-006   2.0460960770841358E-005   0.0000000000000000     
   3.3617503785028241E-006   2.0589340561011350E-005   0.0000000000000000     
   3.3631994578162381E-006   2.0717870726575428E-005   0.0000000000000000     
   3.3645317450167484E-006   2.0846569712426838E-005   0.0000000000000000     
   3.3657394757882865E-006   2.0975455963458852E-005   0.0000000000000000     
   3.3668148858147841E-006   2.1104547924564729E-005   0.0000000000000000     
   3.3677502107801751E-006   2.1233864040637739E-005   0.0000000000000000     
   3.2299234871550633E-006   2.0204081271115419E-005   0.0000000000000000     
   3.2315419301976371E-006   2.0332246063212968E-005   0.0000000000000000     
   3.2330629277069552E-006   2.0460524416783040E-005   0.0000000000000000     
   3.2344806104655406E-006   2.0588933426480146E-005   0.0000000000000000     
   3.2357891092559096E-006   2.0717490186958805E-005   0.0000000000000000     
   3.2369825548605843E-006   2.0846211792873573E-005   0.0000000000000000     
   3.2380550780620844E-006   2.0975115338878956E-005   0.0000000000000000     
   3.2390008096429290E-006   2.1104217919629485E-005   0.0000000000000000     
   3.2398138803856391E-006   2.1233536629779700E-005   0.0000000000000000     
   3.1033025112956284E-006   2.0203621152618896E-005   0.0000000000000000     
   3.1047905306281580E-006   2.0331816073556427E-005   0.0000000000000000     
   3.1061782102703081E-006   2.0460124256970389E-005   0.0000000000000000     
   3.1074622531543740E-006   2.0588560954266582E-005   0.0000000000000000     
   3.1086393622126527E-006   2.0717141416850803E-005   0.0000000000000000     
   3.1097062403774411E-006   2.0845880896128849E-005   0.0000000000000000     
   3.1106595905810331E-006   2.0974794643506503E-005   0.0000000000000000     
   3.1114961157557268E-006   2.1103897910389580E-005   0.0000000000000000     
   3.1122125188338170E-006   2.1233205948183862E-005   0.0000000000000000     
   2.9769246018484517E-006   2.0203197147441614E-005   0.0000000000000000     
   2.9782900043503418E-006   2.0331420405368150E-005   0.0000000000000000     
   2.9795536877240218E-006   2.0459755852642783E-005   0.0000000000000000     
   2.9807149821833259E-006   2.0588216545937350E-005   0.0000000000000000     
   2.9817732179420926E-006   2.0716815541923720E-005   0.0000000000000000     
   2.9827277252141548E-006   2.0845565897273734E-005   0.0000000000000000     
   2.9835778342133498E-006   2.0974480668659249E-005   0.0000000000000000     
   2.9843228751535120E-006   2.1103572912752112E-005   0.0000000000000000     
   2.9849621782484793E-006   2.1232855686224164E-005   0.0000000000000000     
   4.0118945710615687E-006   2.1236022870772575E-005   0.0000000000000000     
   4.0140533227939258E-006   2.1365404170604309E-005   0.0000000000000000     
   4.0161898870570325E-006   2.1495125905658353E-005   0.0000000000000000     
   4.0182534663365945E-006   2.1625317120310230E-005   0.0000000000000000     
   4.0201932631183185E-006   2.1756106858935427E-005   0.0000000000000000     
   4.0219584798879087E-006   2.1887624165909464E-005   0.0000000000000000     
   4.0234983191310699E-006   2.2019998085607838E-005   0.0000000000000000     
   4.0247619833335097E-006   2.2153357662406066E-005   0.0000000000000000     
   4.0256986749809339E-006   2.2287831940679645E-005   0.0000000000000000     
   3.8825241783100301E-006   2.1235467169212815E-005   0.0000000000000000     
   3.8842703467160444E-006   2.1364912800866981E-005   0.0000000000000000     
   3.8859408419588360E-006   2.1494700712474119E-005   0.0000000000000000     
   3.8875093832789494E-006   2.1624943168257523E-005   0.0000000000000000     
   3.8889496899169279E-006   2.1755752432440485E-005   0.0000000000000000     
   3.8902354811133151E-006   2.1887240769246319E-005   0.0000000000000000     
   3.8913404761086567E-006   2.2019520442898305E-005   0.0000000000000000     
   3.8922383941434949E-006   2.2152703717619757E-005   0.0000000000000000     
   3.8929029544583769E-006   2.2286902857633968E-005   0.0000000000000000     
   3.7534084937823507E-006   2.1234989745045497E-005   0.0000000000000000     
   3.7548214356467342E-006   2.1364486191925272E-005   0.0000000000000000     
   3.7561248293137288E-006   2.1494318210589329E-005   0.0000000000000000     
   3.7573112752282283E-006   2.1624579515151756E-005   0.0000000000000000     
   3.7583733738351268E-006   2.1755363819726638E-005   0.0000000000000000     
   3.7593037255793227E-006   2.1886764838428065E-005   0.0000000000000000     
   3.7600949309057097E-006   2.2018876285370134E-005   0.0000000000000000     
   3.7607395902591820E-006   2.2151791874666929E-005   0.0000000000000000     
   3.7612303040846367E-006   2.2285605320432533E-005   0.0000000000000000     
   3.6245635696023017E-006   2.1234574288644583E-005   0.0000000000000000     
   3.6257129523768245E-006   2.1364107410328255E-005   0.0000000000000000     
   3.6267353325624546E-006   2.1493962237491444E-005   0.0000000000000000     
   3.6276372571689180E-006   2.1624212967543013E-005   0.0000000000000000     
   3.6284252732059416E-006   2.1754933797891813E-005   0.0000000000000000     
   3.6291059276832525E-006   2.1886198925946736E-005   0.0000000000000000     
   3.6296857676105764E-006   2.2018082549116629E-005   0.0000000000000000     
   3.6301713399976416E-006   2.2150658864810369E-005   0.0000000000000000     
   3.6305691918541749E-006   2.2284002070436818E-005   0.0000000000000000     
   3.4960054578936522E-006   2.1234204490384011E-005   0.0000000000000000     
   3.4969512596971429E-006   2.1363759522625022E-005   0.0000000000000000     
   3.4977658351457592E-006   2.1493616630667943E-005   0.0000000000000000     
   3.4984654440855089E-006   2.1623830331981394E-005   0.0000000000000000     
   3.4990663463623956E-006   2.1754455144033992E-005   0.0000000000000000     
   3.4995848018224268E-006   2.1885545584294358E-005   0.0000000000000000     
   3.5000370703116094E-006   2.2017156170231121E-005   0.0000000000000000     
   3.5004394116759496E-006   2.2149341419312876E-005   0.0000000000000000     
   3.5008080857614530E-006   2.2282155849008274E-005   0.0000000000000000     
   3.3677502107801751E-006   2.1233864040637739E-005   0.0000000000000000     
   3.3685427203985184E-006   2.1363425595364644E-005   0.0000000000000000     
   3.3692098205043877E-006   2.1493265227606275E-005   0.0000000000000000     
   3.3697739509624849E-006   2.1623418415016989E-005   0.0000000000000000     
   3.3702575516375100E-006   2.1753920635251098E-005   0.0000000000000000     
   3.3706830623941659E-006   2.1884807365962957E-005   0.0000000000000000     
   3.3710729230971542E-006   2.2016114084806893E-005   0.0000000000000000     
   3.3714495736111768E-006   2.2147876269437260E-005   0.0000000000000000     
   3.3718354538009330E-006   2.2280129397508377E-005   0.0000000000000000     
   3.2398138803856391E-006   2.1233536629779700E-005   0.0000000000000000     
   3.2404936972717782E-006   2.1363088695096205E-005   0.0000000000000000     
   3.2410607720790834E-006   2.1492891865793928E-005   0.0000000000000000     
   3.2415408927843346E-006   2.1622964023199884E-005   0.0000000000000000     
   3.2419598473643112E-006   2.1753323048641091E-005   0.0000000000000000     
   3.2423434237957933E-006   2.1883986823444548E-005   0.0000000000000000     
   3.2427174100555617E-006   2.2014973228937283E-005   0.0000000000000000     
   3.2431075941203961E-006   2.2146300146446299E-005   0.0000000000000000     
   3.2435397639670769E-006   2.2277985457298612E-005   0.0000000000000000     
   3.1122125188338170E-006   2.1233205948183862E-005   0.0000000000000000     
   3.1128105531077537E-006   2.1362731888368795E-005   0.0000000000000000     
   3.1133121733105942E-006   2.1492480382718356E-005   0.0000000000000000     
   3.1137443845355467E-006   2.1622453963080195E-005   0.0000000000000000     
   3.1141341918758232E-006   2.1752655161301927E-005   0.0000000000000000     
   3.1145086004246302E-006   2.1883086509231179E-005   0.0000000000000000     
   3.1148946152751799E-006   2.2013750538715593E-005   0.0000000000000000     
   3.1153192415206829E-006   2.2144649781602798E-005   0.0000000000000000     
   3.1158094842543466E-006   2.2275786769740421E-005   0.0000000000000000     
   2.9849621782484793E-006   2.1232855686224164E-005   0.0000000000000000     
   2.9854996506972719E-006   2.1362338241731478E-005   0.0000000000000000     
   2.9859575076396606E-006   2.1492014615867026E-005   0.0000000000000000     
   2.9863625412006069E-006   2.1621875041207989E-005   0.0000000000000000     
   2.9867415435050660E-006   2.1751909750331531E-005   0.0000000000000000     
   2.9871213066779967E-006   2.1882108975814854E-005   0.0000000000000000     
   2.9875286228443581E-006   2.2012462950235136E-005   0.0000000000000000     
   2.9879902841291081E-006   2.2142961906169560E-005   0.0000000000000000     
   2.9885330826572042E-006   2.2273596076195298E-005   0.0000000000000000     
   2.8012671724247092E-006   1.4201756135687148E-005   0.0000000000000000     
   2.8070814121690116E-006   1.4322500341671062E-005   0.0000000000000000     
   2.8128038491126684E-006   1.4443485136993245E-005   0.0000000000000000     
   2.8184345689524466E-006   1.4564706570157061E-005   0.0000000000000000     
   2.8239736573851137E-006   1.4686160689665890E-005   0.0000000000000000     
   2.8294212001074358E-006   1.4807843544023096E-005   0.0000000000000000     
   2.8347772828161780E-006   1.4929751181732050E-005   0.0000000000000000     
   2.8400419912081095E-006   1.5051879651296123E-005   0.0000000000000000     
   2.8452154109799956E-006   1.5174225001218692E-005   0.0000000000000000     
   2.6829669831711800E-006   1.4200035422444007E-005   0.0000000000000000     
   2.6885389020808748E-006   1.4320806525948005E-005   0.0000000000000000     
   2.6940227806827560E-006   1.4441818291891779E-005   0.0000000000000000     
   2.6994187080585279E-006   1.4563066752445744E-005   0.0000000000000000     
   2.7047267732898921E-006   1.4684547939780324E-005   0.0000000000000000     
   2.7099470654585515E-006   1.4806257886065918E-005   0.0000000000000000     
   2.7150796736462056E-006   1.4928192623472952E-005   0.0000000000000000     
   2.7201246869345594E-006   1.5050348184171831E-005   0.0000000000000000     
   2.7250821944053137E-006   1.5172720600332974E-005   0.0000000000000000     
   2.5648683605007127E-006   1.4198387914604032E-005   0.0000000000000000     
   2.5701979037617682E-006   1.4319184961571824E-005   0.0000000000000000     
   2.5754432051524285E-006   1.4440222655101622E-005   0.0000000000000000     
   2.5806043452175739E-006   1.4561497033800844E-005   0.0000000000000000     
   2.5856814045020817E-006   1.4683004136276885E-005   0.0000000000000000     
   2.5906744635508313E-006   1.4804740001137159E-005   0.0000000000000000     
   2.5955836029087022E-006   1.4926700666989065E-005   0.0000000000000000     
   2.6004089031205717E-006   1.5048882172440001E-005   0.0000000000000000     
   2.6051504447313196E-006   1.5171280556097378E-005   0.0000000000000000     
   2.4469625785865814E-006   1.4196813654558035E-005   0.0000000000000000     
   2.4520497039682289E-006   1.4317635647856008E-005   0.0000000000000000     
   2.4570564138246051E-006   1.4438698205566857E-005   0.0000000000000000     
   2.4619827711212419E-006   1.4559997390068618E-005   0.0000000000000000     
   2.4668288388236765E-006   1.4681529263739335E-005   0.0000000000000000     
   2.4715946798974387E-006   1.4803289888957037E-005   0.0000000000000000     
   2.4762803573080652E-006   1.4925275328099770E-005   0.0000000000000000     
   2.4808859340210888E-006   1.5047481643545573E-005   0.0000000000000000     
   2.4854114730020451E-006   1.5169904897672478E-005   0.0000000000000000     
   2.3292409116020582E-006   1.4195312684696807E-005   0.0000000000000000     
   2.3340855894567963E-006   1.4316158584114060E-005   0.0000000000000000     
   2.3388536980022071E-006   1.4437244922231573E-005   0.0000000000000000     
   2.3435452764611959E-006   1.4558567797095355E-005   0.0000000000000000     
   2.3481603640566686E-006   1.4680123306751416E-005   0.0000000000000000     
   2.3526990000115325E-006   1.4801907549245789E-005   0.0000000000000000     
   2.3571612235486924E-006   1.4923916622624472E-005   0.0000000000000000     
   2.3615470738910555E-006   1.5046146624933493E-005   0.0000000000000000     
   2.3658565902615265E-006   1.5168593654218851E-005   0.0000000000000000     
   2.2116946337204187E-006   1.4193885047411159E-005   0.0000000000000000     
   2.2162968469840076E-006   1.4314753769659474E-005   0.0000000000000000     
   2.2208263489881544E-006   1.4435862784039852E-005   0.0000000000000000     
   2.2252831519290932E-006   1.4557208230727313E-005   0.0000000000000000     
   2.2296672680030551E-006   1.4678786249896902E-005   0.0000000000000000     
   2.2339787094062737E-006   1.4800592981723639E-005   0.0000000000000000     
   2.2382174883349832E-006   1.4922624566382567E-005   0.0000000000000000     
   2.2423836169854138E-006   1.5044877144048704E-005   0.0000000000000000     
   2.2464771075538000E-006   1.5167346854897088E-005   0.0000000000000000     
   2.0943150191149343E-006   1.4192530785091880E-005   0.0000000000000000     
   2.0986747633064001E-006   1.4313421203805743E-005   0.0000000000000000     
   2.1029656580853688E-006   1.4434551769935785E-005   0.0000000000000000     
   2.1071876882165941E-006   1.4555918666810779E-005   0.0000000000000000     
   2.1113408384648285E-006   1.4677518077759534E-005   0.0000000000000000     
   2.1154250935948242E-006   1.4799346186110821E-005   0.0000000000000000     
   2.1194404383713328E-006   1.4921399175193429E-005   0.0000000000000000     
   2.1233868575591069E-006   1.5043673228336155E-005   0.0000000000000000     
   2.1272643359229007E-006   1.5166164528867766E-005   0.0000000000000000     
   1.9770933419588802E-006   1.4191249940129788E-005   0.0000000000000000     
   1.9812106251805109E-006   1.4312160885866357E-005   0.0000000000000000     
   1.9852629165967712E-006   1.4433311858863448E-005   0.0000000000000000     
   1.9892501760153612E-006   1.4554699081192032E-005   0.0000000000000000     
   1.9931723632439849E-006   1.4676318774923074E-005   0.0000000000000000     
   1.9970294380903445E-006   1.4798167162127564E-005   0.0000000000000000     
   2.0008213603621417E-006   1.4920240464876477E-005   0.0000000000000000     
   2.0045480898670804E-006   1.5042534905240787E-005   0.0000000000000000     
   2.0082095864128633E-006   1.5165046705291474E-005   0.0000000000000000     
   1.8600208764255289E-006   1.4190042554915680E-005   0.0000000000000000     
   1.8638957193628802E-006   1.4310972815154821E-005   0.0000000000000000     
   1.8677094158252810E-006   1.4432143029766936E-005   0.0000000000000000     
   1.8714619060170532E-006   1.4553549449717321E-005   0.0000000000000000     
   1.8751531301425168E-006   1.4675188325971274E-005   0.0000000000000000     
   1.8787830284059943E-006   1.4797055909494093E-005   0.0000000000000000     
   1.8823515410118073E-006   1.4919148451251087E-005   0.0000000000000000     
   1.8858586081642763E-006   1.5041462202207552E-005   0.0000000000000000     
   1.8893041700677234E-006   1.5163993413328785E-005   0.0000000000000000     
   2.8452154109799956E-006   1.5174225001218692E-005   0.0000000000000000     
   2.8502976011115747E-006   1.5296783304869159E-005   0.0000000000000000     
   2.8552885137144805E-006   1.5419550735081125E-005   0.0000000000000000     
   2.8601880741833152E-006   1.5542523489554224E-005   0.0000000000000000     
   2.8649962079126860E-006   1.5665697765988103E-005   0.0000000000000000     
   2.8697128402971957E-006   1.5789069762082403E-005   0.0000000000000000     
   2.8743378967314498E-006   1.5912635675536751E-005   0.0000000000000000     
   2.8788713026100526E-006   1.6036391704050804E-005   0.0000000000000000     
   2.8833129833276080E-006   1.6160334045324186E-005   0.0000000000000000     
   2.7250821944053137E-006   1.5172720600332974E-005   0.0000000000000000     
   2.7299522524533804E-006   1.5295305936121473E-005   0.0000000000000000     
   2.7347347867264951E-006   1.5418100383681118E-005   0.0000000000000000     
   2.7394296901856073E-006   1.5541100167150388E-005   0.0000000000000000     
   2.7440368557916597E-006   1.5664301510667752E-005   0.0000000000000000     
   2.7485561765056017E-006   1.5787700638371688E-005   0.0000000000000000     
   2.7529875452883798E-006   1.5911293774400674E-005   0.0000000000000000     
   2.7573308551009376E-006   1.6035077142893169E-005   0.0000000000000000     
   2.7615859989042235E-006   1.6159046967987654E-005   0.0000000000000000     
   2.6051504447313196E-006   1.5171280556097378E-005   0.0000000000000000     
   2.6098082741164295E-006   1.5293891889038766E-005   0.0000000000000000     
   2.6143823009738021E-006   1.5416712372222354E-005   0.0000000000000000     
   2.6188724008319476E-006   1.5539738239076527E-005   0.0000000000000000     
   2.6232784492193684E-006   1.5662965723029631E-005   0.0000000000000000     
   2.6276003216645768E-006   1.5786391057510045E-005   0.0000000000000000     
   2.6318378936960778E-006   1.5910010475946132E-005   0.0000000000000000     
   2.6359910408423772E-006   1.6033820211766260E-005   0.0000000000000000     
   2.6400596386319834E-006   1.6157816498398791E-005   0.0000000000000000     
   2.4854114730020451E-006   1.5169904897672478E-005   0.0000000000000000     
   2.4898570050667359E-006   1.5292541180723687E-005   0.0000000000000000     
   2.4942224324320442E-006   1.5415386694403045E-005   0.0000000000000000     
   2.4985076251651175E-006   1.5538437668279551E-005   0.0000000000000000     
   2.5027124533331096E-006   1.5661690331922199E-005   0.0000000000000000     
   2.5068367870031688E-006   1.5785140914900007E-005   0.0000000000000000     
   2.5108804962424470E-006   1.5908785646781960E-005   0.0000000000000000     
   2.5148434511180927E-006   1.6032620757137064E-005   0.0000000000000000     
   2.5187255216972587E-006   1.6156642475534327E-005   0.0000000000000000     
   2.3658565902615265E-006   1.5168593654218851E-005   0.0000000000000000     
   2.3700897842703185E-006   1.5291253828278918E-005   0.0000000000000000     
   2.3742465570768651E-006   1.5414123343921413E-005   0.0000000000000000     
   2.3783267822279058E-006   1.5537198417706396E-005   0.0000000000000000     
   2.3823303332701818E-006   1.5660475266193946E-005   0.0000000000000000     
   2.3862570837504299E-006   1.5783950105944113E-005   0.0000000000000000     
   2.3901069072153932E-006   1.5907619153516965E-005   0.0000000000000000     
   2.3938796772118103E-006   1.6031478625472578E-005   0.0000000000000000     
   2.3975752672864198E-006   1.6155524738371008E-005   0.0000000000000000     
   2.2464771075538000E-006   1.5167346854897088E-005   0.0000000000000000     
   2.2504979506931926E-006   1.5290029848807126E-005   0.0000000000000000     
   2.2544460508839118E-006   1.5412922314475682E-005   0.0000000000000000     
   2.2583212910630949E-006   1.5536020450304012E-005   0.0000000000000000     
   2.2621235541678828E-006   1.5659320454693336E-005   0.0000000000000000     
   2.2658527231354129E-006   1.5782818526044926E-005   0.0000000000000000     
   2.2695086809028230E-006   1.5906510862759993E-005   0.0000000000000000     
   2.2730913104072500E-006   1.6030393663239800E-005   0.0000000000000000     
   2.2766004945858358E-006   1.6154463125885581E-005   0.0000000000000000     
   2.1272643359229007E-006   1.5166164528867766E-005   0.0000000000000000     
   2.1310728433013736E-006   1.5288869259410973E-005   0.0000000000000000     
   2.1348122898288271E-006   1.5411783599764081E-005   0.0000000000000000     
   2.1384825707134694E-006   1.5534903729019297E-005   0.0000000000000000     
   2.1420835811635132E-006   1.5658225826268856E-005   0.0000000000000000     
   2.1456152163871665E-006   1.5781746070604971E-005   0.0000000000000000     
   2.1490773715926368E-006   1.5905460641119840E-005   0.0000000000000000     
   2.1524699419881392E-006   1.6029365716905712E-005   0.0000000000000000     
   2.1557928227818794E-006   1.6153457477054783E-005   0.0000000000000000     
   2.0082095864128633E-006   1.5165046705291474E-005   0.0000000000000000     
   2.0118058010608768E-006   1.5287772077193128E-005   0.0000000000000000     
   2.0153366498872546E-006   1.5410707193484806E-005   0.0000000000000000     
   2.0188020402218128E-006   1.5533848216799199E-005   0.0000000000000000     
   2.0222018793943688E-006   1.5657191309768963E-005   0.0000000000000000     
   2.0255360747347398E-006   1.5780732635026791E-005   0.0000000000000000     
   2.0288045335727448E-006   1.5904468355205342E-005   0.0000000000000000     
   2.0320071632381980E-006   1.6028394632937307E-005   0.0000000000000000     
   2.0351438710609176E-006   1.6152507630855361E-005   0.0000000000000000     
   1.8893041700677234E-006   1.5163993413328785E-005   0.0000000000000000     
   1.8926881629377209E-006   1.5286738319256263E-005   0.0000000000000000     
   1.8960105070348415E-006   1.5409693089336114E-005   0.0000000000000000     
   1.8992711186309095E-006   1.5532853876590636E-005   0.0000000000000000     
   1.9024699139977504E-006   1.5656216834042143E-005   0.0000000000000000     
   1.9056068094071883E-006   1.5779778114712938E-005   0.0000000000000000     
   1.9086817211310467E-006   1.5903533871625324E-005   0.0000000000000000     
   1.9116945654411504E-006   1.6027480257801593E-005   0.0000000000000000     
   1.9146452586093241E-006   1.6151613426264067E-005   0.0000000000000000     
   2.8833129833276080E-006   1.6160334045324186E-005   0.0000000000000000     
   2.8876628981536681E-006   1.6284458884733403E-005   0.0000000000000000     
   2.8919211418575736E-006   1.6408762358362436E-005   0.0000000000000000     
   2.8960878430836112E-006   1.6533240589972118E-005   0.0000000000000000     
   2.9001631304760677E-006   1.6657889703323289E-005   0.0000000000000000     
   2.9041471326792316E-006   1.6782705822176791E-005   0.0000000000000000     
   2.9080399783373888E-006   1.6907685070293455E-005   0.0000000000000000     
   2.9118417960948294E-006   1.7032823571434132E-005   0.0000000000000000     
   2.9155527145958376E-006   1.7158117449359646E-005   0.0000000000000000     
   2.7615859989042235E-006   1.6159046967987654E-005   0.0000000000000000     
   2.7657529087642547E-006   1.6283199450506305E-005   0.0000000000000000     
   2.7698316731673247E-006   1.6407530698006049E-005   0.0000000000000000     
   2.7738224197048099E-006   1.6532036794727543E-005   0.0000000000000000     
   2.7777252759680727E-006   1.6656713824911423E-005   0.0000000000000000     
   2.7815403695484841E-006   1.6781557872798318E-005   0.0000000000000000     
   2.7852678280374135E-006   1.6906565022628881E-005   0.0000000000000000     
   2.7889077790262284E-006   1.7031731358643745E-005   0.0000000000000000     
   2.7924603501062970E-006   1.7157052965083544E-005   0.0000000000000000     
   2.6400596386319834E-006   1.6157816498398791E-005   0.0000000000000000     
   2.6440436001871022E-006   1.6281995542598383E-005   0.0000000000000000     
   2.6479429890047252E-006   1.6406353444424849E-005   0.0000000000000000     
   2.6517579061755427E-006   1.6530886277264302E-005   0.0000000000000000     
   2.6554884527902456E-006   1.6655590114502842E-005   0.0000000000000000     
   2.6591347299395257E-006   1.6780461029526582E-005   0.0000000000000000     
   2.6626968387140730E-006   1.6905495095721624E-005   0.0000000000000000     
   2.6661748802045779E-006   1.7030688386474083E-005   0.0000000000000000     
   2.6695689555017298E-006   1.7156036975170050E-005   0.0000000000000000     
   2.5187255216972587E-006   1.6156642475534327E-005   0.0000000000000000     
   2.5225266089322927E-006   1.6280847007499298E-005   0.0000000000000000     
   2.5262467373163292E-006   1.6405230462383748E-005   0.0000000000000000     
   2.5298859622277017E-006   1.6529788925496001E-005   0.0000000000000000     
   2.5334443390447443E-006   1.6654518482144375E-005   0.0000000000000000     
   2.5369219231457920E-006   1.6779415217637199E-005   0.0000000000000000     
   2.5403187699091754E-006   1.6904475217282801E-005   0.0000000000000000     
   2.5436349347132309E-006   1.7029694566389499E-005   0.0000000000000000     
   2.5468704729362905E-006   1.7155069350265613E-005   0.0000000000000000     
   2.3975752672864198E-006   1.6155524738371008E-005   0.0000000000000000     
   2.4011935715099016E-006   1.6279753691698703E-005   0.0000000000000000     
   2.4047345660486953E-006   1.6404161616647647E-005   0.0000000000000000     
   2.4081982475931774E-006   1.6528744627336243E-005   0.0000000000000000     
   2.4115846128337256E-006   1.6653498837882827E-005   0.0000000000000000     
   2.4148936584607178E-006   1.6778420362405798E-005   0.0000000000000000     
   2.4181253811645322E-006   1.6903505315023515E-005   0.0000000000000000     
   2.4212797776355456E-006   1.7028749809854363E-005   0.0000000000000000     
   2.4243568445641360E-006   1.7154149961016710E-005   0.0000000000000000     
   2.2766004945858358E-006   1.6154463125885581E-005   0.0000000000000000     
   2.2800361244300106E-006   1.6278715441686260E-005   0.0000000000000000     
   2.2833981231483859E-006   1.6403146771981499E-005   0.0000000000000000     
   2.2866864220038630E-006   1.6527753270698644E-005   0.0000000000000000     
   2.2899009522593466E-006   1.6652531091765030E-005   0.0000000000000000     
   2.2930416451777415E-006   1.6777476389107994E-005   0.0000000000000000     
   2.2961084320219504E-006   1.6902585316654884E-005   0.0000000000000000     
   2.2991012440548767E-006   1.7027854028333046E-005   0.0000000000000000     
   2.3020200125394248E-006   1.7153278678069804E-005   0.0000000000000000     
   2.1557928227818794E-006   1.6153457477054783E-005   0.0000000000000000     
   2.1590459042026980E-006   1.6277732103951623E-005   0.0000000000000000     
   2.1622290565619574E-006   1.6402185793150203E-005   0.0000000000000000     
   2.1653421451916490E-006   1.6526814743496814E-005   0.0000000000000000     
   2.1683850354237650E-006   1.6651615153837781E-005   0.0000000000000000     
   2.1713575925902989E-006   1.6776583223019419E-005   0.0000000000000000     
   2.1742596820232389E-006   1.6901715149888012E-005   0.0000000000000000     
   2.1770911690545802E-006   1.7027007133289898E-005   0.0000000000000000     
   2.1798519190163137E-006   1.7152455372071371E-005   0.0000000000000000     
   2.0351438710609176E-006   1.6152507630855361E-005   0.0000000000000000     
   2.0382145473380400E-006   1.6276803524984452E-005   0.0000000000000000     
   2.0412190142359683E-006   1.6401278544918668E-005   0.0000000000000000     
   2.0441570768884270E-006   1.6525928933644370E-005   0.0000000000000000     
   2.0470285404291381E-006   1.6650750934147924E-005   0.0000000000000000     
   2.0498332099918238E-006   1.6775740789415674E-005   0.0000000000000000     
   2.0525708907102072E-006   1.6900894742434010E-005   0.0000000000000000     
   2.0552413877180126E-006   1.7026209036189291E-005   0.0000000000000000     
   2.0578445061489595E-006   1.7151679913667857E-005   0.0000000000000000     
   1.9146452586093241E-006   1.6151613426264067E-005   0.0000000000000000     
   1.9175336903461162E-006   1.6275929551274406E-005   0.0000000000000000     
   1.9203596441169795E-006   1.6400424892051826E-005   0.0000000000000000     
   1.9231228768260890E-006   1.6525095729054914E-005   0.0000000000000000     
   1.9258231453776224E-006   1.6649938342742252E-005   0.0000000000000000     
   1.9284602066757558E-006   1.6774949013572421E-005   0.0000000000000000     
   1.9310338176246652E-006   1.6900124022004002E-005   0.0000000000000000     
   1.9335437351285277E-006   1.7025459648495586E-005   0.0000000000000000     
   1.9359897160915199E-006   1.7150952173505756E-005   0.0000000000000000     
   2.9155527145958376E-006   1.7158117449359646E-005   0.0000000000000000     
   2.9191728052653245E-006   1.7283562862527231E-005   0.0000000000000000     
   2.9227019106506923E-006   1.7409156108179676E-005   0.0000000000000000     
   2.9261398160799623E-006   1.7534893518256161E-005   0.0000000000000000     
   2.9294863068811596E-006   1.7660771424695855E-005   0.0000000000000000     
   2.9327411683823080E-006   1.7786786159437946E-005   0.0000000000000000     
   2.9359041859114307E-006   1.7912934054421608E-005   0.0000000000000000     
   2.9389751447965521E-006   1.8039211441586019E-005   0.0000000000000000     
   2.9419538303656950E-006   1.8165614652870352E-005   0.0000000000000000     
   2.7924603501062970E-006   1.7157052965083544E-005   0.0000000000000000     
   2.7959255823858019E-006   1.7282525984014259E-005   0.0000000000000000     
   2.7993031710401678E-006   1.7408146788803138E-005   0.0000000000000000     
   2.8025927247616333E-006   1.7533911810642784E-005   0.0000000000000000     
   2.8057938522424395E-006   1.7659817480725790E-005   0.0000000000000000     
   2.8089061621748213E-006   1.7785860230244747E-005   0.0000000000000000     
   2.8119292632510213E-006   1.7912036490392245E-005   0.0000000000000000     
   2.8148627641632749E-006   1.8038342692360880E-005   0.0000000000000000     
   2.8177062736038230E-006   1.8164775267343240E-005   0.0000000000000000     
   2.6695689555017298E-006   1.7156036975170050E-005   0.0000000000000000     
   2.6728790646332085E-006   1.7281537004547606E-005   0.0000000000000000     
   2.6761048033746404E-006   1.7407184894752698E-005   0.0000000000000000     
   2.6792456664386419E-006   1.7532977135283220E-005   0.0000000000000000     
   2.6823011485378279E-006   1.7658910215637094E-005   0.0000000000000000     
   2.6852707443848140E-006   1.7784980625312212E-005   0.0000000000000000     
   2.6881539486922150E-006   1.7911184853806492E-005   0.0000000000000000     
   2.6909502561726466E-006   1.8037519390617836E-005   0.0000000000000000     
   2.6936591615387228E-006   1.8163980725244147E-005   0.0000000000000000     
   2.5468704729362905E-006   1.7155069350265613E-005   0.0000000000000000     
   2.5500253361915270E-006   1.7280595725688520E-005   0.0000000000000000     
   2.5530990610314796E-006   1.7406270135311759E-005   0.0000000000000000     
   2.5560910802435214E-006   1.7532089093257919E-005   0.0000000000000000     
   2.5590008266150308E-006   1.7658049113649595E-005   0.0000000000000000     
   2.5618277329333850E-006   1.7784146710609384E-005   0.0000000000000000     
   2.5645712319859611E-006   1.7910378398259862E-005   0.0000000000000000     
   2.5672307565601339E-006   1.8036740690723627E-005   0.0000000000000000     
   2.5698057394432821E-006   1.8163230102123271E-005   0.0000000000000000     
   2.4243568445641360E-006   1.7154149961016710E-005   0.0000000000000000     
   2.4273564812447428E-006   1.7279701948998217E-005   0.0000000000000000     
   2.4302781973880493E-006   1.7405402219763725E-005   0.0000000000000000     
   2.4331214053088046E-006   1.7531247285647317E-005   0.0000000000000000     
   2.4358855173217511E-006   1.7657233658983137E-005   0.0000000000000000     
   2.4385699457416374E-006   1.7783357852105284E-005   0.0000000000000000     
   2.4411741028832075E-006   1.7909616377347875E-005   0.0000000000000000     
   2.4436974010612093E-006   1.8036005747045016E-005   0.0000000000000000     
   2.4461392525903877E-006   1.8162522473530833E-005   0.0000000000000000     
   2.3020200125394248E-006   1.7153278678069804E-005   0.0000000000000000     
   2.3048645839768383E-006   1.7278855476037953E-005   0.0000000000000000     
   2.3076344658217246E-006   1.7404580857391992E-005   0.0000000000000000     
   2.3103290807670270E-006   1.7530451313531888E-005   0.0000000000000000     
   2.3129478515056951E-006   1.7656463335857554E-005   0.0000000000000000     
   2.3154902007306719E-006   1.7782613415768962E-005   0.0000000000000000     
   2.3179555511349056E-006   1.7908898044666041E-005   0.0000000000000000     
   2.3203433254113412E-006   1.8035313713948756E-005   0.0000000000000000     
   2.3226529462529266E-006   1.8161856915017041E-005   0.0000000000000000     
   2.1798519190163137E-006   1.7152455372071371E-005   0.0000000000000000     
   2.1825417285717994E-006   1.7278056108368954E-005   0.0000000000000000     
   2.1851601197098701E-006   1.7403805757479994E-005   0.0000000000000000     
   2.1877065457507242E-006   1.7529700777992043E-005   0.0000000000000000     
   2.1901804600145635E-006   1.7655737628492672E-005   0.0000000000000000     
   2.1925813158215915E-006   1.7781912767569445E-005   0.0000000000000000     
   2.1949085664920019E-006   1.7908222653809895E-005   0.0000000000000000     
   2.1971616653460003E-006   1.8034663745801598E-005   0.0000000000000000     
   2.1993400657037851E-006   1.8161232502132115E-005   0.0000000000000000     
   2.0578445061489595E-006   1.7151679913667857E-005   0.0000000000000000     
   2.0603799992136079E-006   1.7277303647552439E-005   0.0000000000000000     
   2.0628474124298531E-006   1.7403076629311091E-005   0.0000000000000000     
   2.0652462393924289E-006   1.7528995280108250E-005   0.0000000000000000     
   2.0675759736960653E-006   1.7655056021108335E-005   0.0000000000000000     
   2.0698361089354943E-006   1.7781255273475750E-005   0.0000000000000000     
   2.0720261387054467E-006   1.7907589458374930E-005   0.0000000000000000     
   2.0741455566006559E-006   1.8034054996970296E-005   0.0000000000000000     
   2.0761938562158522E-006   1.8160648310426260E-005   0.0000000000000000     
   1.9359897160915199E-006   1.7150952173505756E-005   0.0000000000000000     
   1.9383714800862490E-006   1.7276597895149658E-005   0.0000000000000000     
   1.9406885973590466E-006   1.7402393182168725E-005   0.0000000000000000     
   1.9429406008246763E-006   1.7528334420960964E-005   0.0000000000000000     
   1.9451270233979023E-006   1.7654417997924370E-005   0.0000000000000000     
   1.9472473979934850E-006   1.7780640299456945E-005   0.0000000000000000     
   1.9493012575261895E-006   1.7906997711956690E-005   0.0000000000000000     
   1.9512881349107783E-006   1.8033486621821606E-005   0.0000000000000000     
   1.9532075630620145E-006   1.8160103415449685E-005   0.0000000000000000     
   2.9419538303656950E-006   1.8165614652870352E-005   0.0000000000000000     
   2.9448400575137586E-006   1.8292140225857791E-005   0.0000000000000000     
   2.9476337594031459E-006   1.8418785520707537E-005   0.0000000000000000     
   2.9503348987631323E-006   1.8545548103222781E-005   0.0000000000000000     
   2.9529434383229961E-006   1.8672425539206737E-005   0.0000000000000000     
   2.9554593408120164E-006   1.8799415394462592E-005   0.0000000000000000     
   2.9578825689594672E-006   1.8926515234793555E-005   0.0000000000000000     
   2.9602130854946278E-006   1.9053722626002837E-005   0.0000000000000000     
   2.9624508531467755E-006   1.9181035133893622E-005   0.0000000000000000     
   2.8177062736038230E-006   1.8164775267343240E-005   0.0000000000000000     
   2.8204594705112916E-006   1.8291330801950368E-005   0.0000000000000000     
   2.8231223148098626E-006   1.8418006504467035E-005   0.0000000000000000     
   2.8256948366701062E-006   1.8544799738596490E-005   0.0000000000000000     
   2.8281770662625928E-006   1.8671707868041955E-005   0.0000000000000000     
   2.8305690337578915E-006   1.8798728256506655E-005   0.0000000000000000     
   2.8328707693265742E-006   1.8925858267693819E-005   0.0000000000000000     
   2.8350823031392112E-006   1.9053095265306689E-005   0.0000000000000000     
   2.8372036653663716E-006   1.9180436613048490E-005   0.0000000000000000     
   2.6936591615387228E-006   1.8163980725244147E-005   0.0000000000000000     
   2.6962802485485380E-006   1.8290565467903871E-005   0.0000000000000000     
   2.6988134571420893E-006   1.8417270711697566E-005   0.0000000000000000     
   2.7012588163048535E-006   1.8544093670446322E-005   0.0000000000000000     
   2.7036163550223066E-006   1.8671031557971244E-005   0.0000000000000000     
   2.7058861022799245E-006   1.8798081588093427E-005   0.0000000000000000     
   2.7080680870631839E-006   1.8925240974633960E-005   0.0000000000000000     
   2.7101623383575592E-006   1.9052506931413940E-005   0.0000000000000000     
   2.7121688851485274E-006   1.9179876672254461E-005   0.0000000000000000     
   2.5698057394432821E-006   1.8163230102123271E-005   0.0000000000000000     
   2.5722957038004755E-006   1.8289843245201029E-005   0.0000000000000000     
   2.5747005343075658E-006   1.8416577127177717E-005   0.0000000000000000     
   2.5770202060180938E-006   1.8543428853893768E-005   0.0000000000000000     
   2.5792546939856057E-006   1.8670395531189662E-005   0.0000000000000000     
   2.5814039732636452E-006   1.8797474264905847E-005   0.0000000000000000     
   2.5834680189057566E-006   1.8924662160882786E-005   0.0000000000000000     
   2.5854468059654830E-006   1.9051956324960920E-005   0.0000000000000000     
   2.5873403094963696E-006   1.9179353862980720E-005   0.0000000000000000     
   2.4461392525903877E-006   1.8162522473530833E-005   0.0000000000000000     
   2.4484991484420849E-006   1.8289163155324575E-005   0.0000000000000000     
   2.4507768942140280E-006   1.8415924735686075E-005   0.0000000000000000     
   2.4529723741605437E-006   1.8542804244060301E-005   0.0000000000000000     
   2.4550854725359536E-006   1.8669798709892235E-005   0.0000000000000000     
   2.4571160735945827E-006   1.8796905162626846E-005   0.0000000000000000     
   2.4590640615907549E-006   1.8924120631709114E-005   0.0000000000000000     
   2.4609293207787956E-006   1.9051442146584002E-005   0.0000000000000000     
   2.4627117354130273E-006   1.9178866736696478E-005   0.0000000000000000     
   2.3226529462529266E-006   1.8161856915017041E-005   0.0000000000000000     
   2.3248838946483421E-006   1.8288524219757242E-005   0.0000000000000000     
   2.3270358847692186E-006   1.8415312522001261E-005   0.0000000000000000     
   2.3291086890829219E-006   1.8542218796067425E-005   0.0000000000000000     
   2.3311020800568172E-006   1.8669240016274020E-005   0.0000000000000000     
   2.3330158301582689E-006   1.8796373156939364E-005   0.0000000000000000     
   2.3348497118546445E-006   1.8923615192381756E-005   0.0000000000000000     
   2.3366034976133104E-006   1.9050963096919515E-005   0.0000000000000000     
   2.3382769599016298E-006   1.9178413844870945E-005   0.0000000000000000     
   2.1993400657037851E-006   1.8161232502132115E-005   0.0000000000000000     
   2.2014432545942277E-006   1.8287925459981750E-005   0.0000000000000000     
   2.2034708538808751E-006   1.8414739470901880E-005   0.0000000000000000     
   2.2054225191359455E-006   1.8541671465036599E-005   0.0000000000000000     
   2.2072979059316591E-006   1.8668718372530039E-005   0.0000000000000000     
   2.2090966698402341E-006   1.8795877123526316E-005   0.0000000000000000     
   2.2108184664338871E-006   1.8923144648169539E-005   0.0000000000000000     
   2.2124629512848377E-006   1.9050517876603829E-005   0.0000000000000000     
   2.2140297799653050E-006   1.9177993738973308E-005   0.0000000000000000     
   2.0761938562158522E-006   1.8160648310426260E-005   0.0000000000000000     
   2.0781705404547179E-006   1.8287365897480842E-005   0.0000000000000000     
   2.0800751494567347E-006   1.8414204567166507E-005   0.0000000000000000     
   2.0819072326703333E-006   1.8541161206089324E-005   0.0000000000000000     
   2.0836663395439468E-006   1.8668232700855348E-005   0.0000000000000000     
   2.0853520195260067E-006   1.8795415938070633E-005   0.0000000000000000     
   2.0869638220649432E-006   1.8922707804341257E-005   0.0000000000000000     
   2.0885012966091912E-006   1.9050105186273288E-005   0.0000000000000000     
   2.0899639926071792E-006   1.9177604970472755E-005   0.0000000000000000     
   1.9532075630620145E-006   1.8160103415449685E-005   0.0000000000000000     
   1.9550590644047931E-006   1.8286844553737242E-005   0.0000000000000000     
   1.9568421194045379E-006   1.8413706795573774E-005   0.0000000000000000     
   1.9585561980368035E-006   1.8540686974347083E-005   0.0000000000000000     
   1.9602007702771453E-006   1.8667781923444988E-005   0.0000000000000000     
   1.9617753061011188E-006   1.8794988476255272E-005   0.0000000000000000     
   1.9632792754842799E-006   1.8922303466165750E-005   0.0000000000000000     
   1.9647121484021827E-006   1.9049723726564230E-005   0.0000000000000000     
   1.9660733948303832E-006   1.9177246090838516E-005   0.0000000000000000     
   2.9624508531467755E-006   1.9181035133893622E-005   0.0000000000000000     
   2.9645956687072174E-006   1.9308450656014241E-005   0.0000000000000000     
   2.9666466652153851E-006   1.9435968416893524E-005   0.0000000000000000     
   2.9686028097727386E-006   1.9563587972805385E-005   0.0000000000000000     
   2.9704630694807398E-006   1.9691308880023787E-005   0.0000000000000000     
   2.9722264114408513E-006   1.9819130694822672E-005   0.0000000000000000     
   2.9738918027545324E-006   1.9947052973475975E-005   0.0000000000000000     
   2.9754582105232457E-006   2.0075075272257642E-005   0.0000000000000000     
   2.9769246018484517E-006   2.0203197147441614E-005   0.0000000000000000     
   2.8372036653663716E-006   1.9180436613048490E-005   0.0000000000000000     
   2.8392346184301410E-006   1.9307880065680833E-005   0.0000000000000000     
   2.8411738537586628E-006   1.9435424942198863E-005   0.0000000000000000     
   2.8430197950315995E-006   1.9563070952656137E-005   0.0000000000000000     
   2.8447708659286077E-006   1.9690817807106170E-005   0.0000000000000000     
   2.8464254901293478E-006   1.9818665215602504E-005   0.0000000000000000     
   2.8479820913134789E-006   1.9946612888198680E-005   0.0000000000000000     
   2.8494390931606618E-006   2.0074660534948232E-005   0.0000000000000000     
   2.8507949193505549E-006   2.0202807865904694E-005   0.0000000000000000     
   2.7121688851485274E-006   1.9179876672254461E-005   0.0000000000000000     
   2.7140874476273311E-006   1.9307347828970057E-005   0.0000000000000000     
   2.7159165108082800E-006   1.9434919705349026E-005   0.0000000000000000     
   2.7176542509114520E-006   1.9562592023173117E-005   0.0000000000000000     
   2.7192988441569268E-006   1.9690364504224065E-005   0.0000000000000000     
   2.7208484667647777E-006   1.9818236870283617E-005   0.0000000000000000     
   2.7223012949550843E-006   1.9946208843133510E-005   0.0000000000000000     
   2.7236555049479241E-006   2.0074280144555477E-005   0.0000000000000000     
   2.7249092729633735E-006   2.0202450496331280E-005   0.0000000000000000     
   2.5873403094963696E-006   1.9179353862980720E-005   0.0000000000000000     
   2.5891482037646039E-006   1.9306852297856166E-005   0.0000000000000000     
   2.5908689598869542E-006   1.9434450820795429E-005   0.0000000000000000     
   2.5925007481928274E-006   1.9562149040080157E-005   0.0000000000000000     
   2.5940417390116373E-006   1.9689946563992062E-005   0.0000000000000000     
   2.5954901026727943E-006   1.9817843000812802E-005   0.0000000000000000     
   2.5968440095057063E-006   1.9945837958824074E-005   0.0000000000000000     
   2.5981016298397883E-006   2.0073931046307561E-005   0.0000000000000000     
   2.5992611340044462E-006   2.0202121871544951E-005   0.0000000000000000     
   2.4627117354130273E-006   1.9178866736696478E-005   0.0000000000000000     
   2.4644109343077801E-006   1.9306391824313461E-005   0.0000000000000000     
   2.4660255245174038E-006   1.9434016402989492E-005   0.0000000000000000     
   2.4675538576562529E-006   1.9561739859101079E-005   0.0000000000000000     
   2.4689942853386831E-006   1.9689561579024705E-005   0.0000000000000000     
   2.4703451591790491E-006   1.9817480949136853E-005   0.0000000000000000     
   2.4716048307917053E-006   1.9945497355814017E-005   0.0000000000000000     
   2.4727716517910081E-006   2.0073610185432688E-005   0.0000000000000000     
   2.4738439737913122E-006   2.0201818824369347E-005   0.0000000000000000     
   2.3382769599016298E-006   1.9178413844870945E-005   0.0000000000000000     
   2.3398696867226773E-006   1.9305964760316183E-005   0.0000000000000000     
   2.3413805282223506E-006   1.9433614566382676E-005   0.0000000000000000     
   2.3428081500822574E-006   1.9561362335959713E-005   0.0000000000000000     
   2.3441512179840040E-006   1.9689207141936586E-005   0.0000000000000000     
   2.3454083976091961E-006   1.9817148057202573E-005   0.0000000000000000     
   2.3465783546394402E-006   1.9945184154646962E-005   0.0000000000000000     
   2.3476597547563423E-006   2.0073314507159027E-005   0.0000000000000000     
   2.3486512636415101E-006   2.0201538187628078E-005   0.0000000000000000     
   2.2140297799653050E-006   1.9177993738973308E-005   0.0000000000000000     
   2.2155185084751118E-006   1.9305569457838600E-005   0.0000000000000000     
   2.2169282945245144E-006   1.9433243425426397E-005   0.0000000000000000     
   2.2182581962513714E-006   1.9561014326379870E-005   0.0000000000000000     
   2.2195072717935423E-006   1.9688880845342258E-005   0.0000000000000000     
   2.2206745792888890E-006   1.9816841666956750E-005   0.0000000000000000     
   2.2217591768752698E-006   1.9944895475866517E-005   0.0000000000000000     
   2.2227601226905458E-006   2.0073040956714785E-005   0.0000000000000000     
   2.2236764748725773E-006   2.0201276794144742E-005   0.0000000000000000     
   2.0899639926071792E-006   1.9177604970472755E-005   0.0000000000000000     
   2.0913514470309037E-006   1.9305204268854976E-005   0.0000000000000000     
   2.0926631469466133E-006   1.9432901094572066E-005   0.0000000000000000     
   2.0938985669441212E-006   1.9560693686085386E-005   0.0000000000000000     
   2.0950571816132388E-006   1.9688580281856310E-005   0.0000000000000000     
   2.0961384655437789E-006   1.9816559120346160E-005   0.0000000000000000     
   2.0971418933255525E-006   1.9944628440016322E-005   0.0000000000000000     
   2.0980669395483745E-006   2.0072786479328136E-005   0.0000000000000000     
   2.0989130788020540E-006   2.0201031476742960E-005   0.0000000000000000     
   1.9660733948303832E-006   1.9177246090838516E-005   0.0000000000000000     
   1.9673625498558713E-006   1.9304867545339583E-005   0.0000000000000000     
   1.9685794090113700E-006   1.9432585688271153E-005   0.0000000000000000     
   1.9697238329410388E-006   1.9560398270800090E-005   0.0000000000000000     
   1.9707956822890356E-006   1.9688303044093290E-005   0.0000000000000000     
   1.9717948176995201E-006   1.9816297759317638E-005   0.0000000000000000     
   1.9727210998166496E-006   1.9944380167639998E-005   0.0000000000000000     
   1.9735743892845829E-006   2.0072548020227278E-005   0.0000000000000000     
   1.9743545467474784E-006   2.0200799068246348E-005   0.0000000000000000     
   2.9769246018484517E-006   2.0203197147441614E-005   0.0000000000000000     
   2.9782900043503418E-006   2.0331420405368150E-005   0.0000000000000000     
   2.9795536877240218E-006   2.0459755852642783E-005   0.0000000000000000     
   2.9807149821833259E-006   2.0588216545937350E-005   0.0000000000000000     
   2.9817732179420926E-006   2.0716815541923720E-005   0.0000000000000000     
   2.9827277252141548E-006   2.0845565897273734E-005   0.0000000000000000     
   2.9835778342133498E-006   2.0974480668659249E-005   0.0000000000000000     
   2.9843228751535120E-006   2.1103572912752112E-005   0.0000000000000000     
   2.9849621782484793E-006   2.1232855686224164E-005   0.0000000000000000     
   2.8507949193505549E-006   2.0202807865904694E-005   0.0000000000000000     
   2.8520485070168520E-006   2.0331056412895262E-005   0.0000000000000000     
   2.8532008471093840E-006   2.0459414994841705E-005   0.0000000000000000     
   2.8542534440320149E-006   2.0587894252439478E-005   0.0000000000000000     
   2.8552078021886109E-006   2.0716504826384010E-005   0.0000000000000000     
   2.8560654259830354E-006   2.0845257357370733E-005   0.0000000000000000     
   2.8568278198191547E-006   2.0974162486095091E-005   0.0000000000000000     
   2.8574964881008326E-006   2.1103230853252524E-005   0.0000000000000000     
   2.8580729352319341E-006   2.1232473099538474E-005   0.0000000000000000     
   2.7249092729633735E-006   2.0202450496331280E-005   0.0000000000000000     
   2.7260616078621171E-006   2.0330721014710871E-005   0.0000000000000000     
   2.7271148490672625E-006   2.0459098393817174E-005   0.0000000000000000     
   2.7280721686425270E-006   2.0587590722241340E-005   0.0000000000000000     
   2.7289367386516232E-006   2.0716206088574526E-005   0.0000000000000000     
   2.7297117311582683E-006   2.0844952581407867E-005   0.0000000000000000     
   2.7304003182261771E-006   2.0973838289332516E-005   0.0000000000000000     
   2.7310056719190652E-006   2.1102871300939634E-005   0.0000000000000000     
   2.7315309643006468E-006   2.1232059704820348E-005   0.0000000000000000     
   2.5992611340044462E-006   2.0202121871544951E-005   0.0000000000000000     
   2.6003217295160038E-006   2.0330411020469565E-005   0.0000000000000000     
   2.6012867726384192E-006   2.0458802989621288E-005   0.0000000000000000     
   2.6021606568225624E-006   2.0587303253191677E-005   0.0000000000000000     
   2.6029477755193031E-006   2.0715917285372257E-005   0.0000000000000000     
   2.6036525221795092E-006   2.0844650560354569E-005   0.0000000000000000     
   2.6042792902540513E-006   2.0973508552330151E-005   0.0000000000000000     
   2.6048324731937986E-006   2.1102496735490545E-005   0.0000000000000000     
   2.6053164644496202E-006   2.1231620584027289E-005   0.0000000000000000     
   2.4738439737913122E-006   2.0201818824369347E-005   0.0000000000000000     
   2.4748212946083814E-006   2.0330123239825947E-005   0.0000000000000000     
   2.4757076968636160E-006   2.0458525722306169E-005   0.0000000000000000     
   2.4765084093798255E-006   2.0587029143139190E-005   0.0000000000000000     
   2.4772286609798227E-006   2.0715636373654175E-005   0.0000000000000000     
   2.4778736804864136E-006   2.0844350285180262E-005   0.0000000000000000     
   2.4784486967224089E-006   2.0973173749046621E-005   0.0000000000000000     
   2.4789589385106209E-006   2.1102109636582411E-005   0.0000000000000000     
   2.4794096346738574E-006   2.1231160819116776E-005   0.0000000000000000     
   2.3486512636415101E-006   2.0201538187628078E-005   0.0000000000000000     
   2.3495527257691159E-006   2.0329854482434595E-005   0.0000000000000000     
   2.3503687007836130E-006   2.0458263531923920E-005   0.0000000000000000     
   2.3511049271220189E-006   2.0586765689932620E-005   0.0000000000000000     
   2.3517671432213539E-006   2.0715361310297257E-005   0.0000000000000000     
   2.3523610875186354E-006   2.0844050746854380E-005   0.0000000000000000     
   2.3528924984508854E-006   2.0972834353440553E-005   0.0000000000000000     
   2.3533671144551211E-006   2.1101712483892339E-005   0.0000000000000000     
   2.3537906739683608E-006   2.1230685492046290E-005   0.0000000000000000     
   2.2236764748725773E-006   2.0201276794144742E-005   0.0000000000000000     
   2.2245084456280780E-006   2.0329601557950105E-005   0.0000000000000000     
   2.2252608634391723E-006   2.0458013358526653E-005   0.0000000000000000     
   2.2259397108568441E-006   2.0586510191420682E-005   0.0000000000000000     
   2.2265509704320709E-006   2.0715090052178483E-005   0.0000000000000000     
   2.2271006247158330E-006   2.0843750936346346E-005   0.0000000000000000     
   2.2275946562591114E-006   2.0972490839470582E-005   0.0000000000000000     
   2.2280390476128859E-006   2.1101307757097476E-005   0.0000000000000000     
   2.2284397813281345E-006   2.1230199684773316E-005   0.0000000000000000     
   2.0989130788020540E-006   2.0201031476742960E-005   0.0000000000000000     
   2.0996808768151325E-006   2.0329361276027084E-005   0.0000000000000000     
   2.1003752638710578E-006   2.0457772142166487E-005   0.0000000000000000     
   2.1010022613920030E-006   2.0586259945452092E-005   0.0000000000000000     
   2.1015678908001460E-006   2.0714820556174832E-005   0.0000000000000000     
   2.1020781735176600E-006   2.0843449844625600E-005   0.0000000000000000     
   2.1025391309667209E-006   2.0972143681095333E-005   0.0000000000000000     
   2.1029567845695026E-006   2.1100897935874955E-005   0.0000000000000000     
   2.1033371557481800E-006   2.1229708479255351E-005   0.0000000000000000     
   1.9743545467474784E-006   2.0200799068246348E-005   0.0000000000000000     
   1.9750624419601495E-006   2.0329130446320109E-005   0.0000000000000000     
   1.9757029811200276E-006   2.0457536822895531E-005   0.0000000000000000     
   1.9762820795352002E-006   2.0586012249875596E-005   0.0000000000000000     
   1.9768056525137530E-006   2.0714550779163280E-005   0.0000000000000000     
   1.9772796153637731E-006   2.0843146462661562E-005   0.0000000000000000     
   1.9777098833933474E-006   2.0971793352273443E-005   0.0000000000000000     
   1.9781023719105612E-006   2.1100485499901882E-005   0.0000000000000000     
   1.9784629962235021E-006   2.1229216957449872E-005   0.0000000000000000     
   2.9849621782484793E-006   2.1232855686224164E-005   0.0000000000000000     
   2.9854996506972719E-006   2.1362338241731478E-005   0.0000000000000000     
   2.9859575076396606E-006   2.1492014615867026E-005   0.0000000000000000     
   2.9863625412006069E-006   2.1621875041207989E-005   0.0000000000000000     
   2.9867415435050660E-006   2.1751909750331531E-005   0.0000000000000000     
   2.9871213066779967E-006   2.1882108975814854E-005   0.0000000000000000     
   2.9875286228443581E-006   2.2012462950235136E-005   0.0000000000000000     
   2.9879902841291081E-006   2.2142961906169560E-005   0.0000000000000000     
   2.9885330826572042E-006   2.2273596076195298E-005   0.0000000000000000     
   2.8580729352319341E-006   2.1232473099538474E-005   0.0000000000000000     
   2.8585627078979239E-006   2.1361895017863301E-005   0.0000000000000000     
   2.8589875219106638E-006   2.1491483009997109E-005   0.0000000000000000     
   2.8593731353636174E-006   2.1621218629924970E-005   0.0000000000000000     
   2.8597453063502470E-006   2.1751083431631940E-005   0.0000000000000000     
   2.8601297929640124E-006   2.1881058969103037E-005   0.0000000000000000     
   2.8605523532983784E-006   2.2011126796323339E-005   0.0000000000000000     
   2.8610387454468061E-006   2.2141268467277882E-005   0.0000000000000000     
   2.8616147275027577E-006   2.2271465535951725E-005   0.0000000000000000     
   2.7315309643006468E-006   2.1232059704820348E-005   0.0000000000000000     
   2.7319828628343581E-006   2.1361406263963000E-005   0.0000000000000000     
   2.7323820165825125E-006   2.1490892438944595E-005   0.0000000000000000     
   2.7327525700071460E-006   2.1620494364739313E-005   0.0000000000000000     
   2.7331186675702931E-006   2.1750188176321361E-005   0.0000000000000000     
   2.7335044537339864E-006   2.1879950008664887E-005   0.0000000000000000     
   2.7339340729602636E-006   2.2009755996744111E-005   0.0000000000000000     
   2.7344316697111575E-006   2.2139582275533199E-005   0.0000000000000000     
   2.7350213884487023E-006   2.2269404980006344E-005   0.0000000000000000     
   2.6053164644496202E-006   2.1231620584027289E-005   0.0000000000000000     
   2.6057386086979833E-006   2.1360880223359318E-005   0.0000000000000000     
   2.6061180555177488E-006   2.1490254383815173E-005   0.0000000000000000     
   2.6064769057133715E-006   2.1619716446950778E-005   0.0000000000000000     
   2.6068372600893118E-006   2.1749239794322079E-005   0.0000000000000000     
   2.6072212194500246E-006   2.1878797807484992E-005   0.0000000000000000     
   2.6076508845999689E-006   2.2008363867995464E-005   0.0000000000000000     
   2.6081483563436012E-006   2.2137911357409418E-005   0.0000000000000000     
   2.6087357354853802E-006   2.2267413657282803E-005   0.0000000000000000     
   2.4794096346738574E-006   2.1231160819116776E-005   0.0000000000000000     
   2.4798084386802122E-006   2.1360325139380967E-005   0.0000000000000000     
   2.4801727025789138E-006   2.1489580325714543E-005   0.0000000000000000     
   2.4805222030644765E-006   2.1618899077859131E-005   0.0000000000000000     
   2.4808767168314116E-006   2.1748254095556386E-005   0.0000000000000000     
   2.4812560205742312E-006   2.1877618078547931E-005   0.0000000000000000     
   2.4816798909874503E-006   2.2006963726575419E-005   0.0000000000000000     
   2.4821681047655802E-006   2.2136263739380486E-005   0.0000000000000000     
   2.4827404386031323E-006   2.2265490816704765E-005   0.0000000000000000     
   2.3537906739683608E-006   2.1230685492046290E-005   0.0000000000000000     
   2.3541708459724530E-006   2.1359749255356658E-005   0.0000000000000000     
   2.3545230216285527E-006   2.1488881745748378E-005   0.0000000000000000     
   2.3548645226426400E-006   2.1618056458764139E-005   0.0000000000000000     
   2.3552126707207004E-006   2.1747246889946564E-005   0.0000000000000000     
   2.3555847875687148E-006   2.1876426534838304E-005   0.0000000000000000     
   2.3559981948926639E-006   2.2005568888982007E-005   0.0000000000000000     
   2.3564702143985319E-006   2.2134647447920321E-005   0.0000000000000000     
   2.3570181677923011E-006   2.2263635707195896E-005   0.0000000000000000     
   2.2284397813281345E-006   2.1230199684773316E-005   0.0000000000000000     
   2.2288043237661179E-006   2.1359160814615086E-005   0.0000000000000000     
   2.2291460765292053E-006   2.1488170125022398E-005   0.0000000000000000     
   2.2294799250300459E-006   2.1617202790965569E-005   0.0000000000000000     
   2.2298207546812872E-006   2.1746233987414895E-005   0.0000000000000000     
   2.2301834508955766E-006   2.1875238889340682E-005   0.0000000000000000     
   2.2305828990855658E-006   2.2004192671713231E-005   0.0000000000000000     
   2.2310339846638997E-006   2.2133070509502855E-005   0.0000000000000000     
   2.2315515930432275E-006   2.2261847577679841E-005   0.0000000000000000     
   2.1033371557481800E-006   2.1229708479255351E-005   0.0000000000000000     
   2.1036873652526167E-006   2.1358568060484974E-005   0.0000000000000000     
   2.1040189311434152E-006   2.1487456944642270E-005   0.0000000000000000     
   2.1043444708088721E-006   2.1616352275763181E-005   0.0000000000000000     
   2.1046766016372784E-006   2.1745231197883666E-005   0.0000000000000000     
   2.1050279410169265E-006   2.1874070855039661E-005   0.0000000000000000     
   2.1054111063361112E-006   2.2002848391267124E-005   0.0000000000000000     
   2.1058387149831222E-006   2.2131540950602016E-005   0.0000000000000000     
   2.1063233843462541E-006   2.2260125677080271E-005   0.0000000000000000     
   1.9784629962235021E-006   2.1229216957449872E-005   0.0000000000000000     
   1.9787984636233587E-006   2.1357979236295054E-005   0.0000000000000000     
   1.9791186493337263E-006   2.1486753685713710E-005   0.0000000000000000     
   1.9794342205613022E-006   2.1615519114456759E-005   0.0000000000000000     
   1.9797558445127836E-006   2.1744254331275154E-005   0.0000000000000000     
   1.9800941883948694E-006   2.1872938144919828E-005   0.0000000000000000     
   1.9804599194142566E-006   2.2001549364141707E-005   0.0000000000000000     
   1.9808637047776411E-006   2.2130066797691727E-005   0.0000000000000000     
   1.9813162116917231E-006   2.2258469254320849E-005   0.0000000000000000     
   1.8600208764255289E-006   1.4190042554915680E-005   0.0000000000000000     
   1.8638957193628802E-006   1.4310972815154821E-005   0.0000000000000000     
   1.8677094158252810E-006   1.4432143029766936E-005   0.0000000000000000     
   1.8714619060170532E-006   1.4553549449717321E-005   0.0000000000000000     
   1.8751531301425168E-006   1.4675188325971274E-005   0.0000000000000000     
   1.8787830284059943E-006   1.4797055909494093E-005   0.0000000000000000     
   1.8823515410118073E-006   1.4919148451251087E-005   0.0000000000000000     
   1.8858586081642763E-006   1.5041462202207552E-005   0.0000000000000000     
   1.8893041700677234E-006   1.5163993413328785E-005   0.0000000000000000     
   1.7430888886716910E-006   1.4188908656587402E-005   0.0000000000000000     
   1.7467213225176834E-006   1.4309856986214428E-005   0.0000000000000000     
   1.7502964369435212E-006   1.4431045261181945E-005   0.0000000000000000     
   1.7538141600913512E-006   1.4552469747469810E-005   0.0000000000000000     
   1.7572744201033220E-006   1.4674126711057884E-005   0.0000000000000000     
   1.7606771451215818E-006   1.4796012417926007E-005   0.0000000000000000     
   1.7640222632882764E-006   1.4918123134054033E-005   0.0000000000000000     
   1.7673097027455557E-006   1.5040455125421822E-005   0.0000000000000000     
   1.7705393916355666E-006   1.5163004658009223E-005   0.0000000000000000     
   1.6262886127883232E-006   1.4187848211271026E-005   0.0000000000000000     
   1.6296786709396557E-006   1.4308813374507669E-005   0.0000000000000000     
   1.6330152206029143E-006   1.4430018530010607E-005   0.0000000000000000     
   1.6362981848200239E-006   1.4551459946480159E-005   0.0000000000000000     
   1.6395274866329084E-006   1.4673133892616625E-005   0.0000000000000000     
   1.6427030490834915E-006   1.4795036637120338E-005   0.0000000000000000     
   1.6458247952136976E-006   1.4917164448691597E-005   0.0000000000000000     
   1.6488926480654500E-006   1.5039513596030720E-005   0.0000000000000000     
   1.6519065306806731E-006   1.5162080347838014E-005   0.0000000000000000     
   1.5096112748499198E-006   1.4186861169839670E-005   0.0000000000000000     
   1.5127589908311689E-006   1.4307841950726855E-005   0.0000000000000000     
   1.5158569973245849E-006   1.4429062812746671E-005   0.0000000000000000     
   1.5189052179628596E-006   1.4550520018015875E-005   0.0000000000000000     
   1.5219035763786858E-006   1.4672209828651226E-005   0.0000000000000000     
   1.5248519962047574E-006   1.4794128506769490E-005   0.0000000000000000     
   1.5277504010737672E-006   1.4916272314487419E-005   0.0000000000000000     
   1.5305987146184090E-006   1.5038637513921786E-005   0.0000000000000000     
   1.5333968604713743E-006   1.5161220367189334E-005   0.0000000000000000     
   1.3930481009309727E-006   1.4185947483166442E-005   0.0000000000000000     
   1.3959535083945990E-006   1.4306942685564288E-005   0.0000000000000000     
   1.3988129976296577E-006   1.4428178085883884E-005   0.0000000000000000     
   1.4016264972796466E-006   1.4549649933344496E-005   0.0000000000000000     
   1.4043939359880650E-006   1.4671354477165396E-005   0.0000000000000000     
   1.4071152423984107E-006   1.4793287966565858E-005   0.0000000000000000     
   1.4097903451541827E-006   1.4915446650765153E-005   0.0000000000000000     
   1.4124191728988804E-006   1.5037826778982567E-005   0.0000000000000000     
   1.4150016542759998E-006   1.5160424600437352E-005   0.0000000000000000     
   1.2765903171059762E-006   1.4185107102124464E-005   0.0000000000000000     
   1.2792534498323176E-006   1.4306115549712273E-005   0.0000000000000000     
   1.2818744520392560E-006   1.4427364325915993E-005   0.0000000000000000     
   1.2844532605301744E-006   1.4548849663733541E-005   0.0000000000000000     
   1.2869898121084554E-006   1.4670567796162850E-005   0.0000000000000000     
   1.2894840435774841E-006   1.4792514956201846E-005   0.0000000000000000     
   1.2919358917406422E-006   1.4914687376848462E-005   0.0000000000000000     
   1.2943452934013133E-006   1.5037081291100611E-005   0.0000000000000000     
   1.2967121853628810E-006   1.5159692931956231E-005   0.0000000000000000     
   1.1602291494494233E-006   1.4184339977586849E-005   0.0000000000000000     
   1.1626500413466989E-006   1.4305360513863114E-005   0.0000000000000000     
   1.1650325910745044E-006   1.4426621509336743E-005   0.0000000000000000     
   1.1673767454742307E-006   1.4548119180450543E-005   0.0000000000000000     
   1.1696824513872687E-006   1.4669849743647308E-005   0.0000000000000000     
   1.1719496556550084E-006   1.4791809415369857E-005   0.0000000000000000     
   1.1741783051188416E-006   1.4913994412060973E-005   0.0000000000000000     
   1.1763683466201569E-006   1.5036400950163468E-005   0.0000000000000000     
   1.1785197270003470E-006   1.5159025246120138E-005   0.0000000000000000     
   1.0439558240358078E-006   1.4183646060426710E-005   0.0000000000000000     
   1.0461345091401161E-006   1.4304677548709108E-005   0.0000000000000000     
   1.0482786452565274E-006   1.4425949612639885E-005   0.0000000000000000     
   1.0503881898716056E-006   1.4547458454763025E-005   0.0000000000000000     
   1.0524631004719143E-006   1.4669200277622499E-005   0.0000000000000000     
   1.0545033345440167E-006   1.4791171283762284E-005   0.0000000000000000     
   1.0565088495744781E-006   1.4913367675726356E-005   0.0000000000000000     
   1.0584796030498614E-006   1.5035785656058693E-005   0.0000000000000000     
   1.0604155524567296E-006   1.5158421427303253E-005   0.0000000000000000     
   9.2776156693962313E-007   1.4183025301517174E-005   0.0000000000000000     
   9.2969807941494248E-007   1.4304066624942556E-005   0.0000000000000000     
   9.3160384510644862E-007   1.4425348612319162E-005   0.0000000000000000     
   9.3347883148208659E-007   1.4546867457938515E-005   0.0000000000000000     
   9.3532300600980206E-007   1.4668619356092128E-005   0.0000000000000000     
   9.3713633615754133E-007   1.4790600501071536E-005   0.0000000000000000     
   9.3891878939324976E-007   1.4912807087168254E-005   0.0000000000000000     
   9.4067033318487353E-007   1.5035235308673807E-005   0.0000000000000000     
   9.4239093500035841E-007   1.5157881359879728E-005   0.0000000000000000     
   1.8893041700677234E-006   1.5163993413328785E-005   0.0000000000000000     
   1.8926881629377209E-006   1.5286738319256263E-005   0.0000000000000000     
   1.8960105070348415E-006   1.5409693089336114E-005   0.0000000000000000     
   1.8992711186309095E-006   1.5532853876590636E-005   0.0000000000000000     
   1.9024699139977504E-006   1.5656216834042143E-005   0.0000000000000000     
   1.9056068094071883E-006   1.5779778114712938E-005   0.0000000000000000     
   1.9086817211310467E-006   1.5903533871625324E-005   0.0000000000000000     
   1.9116945654411504E-006   1.6027480257801593E-005   0.0000000000000000     
   1.9146452586093241E-006   1.6151613426264067E-005   0.0000000000000000     
   1.7705393916355666E-006   1.5163004658009223E-005   0.0000000000000000     
   1.7737112567001856E-006   1.5285767979005300E-005   0.0000000000000000     
   1.7768252190802009E-006   1.5408741260436007E-005   0.0000000000000000     
   1.7798811985161314E-006   1.5531920655536509E-005   0.0000000000000000     
   1.7828791147484946E-006   1.5655302317541970E-005   0.0000000000000000     
   1.7858188875178083E-006   1.5778882399687556E-005   0.0000000000000000     
   1.7887004365645900E-006   1.5902657055208434E-005   0.0000000000000000     
   1.7915236816293583E-006   1.6026622437339764E-005   0.0000000000000000     
   1.7942885424526293E-006   1.6150774699316724E-005   0.0000000000000000     
   1.6519065306806731E-006   1.5162080347838014E-005   0.0000000000000000     
   1.6548663653256167E-006   1.5284860955054226E-005   0.0000000000000000     
   1.6577720711638323E-006   1.5407851597581783E-005   0.0000000000000000     
   1.6606235665831991E-006   1.5531048437563552E-005   0.0000000000000000     
   1.6634207699715933E-006   1.5654447637142383E-005   0.0000000000000000     
   1.6661635997168940E-006   1.5778045358461145E-005   0.0000000000000000     
   1.6688519742069787E-006   1.5901837763662695E-005   0.0000000000000000     
   1.6714858118297265E-006   1.6025821014889893E-005   0.0000000000000000     
   1.6740650309730134E-006   1.6149991274285597E-005   0.0000000000000000     
   1.5333968604713743E-006   1.5161220367189334E-005   0.0000000000000000     
   1.5361447605936267E-006   1.5284017122319270E-005   0.0000000000000000     
   1.5388423302592056E-006   1.5407023970990527E-005   0.0000000000000000     
   1.5414894830704198E-006   1.5530237090794465E-005   0.0000000000000000     
   1.5440861326295772E-006   1.5653652659322438E-005   0.0000000000000000     
   1.5466321925389874E-006   1.5777266854165818E-005   0.0000000000000000     
   1.5491275764009583E-006   1.5901075852915965E-005   0.0000000000000000     
   1.5515721978177988E-006   1.6025075833164245E-005   0.0000000000000000     
   1.5539659703918178E-006   1.6149262972502021E-005   0.0000000000000000     
   1.4150016542759998E-006   1.5160424600437352E-005   0.0000000000000000     
   1.4175377142838278E-006   1.5283236355716692E-005   0.0000000000000000     
   1.4200272633397907E-006   1.5406258250879338E-005   0.0000000000000000     
   1.4224702082161030E-006   1.5529486483351948E-005   0.0000000000000000     
   1.4248664556849787E-006   1.5652917250561176E-005   0.0000000000000000     
   1.4272159125186306E-006   1.5776546749933677E-005   0.0000000000000000     
   1.4295184854892730E-006   1.5900371178896108E-005   0.0000000000000000     
   1.4317740813691201E-006   1.6024386734875119E-005   0.0000000000000000     
   1.4339826069303852E-006   1.6148589615297367E-005   0.0000000000000000     
   1.2967121853628810E-006   1.5159692931956231E-005   0.0000000000000000     
   1.2990364981758307E-006   1.5282518530162713E-005   0.0000000000000000     
   1.3013181373790567E-006   1.5405554307465307E-005   0.0000000000000000     
   1.3035570022585566E-006   1.5528796483358713E-005   0.0000000000000000     
   1.3057529921003270E-006   1.5652241277337650E-005   0.0000000000000000     
   1.3079060061903653E-006   1.5775884908896834E-005   0.0000000000000000     
   1.3100159438146685E-006   1.5899723597530972E-005   0.0000000000000000     
   1.3120827042592324E-006   1.6023753562734774E-005   0.0000000000000000     
   1.3141061868100556E-006   1.6147971024002955E-005   0.0000000000000000     
   1.1785197270003470E-006   1.5159025246120138E-005   0.0000000000000000     
   1.1806323840492468E-006   1.5281863520573584E-005   0.0000000000000000     
   1.1827062193504731E-006   1.5404912010965517E-005   0.0000000000000000     
   1.1847411254360886E-006   1.5528166958937453E-005   0.0000000000000000     
   1.1867369948381545E-006   1.5651624606130909E-005   0.0000000000000000     
   1.1886937200887341E-006   1.5775281194187391E-005   0.0000000000000000     
   1.1906111937198888E-006   1.5899132964748425E-005   0.0000000000000000     
   1.1924893082636801E-006   1.6023176159455498E-005   0.0000000000000000     
   1.1943279562521716E-006   1.6147407019950150E-005   0.0000000000000000     
   1.0604155524567296E-006   1.5158421427303253E-005   0.0000000000000000     
   1.0623166436836889E-006   1.5281271201865539E-005   0.0000000000000000     
   1.0641827762275104E-006   1.5404331231597062E-005   0.0000000000000000     
   1.0660138379870074E-006   1.5527597778210868E-005   0.0000000000000000     
   1.0678097168609930E-006   1.5651067103419995E-005   0.0000000000000000     
   1.0695703007482786E-006   1.5774735468937459E-005   0.0000000000000000     
   1.0712954775476790E-006   1.5898599136476315E-005   0.0000000000000000     
   1.0729851351580067E-006   1.6022654367749579E-005   0.0000000000000000     
   1.0746391614780742E-006   1.6146897424470298E-005   0.0000000000000000     
   9.4239093500035841E-007   1.5157881359879728E-005   0.0000000000000000     
   9.4408054885876811E-007   1.5280741448954821E-005   0.0000000000000000     
   9.4573907498363752E-007   1.5403811839577051E-005   0.0000000000000000     
   9.4736640014962076E-007   1.5527088809301675E-005   0.0000000000000000     
   9.4896241113137085E-007   1.5650568635683954E-005   0.0000000000000000     
   9.5052699470354083E-007   1.5774247596279151E-005   0.0000000000000000     
   9.5206003764078460E-007   1.5898121968642508E-005   0.0000000000000000     
   9.5356142671775498E-007   1.6022188030329283E-005   0.0000000000000000     
   9.5503104870910585E-007   1.6146442058894746E-005   0.0000000000000000     
   1.9146452586093241E-006   1.6151613426264067E-005   0.0000000000000000     
   1.9175336903461162E-006   1.6275929551274406E-005   0.0000000000000000     
   1.9203596441169795E-006   1.6400424892051826E-005   0.0000000000000000     
   1.9231228768260890E-006   1.6525095729054914E-005   0.0000000000000000     
   1.9258231453776224E-006   1.6649938342742252E-005   0.0000000000000000     
   1.9284602066757558E-006   1.6774949013572421E-005   0.0000000000000000     
   1.9310338176246652E-006   1.6900124022004002E-005   0.0000000000000000     
   1.9335437351285277E-006   1.7025459648495586E-005   0.0000000000000000     
   1.9359897160915199E-006   1.7150952173505756E-005   0.0000000000000000     
   1.7942885424526293E-006   1.6150774699316724E-005   0.0000000000000000     
   1.7969949063903518E-006   1.6275110019952539E-005   0.0000000000000000     
   1.7996425312601940E-006   1.6399624680372734E-005   0.0000000000000000     
   1.8022311424952529E-006   1.6524314987280894E-005   0.0000000000000000     
   1.8047604655286266E-006   1.6649177247380611E-005   0.0000000000000000     
   1.8072302257934133E-006   1.6774207767375484E-005   0.0000000000000000     
   1.8096401487227103E-006   1.6899402853969095E-005   0.0000000000000000     
   1.8119899597496156E-006   1.7024758813865029E-005   0.0000000000000000     
   1.8142793843072268E-006   1.7150271953766889E-005   0.0000000000000000     
   1.6740650309730134E-006   1.6149991274285597E-005   0.0000000000000000     
   1.6765895152475536E-006   1.6274344730715545E-005   0.0000000000000000     
   1.6790590091553998E-006   1.6398877679936993E-005   0.0000000000000000     
   1.6814732224214393E-006   1.6523586444430073E-005   0.0000000000000000     
   1.6838318647705603E-006   1.6648467346674923E-005   0.0000000000000000     
   1.6861346459276506E-006   1.6773516709151665E-005   0.0000000000000000     
   1.6883812756175977E-006   1.6898730854340443E-005   0.0000000000000000     
   1.6905714635652898E-006   1.7024106104721378E-005   0.0000000000000000     
   1.6927049194956145E-006   1.7149638782774615E-005   0.0000000000000000     
   1.5539659703918178E-006   1.6149262972502021E-005   0.0000000000000000     
   1.5563087733478751E-006   1.6273633473901513E-005   0.0000000000000000     
   1.5586003484010305E-006   1.6398183641858367E-005   0.0000000000000000     
   1.5608404028888960E-006   1.6522909806249058E-005   0.0000000000000000     
   1.5630286441490842E-006   1.6647808296950109E-005   0.0000000000000000     
   1.5651647795192061E-006   1.6772875443837995E-005   0.0000000000000000     
   1.5672485163368729E-006   1.6898107576789216E-005   0.0000000000000000     
   1.5692795619396977E-006   1.7023501025680267E-005   0.0000000000000000     
   1.5712576236652908E-006   1.7149052120387651E-005   0.0000000000000000     
   1.4339826069303852E-006   1.6148589615297367E-005   0.0000000000000000     
   1.4361439371214689E-006   1.6272976039848552E-005   0.0000000000000000     
   1.4382578195955186E-006   1.6397542317250592E-005   0.0000000000000000     
   1.4403239701818708E-006   1.6522284778484457E-005   0.0000000000000000     
   1.4423421047098585E-006   1.6647199754531101E-005   0.0000000000000000     
   1.4443119390088171E-006   1.6772283576371489E-005   0.0000000000000000     
   1.4462331889080813E-006   1.6897532574986581E-005   0.0000000000000000     
   1.4481055702369861E-006   1.7022943081357345E-005   0.0000000000000000     
   1.4499287988248662E-006   1.7148511426464738E-005   0.0000000000000000     
   1.3141061868100556E-006   1.6147971024002955E-005   0.0000000000000000     
   1.3160862629984885E-006   1.6272372218894747E-005   0.0000000000000000     
   1.3180226933372991E-006   1.6396953457227440E-005   0.0000000000000000     
   1.3199152105846100E-006   1.6521711066882865E-005   0.0000000000000000     
   1.3217635474985437E-006   1.6646641375742829E-005   0.0000000000000000     
   1.3235674368372215E-006   1.6771740711689178E-005   0.0000000000000000     
   1.3253266113587673E-006   1.6897005402603699E-005   0.0000000000000000     
   1.3270408038213020E-006   1.7022431776368227E-005   0.0000000000000000     
   1.3287097469829488E-006   1.7148016160864590E-005   0.0000000000000000     
   1.1943279562521716E-006   1.6147407019950150E-005   0.0000000000000000     
   1.1961270074090878E-006   1.6271821801378190E-005   0.0000000000000000     
   1.1978862402248043E-006   1.6396416812902644E-005   0.0000000000000000     
   1.1996054103813616E-006   1.6521188377190877E-005   0.0000000000000000     
   1.2012842735607996E-006   1.6646132816910244E-005   0.0000000000000000     
   1.2029225854451576E-006   1.6771246454728078E-005   0.0000000000000000     
   1.2045201017164749E-006   1.6896525613311737E-005   0.0000000000000000     
   1.2060765780567920E-006   1.7021966615328570E-005   0.0000000000000000     
   1.2075917701481474E-006   1.7147565783445926E-005   0.0000000000000000     
   1.0746391614780742E-006   1.6146897424470298E-005   0.0000000000000000     
   1.0762574267834186E-006   1.6271324577636971E-005   0.0000000000000000     
   1.0778397308564674E-006   1.6395932135389961E-005   0.0000000000000000     
   1.0793858558563730E-006   1.6520716415155103E-005   0.0000000000000000     
   1.0808955839422882E-006   1.6645673734358258E-005   0.0000000000000000     
   1.0823686972733632E-006   1.6770800410425226E-005   0.0000000000000000     
   1.0838049780087507E-006   1.6896092760781860E-005   0.0000000000000000     
   1.0852042083076036E-006   1.7021547102854010E-005   0.0000000000000000     
   1.0865661703290719E-006   1.7147159754067485E-005   0.0000000000000000     
   9.5503104870910585E-007   1.6146442058894746E-005   0.0000000000000000     
   9.5646877755163508E-007   1.6270880338009191E-005   0.0000000000000000     
   9.5787443583072236E-007   1.6395499175803138E-005   0.0000000000000000     
   9.5924783329389168E-007   1.6520294886522154E-005   0.0000000000000000     
   9.6058877968866809E-007   1.6645263784411795E-005   0.0000000000000000     
   9.6189708476257578E-007   1.6770402183717638E-005   0.0000000000000000     
   9.6317255826313918E-007   1.6895706398685240E-005   0.0000000000000000     
   9.6441500993788269E-007   1.7021172743560171E-005   0.0000000000000000     
   9.6562424953433072E-007   1.7146797532587990E-005   0.0000000000000000     
   1.9359897160915199E-006   1.7150952173505756E-005   0.0000000000000000     
   1.9383714800862490E-006   1.7276597895149658E-005   0.0000000000000000     
   1.9406885973590466E-006   1.7402393182168725E-005   0.0000000000000000     
   1.9429406008246763E-006   1.7528334420960964E-005   0.0000000000000000     
   1.9451270233979023E-006   1.7654417997924370E-005   0.0000000000000000     
   1.9472473979934850E-006   1.7780640299456945E-005   0.0000000000000000     
   1.9493012575261895E-006   1.7906997711956690E-005   0.0000000000000000     
   1.9512881349107783E-006   1.8033486621821606E-005   0.0000000000000000     
   1.9532075630620145E-006   1.8160103415449685E-005   0.0000000000000000     
   1.8142793843072268E-006   1.7150271953766889E-005   0.0000000000000000     
   1.8165081207322944E-006   1.7275938589273194E-005   0.0000000000000000     
   1.8186757589761773E-006   1.7401755071562243E-005   0.0000000000000000     
   1.8207818618938884E-006   1.7527717760707271E-005   0.0000000000000000     
   1.8228259923404386E-006   1.7653823016781515E-005   0.0000000000000000     
   1.8248077131708391E-006   1.7780067199858199E-005   0.0000000000000000     
   1.8267265872401036E-006   1.7906446670010570E-005   0.0000000000000000     
   1.8285821774032423E-006   1.8032957787311843E-005   0.0000000000000000     
   1.8303740465152675E-006   1.8159596911835278E-005   0.0000000000000000     
   1.6927049194956145E-006   1.7149638782774615E-005   0.0000000000000000     
   1.6947813321286727E-006   1.7275325214241072E-005   0.0000000000000000     
   1.6968003061654233E-006   1.7401161737904867E-005   0.0000000000000000     
   1.6987614253020359E-006   1.7527144695810899E-005   0.0000000000000000     
   1.7006642732346836E-006   1.7653270430004099E-005   0.0000000000000000     
   1.7025084336595363E-006   1.7779535282529344E-005   0.0000000000000000     
   1.7042934902727654E-006   1.7905935595431575E-005   0.0000000000000000     
   1.7060190267705429E-006   1.8032467710755670E-005   0.0000000000000000     
   1.7076846268490395E-006   1.8159127970546550E-005   0.0000000000000000     
   1.5712576236652908E-006   1.7149052120387651E-005   0.0000000000000000     
   1.5731823906109010E-006   1.7274757190922661E-005   0.0000000000000000     
   1.5750534789123205E-006   1.7400612567835757E-005   0.0000000000000000     
   1.5768704864649789E-006   1.7526614581812231E-005   0.0000000000000000     
   1.5786330111643053E-006   1.7652759563537352E-005   0.0000000000000000     
   1.5803406509057283E-006   1.7779043843696377E-005   0.0000000000000000     
   1.5819930035846772E-006   1.7905463752974599E-005   0.0000000000000000     
   1.5835896670965811E-006   1.8032015622057287E-005   0.0000000000000000     
   1.5851302393368692E-006   1.8158695781629701E-005   0.0000000000000000     
   1.4499287988248662E-006   1.7148511426464738E-005   0.0000000000000000     
   1.4517025725144961E-006   1.7274233940187335E-005   0.0000000000000000     
   1.4534265172024088E-006   1.7400106947994107E-005   0.0000000000000000     
   1.4551002407985764E-006   1.7526126774251634E-005   0.0000000000000000     
   1.4567233512129725E-006   1.7652289743326503E-005   0.0000000000000000     
   1.4582954563555701E-006   1.7778592179585284E-005   0.0000000000000000     
   1.4598161641363407E-006   1.7905030407394554E-005   0.0000000000000000     
   1.4612850824652578E-006   1.8031600751120918E-005   0.0000000000000000     
   1.4627018192522944E-006   1.8158299535130933E-005   0.0000000000000000     
   1.3287097469829488E-006   1.7148016160864590E-005   0.0000000000000000     
   1.3303331541749741E-006   1.7273754882904469E-005   0.0000000000000000     
   1.3319106610212240E-006   1.7399644265019075E-005   0.0000000000000000     
   1.3334418837186873E-006   1.7525680628669486E-005   0.0000000000000000     
   1.3349264384643542E-006   1.7651860295316787E-005   0.0000000000000000     
   1.3363639414552141E-006   1.7778179586422039E-005   0.0000000000000000     
   1.3377540088882571E-006   1.7904634823446343E-005   0.0000000000000000     
   1.3390962569604727E-006   1.8031222327850775E-005   0.0000000000000000     
   1.3403903018688512E-006   1.8157938421096404E-005   0.0000000000000000     
   1.2075917701481474E-006   1.7147565783445926E-005   0.0000000000000000     
   1.2090654119278530E-006   1.7273319439943439E-005   0.0000000000000000     
   1.2104971503543047E-006   1.7399223905549846E-005   0.0000000000000000     
   1.2118866106411704E-006   1.7525275500606156E-005   0.0000000000000000     
   1.2132334180021176E-006   1.7651470545453422E-005   0.0000000000000000     
   1.2145371976508145E-006   1.7777805360432643E-005   0.0000000000000000     
   1.2157975748009281E-006   1.7904276265884850E-005   0.0000000000000000     
   1.2170141746661267E-006   1.8030879582151074E-005   0.0000000000000000     
   1.2181866224600776E-006   1.8157611629572312E-005   0.0000000000000000     
   1.0865661703290719E-006   1.7147159754067485E-005   0.0000000000000000     
   1.0878906221086496E-006   1.7272927032173621E-005   0.0000000000000000     
   1.0891772251871894E-006   1.7398845256225576E-005   0.0000000000000000     
   1.0904256169818852E-006   1.7524910745602035E-005   0.0000000000000000     
   1.0916354349099328E-006   1.7651119819681653E-005   0.0000000000000000     
   1.0928063163885247E-006   1.7777468797843084E-005   0.0000000000000000     
   1.0939378988348556E-006   1.7903953999464978E-005   0.0000000000000000     
   1.0950298196661206E-006   1.8030571743926033E-005   0.0000000000000000     
   1.0960817162995121E-006   1.8157318350604856E-005   0.0000000000000000     
   9.6562424953433072E-007   1.7146797532587990E-005   0.0000000000000000     
   9.6680006105287954E-007   1.7272577080464381E-005   0.0000000000000000     
   9.6794212550541429E-007   1.7398507703685464E-005   0.0000000000000000     
   9.6905009815669135E-007   1.7524585719197492E-005   0.0000000000000000     
   9.7012363427146708E-007   1.7650807443946701E-005   0.0000000000000000     
   9.7116238911449869E-007   1.7777169194879335E-005   0.0000000000000000     
   9.7216601795054192E-007   1.7903667288941640E-005   0.0000000000000000     
   9.7313417604435397E-007   1.8030298043079859E-005   0.0000000000000000     
   9.7406651866069121E-007   1.8157057774240228E-005   0.0000000000000000     
   1.9532075630620145E-006   1.8160103415449685E-005   0.0000000000000000     
   1.9550590644047931E-006   1.8286844553737242E-005   0.0000000000000000     
   1.9568421194045379E-006   1.8413706795573774E-005   0.0000000000000000     
   1.9585561980368035E-006   1.8540686974347083E-005   0.0000000000000000     
   1.9602007702771453E-006   1.8667781923444988E-005   0.0000000000000000     
   1.9617753061011188E-006   1.8794988476255272E-005   0.0000000000000000     
   1.9632792754842799E-006   1.8922303466165750E-005   0.0000000000000000     
   1.9647121484021827E-006   1.9049723726564230E-005   0.0000000000000000     
   1.9660733948303832E-006   1.9177246090838516E-005   0.0000000000000000     
   1.8303740465152675E-006   1.8159596911835278E-005   0.0000000000000000     
   1.8321017351639560E-006   1.8286360470716865E-005   0.0000000000000000     
   1.8337646948681452E-006   1.8413245159343745E-005   0.0000000000000000     
   1.8353623548794394E-006   1.8540247740165807E-005   0.0000000000000000     
   1.8368941444494406E-006   1.8667364975632957E-005   0.0000000000000000     
   1.8383594928297518E-006   1.8794593628195093E-005   0.0000000000000000     
   1.8397578292719759E-006   1.8921930460302123E-005   0.0000000000000000     
   1.8410885830277171E-006   1.9049372234403945E-005   0.0000000000000000     
   1.8423511833485767E-006   1.9176915712950461E-005   0.0000000000000000     
   1.7076846268490395E-006   1.8159127970546550E-005   0.0000000000000000     
   1.7092898476298061E-006   1.8285912772318404E-005   0.0000000000000000     
   1.7108341399359088E-006   1.8412818735462449E-005   0.0000000000000000     
   1.7123169280157932E-006   1.8539842534839198E-005   0.0000000000000000     
   1.7137376361179052E-006   1.8666980845309162E-005   0.0000000000000000     
   1.7150956884906908E-006   1.8794230341732850E-005   0.0000000000000000     
   1.7163905093825950E-006   1.8921587698970761E-005   0.0000000000000000     
   1.7176215230420642E-006   1.9049049591883402E-005   0.0000000000000000     
   1.7187881537175435E-006   1.9176612695331279E-005   0.0000000000000000     
   1.5851302393368692E-006   1.8158695781629701E-005   0.0000000000000000     
   1.5866142932444686E-006   1.8285500602923710E-005   0.0000000000000000     
   1.5880413019323002E-006   1.8412426619357387E-005   0.0000000000000000     
   1.5894107135567818E-006   1.8539470404895415E-005   0.0000000000000000     
   1.5907219762743334E-006   1.8666628533502477E-005   0.0000000000000000     
   1.5919745382413719E-006   1.8793897579143224E-005   0.0000000000000000     
   1.5931678476143166E-006   1.8921274115782336E-005   0.0000000000000000     
   1.5943013525495865E-006   1.9048754717384496E-005   0.0000000000000000     
   1.5953745012035998E-006   1.9176335957914345E-005   0.0000000000000000     
   1.4627018192522944E-006   1.8158299535130933E-005   0.0000000000000000     
   1.4640659634500694E-006   1.8285123106914659E-005   0.0000000000000000     
   1.4653770281817941E-006   1.8412067906456072E-005   0.0000000000000000     
   1.4666345076133247E-006   1.8539130396862622E-005   0.0000000000000000     
   1.4678378959105182E-006   1.8666307041241753E-005   0.0000000000000000     
   1.4689866872392319E-006   1.8793594302700911E-005   0.0000000000000000     
   1.4700803757653222E-006   1.8920988644347546E-005   0.0000000000000000     
   1.4711184556546477E-006   1.9048486529289117E-005   0.0000000000000000     
   1.4721004210730638E-006   1.9176084420633059E-005   0.0000000000000000     
   1.3403903018688512E-006   1.8157938421096404E-005   0.0000000000000000     
   1.3416357496887328E-006   1.8284779428673119E-005   0.0000000000000000     
   1.3428321660088628E-006   1.8411741692186005E-005   0.0000000000000000     
   1.3439791062963381E-006   1.8538821557268960E-005   0.0000000000000000     
   1.3450761260182540E-006   1.8666015369555858E-005   0.0000000000000000     
   1.3461227806417066E-006   1.8793319474680598E-005   0.0000000000000000     
   1.3471186256337927E-006   1.8920730218277069E-005   0.0000000000000000     
   1.3480632164616089E-006   1.9048243945979161E-005   0.0000000000000000     
   1.3489561085922502E-006   1.9175857003420766E-005   0.0000000000000000     
   1.2181866224600776E-006   1.8157611629572312E-005   0.0000000000000000     
   1.2193145434025834E-006   1.8284468712580958E-005   0.0000000000000000     
   1.2203975627379803E-006   1.8411447071974690E-005   0.0000000000000000     
   1.2214353057167399E-006   1.8538542932642574E-005   0.0000000000000000     
   1.2224273975893341E-006   1.8665752519473660E-005   0.0000000000000000     
   1.2233734636062331E-006   1.8793072057356980E-005   0.0000000000000000     
   1.2242731290179089E-006   1.8920497771181589E-005   0.0000000000000000     
   1.2251260190748328E-006   1.9048025885836532E-005   0.0000000000000000     
   1.2259317590274759E-006   1.9175652626210854E-005   0.0000000000000000     
   1.0960817162995121E-006   1.8157318350604856E-005   0.0000000000000000     
   1.0970932360337465E-006   1.8284190103020043E-005   0.0000000000000000     
   1.0980640656936193E-006   1.8411183141249640E-005   0.0000000000000000     
   1.0989939019854487E-006   1.8538293569511641E-005   0.0000000000000000     
   1.0998824416155524E-006   1.8665517492024030E-005   0.0000000000000000     
   1.1007293812902473E-006   1.8792851013004748E-005   0.0000000000000000     
   1.1015344177158517E-006   1.8920290236671781E-005   0.0000000000000000     
   1.1022972475986832E-006   1.9047831267243122E-005   0.0000000000000000     
   1.1030175676450573E-006   1.9175470208936713E-005   0.0000000000000000     
   9.7406651866069121E-007   1.8157057774240228E-005   0.0000000000000000     
   9.7496271902434622E-007   1.8283942744372233E-005   0.0000000000000000     
   9.7582252220025299E-007   1.8410948995438352E-005   0.0000000000000000     
   9.7664569121338172E-007   1.8538072514404306E-005   0.0000000000000000     
   9.7743198908870304E-007   1.8665309288235819E-005   0.0000000000000000     
   9.7818117885118629E-007   1.8792655303898590E-005   0.0000000000000000     
   9.7889302352580233E-007   1.8920106548358351E-005   0.0000000000000000     
   9.7956728613752070E-007   1.9047659008580818E-005   0.0000000000000000     
   9.8020372971131162E-007   1.9175308671531716E-005   0.0000000000000000     
   1.9660733948303832E-006   1.9177246090838516E-005   0.0000000000000000     
   1.9673625498558713E-006   1.9304867545339583E-005   0.0000000000000000     
   1.9685794090113700E-006   1.9432585688271153E-005   0.0000000000000000     
   1.9697238329410388E-006   1.9560398270800090E-005   0.0000000000000000     
   1.9707956822890356E-006   1.9688303044093290E-005   0.0000000000000000     
   1.9717948176995201E-006   1.9816297759317638E-005   0.0000000000000000     
   1.9727210998166496E-006   1.9944380167639998E-005   0.0000000000000000     
   1.9735743892845829E-006   2.0072548020227278E-005   0.0000000000000000     
   1.9743545467474784E-006   2.0200799068246348E-005   0.0000000000000000     
   1.8423511833485767E-006   1.9176915712950461E-005   0.0000000000000000     
   1.8435451833475483E-006   1.9304557737774351E-005   0.0000000000000000     
   1.8446706315831858E-006   1.9432295468239430E-005   0.0000000000000000     
   1.8457277004754323E-006   1.9560126143092298E-005   0.0000000000000000     
   1.8467165624442319E-006   1.9688047001079534E-005   0.0000000000000000     
   1.8476373899095280E-006   1.9816055280947749E-005   0.0000000000000000     
   1.8484903552912639E-006   1.9944148221443529E-005   0.0000000000000000     
   1.8492756310093839E-006   2.0072323061313473E-005   0.0000000000000000     
   1.8499933894838313E-006   2.0200577039304170E-005   0.0000000000000000     
   1.7187881537175435E-006   1.9176612695331279E-005   0.0000000000000000     
   1.7198899896303393E-006   1.9304273690671824E-005   0.0000000000000000     
   1.7209272748932000E-006   1.9432029285250158E-005   0.0000000000000000     
   1.7219004175917359E-006   1.9559876192908335E-005   0.0000000000000000     
   1.7228098258115556E-006   1.9687811127488384E-005   0.0000000000000000     
   1.7236559076382683E-006   1.9815830802832369E-005   0.0000000000000000     
   1.7244390711574839E-006   1.9943931932782323E-005   0.0000000000000000     
   1.7251597244548114E-006   2.0072111231180306E-005   0.0000000000000000     
   1.7258182756158605E-006   2.0200365411868349E-005   0.0000000000000000     
   1.5953745012035998E-006   1.9176335957914345E-005   0.0000000000000000     
   1.5963869297603639E-006   1.9304014347052230E-005   0.0000000000000000     
   1.5973390265142365E-006   1.9431786137340959E-005   0.0000000000000000     
   1.5982313677871634E-006   1.9559647517039042E-005   0.0000000000000000     
   1.5990645299010936E-006   1.9687594674404944E-005   0.0000000000000000     
   1.5998390891779709E-006   1.9815623797697158E-005   0.0000000000000000     
   1.6005556219397420E-006   1.9943731075174149E-005   0.0000000000000000     
   1.6012147045083557E-006   2.0071912695094426E-005   0.0000000000000000     
   1.6018169132057563E-006   2.0200164845716450E-005   0.0000000000000000     
   1.4721004210730638E-006   1.9176084420633059E-005   0.0000000000000000     
   1.4730259647937432E-006   1.9303778649935769E-005   0.0000000000000000     
   1.4738955740191165E-006   1.9431565022549443E-005   0.0000000000000000     
   1.4747099345589309E-006   1.9559439212275247E-005   0.0000000000000000     
   1.4754697322229310E-006   1.9687396892914303E-005   0.0000000000000000     
   1.4761756528208634E-006   1.9815433738267764E-005   0.0000000000000000     
   1.4768283821624730E-006   1.9943545422136778E-005   0.0000000000000000     
   1.4774286060575068E-006   2.0071727618322498E-005   0.0000000000000000     
   1.4779770103157103E-006   2.0199976000626067E-005   0.0000000000000000     
   1.3489561085922502E-006   1.9175857003420766E-005   0.0000000000000000     
   1.3497970557865978E-006   1.9303565542342657E-005   0.0000000000000000     
   1.3505866049806650E-006   1.9431364938913237E-005   0.0000000000000000     
   1.3513255014042515E-006   1.9559250375407781E-005   0.0000000000000000     
   1.3520144902871552E-006   1.9687217034101563E-005   0.0000000000000000     
   1.3526543168591746E-006   1.9815260097269873E-005   0.0000000000000000     
   1.3532457263501078E-006   1.9943374747187982E-005   0.0000000000000000     
   1.3537894639897543E-006   2.0071556166131180E-005   0.0000000000000000     
   1.3542862750079110E-006   2.0199799536374754E-005   0.0000000000000000     
   1.2259317590274759E-006   1.9175652626210854E-005   0.0000000000000000     
   1.2266901637950470E-006   1.9303373967293128E-005   0.0000000000000000     
   1.2274018069717034E-006   1.9431184884469954E-005   0.0000000000000000     
   1.2280674518203395E-006   1.9559080103227474E-005   0.0000000000000000     
   1.2286878616038516E-006   1.9687054349051819E-005   0.0000000000000000     
   1.2292637995851336E-006   1.9815102347429132E-005   0.0000000000000000     
   1.2297960290270807E-006   1.9943218823845510E-005   0.0000000000000000     
   1.2302853131925881E-006   2.0071398503787130E-005   0.0000000000000000     
   1.2307324153445498E-006   2.0199636112740086E-005   0.0000000000000000     
   1.1030175676450573E-006   1.9175470208936713E-005   0.0000000000000000     
   1.1036952498752126E-006   1.9303202867807383E-005   0.0000000000000000     
   1.1043308675650548E-006   1.9431023857257215E-005   0.0000000000000000     
   1.1049251693044109E-006   1.9558927492525167E-005   0.0000000000000000     
   1.1054789036831074E-006   1.9686908088850190E-005   0.0000000000000000     
   1.1059928192909700E-006   1.9814959961471205E-005   0.0000000000000000     
   1.1064676647178250E-006   1.9943077425627157E-005   0.0000000000000000     
   1.1069041885534989E-006   2.0071254796557007E-005   0.0000000000000000     
   1.1073031393878172E-006   2.0199486389499658E-005   0.0000000000000000     
   9.8020372971131162E-007   1.9175308671531716E-005   0.0000000000000000     
   9.8080227508321367E-007   1.9303051186905630E-005   0.0000000000000000     
   9.8136347433354198E-007   1.9430880855312636E-005   0.0000000000000000     
   9.8188803735367880E-007   1.9558791640091690E-005   0.0000000000000000     
   9.8237667403500765E-007   1.9686777504581741E-005   0.0000000000000000     
   9.8283009426891119E-007   1.9814832412121752E-005   0.0000000000000000     
   9.8324900794677316E-007   1.9942950326050668E-005   0.0000000000000000     
   9.8363412495997601E-007   2.0071125209707448E-005   0.0000000000000000     
   9.8398615519990326E-007   2.0199351026431031E-005   0.0000000000000000     
   1.9743545467474784E-006   2.0200799068246348E-005   0.0000000000000000     
   1.9750624419601495E-006   2.0329130446320109E-005   0.0000000000000000     
   1.9757029811200276E-006   2.0457536822895531E-005   0.0000000000000000     
   1.9762820795352002E-006   2.0586012249875596E-005   0.0000000000000000     
   1.9768056525137530E-006   2.0714550779163280E-005   0.0000000000000000     
   1.9772796153637731E-006   2.0843146462661562E-005   0.0000000000000000     
   1.9777098833933474E-006   2.0971793352273443E-005   0.0000000000000000     
   1.9781023719105612E-006   2.1100485499901882E-005   0.0000000000000000     
   1.9784629962235021E-006   2.1229216957449872E-005   0.0000000000000000     
   1.8499933894838313E-006   2.0200577039304170E-005   0.0000000000000000     
   1.8506447271578067E-006   2.0328906619832623E-005   0.0000000000000000     
   1.8512344365675419E-006   2.0457305169997458E-005   0.0000000000000000     
   1.8517682342725248E-006   2.0585765282567670E-005   0.0000000000000000     
   1.8522518368322450E-006   2.0714279550312317E-005   0.0000000000000000     
   1.8526909608061902E-006   2.0842840566000394E-005   0.0000000000000000     
   1.8530913227538500E-006   2.0971440922400946E-005   0.0000000000000000     
   1.8534586392347121E-006   2.1100073212282975E-005   0.0000000000000000     
   1.8537986268082656E-006   2.1228730028415520E-005   0.0000000000000000     
   1.7258182756158605E-006   2.0200365411868349E-005   0.0000000000000000     
   1.7264159723620249E-006   2.0328690312963424E-005   0.0000000000000000     
   1.7269574209578393E-006   2.0457078269682115E-005   0.0000000000000000     
   1.7274480673036238E-006   2.0585520741515965E-005   0.0000000000000000     
   1.7278933572996982E-006   2.0714009187956482E-005   0.0000000000000000     
   1.7282987368463821E-006   2.0842535068495172E-005   0.0000000000000000     
   1.7286696518439944E-006   2.0971089842623565E-005   0.0000000000000000     
   1.7290115481928557E-006   2.1099664969833181E-005   0.0000000000000000     
   1.7293298717932851E-006   2.1228251909615520E-005   0.0000000000000000     
   1.6018169132057563E-006   2.0200164845716450E-005   0.0000000000000000     
   1.6023635809915354E-006   2.0328482783460124E-005   0.0000000000000000     
   1.6028590673758573E-006   2.0456858037390961E-005   0.0000000000000000     
   1.6033084885065327E-006   2.0585281204735875E-005   0.0000000000000000     
   1.6037169605313710E-006   2.0713742882721819E-005   0.0000000000000000     
   1.6040895995981815E-006   2.0842233668575704E-005   0.0000000000000000     
   1.6044315218547731E-006   2.0970744159524455E-005   0.0000000000000000     
   1.6047478434489568E-006   2.1099264952795007E-005   0.0000000000000000     
   1.6050436805285409E-006   2.1227786645614281E-005   0.0000000000000000     
   1.4779770103157103E-006   2.0199976000626067E-005   0.0000000000000000     
   1.4784749564650697E-006   2.0328285289070378E-005   0.0000000000000000     
   1.4789265089065325E-006   2.0456646388565400E-005   0.0000000000000000     
   1.4793364077592875E-006   2.0585049250242834E-005   0.0000000000000000     
   1.4797093931425210E-006   2.0713483825234393E-005   0.0000000000000000     
   1.4800502051754223E-006   2.0841940064671800E-005   0.0000000000000000     
   1.4803635839771789E-006   2.0970407919686755E-005   0.0000000000000000     
   1.4806542696669790E-006   2.1098877341410984E-005   0.0000000000000000     
   1.4809270023640101E-006   2.1227338280976183E-005   0.0000000000000000     
   1.3542862750079110E-006   2.0199799536374754E-005   0.0000000000000000     
   1.3547375022013590E-006   2.0328099087541814E-005   0.0000000000000000     
   1.3551468786348008E-006   2.0456445238646857E-005   0.0000000000000000     
   1.3555187349399215E-006   2.0584827456052229E-005   0.0000000000000000     
   1.3558574017484057E-006   2.0713235206120249E-005   0.0000000000000000     
   1.3561672096919376E-006   2.0841657955213261E-005   0.0000000000000000     
   1.3564524894022034E-006   2.0970085169693608E-005   0.0000000000000000     
   1.3567175715108868E-006   2.1098506315923616E-005   0.0000000000000000     
   1.3569667866496720E-006   2.1226910860265620E-005   0.0000000000000000     
   1.2307324153445498E-006   2.0199636112740086E-005   0.0000000000000000     
   1.2311386216191345E-006   2.0327925436622053E-005   0.0000000000000000     
   1.2315073096455985E-006   2.0456256503076770E-005   0.0000000000000000     
   1.2318423799264710E-006   2.0584618400179468E-005   0.0000000000000000     
   1.2321477329642826E-006   2.0713000216005429E-005   0.0000000000000000     
   1.2324272692615623E-006   2.0841391038629919E-005   0.0000000000000000     
   1.2326848893208387E-006   2.0969779956128148E-005   0.0000000000000000     
   1.2329244936446430E-006   2.1098156056575415E-005   0.0000000000000000     
   1.2331499827355043E-006   2.1226508428046971E-005   0.0000000000000000     
   1.1073031393878172E-006   2.0199486389499658E-005   0.0000000000000000     
   1.1076657181371284E-006   2.0327765594058758E-005   0.0000000000000000     
   1.1079949350238624E-006   2.0456082097296553E-005   0.0000000000000000     
   1.1082942525969718E-006   2.0584424660639984E-005   0.0000000000000000     
   1.1085671334054096E-006   2.0712782045516007E-005   0.0000000000000000     
   1.1088170399981277E-006   2.0841143013351537E-005   0.0000000000000000     
   1.1090474349240778E-006   2.0969496325573531E-005   0.0000000000000000     
   1.1092617807322136E-006   2.1097830743608925E-005   0.0000000000000000     
   1.1094635399714859E-006   2.1226135028884646E-005   0.0000000000000000     
   9.8398615519990326E-007   2.0199351026431031E-005   0.0000000000000000     
   9.8430619517407095E-007   2.0327620817599535E-005   0.0000000000000000     
   9.8459688785452866E-007   2.0455923936747629E-005   0.0000000000000000     
   9.8486126282945888E-007   2.0584248815449176E-005   0.0000000000000000     
   9.8510234968704457E-007   2.0712583885278008E-005   0.0000000000000000     
   9.8532317801546801E-007   2.0840917577807966E-005   0.0000000000000000     
   9.8552677740291279E-007   2.0969238324612902E-005   0.0000000000000000     
   9.8571617743756035E-007   2.1097534557266641E-005   0.0000000000000000     
   9.8589440770759448E-007   2.1225794707343018E-005   0.0000000000000000     
   1.9784629962235021E-006   2.1229216957449872E-005   0.0000000000000000     
   1.9787984636233587E-006   2.1357979236295054E-005   0.0000000000000000     
   1.9791186493337263E-006   2.1486753685713710E-005   0.0000000000000000     
   1.9794342205613022E-006   2.1615519114456759E-005   0.0000000000000000     
   1.9797558445127836E-006   2.1744254331275154E-005   0.0000000000000000     
   1.9800941883948694E-006   2.1872938144919828E-005   0.0000000000000000     
   1.9804599194142566E-006   2.2001549364141707E-005   0.0000000000000000     
   1.9808637047776411E-006   2.2130066797691727E-005   0.0000000000000000     
   1.9813162116917231E-006   2.2258469254320849E-005   0.0000000000000000     
   1.8537986268082656E-006   2.1228730028415520E-005   0.0000000000000000     
   1.8541175738169792E-006   2.1357401815238735E-005   0.0000000000000000     
   1.8544240557352442E-006   2.1486070423877383E-005   0.0000000000000000     
   1.8547272198204318E-006   2.1614715557127355E-005   0.0000000000000000     
   1.8550362133299145E-006   2.1743316917784548E-005   0.0000000000000000     
   1.8553601835210609E-006   2.1871854208644856E-005   0.0000000000000000     
   1.8557082776512450E-006   2.2000307132504169E-005   0.0000000000000000     
   1.8560896429778375E-006   2.2128655392158393E-005   0.0000000000000000     
   1.8565134267582088E-006   2.2256878690403416E-005   0.0000000000000000     
   1.7293298717932851E-006   2.1228251909615520E-005   0.0000000000000000     
   1.7296304977610050E-006   2.1356840189968305E-005   0.0000000000000000     
   1.7299210180733426E-006   2.1485411612913979E-005   0.0000000000000000     
   1.7302094539230284E-006   2.1613946048981190E-005   0.0000000000000000     
   1.7305038265027921E-006   2.1742423368698571E-005   0.0000000000000000     
   1.7308121570053642E-006   2.1870823442594770E-005   0.0000000000000000     
   1.7311424666234742E-006   2.1999126141198422E-005   0.0000000000000000     
   1.7315027765498529E-006   2.2127311335038194E-005   0.0000000000000000     
   1.7319011079772287E-006   2.2255358894642676E-005   0.0000000000000000     
   1.6050436805285409E-006   2.1227786645614281E-005   0.0000000000000000     
   1.6053244991301868E-006   2.1356297983000759E-005   0.0000000000000000     
   1.6055971648459585E-006   2.1484780301139166E-005   0.0000000000000000     
   1.6058688931567725E-006   2.1613213084005777E-005   0.0000000000000000     
   1.6061468995435450E-006   2.1741575815576868E-005   0.0000000000000000     
   1.6064383994871907E-006   2.1869847979828703E-005   0.0000000000000000     
   1.6067506084686271E-006   2.1998009060737581E-005   0.0000000000000000     
   1.6070907419687683E-006   2.2126038542279744E-005   0.0000000000000000     
   1.6074660154685326E-006   2.2253915908431511E-005   0.0000000000000000     
   1.4809270023640101E-006   2.1227338280976183E-005   0.0000000000000000     
   1.4811868415992751E-006   2.1355778816853109E-005   0.0000000000000000     
   1.4814401245510299E-006   2.1484179536868617E-005   0.0000000000000000     
   1.4816935078093472E-006   2.1612519156188636E-005   0.0000000000000000     
   1.4819536479642986E-006   2.1740776389979052E-005   0.0000000000000000     
   1.4822272016059547E-006   2.1868929953405770E-005   0.0000000000000000     
   1.4825208253243874E-006   2.1996958561634697E-005   0.0000000000000000     
   1.4828411757096690E-006   2.2124840929831734E-005   0.0000000000000000     
   1.4831949093518695E-006   2.2252555773162792E-005   0.0000000000000000     
   1.3569667866496720E-006   2.1226910860265620E-005   0.0000000000000000     
   1.3572047888430205E-006   2.1355286314042338E-005   0.0000000000000000     
   1.3574375256864948E-006   2.1483612368418015E-005   0.0000000000000000     
   1.3576712681684351E-006   2.1611866759517279E-005   0.0000000000000000     
   1.3579122872771796E-006   2.1740027223464763E-005   0.0000000000000000     
   1.3581668540010685E-006   2.1868071496385094E-005   0.0000000000000000     
   1.3584412393284400E-006   2.1995977314402887E-005   0.0000000000000000     
   1.3587417142476340E-006   2.2123722413642787E-005   0.0000000000000000     
   1.3590745497469902E-006   2.2251284530229412E-005   0.0000000000000000     
   1.2331499827355043E-006   2.1226508428046971E-005   0.0000000000000000     
   1.2333656045361732E-006   2.1354824097085453E-005   0.0000000000000000     
   1.2335769967502909E-006   2.1483081844103015E-005   0.0000000000000000     
   1.2337901445217176E-006   2.1611258387979229E-005   0.0000000000000000     
   1.2340110329943150E-006   2.1739330447593635E-005   0.0000000000000000     
   1.2342456473119447E-006   2.1867274741825786E-005   0.0000000000000000     
   1.2344999726184686E-006   2.1995067989555238E-005   0.0000000000000000     
   1.2347799940577482E-006   2.2122686909661546E-005   0.0000000000000000     
   1.2350916967736445E-006   2.2250108221024256E-005   0.0000000000000000     
   1.1094635399714859E-006   2.1226135028884646E-005   0.0000000000000000     
   1.1096565523534856E-006   2.1354395788499447E-005   0.0000000000000000     
   1.1098461662403557E-006   2.1482591012239303E-005   0.0000000000000000     
   1.1100381071568767E-006   2.1610696535561984E-005   0.0000000000000000     
   1.1102381006278309E-006   2.1738688193925289E-005   0.0000000000000000     
   1.1104518721779971E-006   2.1866541822786975E-005   0.0000000000000000     
   1.1106851473321574E-006   2.1994233257604841E-005   0.0000000000000000     
   1.1109436516150928E-006   2.2121738333836656E-005   0.0000000000000000     
   1.1112331105515831E-006   2.2249032886940201E-005   0.0000000000000000     
   9.8589440770759448E-007   2.1225794707343018E-005   0.0000000000000000     
   9.8606489596970661E-007   2.1354005010801326E-005   0.0000000000000000     
   9.8623266265462759E-007   2.1482142921142550E-005   0.0000000000000000     
   9.8640312636159636E-007   2.1610183696253082E-005   0.0000000000000000     
   9.8658170568985309E-007   2.1738102594019357E-005   0.0000000000000000     
   9.8677381923863800E-007   2.1865874872327790E-005   0.0000000000000000     
   9.8698488560719001E-007   2.1993475789064784E-005   0.0000000000000000     
   9.8722032339474909E-007   2.2120880602116758E-005   0.0000000000000000     
   9.8748555120055545E-007   2.2248064569370149E-005   0.0000000000000000     
   9.2776156693962313E-007   1.4183025301517174E-005   0.0000000000000000     
   9.2969807941494248E-007   1.4304066624942556E-005   0.0000000000000000     
   9.3160384510644862E-007   1.4425348612319162E-005   0.0000000000000000     
   9.3347883148208659E-007   1.4546867457938515E-005   0.0000000000000000     
   9.3532300600980206E-007   1.4668619356092128E-005   0.0000000000000000     
   9.3713633615754133E-007   1.4790600501071536E-005   0.0000000000000000     
   9.3891878939324976E-007   1.4912807087168254E-005   0.0000000000000000     
   9.4067033318487353E-007   1.5035235308673807E-005   0.0000000000000000     
   9.4239093500035841E-007   1.5157881359879728E-005   0.0000000000000000     
   8.1163760208978170E-007   1.4182477656394004E-005   0.0000000000000000     
   8.1333197549224479E-007   1.4303527711974782E-005   0.0000000000000000     
   8.1499941655460078E-007   1.4424818481374625E-005   0.0000000000000000     
   8.1663990104356274E-007   1.4546346158433936E-005   0.0000000000000000     
   8.1825340472584447E-007   1.4668106936993134E-005   0.0000000000000000     
   8.1983990336815893E-007   1.4790097010892631E-005   0.0000000000000000     
   8.2139937273721982E-007   1.4912312573972839E-005   0.0000000000000000     
   8.2293178859974062E-007   1.5034749820074175E-005   0.0000000000000000     
   8.2443712672243450E-007   1.5157404943037046E-005   0.0000000000000000     
   6.9557514483287394E-007   1.4182003099243614E-005   0.0000000000000000     
   6.9702740916785722E-007   1.4303060774093145E-005   0.0000000000000000     
   6.9845656716814786E-007   1.4424359178831498E-005   0.0000000000000000     
   6.9986260120632244E-007   1.4545894513463832E-005   0.0000000000000000     
   7.0124549365495776E-007   1.4667662977995315E-005   0.0000000000000000     
   7.0260522688663095E-007   1.4789660772431106E-005   0.0000000000000000     
   7.0394178327391785E-007   1.4911884096776362E-005   0.0000000000000000     
   7.0525514518939537E-007   1.5034329151036244E-005   0.0000000000000000     
   7.0654529500564020E-007   1.5156992135215917E-005   0.0000000000000000     
   5.7956540836990947E-007   1.4181601608915075E-005   0.0000000000000000     
   5.8077558935630672E-007   1.4302665774304010E-005   0.0000000000000000     
   5.8196649992346170E-007   1.4423970660221315E-005   0.0000000000000000     
   5.8313812759875351E-007   1.4545512477432155E-005   0.0000000000000000     
   5.8429045990956100E-007   1.4667287436701701E-005   0.0000000000000000     
   5.8542348438326324E-007   1.4789291748795121E-005   0.0000000000000000     
   5.8653718854723932E-007   1.4911521624477588E-005   0.0000000000000000     
   5.8763155992886789E-007   1.5033973274514279E-005   0.0000000000000000     
   5.8870658605552813E-007   1.5156642909670361E-005   0.0000000000000000     
   4.6359960590189759E-007   1.4181273164257448E-005   0.0000000000000000     
   4.6456772497212064E-007   1.4302342675613764E-005   0.0000000000000000     
   4.6552041779691473E-007   1.4423652881075614E-005   0.0000000000000000     
   4.6645767584924385E-007   1.4545200004742843E-005   0.0000000000000000     
   4.6737949060207181E-007   1.4666980270715305E-005   0.0000000000000000     
   4.6828585352836249E-007   1.4788989903092835E-005   0.0000000000000000     
   4.6917675610107994E-007   1.4911225125975294E-005   0.0000000000000000     
   4.7005218979318802E-007   1.5033682163462528E-005   0.0000000000000000     
   4.7091214607765061E-007   1.5156357239654376E-005   0.0000000000000000     
   3.4766895062984787E-007   1.4181017744119805E-005   0.0000000000000000     
   3.4839502492982626E-007   1.4302091441028775E-005   0.0000000000000000     
   3.4910952376487901E-007   1.4423405796925919E-005   0.0000000000000000     
   3.4981244158618158E-007   1.4544957049799845E-005   0.0000000000000000     
   3.5050377284490837E-007   1.4666741437639144E-005   0.0000000000000000     
   3.5118351199223470E-007   1.4788755198432410E-005   0.0000000000000000     
   3.5185165347933555E-007   1.4910994570168245E-005   0.0000000000000000     
   3.5250819175738581E-007   1.5033455790835240E-005   0.0000000000000000     
   3.5315312127756058E-007   1.5156135098421996E-005   0.0000000000000000     
   2.3176465575476986E-007   1.4180835327351211E-005   0.0000000000000000     
   2.3224869814395062E-007   1.4301912033555409E-005   0.0000000000000000     
   2.3272502080372699E-007   1.4423229363303768E-005   0.0000000000000000     
   2.3319362043795461E-007   1.4544783567007103E-005   0.0000000000000000     
   2.3365449375048916E-007   1.4666570895076240E-005   0.0000000000000000     
   2.3410763744518641E-007   1.4788587597922006E-005   0.0000000000000000     
   2.3455304822590187E-007   1.4910829925955209E-005   0.0000000000000000     
   2.3499072279649127E-007   1.5033294129586675E-005   0.0000000000000000     
   2.3542065786081031E-007   1.5155976459227225E-005   0.0000000000000000     
   1.1587793447767318E-007   1.4180725892800737E-005   0.0000000000000000     
   1.1611995352902086E-007   1.4301804416200052E-005   0.0000000000000000     
   1.1635811188983039E-007   1.4423123535740682E-005   0.0000000000000000     
   1.1659240803295110E-007   1.4544679510768566E-005   0.0000000000000000     
   1.1682284043123243E-007   1.4666468600629625E-005   0.0000000000000000     
   1.1704940755752381E-007   1.4788487064669771E-005   0.0000000000000000     
   1.1727210788467476E-007   1.4910731162234957E-005   0.0000000000000000     
   1.1749093988553461E-007   1.5033197152671089E-005   0.0000000000000000     
   1.1770590203295279E-007   1.5155881295324090E-005   0.0000000000000000     
  -4.3270148714893899E-019   1.4180689419317453E-005   0.0000000000000000     
  -4.3583815603174007E-019   1.4301768551969073E-005   0.0000000000000000     
  -4.3861748288991824E-019   1.4423088269768204E-005   0.0000000000000000     
  -4.4117843406638242E-019   1.4544644835488180E-005   0.0000000000000000     
  -4.4377908991224914E-019   1.4666434511902297E-005   0.0000000000000000     
  -4.4669903747456132E-019   1.4788453561783888E-005   0.0000000000000000     
  -4.5016823296360872E-019   1.4910698247906260E-005   0.0000000000000000     
  -4.5441952772182501E-019   1.5033164833042721E-005   0.0000000000000000     
  -4.5969404489776939E-019   1.5155849579966599E-005   0.0000000000000000     
   9.4239093500035841E-007   1.5157881359879728E-005   0.0000000000000000     
   9.4408054885876811E-007   1.5280741448954821E-005   0.0000000000000000     
   9.4573907498363752E-007   1.5403811839577051E-005   0.0000000000000000     
   9.4736640014962076E-007   1.5527088809301675E-005   0.0000000000000000     
   9.4896241113137085E-007   1.5650568635683954E-005   0.0000000000000000     
   9.5052699470354083E-007   1.5774247596279151E-005   0.0000000000000000     
   9.5206003764078460E-007   1.5898121968642508E-005   0.0000000000000000     
   9.5356142671775498E-007   1.6022188030329283E-005   0.0000000000000000     
   9.5503104870910585E-007   1.6146442058894746E-005   0.0000000000000000     
   8.2443712672243450E-007   1.5157404943037046E-005   0.0000000000000000     
   8.2591534861332204E-007   1.5280274152323702E-005   0.0000000000000000     
   8.2736635874565120E-007   1.5403353719883677E-005   0.0000000000000000     
   8.2879004733397758E-007   1.5526639933288353E-005   0.0000000000000000     
   8.3018630459285624E-007   1.5650129080109104E-005   0.0000000000000000     
   8.3155502073684233E-007   1.5773817447917299E-005   0.0000000000000000     
   8.3289608598049134E-007   1.5897701324284322E-005   0.0000000000000000     
   8.3420939053835822E-007   1.6021776996781532E-005   0.0000000000000000     
   8.3549482462499856E-007   1.6146040752980313E-005   0.0000000000000000     
   7.0654529500564020E-007   1.5156992135215917E-005   0.0000000000000000     
   7.0781220102309353E-007   1.5279869264718587E-005   0.0000000000000000     
   7.0905577525365450E-007   1.5402956816539661E-005   0.0000000000000000     
   7.1027591563708681E-007   1.5526251083072587E-005   0.0000000000000000     
   7.1147252011315443E-007   1.5649748356710807E-005   0.0000000000000000     
   7.1264548662162107E-007   1.5773444929847783E-005   0.0000000000000000     
   7.1379471310225036E-007   1.5897337094876959E-005   0.0000000000000000     
   7.1492009749480635E-007   1.6021421144191794E-005   0.0000000000000000     
   7.1602153773905254E-007   1.6145693370185722E-005   0.0000000000000000     
   5.8870658605552813E-007   1.5156642909670361E-005   0.0000000000000000     
   5.8976224142305112E-007   1.5279526754451927E-005   0.0000000000000000     
   5.9079844840107688E-007   1.5402621088328831E-005   0.0000000000000000     
   5.9181511632769818E-007   1.5525922204511829E-005   0.0000000000000000     
   5.9281215454100641E-007   1.5649426396211693E-005   0.0000000000000000     
   5.9378947237909453E-007   1.5773129956639199E-005   0.0000000000000000     
   5.9474697918005470E-007   1.5897029179005095E-005   0.0000000000000000     
   5.9568458428197891E-007   1.6021120356520168E-005   0.0000000000000000     
   5.9660219702295942E-007   1.6145399782395186E-005   0.0000000000000000     
   4.7091214607765061E-007   1.5156357239654376E-005   0.0000000000000000     
   4.7175660514816348E-007   1.5279246589836157E-005   0.0000000000000000     
   4.7258550208134890E-007   1.5402346494035018E-005   0.0000000000000000     
   4.7339876067456089E-007   1.5525653243463562E-005   0.0000000000000000     
   4.7419630472515357E-007   1.5649163129334407E-005   0.0000000000000000     
   4.7497805803048083E-007   1.5772872442860151E-005   0.0000000000000000     
   4.7574394438789663E-007   1.5896777475253409E-005   0.0000000000000000     
   4.7649388759475527E-007   1.6020874517726788E-005   0.0000000000000000     
   4.7722781144841061E-007   1.6145159861492905E-005   0.0000000000000000     
   3.5315312127756058E-007   1.5156135098421996E-005   0.0000000000000000     
   3.5378642753339936E-007   1.5279028739183719E-005   0.0000000000000000     
   3.5440806018789992E-007   1.5402132992442050E-005   0.0000000000000000     
   3.5501795994642492E-007   1.5525444145785242E-005   0.0000000000000000     
   3.5561606751433633E-007   1.5648958486801558E-005   0.0000000000000000     
   3.5620232359699706E-007   1.5772672303079243E-005   0.0000000000000000     
   3.5677666889976909E-007   1.5896581882206557E-005   0.0000000000000000     
   3.5733904412801497E-007   1.6020683511771741E-005   0.0000000000000000     
   3.5788938998709709E-007   1.6144973479363075E-005   0.0000000000000000     
   2.3542065786081031E-007   1.5155976459227225E-005   0.0000000000000000     
   2.3584284391372725E-007   1.5278873170807046E-005   0.0000000000000000     
   2.3625724661416002E-007   1.5401980542333757E-005   0.0000000000000000     
   2.3666382541203956E-007   1.5525294857334347E-005   0.0000000000000000     
   2.3706253975729627E-007   1.5648812399335788E-005   0.0000000000000000     
   2.3745334909986113E-007   1.5772529451865089E-005   0.0000000000000000     
   2.3783621288966471E-007   1.5896442298449217E-005   0.0000000000000000     
   2.3821109057663755E-007   1.6020547222615155E-005   0.0000000000000000     
   2.3857794161071060E-007   1.6144840507889898E-005   0.0000000000000000     
   1.1770590203295279E-007   1.5155881295324090E-005   0.0000000000000000     
   1.1791698962411591E-007   1.5278779853018593E-005   0.0000000000000000     
   1.1812418525355901E-007   1.5401889102493977E-005   0.0000000000000000     
   1.1832746834015429E-007   1.5525205323968329E-005   0.0000000000000000     
   1.1852681830277407E-007   1.5648724797659743E-005   0.0000000000000000     
   1.1872221456029051E-007   1.5772443803786283E-005   0.0000000000000000     
   1.1891363653157597E-007   1.5896358622566056E-005   0.0000000000000000     
   1.1910106363550248E-007   1.6020465534217125E-005   0.0000000000000000     
   1.1928447529094234E-007   1.6144760818957582E-005   0.0000000000000000     
  -4.5969404489776939E-019   1.5155849579966599E-005   0.0000000000000000     
  -4.6608318794912897E-019   1.5278748754130788E-005   0.0000000000000000     
  -4.7339215584164753E-019   1.5401858631706531E-005   0.0000000000000000     
  -4.8124375421600086E-019   1.5525175491544671E-005   0.0000000000000000     
  -4.8928560413124140E-019   1.5648695612496027E-005   0.0000000000000000     
  -4.9716119074335878E-019   1.5772415273411443E-005   0.0000000000000000     
  -5.0451451619622549E-019   1.5896330753141741E-005   0.0000000000000000     
  -5.1088584901502104E-019   1.6020438330537756E-005   0.0000000000000000     
  -5.1614746734328842E-019   1.6144734284450328E-005   0.0000000000000000     
   9.5503104870910585E-007   1.6146442058894746E-005   0.0000000000000000     
   9.5646877755163508E-007   1.6270880338009191E-005   0.0000000000000000     
   9.5787443583072236E-007   1.6395499175803138E-005   0.0000000000000000     
   9.5924783329389168E-007   1.6520294886522154E-005   0.0000000000000000     
   9.6058877968866809E-007   1.6645263784411795E-005   0.0000000000000000     
   9.6189708476257578E-007   1.6770402183717638E-005   0.0000000000000000     
   9.6317255826313918E-007   1.6895706398685240E-005   0.0000000000000000     
   9.6441500993788269E-007   1.7021172743560171E-005   0.0000000000000000     
   9.6562424953433072E-007   1.7146797532587990E-005   0.0000000000000000     
   8.3549482462499856E-007   1.6146040752980313E-005   0.0000000000000000     
   8.3675226949253044E-007   1.6270488884973711E-005   0.0000000000000000     
   8.3798157054332496E-007   1.6395117702941497E-005   0.0000000000000000     
   8.3918256421731616E-007   1.6519923521585122E-005   0.0000000000000000     
   8.4035508695443773E-007   1.6644902655606021E-005   0.0000000000000000     
   8.4149897519462414E-007   1.6770051419705649E-005   0.0000000000000000     
   8.4261406537780896E-007   1.6895366128585447E-005   0.0000000000000000     
   8.4370019394392677E-007   1.7020843096946867E-005   0.0000000000000000     
   8.4475719733291126E-007   1.7146478639491348E-005   0.0000000000000000     
   7.1602153773905254E-007   1.6145693370185722E-005   0.0000000000000000     
   7.1709892577945973E-007   1.6270150069572449E-005   0.0000000000000000     
   7.1815212957932432E-007   1.6394787556346631E-005   0.0000000000000000     
   7.1918101110665021E-007   1.6519602148823152E-005   0.0000000000000000     
   7.2018543232944065E-007   1.6644590165316907E-005   0.0000000000000000     
   7.2116525521569888E-007   1.6769747924142800E-005   0.0000000000000000     
   7.2212034173342871E-007   1.6895071743615728E-005   0.0000000000000000     
   7.2305055385063347E-007   1.7020557942050572E-005   0.0000000000000000     
   7.2395575353531665E-007   1.7146202837762240E-005   0.0000000000000000     
   5.9660219702295942E-007   1.6145399782395186E-005   0.0000000000000000     
   5.9749972293441821E-007   1.6269863754988110E-005   0.0000000000000000     
   5.9837705232109266E-007   1.6394508593245690E-005   0.0000000000000000     
   5.9923407168104969E-007   1.6519330621261890E-005   0.0000000000000000     
   6.0007066751235719E-007   1.6644326163130662E-005   0.0000000000000000     
   6.0088672631308165E-007   1.6769491542945956E-005   0.0000000000000000     
   6.0168213458129021E-007   1.6894823084801729E-005   0.0000000000000000     
   6.0245677881505033E-007   1.7020317112791941E-005   0.0000000000000000     
   6.0321054551242849E-007   1.7145969951010534E-005   0.0000000000000000     
   4.7722781144841061E-007   1.6145159861492905E-005   0.0000000000000000     
   4.7794563747940092E-007   1.6269629804403372E-005   0.0000000000000000     
   4.7864727815100113E-007   1.6394280670865841E-005   0.0000000000000000     
   4.7933264365967058E-007   1.6519108791926990E-005   0.0000000000000000     
   4.8000164420186859E-007   1.6644110498633469E-005   0.0000000000000000     
   4.8065418997405407E-007   1.6769282122031962E-005   0.0000000000000000     
   4.8129019117268656E-007   1.6894619993169114E-005   0.0000000000000000     
   4.8190955799422497E-007   1.7020120443091610E-005   0.0000000000000000     
   4.8251220063512885E-007   1.7145779802846102E-005   0.0000000000000000     
   3.5788938998709709E-007   1.6144973479363075E-005   0.0000000000000000     
   3.5842764593640328E-007   1.6269448081000926E-005   0.0000000000000000     
   3.5895374645142208E-007   1.6394103646434242E-005   0.0000000000000000     
   3.5946762476166784E-007   1.6518936513844085E-005   0.0000000000000000     
   3.5996921409665495E-007   1.6643943021411539E-005   0.0000000000000000     
   3.6045844768589739E-007   1.6769119507317658E-005   0.0000000000000000     
   3.6093525875890929E-007   1.6894462309743538E-005   0.0000000000000000     
   3.6139958054520504E-007   1.7019967766870223E-005   0.0000000000000000     
   3.6185134627429874E-007   1.7145632216878810E-005   0.0000000000000000     
   2.3857794161071060E-007   1.6144840507889898E-005   0.0000000000000000     
   2.3893672482742034E-007   1.6269318447963474E-005   0.0000000000000000     
   2.3928739660472715E-007   1.6393977377178049E-005   0.0000000000000000     
   2.3962991270619724E-007   1.6518813640038834E-005   0.0000000000000000     
   2.3996422889539723E-007   1.6643823581051054E-005   0.0000000000000000     
   2.4029030093589313E-007   1.6769003544719922E-005   0.0000000000000000     
   2.4060808459125120E-007   1.6894349875550645E-005   0.0000000000000000     
   2.4091753562503823E-007   1.7019858918048442E-005   0.0000000000000000     
   2.4121860980081996E-007   1.7145527016718531E-005   0.0000000000000000     
   1.1928447529094234E-007   1.6144760818957582E-005   0.0000000000000000     
   1.1946385067444758E-007   1.6269240768473694E-005   0.0000000000000000     
   1.1963916799328827E-007   1.6393901720324416E-005   0.0000000000000000     
   1.1981040521241437E-007   1.6518740023536871E-005   0.0000000000000000     
   1.1997754029677593E-007   1.6643752027138231E-005   0.0000000000000000     
   1.2014055121132273E-007   1.6768934080155586E-005   0.0000000000000000     
   1.2029941592100479E-007   1.6894282531616092E-005   0.0000000000000000     
   1.2045411239077196E-007   1.7019793730546910E-005   0.0000000000000000     
   1.2060461858557421E-007   1.7145464025975128E-005   0.0000000000000000     
  -5.1614746734328842E-019   1.6144734284450328E-005   0.0000000000000000     
  -5.1990617604672938E-019   1.6269214905714290E-005   0.0000000000000000     
  -5.2282446924781646E-019   1.6393876533100511E-005   0.0000000000000000     
  -5.2540609993959446E-019   1.6518715517363864E-005   0.0000000000000000     
  -5.2830867670904303E-019   1.6643728209259240E-005   0.0000000000000000     
  -5.3232132986053777E-019   1.6768910959541507E-005   0.0000000000000000     
  -5.3796497638483394E-019   1.6894260118965556E-005   0.0000000000000000     
  -5.4595737640908029E-019   1.7019772038286251E-005   0.0000000000000000     
  -5.5691092792990162E-019   1.7145443068258476E-005   0.0000000000000000     
   9.6562424953433072E-007   1.7146797532587990E-005   0.0000000000000000     
   9.6680006105287954E-007   1.7272577080464381E-005   0.0000000000000000     
   9.6794212550541429E-007   1.7398507703685464E-005   0.0000000000000000     
   9.6905009815669135E-007   1.7524585719197492E-005   0.0000000000000000     
   9.7012363427146708E-007   1.7650807443946701E-005   0.0000000000000000     
   9.7116238911449869E-007   1.7777169194879335E-005   0.0000000000000000     
   9.7216601795054192E-007   1.7903667288941640E-005   0.0000000000000000     
   9.7313417604435397E-007   1.8030298043079859E-005   0.0000000000000000     
   9.7406651866069121E-007   1.8157057774240228E-005   0.0000000000000000     
   8.4475719733291126E-007   1.7146478639491348E-005   0.0000000000000000     
   8.4578488601724658E-007   1.7272269070442712E-005   0.0000000000000000     
   8.4678296659961878E-007   1.7398210702114303E-005   0.0000000000000000     
   8.4775111971526320E-007   1.7524299846341821E-005   0.0000000000000000     
   8.4868902599941600E-007   1.7650532814960981E-005   0.0000000000000000     
   8.4959636608731315E-007   1.7776905919807487E-005   0.0000000000000000     
   8.5047282061419040E-007   1.7903415472717060E-005   0.0000000000000000     
   8.5131807021528329E-007   1.8030057785525407E-005   0.0000000000000000     
   8.5213179552582820E-007   1.8156829170068232E-005   0.0000000000000000     
   7.2395575353531665E-007   1.7146202837762240E-005   0.0000000000000000     
   7.2483577794319544E-007   1.7272002746766095E-005   0.0000000000000000     
   7.2569036498084190E-007   1.7397953975879428E-005   0.0000000000000000     
   7.2651922774254129E-007   1.7524052829620002E-005   0.0000000000000000     
   7.2732207932258006E-007   1.7650295612505583E-005   0.0000000000000000     
   7.2809863281524314E-007   1.7776678629053933E-005   0.0000000000000000     
   7.2884860131481697E-007   1.7903198183782822E-005   0.0000000000000000     
   7.2957169791558661E-007   1.8029850581209998E-005   0.0000000000000000     
   7.3026763571183827E-007   1.8156632125853239E-005   0.0000000000000000     
   6.0321054551242849E-007   1.7145969951010534E-005   0.0000000000000000     
   6.0394329869335671E-007   1.7271777918849611E-005   0.0000000000000000     
   6.0465481246522352E-007   1.7397737316893822E-005   0.0000000000000000     
   6.0534483845728193E-007   1.7523844441025959E-005   0.0000000000000000     
   6.0601312829878555E-007   1.7650095587128807E-005   0.0000000000000000     
   6.0665943361898708E-007   1.7776487051085180E-005   0.0000000000000000     
   6.0728350604713969E-007   1.7903015128777833E-005   0.0000000000000000     
   6.0788509721249682E-007   1.8029676116089598E-005   0.0000000000000000     
   6.0846395874431146E-007   1.8156466308903234E-005   0.0000000000000000     
   4.8251220063512885E-007   1.7145779802846102E-005   0.0000000000000000     
   4.8309801013036151E-007   1.7271594396108350E-005   0.0000000000000000     
   4.8366680086890384E-007   1.7397560517070448E-005   0.0000000000000000     
   4.8421836807824158E-007   1.7523674452553595E-005   0.0000000000000000     
   4.8475250698585941E-007   1.7649932489378939E-005   0.0000000000000000     
   4.8526901281924282E-007   1.7776330914367699E-005   0.0000000000000000     
   4.8576768080587704E-007   1.7902866014341045E-005   0.0000000000000000     
   4.8624830617324746E-007   1.8029534076120161E-005   0.0000000000000000     
   4.8671068414883908E-007   1.8156331386526229E-005   0.0000000000000000     
   3.6185134627429874E-007   1.7145632216878810E-005   0.0000000000000000     
   3.6229047411684022E-007   1.7271451987957401E-005   0.0000000000000000     
   3.6271682200802301E-007   1.7397423368322292E-005   0.0000000000000000     
   3.6313023282417602E-007   1.7523542636196798E-005   0.0000000000000000     
   3.6353054944162827E-007   1.7649806069804261E-005   0.0000000000000000     
   3.6391761473670883E-007   1.7776209947367997E-005   0.0000000000000000     
   3.6429127158574689E-007   1.7902750547111351E-005   0.0000000000000000     
   3.6465136286507130E-007   1.8029424147257640E-005   0.0000000000000000     
   3.6499773145101114E-007   1.8156227026030198E-005   0.0000000000000000     
   2.4121860980081996E-007   1.7145527016718531E-005   0.0000000000000000     
   2.4151125251542393E-007   1.7271350503811862E-005   0.0000000000000000     
   2.4179536769872069E-007   1.7397325662562306E-005   0.0000000000000000     
   2.4207084891384177E-007   1.7523448763949488E-005   0.0000000000000000     
   2.4233758972391901E-007   1.7649716078953037E-005   0.0000000000000000     
   2.4259548369208361E-007   1.7776123878552558E-005   0.0000000000000000     
   2.4284442438146735E-007   1.7902668433727666E-005   0.0000000000000000     
   2.4308430535520192E-007   1.8029346015457998E-005   0.0000000000000000     
   2.4331502017641851E-007   1.8156152894723141E-005   0.0000000000000000     
   1.2060461858557421E-007   1.7145464025975128E-005   0.0000000000000000     
   1.2075090718874316E-007   1.7271289753086807E-005   0.0000000000000000     
   1.2089292975713695E-007   1.7397267191703471E-005   0.0000000000000000     
   1.2103063256599531E-007   1.7523392607805585E-005   0.0000000000000000     
   1.2116396189055835E-007   1.7649662267373581E-005   0.0000000000000000     
   1.2129286400606559E-007   1.7776072436387872E-005   0.0000000000000000     
   1.2141728518775696E-007   1.7902619380828929E-005   0.0000000000000000     
   1.2153717171087245E-007   1.8029299366677182E-005   0.0000000000000000     
   1.2165246985065178E-007   1.8156108659913055E-005   0.0000000000000000     
  -5.5691092792990162E-019   1.7145443068258476E-005   0.0000000000000000     
  -5.7125423975157112E-019   1.7271269545197324E-005   0.0000000000000000     
  -5.8832890195589072E-019   1.7397247747658769E-005   0.0000000000000000     
  -6.0729036313744378E-019   1.7523373939758977E-005   0.0000000000000000     
  -6.2722127999690898E-019   1.7649644385614139E-005   0.0000000000000000     
  -6.4721071988471231E-019   1.7776055349340437E-005   0.0000000000000000     
  -6.6639407226558271E-019   1.7902603095054053E-005   0.0000000000000000     
  -6.8382659348240806E-019   1.8029283886871157E-005   0.0000000000000000     
  -6.9868637619904036E-019   1.8156093988907935E-005   0.0000000000000000     
   9.7406651866069121E-007   1.8157057774240228E-005   0.0000000000000000     
   9.7496271902434622E-007   1.8283942744372233E-005   0.0000000000000000     
   9.7582252220025299E-007   1.8410948995438352E-005   0.0000000000000000     
   9.7664569121338172E-007   1.8538072514404306E-005   0.0000000000000000     
   9.7743198908870304E-007   1.8665309288235819E-005   0.0000000000000000     
   9.7818117885118629E-007   1.8792655303898590E-005   0.0000000000000000     
   9.7889302352580233E-007   1.8920106548358351E-005   0.0000000000000000     
   9.7956728613752070E-007   1.9047659008580818E-005   0.0000000000000000     
   9.8020372971131162E-007   1.9175308671531716E-005   0.0000000000000000     
   8.5213179552582820E-007   1.8156829170068232E-005   0.0000000000000000     
   8.5291370020528824E-007   1.8283725865580960E-005   0.0000000000000000     
   8.5366358001003723E-007   1.8410743820897865E-005   0.0000000000000000     
   8.5438125372067628E-007   1.8537878912252916E-005   0.0000000000000000     
   8.5506654011780697E-007   1.8665127015880095E-005   0.0000000000000000     
   8.5571925798203051E-007   1.8792484008013382E-005   0.0000000000000000     
   8.5633922609394840E-007   1.8919945764886758E-005   0.0000000000000000     
   8.5692626323416160E-007   1.9047508162734195E-005   0.0000000000000000     
   8.5748018818327174E-007   1.9175167077789675E-005   0.0000000000000000     
   7.3026763571183827E-007   1.8156632125853239E-005   0.0000000000000000     
   7.3093615296259791E-007   1.8283539033835841E-005   0.0000000000000000     
   7.3157708858585660E-007   1.8410567167703280E-005   0.0000000000000000     
   7.3219030666434567E-007   1.8537712301606562E-005   0.0000000000000000     
   7.3277567128079666E-007   1.8664970209696717E-005   0.0000000000000000     
   7.3333304651794080E-007   1.8792336666124739E-005   0.0000000000000000     
   7.3386229645850952E-007   1.8919807445041645E-005   0.0000000000000000     
   7.3436328518523417E-007   1.9047378320598453E-005   0.0000000000000000     
   7.3483587678084670E-007   1.9175045066946169E-005   0.0000000000000000     
   6.0846395874431146E-007   1.8156466308903234E-005   0.0000000000000000     
   6.0901986707108097E-007   1.8283381900888044E-005   0.0000000000000000     
   6.0955269781827892E-007   1.8410418676859242E-005   0.0000000000000000     
   6.1006235141062284E-007   1.8537572319418571E-005   0.0000000000000000     
   6.1054872827283139E-007   1.8664838511167733E-005   0.0000000000000000     
   6.1101172882962159E-007   1.8792212934708456E-005   0.0000000000000000     
   6.1145125350571147E-007   1.8919691272642453E-005   0.0000000000000000     
   6.1186720272581909E-007   1.9047269207571470E-005   0.0000000000000000     
   6.1225947691466176E-007   1.9174942422097199E-005   0.0000000000000000     
   4.8671068414883908E-007   1.8156331386526229E-005   0.0000000000000000     
   4.8715463230554272E-007   1.8283254118488741E-005   0.0000000000000000     
   4.8758005759787077E-007   1.8410297989370394E-005   0.0000000000000000     
   4.8798688932574103E-007   1.8537458602642209E-005   0.0000000000000000     
   4.8837505678907090E-007   1.8664731561775177E-005   0.0000000000000000     
   4.8874448928777838E-007   1.8792112470240317E-005   0.0000000000000000     
   4.8909511612178129E-007   1.8919596931508624E-005   0.0000000000000000     
   4.8942686659099699E-007   1.9047180549051125E-005   0.0000000000000000     
   4.8973966999534382E-007   1.9174858926338799E-005   0.0000000000000000     
   3.6499773145101114E-007   1.8156227026030198E-005   0.0000000000000000     
   3.6533023844078887E-007   1.8283155338389095E-005   0.0000000000000000     
   3.6564881781519969E-007   1.8410204746241373E-005   0.0000000000000000     
   3.6595342177593209E-007   1.8537370788230786E-005   0.0000000000000000     
   3.6624400252467480E-007   1.8664649003001114E-005   0.0000000000000000     
   3.6652051226311615E-007   1.8792034929196124E-005   0.0000000000000000     
   3.6678290319294479E-007   1.8919524105459593E-005   0.0000000000000000     
   3.6703112751584930E-007   1.9047112070435288E-005   0.0000000000000000     
   3.6726513743351815E-007   1.9174794362766984E-005   0.0000000000000000     
   2.4331502017641851E-007   1.8156152894723141E-005   0.0000000000000000     
   2.4353647525162511E-007   1.8283085212340301E-005   0.0000000000000000     
   2.4374862836083285E-007   1.8410138588476810E-005   0.0000000000000000     
   2.4395145012742962E-007   1.8537308513137592E-005   0.0000000000000000     
   2.4414491117480287E-007   1.8664590476327572E-005   0.0000000000000000     
   2.4432898212634013E-007   1.8791979968051677E-005   0.0000000000000000     
   2.4450363360542881E-007   1.8919472478314786E-005   0.0000000000000000     
   2.4466883623545678E-007   1.9047063497121846E-005   0.0000000000000000     
   2.4482456063981128E-007   1.9174748514477755E-005   0.0000000000000000     
   1.2165246985065178E-007   1.8156108659913055E-005   0.0000000000000000     
   1.2176313251285680E-007   1.8283043392093495E-005   0.0000000000000000     
   1.2186913912533758E-007   1.8410099157081344E-005   0.0000000000000000     
   1.2197047574646616E-007   1.8537271414315931E-005   0.0000000000000000     
   1.2206712843461479E-007   1.8664555623236632E-005   0.0000000000000000     
   1.2215908324815518E-007   1.8791947243282751E-005   0.0000000000000000     
   1.2224632624545965E-007   1.8919441733893651E-005   0.0000000000000000     
   1.2232884348490031E-007   1.9047034554508678E-005   0.0000000000000000     
   1.2240662102484906E-007   1.9174721164567140E-005   0.0000000000000000     
  -6.9868637619904036E-019   1.8156093988907935E-005   0.0000000000000000     
  -7.1031322688908571E-019   1.8283029529399868E-005   0.0000000000000000     
  -7.1905818032499632E-019   1.8410086093059610E-005   0.0000000000000000     
  -7.2541092742940357E-019   1.8537259128719102E-005   0.0000000000000000     
  -7.3007498531328382E-019   1.8664544085210299E-005   0.0000000000000000     
  -7.3346683941505751E-019   1.8791936411365163E-005   0.0000000000000000     
  -7.3632293897383826E-019   1.8919431556015624E-005   0.0000000000000000     
  -7.3914541493318844E-019   1.9047024967993648E-005   0.0000000000000000     
  -7.4245746549289637E-019   1.9174712096131162E-005   0.0000000000000000     
   9.8020372971131162E-007   1.9175308671531716E-005   0.0000000000000000     
   9.8080227508321367E-007   1.9303051186905630E-005   0.0000000000000000     
   9.8136347433354198E-007   1.9430880855312636E-005   0.0000000000000000     
   9.8188803735367880E-007   1.9558791640091690E-005   0.0000000000000000     
   9.8237667403500765E-007   1.9686777504581741E-005   0.0000000000000000     
   9.8283009426891119E-007   1.9814832412121752E-005   0.0000000000000000     
   9.8324900794677316E-007   1.9942950326050668E-005   0.0000000000000000     
   9.8363412495997601E-007   2.0071125209707448E-005   0.0000000000000000     
   9.8398615519990326E-007   2.0199351026431031E-005   0.0000000000000000     
   8.5748018818327174E-007   1.9175167077789675E-005   0.0000000000000000     
   8.5800095904531909E-007   1.9302918019975043E-005   0.0000000000000000     
   8.5848909121810129E-007   1.9430755033963664E-005   0.0000000000000000     
   8.5894523942285519E-007   1.9558671798116741E-005   0.0000000000000000     
   8.5937005838081754E-007   1.9686661990795512E-005   0.0000000000000000     
   8.5976420281322496E-007   1.9814719290361180E-005   0.0000000000000000     
   8.6012832744131442E-007   1.9942837375174988E-005   0.0000000000000000     
   8.6046308698632284E-007   2.0071009923598149E-005   0.0000000000000000     
   8.6076913616948657E-007   2.0199230613991879E-005   0.0000000000000000     
   7.3483587678084670E-007   1.9175045066946169E-005   0.0000000000000000     
   7.3528005566838591E-007   1.9302803071870640E-005   0.0000000000000000     
   7.3569628763212405E-007   1.9430646177697083E-005   0.0000000000000000     
   7.3608515879664114E-007   1.9558567840385567E-005   0.0000000000000000     
   7.3644725528651668E-007   1.9686561515896122E-005   0.0000000000000000     
   7.3678316322633069E-007   1.9814620660188822E-005   0.0000000000000000     
   7.3709346874066300E-007   1.9942738729223714E-005   0.0000000000000000     
   7.3737875795409351E-007   2.0070909178960856E-005   0.0000000000000000     
   7.3763961699120237E-007   2.0199125465360287E-005   0.0000000000000000     
   6.1225947691466176E-007   1.9174942422097199E-005   0.0000000000000000     
   6.1262807742941930E-007   1.9302706199814358E-005   0.0000000000000000     
   6.1297340935711480E-007   1.9430554228289519E-005   0.0000000000000000     
   6.1329597871723429E-007   1.9558479796082260E-005   0.0000000000000000     
   6.1359629152926296E-007   1.9686476191752152E-005   0.0000000000000000     
   6.1387485381268598E-007   1.9814536703858744E-005   0.0000000000000000     
   6.1413217158698864E-007   1.9942654620961604E-005   0.0000000000000000     
   6.1436875087165655E-007   2.0070823231620327E-005   0.0000000000000000     
   6.1458509768617456E-007   2.0199035824394440E-005   0.0000000000000000     
   4.8973966999534382E-007   1.9174858926338799E-005   0.0000000000000000     
   4.9003353680542369E-007   1.9302627261028159E-005   0.0000000000000000     
   4.9030880217457809E-007   1.9430479127517580E-005   0.0000000000000000     
   4.9056588242683305E-007   1.9558407694390951E-005   0.0000000000000000     
   4.9080519388621470E-007   1.9686406130232137E-005   0.0000000000000000     
   4.9102715287674884E-007   1.9814467603625010E-005   0.0000000000000000     
   4.9123217572246149E-007   1.9942585283153448E-005   0.0000000000000000     
   4.9142067874737890E-007   2.0070752337401337E-005   0.0000000000000000     
   4.9159307827552676E-007   2.0198961934952525E-005   0.0000000000000000     
   3.6726513743351815E-007   1.9174794362766984E-005   0.0000000000000000     
   3.6748494627340434E-007   1.9302566112734004E-005   0.0000000000000000     
   3.6769081186601835E-007   1.9430420817157889E-005   0.0000000000000000     
   3.6788305316763512E-007   1.9558351564495741E-005   0.0000000000000000     
   3.6806198913452968E-007   1.9686351443204637E-005   0.0000000000000000     
   3.6822793872297671E-007   1.9814413541741697E-005   0.0000000000000000     
   3.6838122088925129E-007   1.9942530948564001E-005   0.0000000000000000     
   3.6852215458962842E-007   2.0070696752128641E-005   0.0000000000000000     
   3.6865105878038282E-007   2.0198904040892713E-005   0.0000000000000000     
   2.4482456063981128E-007   1.9174748514477755E-005   0.0000000000000000     
   2.4497081831036622E-007   1.9302522612153859E-005   0.0000000000000000     
   2.4510778421294049E-007   1.9430379238987068E-005   0.0000000000000000     
   2.4523567418183873E-007   1.9558311435580732E-005   0.0000000000000000     
   2.4535470405136617E-007   1.9686312242538219E-005   0.0000000000000000     
   2.4546508965582766E-007   1.9814374700462861E-005   0.0000000000000000     
   2.4556704682952819E-007   1.9942491849958002E-005   0.0000000000000000     
   2.4566079140677280E-007   2.0070656731627013E-005   0.0000000000000000     
   2.4574653922186634E-007   2.0198862386073193E-005   0.0000000000000000     
   1.2240662102484906E-007   1.9174721164567140E-005   0.0000000000000000     
   1.2247966539331429E-007   1.9302496616509664E-005   0.0000000000000000     
   1.2254806499684876E-007   1.9430354334781712E-005   0.0000000000000000     
   1.2261192871164168E-007   1.9558287336830048E-005   0.0000000000000000     
   1.2267136541388227E-007   1.9686288640101438E-005   0.0000000000000000     
   1.2272648397975935E-007   1.9814351262042585E-005   0.0000000000000000     
   1.2277739328546213E-007   1.9942468220100254E-005   0.0000000000000000     
   1.2282420220717982E-007   2.0070632531721214E-005   0.0000000000000000     
   1.2286701962110131E-007   2.0198837214352158E-005   0.0000000000000000     
  -7.4245746549289637E-019   1.9174712096131162E-005   0.0000000000000000     
  -7.4680512679247508E-019   1.9302487983023380E-005   0.0000000000000000     
  -7.5202298209645958E-019   1.9430346046318457E-005   0.0000000000000000     
  -7.5790092752926139E-019   1.9558279297427801E-005   0.0000000000000000     
  -7.6417674683670122E-019   1.9686280747762824E-005   0.0000000000000000     
  -7.7064653999778472E-019   1.9814343408734921E-005   0.0000000000000000     
  -7.7702131078600120E-019   1.9942460291755516E-005   0.0000000000000000     
  -7.8310937301908855E-019   2.0070624408235992E-005   0.0000000000000000     
  -7.8860752622845489E-019   2.0198828769587783E-005   0.0000000000000000     
   9.8398615519990326E-007   2.0199351026431031E-005   0.0000000000000000     
   9.8430619517407095E-007   2.0327620817599535E-005   0.0000000000000000     
   9.8459688785452866E-007   2.0455923936747629E-005   0.0000000000000000     
   9.8486126282945888E-007   2.0584248815449176E-005   0.0000000000000000     
   9.8510234968704457E-007   2.0712583885278008E-005   0.0000000000000000     
   9.8532317801546801E-007   2.0840917577807966E-005   0.0000000000000000     
   9.8552677740291279E-007   2.0969238324612902E-005   0.0000000000000000     
   9.8571617743756035E-007   2.1097534557266641E-005   0.0000000000000000     
   9.8589440770759448E-007   2.1225794707343018E-005   0.0000000000000000     
   8.6076913616948657E-007   2.0199230613991879E-005   0.0000000000000000     
   8.6104745591353708E-007   2.0327492187832744E-005   0.0000000000000000     
   8.6130033194718300E-007   2.0455783639058642E-005   0.0000000000000000     
   8.6153037620062717E-007   2.0584093024722821E-005   0.0000000000000000     
   8.6174020060407338E-007   2.0712408401878519E-005   0.0000000000000000     
   8.6193241708772394E-007   2.0840717827578970E-005   0.0000000000000000     
   8.6210963758178266E-007   2.0969009358877424E-005   0.0000000000000000     
   8.6227447401645217E-007   2.1097271052827120E-005   0.0000000000000000     
   8.6242953832193551E-007   2.1225490966481291E-005   0.0000000000000000     
   7.3763961699120237E-007   2.0199125465360287E-005   0.0000000000000000     
   7.3787690259847348E-007   2.0327380076709689E-005   0.0000000000000000     
   7.3809255401000882E-007   2.0455661630607103E-005   0.0000000000000000     
   7.3828878108181465E-007   2.0583957776978217E-005   0.0000000000000000     
   7.3846779366989714E-007   2.0712256165748716E-005   0.0000000000000000     
   7.3863180163026278E-007   2.0840544446844251E-005   0.0000000000000000     
   7.3878301481891741E-007   2.0968810270190505E-005   0.0000000000000000     
   7.3892364309186775E-007   2.1097041285713148E-005   0.0000000000000000     
   7.3905589630511942E-007   2.1225225143337853E-005   0.0000000000000000     
   6.1458509768617456E-007   2.0199035824394440E-005   0.0000000000000000     
   6.1478193723667026E-007   2.0327284679022353E-005   0.0000000000000000     
   6.1496087147583905E-007   2.0455558039957718E-005   0.0000000000000000     
   6.1512372154301833E-007   2.0583843142833033E-005   0.0000000000000000     
   6.1527230857754569E-007   2.0712127223280783E-005   0.0000000000000000     
   6.1540845371875862E-007   2.0840397516933467E-005   0.0000000000000000     
   6.1553397810599398E-007   2.0968641259423545E-005   0.0000000000000000     
   6.1565070287859021E-007   2.1096845686383537E-005   0.0000000000000000     
   6.1576044917588373E-007   2.1224998033445908E-005   0.0000000000000000     
   4.9159307827552676E-007   2.0198961934952525E-005   0.0000000000000000     
   4.9174996183591740E-007   2.0327206189562759E-005   0.0000000000000000     
   4.9189260177750653E-007   2.0455472995675220E-005   0.0000000000000000     
   4.9202244165423628E-007   2.0583749192904942E-005   0.0000000000000000     
   4.9214092502004877E-007   2.0712021620866946E-005   0.0000000000000000     
   4.9224949542888603E-007   2.0840277119176290E-005   0.0000000000000000     
   4.9234959643468985E-007   2.0968502527447999E-005   0.0000000000000000     
   4.9244267159140246E-007   2.1096684685297105E-005   0.0000000000000000     
   4.9253016445296558E-007   2.1224810432338655E-005   0.0000000000000000     
   3.6865105878038282E-007   2.0198904040892713E-005   0.0000000000000000     
   3.6876837840400457E-007   2.0327144803122923E-005   0.0000000000000000     
   3.6887506234784381E-007   2.0455406626324324E-005   0.0000000000000000     
   3.6897218548546591E-007   2.0583675997811594E-005   0.0000000000000000     
   3.6906082269043600E-007   2.0711939404899392E-005   0.0000000000000000     
   3.6914204883631941E-007   2.0840183334902398E-005   0.0000000000000000     
   3.6921693879668137E-007   2.0968394275135269E-005   0.0000000000000000     
   3.6928656744508721E-007   2.1096558712912682E-005   0.0000000000000000     
   3.6935200965510205E-007   2.1224663135549292E-005   0.0000000000000000     
   2.4574653922186634E-007   2.0198862386073193E-005   0.0000000000000000     
   2.4582458894872183E-007   2.0327100714494829E-005   0.0000000000000000     
   2.4589557061968382E-007   2.0455359060469738E-005   0.0000000000000000     
   2.4596019710670459E-007   2.0583623628170662E-005   0.0000000000000000     
   2.4601918128173689E-007   2.0711880621770314E-005   0.0000000000000000     
   2.4607323601673326E-007   2.0840116245441452E-005   0.0000000000000000     
   2.4612307418364581E-007   2.0968316703356780E-005   0.0000000000000000     
   2.4616940865442741E-007   2.1096468199689067E-005   0.0000000000000000     
   2.4621295230103047E-007   2.1224556938611015E-005   0.0000000000000000     
   1.2286701962110131E-007   2.0198837214352158E-005   0.0000000000000000     
   1.2290599547785929E-007   2.0327074118470510E-005   0.0000000000000000     
   1.2294144402585924E-007   2.0455330426676207E-005   0.0000000000000000     
   1.2297372058795028E-007   2.0583592154599815E-005   0.0000000000000000     
   1.2300318048698147E-007   2.0711845317871926E-005   0.0000000000000000     
   1.2303017904580182E-007   2.0840075932123125E-005   0.0000000000000000     
   1.2305507158726034E-007   2.0968270012983980E-005   0.0000000000000000     
   1.2307821343420610E-007   2.1096413576085097E-005   0.0000000000000000     
   1.2309995990948812E-007   2.1224492637057035E-005   0.0000000000000000     
  -7.8860752622845489E-019   2.0198828769587783E-005   0.0000000000000000     
  -7.9337208655676033E-019   2.0327065209841965E-005   0.0000000000000000     
  -7.9709936239692427E-019   2.0455320853508425E-005   0.0000000000000000     
  -7.9971242595197928E-019   2.0583581647716715E-005   0.0000000000000000     
  -8.0089860295038033E-019   2.0711833539596417E-005   0.0000000000000000     
  -8.0053071437294737E-019   2.0840062476277078E-005   0.0000000000000000     
  -7.9833382606358310E-019   2.0968254404888282E-005   0.0000000000000000     
  -7.9422887765030334E-019   2.1096395272559583E-005   0.0000000000000000     
  -7.8793916429351204E-019   2.1224471026420540E-005   0.0000000000000000     
   9.8589440770759448E-007   2.1225794707343018E-005   0.0000000000000000     
   9.8606489596970661E-007   2.1354005010801326E-005   0.0000000000000000     
   9.8623266265462759E-007   2.1482142921142550E-005   0.0000000000000000     
   9.8640312636159636E-007   2.1610183696253082E-005   0.0000000000000000     
   9.8658170568985309E-007   2.1738102594019357E-005   0.0000000000000000     
   9.8677381923863800E-007   2.1865874872327790E-005   0.0000000000000000     
   9.8698488560719001E-007   2.1993475789064784E-005   0.0000000000000000     
   9.8722032339474909E-007   2.2120880602116758E-005   0.0000000000000000     
   9.8748555120055545E-007   2.2248064569370149E-005   0.0000000000000000     
   8.6242953832193551E-007   2.1225490966481291E-005   0.0000000000000000     
   8.6257784137476125E-007   2.1353654999304788E-005   0.0000000000000000     
   8.6272398983675908E-007   2.1481740420408856E-005   0.0000000000000000     
   8.6287298931608452E-007   2.1609722341316369E-005   0.0000000000000000     
   8.6302984542089203E-007   2.1737575873550162E-005   0.0000000000000000     
   8.6319956375933682E-007   2.1865276128633103E-005   0.0000000000000000     
   8.6338714993957398E-007   2.1992798218088038E-005   0.0000000000000000     
   8.6359760956975850E-007   2.2120117253437833E-005   0.0000000000000000     
   8.6383594825804547E-007   2.2247208346205338E-005   0.0000000000000000     
   7.3905589630511942E-007   2.1225225143337853E-005   0.0000000000000000     
   7.3918236381926872E-007   2.1353347440510305E-005   0.0000000000000000     
   7.3930715301326789E-007   2.1481385564756148E-005   0.0000000000000000     
   7.3943475077065919E-007   2.1609314851121089E-005   0.0000000000000000     
   7.3956964397498487E-007   2.1737110634650782E-005   0.0000000000000000     
   7.3971631950978699E-007   2.1864748250390893E-005   0.0000000000000000     
   7.3987926425860716E-007   2.1992203033387112E-005   0.0000000000000000     
   7.4006296510498839E-007   2.2119450318685108E-005   0.0000000000000000     
   7.4027190893247209E-007   2.2246465441330541E-005   0.0000000000000000     
   6.1576044917588373E-007   2.1224998033445908E-005   0.0000000000000000     
   6.1586538086902149E-007   2.1353083633715029E-005   0.0000000000000000     
   6.1596903275638529E-007   2.1481080210182761E-005   0.0000000000000000     
   6.1607528236816544E-007   2.1608963583312822E-005   0.0000000000000000     
   6.1618800723455278E-007   2.1736709573568966E-005   0.0000000000000000     
   6.1631108488573812E-007   2.1864294001414911E-005   0.0000000000000000     
   6.1644839285191179E-007   2.1991692687314398E-005   0.0000000000000000     
   6.1660380866326481E-007   2.2118881451731142E-005   0.0000000000000000     
   6.1678120984998770E-007   2.2245836115128903E-005   0.0000000000000000     
   4.9253016445296558E-007   2.1224810432338655E-005   0.0000000000000000     
   4.9261381008981309E-007   2.1352864878216155E-005   0.0000000000000000     
   4.9269650963834341E-007   2.1480826212687023E-005   0.0000000000000000     
   4.9278145575144785E-007   2.1608670895537171E-005   0.0000000000000000     
   4.9287184108201661E-007   2.1736375386552497E-005   0.0000000000000000     
   4.9297085828294007E-007   2.1863916145518891E-005   0.0000000000000000     
   4.9308170000710882E-007   2.1991269632222271E-005   0.0000000000000000     
   4.9320755890741347E-007   2.2118412306448522E-005   0.0000000000000000     
   4.9335162763674461E-007   2.2245320627983552E-005   0.0000000000000000     
   3.6935200965510205E-007   2.1224663135549292E-005   0.0000000000000000     
   3.6941456904743573E-007   2.1352692473310835E-005   0.0000000000000000     
   3.6947646423137503E-007   2.1480625428267296E-005   0.0000000000000000     
   3.6954014256335161E-007   2.1608439145439716E-005   0.0000000000000000     
   3.6960805139979702E-007   2.1736110769849124E-005   0.0000000000000000     
   3.6968263809714256E-007   2.1863617446516584E-005   0.0000000000000000     
   3.6976635001181982E-007   2.1990936320463127E-005   0.0000000000000000     
   3.6986163450026031E-007   2.2118044536709787E-005   0.0000000000000000     
   3.6997093891889531E-007   2.2244919240277629E-005   0.0000000000000000     
   2.4621295230103047E-007   2.1224556938611015E-005   0.0000000000000000     
   2.4625457530768249E-007   2.1352567718296251E-005   0.0000000000000000     
   2.4629577710771184E-007   2.1480479712921917E-005   0.0000000000000000     
   2.4633821444672158E-007   2.1608270690666039E-005   0.0000000000000000     
   2.4638354407031507E-007   2.1735918419706637E-005   0.0000000000000000     
   2.4643342272409547E-007   2.1863400668221732E-005   0.0000000000000000     
   2.4648950715366643E-007   2.1990695204389351E-005   0.0000000000000000     
   2.4655345410463078E-007   2.2117779796387522E-005   0.0000000000000000     
   2.4662692032259232E-007   2.2244632212394268E-005   0.0000000000000000     
   1.2309995990948812E-007   2.1224492637057035E-005   0.0000000000000000     
   1.2312074643634655E-007   2.1352491912469574E-005   0.0000000000000000     
   1.2314132883958605E-007   2.1480390922649230E-005   0.0000000000000000     
   1.2316254304440233E-007   2.1608167888861715E-005   0.0000000000000000     
   1.2318522497599132E-007   2.1735801032372775E-005   0.0000000000000000     
   1.2321021055954851E-007   2.1863268574448065E-005   0.0000000000000000     
   1.2323833572026989E-007   2.1990548736353331E-005   0.0000000000000000     
   1.2327043638335111E-007   2.2117619739354275E-005   0.0000000000000000     
   1.2330734847398791E-007   2.2244459804716609E-005   0.0000000000000000     
  -7.8793916429351204E-019   2.1224471026420540E-005   0.0000000000000000     
  -7.7953831799242349E-019   2.1352466355127965E-005   0.0000000000000000     
  -7.7008364359094239E-019   2.1480360913447587E-005   0.0000000000000000     
  -7.6091765522324229E-019   2.1608133097672380E-005   0.0000000000000000     
  -7.5333654490919379E-019   2.1735761304095310E-005   0.0000000000000000     
  -7.4869585487761816E-019   2.1863223929009342E-005   0.0000000000000000     
  -7.4823614925219182E-019   2.1990499368707455E-005   0.0000000000000000     
  -7.5332166858286490E-019   2.2117566019482615E-005   0.0000000000000000     
  -7.6532073762386205E-019   2.2244402277627797E-005   0.0000000000000000     
  -4.3270148714893899E-019   1.4180689419317453E-005   0.0000000000000000     
  -4.3583815603174007E-019   1.4301768551969073E-005   0.0000000000000000     
  -4.3861748288991824E-019   1.4423088269768204E-005   0.0000000000000000     
  -4.4117843406638242E-019   1.4544644835488180E-005   0.0000000000000000     
  -4.4377908991224914E-019   1.4666434511902297E-005   0.0000000000000000     
  -4.4669903747456132E-019   1.4788453561783888E-005   0.0000000000000000     
  -4.5016823296360872E-019   1.4910698247906260E-005   0.0000000000000000     
  -4.5441952772182501E-019   1.5033164833042721E-005   0.0000000000000000     
  -4.5969404489776939E-019   1.5155849579966599E-005   0.0000000000000000     
  -1.1587793447853838E-007   1.4180725892800729E-005   0.0000000000000000     
  -1.1611995352989247E-007   1.4301804416200047E-005   0.0000000000000000     
  -1.1635811189070780E-007   1.4423123535740684E-005   0.0000000000000000     
  -1.1659240803383398E-007   1.4544679510768564E-005   0.0000000000000000     
  -1.1682284043212106E-007   1.4666468600629623E-005   0.0000000000000000     
  -1.1704940755841887E-007   1.4788487064669777E-005   0.0000000000000000     
  -1.1727210788557706E-007   1.4910731162234954E-005   0.0000000000000000     
  -1.1749093988644562E-007   1.5033197152671087E-005   0.0000000000000000     
  -1.1770590203387426E-007   1.5155881295324095E-005   0.0000000000000000     
  -2.3176465575563489E-007   1.4180835327351196E-005   0.0000000000000000     
  -2.3224869814482248E-007   1.4301912033555404E-005   0.0000000000000000     
  -2.3272502080460550E-007   1.4423229363303761E-005   0.0000000000000000     
  -2.3319362043883966E-007   1.4544783567007103E-005   0.0000000000000000     
  -2.3365449375138127E-007   1.4666570895076243E-005   0.0000000000000000     
  -2.3410763744608599E-007   1.4788587597922010E-005   0.0000000000000000     
  -2.3455304822680973E-007   1.4910829925955212E-005   0.0000000000000000     
  -2.3499072279740842E-007   1.5033294129586682E-005   0.0000000000000000     
  -2.3542065786173794E-007   1.5155976459227237E-005   0.0000000000000000     
  -3.4766895063071375E-007   1.4181017744119786E-005   0.0000000000000000     
  -3.4839502493069934E-007   1.4302091441028760E-005   0.0000000000000000     
  -3.4910952376576008E-007   1.4423405796925917E-005   0.0000000000000000     
  -3.4981244158707059E-007   1.4544957049799845E-005   0.0000000000000000     
  -3.5050377284580617E-007   1.4666741437639146E-005   0.0000000000000000     
  -3.5118351199314161E-007   1.4788755198432416E-005   0.0000000000000000     
  -3.5185165348025194E-007   1.4910994570168252E-005   0.0000000000000000     
  -3.5250819175831210E-007   1.5033455790835250E-005   0.0000000000000000     
  -3.5315312127849723E-007   1.5156135098422009E-005   0.0000000000000000     
  -4.6359960590276596E-007   1.4181273164257426E-005   0.0000000000000000     
  -4.6456772497299684E-007   1.4302342675613750E-005   0.0000000000000000     
  -4.6552041779779988E-007   1.4423652881075609E-005   0.0000000000000000     
  -4.6645767585013901E-007   1.4545200004742847E-005   0.0000000000000000     
  -4.6737949060297750E-007   1.4666980270715307E-005   0.0000000000000000     
  -4.6828585352927903E-007   1.4788989903092845E-005   0.0000000000000000     
  -4.6917675610200739E-007   1.4911225125975299E-005   0.0000000000000000     
  -4.7005218979412643E-007   1.5033682163462540E-005   0.0000000000000000     
  -4.7091214607859929E-007   1.5156357239654395E-005   0.0000000000000000     
  -5.7956540837078276E-007   1.4181601608915048E-005   0.0000000000000000     
  -5.8077558935718816E-007   1.4302665774303998E-005   0.0000000000000000     
  -5.8196649992435342E-007   1.4423970660221314E-005   0.0000000000000000     
  -5.8313812759965666E-007   1.4545512477432158E-005   0.0000000000000000     
  -5.8429045991047696E-007   1.4667287436701706E-005   0.0000000000000000     
  -5.8542348438419212E-007   1.4789291748795129E-005   0.0000000000000000     
  -5.8653718854818048E-007   1.4911521624477607E-005   0.0000000000000000     
  -5.8763155992982006E-007   1.5033973274514293E-005   0.0000000000000000     
  -5.8870658605649047E-007   1.5156642909670378E-005   0.0000000000000000     
  -6.9557514483375549E-007   1.4182003099243587E-005   0.0000000000000000     
  -6.9702740916874745E-007   1.4303060774093132E-005   0.0000000000000000     
  -6.9845656716904899E-007   1.4424359178831491E-005   0.0000000000000000     
  -6.9986260120723681E-007   1.4545894513463838E-005   0.0000000000000000     
  -7.0124549365588611E-007   1.4667662977995326E-005   0.0000000000000000     
  -7.0260522688757338E-007   1.4789660772431121E-005   0.0000000000000000     
  -7.0394178327487384E-007   1.4911884096776380E-005   0.0000000000000000     
  -7.0525514519036342E-007   1.5034329151036270E-005   0.0000000000000000     
  -7.0654529500661788E-007   1.5156992135215942E-005   0.0000000000000000     
  -8.1163760209067542E-007   1.4182477656393973E-005   0.0000000000000000     
  -8.1333197549314709E-007   1.4303527711974770E-005   0.0000000000000000     
  -8.1499941655551484E-007   1.4424818481374623E-005   0.0000000000000000     
  -8.1663990104449077E-007   1.4546346158433939E-005   0.0000000000000000     
  -8.1825340472678743E-007   1.4668106936993151E-005   0.0000000000000000     
  -8.1983990336911661E-007   1.4790097010892647E-005   0.0000000000000000     
  -8.2139937273819211E-007   1.4912312573972867E-005   0.0000000000000000     
  -8.2293178860072529E-007   1.5034749820074205E-005   0.0000000000000000     
  -8.2443712672342818E-007   1.5157404943037080E-005   0.0000000000000000     
  -9.2776156694053401E-007   1.4183025301517146E-005   0.0000000000000000     
  -9.2969807941586193E-007   1.4304066624942548E-005   0.0000000000000000     
  -9.3160384510737951E-007   1.4425348612319166E-005   0.0000000000000000     
  -9.3347883148303124E-007   1.4546867457938525E-005   0.0000000000000000     
  -9.3532300601076175E-007   1.4668619356092145E-005   0.0000000000000000     
  -9.3713633615851595E-007   1.4790600501071559E-005   0.0000000000000000     
  -9.3891878939423877E-007   1.4912807087168284E-005   0.0000000000000000     
  -9.4067033318587408E-007   1.5035235308673845E-005   0.0000000000000000     
  -9.4239093500136818E-007   1.5157881359879768E-005   0.0000000000000000     
  -4.5969404489776939E-019   1.5155849579966599E-005   0.0000000000000000     
  -4.6608318794912897E-019   1.5278748754130788E-005   0.0000000000000000     
  -4.7339215584164753E-019   1.5401858631706531E-005   0.0000000000000000     
  -4.8124375421600086E-019   1.5525175491544671E-005   0.0000000000000000     
  -4.8928560413124140E-019   1.5648695612496027E-005   0.0000000000000000     
  -4.9716119074335878E-019   1.5772415273411443E-005   0.0000000000000000     
  -5.0451451619622549E-019   1.5896330753141741E-005   0.0000000000000000     
  -5.1088584901502104E-019   1.6020438330537756E-005   0.0000000000000000     
  -5.1614746734328842E-019   1.6144734284450328E-005   0.0000000000000000     
  -1.1770590203387426E-007   1.5155881295324095E-005   0.0000000000000000     
  -1.1791698962504993E-007   1.5278779853018596E-005   0.0000000000000000     
  -1.1812418525450722E-007   1.5401889102493984E-005   0.0000000000000000     
  -1.1832746834111756E-007   1.5525205323968339E-005   0.0000000000000000     
  -1.1852681830375278E-007   1.5648724797659750E-005   0.0000000000000000     
  -1.1872221456128440E-007   1.5772443803786297E-005   0.0000000000000000     
  -1.1891363653258408E-007   1.5896358622566066E-005   0.0000000000000000     
  -1.1910106363652327E-007   1.6020465534217142E-005   0.0000000000000000     
  -1.1928447529197374E-007   1.6144760818957602E-005   0.0000000000000000     
  -2.3542065786173794E-007   1.5155976459227237E-005   0.0000000000000000     
  -2.3584284391466661E-007   1.5278873170807057E-005   0.0000000000000000     
  -2.3625724661511206E-007   1.5401980542333771E-005   0.0000000000000000     
  -2.3666382541300517E-007   1.5525294857334361E-005   0.0000000000000000     
  -2.3706253975827581E-007   1.5648812399335815E-005   0.0000000000000000     
  -2.3745334910085423E-007   1.5772529451865109E-005   0.0000000000000000     
  -2.3783621289067091E-007   1.5896442298449241E-005   0.0000000000000000     
  -2.3821109057765601E-007   1.6020547222615185E-005   0.0000000000000000     
  -2.3857794161173980E-007   1.6144840507889935E-005   0.0000000000000000     
  -3.5315312127849723E-007   1.5156135098422009E-005   0.0000000000000000     
  -3.5378642753434677E-007   1.5279028739183729E-005   0.0000000000000000     
  -3.5440806018885850E-007   1.5402132992442067E-005   0.0000000000000000     
  -3.5501795994739467E-007   1.5525444145785272E-005   0.0000000000000000     
  -3.5561606751531751E-007   1.5648958486801585E-005   0.0000000000000000     
  -3.5620232359798968E-007   1.5772672303079277E-005   0.0000000000000000     
  -3.5677666890077314E-007   1.5896581882206594E-005   0.0000000000000000     
  -3.5733904412903030E-007   1.6020683511771788E-005   0.0000000000000000     
  -3.5788938998812353E-007   1.6144973479363116E-005   0.0000000000000000     
  -4.7091214607859929E-007   1.5156357239654395E-005   0.0000000000000000     
  -4.7175660514912164E-007   1.5279246589836180E-005   0.0000000000000000     
  -4.7258550208231579E-007   1.5402346494035042E-005   0.0000000000000000     
  -4.7339876067553651E-007   1.5525653243463592E-005   0.0000000000000000     
  -4.7419630472613777E-007   1.5649163129334445E-005   0.0000000000000000     
  -4.7497805803147392E-007   1.5772872442860192E-005   0.0000000000000000     
  -4.7574394438889925E-007   1.5896777475253457E-005   0.0000000000000000     
  -4.7649388759576821E-007   1.6020874517726849E-005   0.0000000000000000     
  -4.7722781144943499E-007   1.6145159861492959E-005   0.0000000000000000     
  -5.8870658605649047E-007   1.5156642909670378E-005   0.0000000000000000     
  -5.8976224142402171E-007   1.5279526754451961E-005   0.0000000000000000     
  -5.9079844840205436E-007   1.5402621088328861E-005   0.0000000000000000     
  -5.9181511632868127E-007   1.5525922204511867E-005   0.0000000000000000     
  -5.9281215454199542E-007   1.5649426396211741E-005   0.0000000000000000     
  -5.9378947238008980E-007   1.5773129956639247E-005   0.0000000000000000     
  -5.9474697918105716E-007   1.5897029179005153E-005   0.0000000000000000     
  -5.9568458428299048E-007   1.6021120356520236E-005   0.0000000000000000     
  -5.9660219702398295E-007   1.6145399782395253E-005   0.0000000000000000     
  -7.0654529500661788E-007   1.5156992135215942E-005   0.0000000000000000     
  -7.0781220102407810E-007   1.5279869264718627E-005   0.0000000000000000     
  -7.0905577525464383E-007   1.5402956816539705E-005   0.0000000000000000     
  -7.1027591563807954E-007   1.5526251083072631E-005   0.0000000000000000     
  -7.1147252011415001E-007   1.5649748356710861E-005   0.0000000000000000     
  -7.1264548662262046E-007   1.5773444929847840E-005   0.0000000000000000     
  -7.1379471310325537E-007   1.5897337094877033E-005   0.0000000000000000     
  -7.1492009749581940E-007   1.6021421144191862E-005   0.0000000000000000     
  -7.1602153774007714E-007   1.6145693370185796E-005   0.0000000000000000     
  -8.2443712672342818E-007   1.5157404943037080E-005   0.0000000000000000     
  -8.2591534861432154E-007   1.5280274152323736E-005   0.0000000000000000     
  -8.2736635874665367E-007   1.5403353719883724E-005   0.0000000000000000     
  -8.2879004733498153E-007   1.5526639933288408E-005   0.0000000000000000     
  -8.3018630459386156E-007   1.5650129080109168E-005   0.0000000000000000     
  -8.3155502073784935E-007   1.5773817447917366E-005   0.0000000000000000     
  -8.3289608598150206E-007   1.5897701324284400E-005   0.0000000000000000     
  -8.3420939053937593E-007   1.6021776996781614E-005   0.0000000000000000     
  -8.3549482462602707E-007   1.6146040752980391E-005   0.0000000000000000     
  -9.4239093500136818E-007   1.5157881359879768E-005   0.0000000000000000     
  -9.4408054885978285E-007   1.5280741448954865E-005   0.0000000000000000     
  -9.4573907498465460E-007   1.5403811839577095E-005   0.0000000000000000     
  -9.4736640015063836E-007   1.5527088809301732E-005   0.0000000000000000     
  -9.4896241113238813E-007   1.5650568635684018E-005   0.0000000000000000     
  -9.5052699470455918E-007   1.5774247596279218E-005   0.0000000000000000     
  -9.5206003764180549E-007   1.5898121968642586E-005   0.0000000000000000     
  -9.5356142671878158E-007   1.6022188030329371E-005   0.0000000000000000     
  -9.5503104871014283E-007   1.6146442058894838E-005   0.0000000000000000     
  -5.1614746734328842E-019   1.6144734284450328E-005   0.0000000000000000     
  -5.1990617604672938E-019   1.6269214905714290E-005   0.0000000000000000     
  -5.2282446924781646E-019   1.6393876533100511E-005   0.0000000000000000     
  -5.2540609993959446E-019   1.6518715517363864E-005   0.0000000000000000     
  -5.2830867670904303E-019   1.6643728209259240E-005   0.0000000000000000     
  -5.3232132986053777E-019   1.6768910959541507E-005   0.0000000000000000     
  -5.3796497638483394E-019   1.6894260118965556E-005   0.0000000000000000     
  -5.4595737640908029E-019   1.7019772038286251E-005   0.0000000000000000     
  -5.5691092792990162E-019   1.7145443068258476E-005   0.0000000000000000     
  -1.1928447529197374E-007   1.6144760818957602E-005   0.0000000000000000     
  -1.1946385067548699E-007   1.6269240768473710E-005   0.0000000000000000     
  -1.1963916799433417E-007   1.6393901720324430E-005   0.0000000000000000     
  -1.1981040521346638E-007   1.6518740023536892E-005   0.0000000000000000     
  -1.1997754029783472E-007   1.6643752027138234E-005   0.0000000000000000     
  -1.2014055121239023E-007   1.6768934080155596E-005   0.0000000000000000     
  -1.2029941592208426E-007   1.6894282531616112E-005   0.0000000000000000     
  -1.2045411239186755E-007   1.7019793730546916E-005   0.0000000000000000     
  -1.2060461858669150E-007   1.7145464025975145E-005   0.0000000000000000     
  -2.3857794161173980E-007   1.6144840507889935E-005   0.0000000000000000     
  -2.3893672482845881E-007   1.6269318447963504E-005   0.0000000000000000     
  -2.3928739660577398E-007   1.6393977377178076E-005   0.0000000000000000     
  -2.3962991270725253E-007   1.6518813640038858E-005   0.0000000000000000     
  -2.3996422889646168E-007   1.6643823581051074E-005   0.0000000000000000     
  -2.4029030093696838E-007   1.6769003544719939E-005   0.0000000000000000     
  -2.4060808459233995E-007   1.6894349875550665E-005   0.0000000000000000     
  -2.4091753562614356E-007   1.7019858918048472E-005   0.0000000000000000     
  -2.4121860980194652E-007   1.7145527016718564E-005   0.0000000000000000     
  -3.5788938998812353E-007   1.6144973479363116E-005   0.0000000000000000     
  -3.5842764593744069E-007   1.6269448081000973E-005   0.0000000000000000     
  -3.5895374645247066E-007   1.6394103646434282E-005   0.0000000000000000     
  -3.5946762476272806E-007   1.6518936513844125E-005   0.0000000000000000     
  -3.5996921409772772E-007   1.6643943021411573E-005   0.0000000000000000     
  -3.6045844768698376E-007   1.6769119507317692E-005   0.0000000000000000     
  -3.6093525876001122E-007   1.6894462309743565E-005   0.0000000000000000     
  -3.6139958054632440E-007   1.7019967766870270E-005   0.0000000000000000     
  -3.6185134627543784E-007   1.7145632216878854E-005   0.0000000000000000     
  -4.7722781144943499E-007   1.6145159861492959E-005   0.0000000000000000     
  -4.7794563748043790E-007   1.6269629804403429E-005   0.0000000000000000     
  -4.7864727815205241E-007   1.6394280670865895E-005   0.0000000000000000     
  -4.7933264366073699E-007   1.6519108791927035E-005   0.0000000000000000     
  -4.8000164420295099E-007   1.6644110498633520E-005   0.0000000000000000     
  -4.8065418997515341E-007   1.6769282122032006E-005   0.0000000000000000     
  -4.8129019117380348E-007   1.6894619993169161E-005   0.0000000000000000     
  -4.8190955799536042E-007   1.7020120443091667E-005   0.0000000000000000     
  -4.8251220063628282E-007   1.7145779802846166E-005   0.0000000000000000     
  -5.9660219702398295E-007   1.6145399782395253E-005   0.0000000000000000     
  -5.9749972293545603E-007   1.6269863754988178E-005   0.0000000000000000     
  -5.9837705232214742E-007   1.6394508593245758E-005   0.0000000000000000     
  -5.9923407168212320E-007   1.6519330621261951E-005   0.0000000000000000     
  -6.0007066751345007E-007   1.6644326163130723E-005   0.0000000000000000     
  -6.0088672631419455E-007   1.6769491542946020E-005   0.0000000000000000     
  -6.0168213458242291E-007   1.6894823084801790E-005   0.0000000000000000     
  -6.0245677881620155E-007   1.7020317112792012E-005   0.0000000000000000     
  -6.0321054551359719E-007   1.7145969951010616E-005   0.0000000000000000     
  -7.1602153774007714E-007   1.6145693370185796E-005   0.0000000000000000     
  -7.1709892578049999E-007   1.6270150069572534E-005   0.0000000000000000     
  -7.1815212958038364E-007   1.6394787556346709E-005   0.0000000000000000     
  -7.1918101110773049E-007   1.6519602148823224E-005   0.0000000000000000     
  -7.2018543233054327E-007   1.6644590165316988E-005   0.0000000000000000     
  -7.2116525521682406E-007   1.6769747924142885E-005   0.0000000000000000     
  -7.2212034173457495E-007   1.6895071743615809E-005   0.0000000000000000     
  -7.2305055385179878E-007   1.7020557942050664E-005   0.0000000000000000     
  -7.2395575353649762E-007   1.7146202837762338E-005   0.0000000000000000     
  -8.3549482462602707E-007   1.6146040752980391E-005   0.0000000000000000     
  -8.3675226949357525E-007   1.6270488884973809E-005   0.0000000000000000     
  -8.3798157054438979E-007   1.6395117702941589E-005   0.0000000000000000     
  -8.3918256421840343E-007   1.6519923521585210E-005   0.0000000000000000     
  -8.4035508695554936E-007   1.6644902655606123E-005   0.0000000000000000     
  -8.4149897519575884E-007   1.6770051419705757E-005   0.0000000000000000     
  -8.4261406537896559E-007   1.6895366128585556E-005   0.0000000000000000     
  -8.4370019394510245E-007   1.7020843096946986E-005   0.0000000000000000     
  -8.4475719733410071E-007   1.7146478639491470E-005   0.0000000000000000     
  -9.5503104871014283E-007   1.6146442058894838E-005   0.0000000000000000     
  -9.5646877755268730E-007   1.6270880338009293E-005   0.0000000000000000     
  -9.5787443583179385E-007   1.6395499175803243E-005   0.0000000000000000     
  -9.5924783329498562E-007   1.6520294886522259E-005   0.0000000000000000     
  -9.6058877968978553E-007   1.6645263784411917E-005   0.0000000000000000     
  -9.6189708476371610E-007   1.6770402183717760E-005   0.0000000000000000     
  -9.6317255826430110E-007   1.6895706398685372E-005   0.0000000000000000     
  -9.6441500993906218E-007   1.7021172743560309E-005   0.0000000000000000     
  -9.6562424953552334E-007   1.7146797532588139E-005   0.0000000000000000     
  -5.5691092792990162E-019   1.7145443068258476E-005   0.0000000000000000     
  -5.7125423975157112E-019   1.7271269545197324E-005   0.0000000000000000     
  -5.8832890195589072E-019   1.7397247747658769E-005   0.0000000000000000     
  -6.0729036313744378E-019   1.7523373939758977E-005   0.0000000000000000     
  -6.2722127999690898E-019   1.7649644385614139E-005   0.0000000000000000     
  -6.4721071988471231E-019   1.7776055349340437E-005   0.0000000000000000     
  -6.6639407226558271E-019   1.7902603095054053E-005   0.0000000000000000     
  -6.8382659348240806E-019   1.8029283886871157E-005   0.0000000000000000     
  -6.9868637619904036E-019   1.8156093988907935E-005   0.0000000000000000     
  -1.2060461858669150E-007   1.7145464025975145E-005   0.0000000000000000     
  -1.2075090718988832E-007   1.7271289753086821E-005   0.0000000000000000     
  -1.2089292975831504E-007   1.7397267191703502E-005   0.0000000000000000     
  -1.2103063256720975E-007   1.7523392607805612E-005   0.0000000000000000     
  -1.2116396189181087E-007   1.7649662267373604E-005   0.0000000000000000     
  -1.2129286400735649E-007   1.7776072436387913E-005   0.0000000000000000     
  -1.2141728518908484E-007   1.7902619380828970E-005   0.0000000000000000     
  -1.2153717171223421E-007   1.8029299366677220E-005   0.0000000000000000     
  -1.2165246985204277E-007   1.8156108659913099E-005   0.0000000000000000     
  -2.4121860980194652E-007   1.7145527016718564E-005   0.0000000000000000     
  -2.4151125251657600E-007   1.7271350503811896E-005   0.0000000000000000     
  -2.4179536769990230E-007   1.7397325662562353E-005   0.0000000000000000     
  -2.4207084891505568E-007   1.7523448763949546E-005   0.0000000000000000     
  -2.4233758972516669E-007   1.7649716078953098E-005   0.0000000000000000     
  -2.4259548369336533E-007   1.7776123878552626E-005   0.0000000000000000     
  -2.4284442438278242E-007   1.7902668433727747E-005   0.0000000000000000     
  -2.4308430535654812E-007   1.8029346015458076E-005   0.0000000000000000     
  -2.4331502017779266E-007   1.8156152894723226E-005   0.0000000000000000     
  -3.6185134627543784E-007   1.7145632216878854E-005   0.0000000000000000     
  -3.6229047411800204E-007   1.7271451987957459E-005   0.0000000000000000     
  -3.6271682200920955E-007   1.7397423368322357E-005   0.0000000000000000     
  -3.6313023282538892E-007   1.7523542636196879E-005   0.0000000000000000     
  -3.6353054944286891E-007   1.7649806069804353E-005   0.0000000000000000     
  -3.6391761473797747E-007   1.7776209947368105E-005   0.0000000000000000     
  -3.6429127158704338E-007   1.7902750547111463E-005   0.0000000000000000     
  -3.6465136286639526E-007   1.8029424147257755E-005   0.0000000000000000     
  -3.6499773145236120E-007   1.8156227026030316E-005   0.0000000000000000     
  -4.8251220063628282E-007   1.7145779802846166E-005   0.0000000000000000     
  -4.8309801013153444E-007   1.7271594396108432E-005   0.0000000000000000     
  -4.8366680087009594E-007   1.7397560517070543E-005   0.0000000000000000     
  -4.8421836807945327E-007   1.7523674452553700E-005   0.0000000000000000     
  -4.8475250698709163E-007   1.7649932489379068E-005   0.0000000000000000     
  -4.8526901282049622E-007   1.7776330914367841E-005   0.0000000000000000     
  -4.8576768080715224E-007   1.7902866014341194E-005   0.0000000000000000     
  -4.8624830617454575E-007   1.8029534076120314E-005   0.0000000000000000     
  -4.8671068415016141E-007   1.8156331386526378E-005   0.0000000000000000     
  -6.0321054551359719E-007   1.7145969951010616E-005   0.0000000000000000     
  -6.0394329869454043E-007   1.7271777918849706E-005   0.0000000000000000     
  -6.0465481246642091E-007   1.7397737316893937E-005   0.0000000000000000     
  -6.0534483845849234E-007   1.7523844441026088E-005   0.0000000000000000     
  -6.0601312830000888E-007   1.7650095587128970E-005   0.0000000000000000     
  -6.0665943362022459E-007   1.7776487051085346E-005   0.0000000000000000     
  -6.0728350604839352E-007   1.7903015128778019E-005   0.0000000000000000     
  -6.0788509721376917E-007   1.8029676116089781E-005   0.0000000000000000     
  -6.0846395874560593E-007   1.8156466308903417E-005   0.0000000000000000     
  -7.2395575353649762E-007   1.7146202837762338E-005   0.0000000000000000     
  -7.2483577794438838E-007   1.7272002746766214E-005   0.0000000000000000     
  -7.2569036498204310E-007   1.7397953975879567E-005   0.0000000000000000     
  -7.2651922774374980E-007   1.7524052829620161E-005   0.0000000000000000     
  -7.2732207932379534E-007   1.7650295612505763E-005   0.0000000000000000     
  -7.2809863281646679E-007   1.7776678629054123E-005   0.0000000000000000     
  -7.2884860131605099E-007   1.7903198183783022E-005   0.0000000000000000     
  -7.2957169791683577E-007   1.8029850581210208E-005   0.0000000000000000     
  -7.3026763571310723E-007   1.8156632125853439E-005   0.0000000000000000     
  -8.4475719733410071E-007   1.7146478639491470E-005   0.0000000000000000     
  -8.4578488601844555E-007   1.7272269070442857E-005   0.0000000000000000     
  -8.4678296660082252E-007   1.7398210702114463E-005   0.0000000000000000     
  -8.4775111971646948E-007   1.7524299846341990E-005   0.0000000000000000     
  -8.4868902600062503E-007   1.7650532814961174E-005   0.0000000000000000     
  -8.4959636608852567E-007   1.7776905919807700E-005   0.0000000000000000     
  -8.5047282061540949E-007   1.7903415472717280E-005   0.0000000000000000     
  -8.5131807021651498E-007   1.8030057785525637E-005   0.0000000000000000     
  -8.5213179552707863E-007   1.8156829170068456E-005   0.0000000000000000     
  -9.6562424953552334E-007   1.7146797532588139E-005   0.0000000000000000     
  -9.6680006105407978E-007   1.7272577080464540E-005   0.0000000000000000     
  -9.6794212550661793E-007   1.7398507703685647E-005   0.0000000000000000     
  -9.6905009815789520E-007   1.7524585719197685E-005   0.0000000000000000     
  -9.7012363427267198E-007   1.7650807443946908E-005   0.0000000000000000     
  -9.7116238911570487E-007   1.7777169194879565E-005   0.0000000000000000     
  -9.7216601795175381E-007   1.7903667288941880E-005   0.0000000000000000     
  -9.7313417604557687E-007   1.8030298043080099E-005   0.0000000000000000     
  -9.7406651866193275E-007   1.8157057774240469E-005   0.0000000000000000     
  -6.9868637619904036E-019   1.8156093988907935E-005   0.0000000000000000     
  -7.1031322688908571E-019   1.8283029529399868E-005   0.0000000000000000     
  -7.1905818032499632E-019   1.8410086093059610E-005   0.0000000000000000     
  -7.2541092742940357E-019   1.8537259128719102E-005   0.0000000000000000     
  -7.3007498531328382E-019   1.8664544085210299E-005   0.0000000000000000     
  -7.3346683941505751E-019   1.8791936411365163E-005   0.0000000000000000     
  -7.3632293897383826E-019   1.8919431556015624E-005   0.0000000000000000     
  -7.3914541493318844E-019   1.9047024967993648E-005   0.0000000000000000     
  -7.4245746549289637E-019   1.9174712096131162E-005   0.0000000000000000     
  -1.2165246985204277E-007   1.8156108659913099E-005   0.0000000000000000     
  -1.2176313251427127E-007   1.8283043392093532E-005   0.0000000000000000     
  -1.2186913912677028E-007   1.8410099157081368E-005   0.0000000000000000     
  -1.2197047574791281E-007   1.8537271414315958E-005   0.0000000000000000     
  -1.2206712843607198E-007   1.8664555623236645E-005   0.0000000000000000     
  -1.2215908324962094E-007   1.8791947243282761E-005   0.0000000000000000     
  -1.2224632624693270E-007   1.8919441733893661E-005   0.0000000000000000     
  -1.2232884348638032E-007   1.9047034554508668E-005   0.0000000000000000     
  -1.2240662102633697E-007   1.9174721164567147E-005   0.0000000000000000     
  -2.4331502017779266E-007   1.8156152894723226E-005   0.0000000000000000     
  -2.4353647525302319E-007   1.8283085212340365E-005   0.0000000000000000     
  -2.4374862836225110E-007   1.8410138588476864E-005   0.0000000000000000     
  -2.4395145012886476E-007   1.8537308513137643E-005   0.0000000000000000     
  -2.4414491117625262E-007   1.8664590476327606E-005   0.0000000000000000     
  -2.4432898212780243E-007   1.8791979968051683E-005   0.0000000000000000     
  -2.4450363360690260E-007   1.8919472478314793E-005   0.0000000000000000     
  -2.4466883623694152E-007   1.9047063497121839E-005   0.0000000000000000     
  -2.4482456064130698E-007   1.9174748514477755E-005   0.0000000000000000     
  -3.6499773145236120E-007   1.8156227026030316E-005   0.0000000000000000     
  -3.6533023844216366E-007   1.8283155338389207E-005   0.0000000000000000     
  -3.6564881781659730E-007   1.8410204746241464E-005   0.0000000000000000     
  -3.6595342177735108E-007   1.8537370788230854E-005   0.0000000000000000     
  -3.6624400252611375E-007   1.8664649003001161E-005   0.0000000000000000     
  -3.6652051226457374E-007   1.8792034929196155E-005   0.0000000000000000     
  -3.6678290319441958E-007   1.8919524105459600E-005   0.0000000000000000     
  -3.6703112751734044E-007   1.9047112070435288E-005   0.0000000000000000     
  -3.6726513743502460E-007   1.9174794362766974E-005   0.0000000000000000     
  -4.8671068415016141E-007   1.8156331386526378E-005   0.0000000000000000     
  -4.8715463230689056E-007   1.8283254118488883E-005   0.0000000000000000     
  -4.8758005759924455E-007   1.8410297989370516E-005   0.0000000000000000     
  -4.8798688932714107E-007   1.8537458602642307E-005   0.0000000000000000     
  -4.8837505679049709E-007   1.8664731561775248E-005   0.0000000000000000     
  -4.8874448928923009E-007   1.8792112470240358E-005   0.0000000000000000     
  -4.8909511612325703E-007   1.8919596931508654E-005   0.0000000000000000     
  -4.8942686659249560E-007   1.9047180549051129E-005   0.0000000000000000     
  -4.8973966999686244E-007   1.9174858926338796E-005   0.0000000000000000     
  -6.0846395874560593E-007   1.8156466308903417E-005   0.0000000000000000     
  -6.0901986707240128E-007   1.8283381900888207E-005   0.0000000000000000     
  -6.0955269781962856E-007   1.8410418676859395E-005   0.0000000000000000     
  -6.1006235141200413E-007   1.8537572319418693E-005   0.0000000000000000     
  -6.1054872827424446E-007   1.8664838511167824E-005   0.0000000000000000     
  -6.1101172883106684E-007   1.8792212934708520E-005   0.0000000000000000     
  -6.1145125350718795E-007   1.8919691272642501E-005   0.0000000000000000     
  -6.1186720272732416E-007   1.9047269207571493E-005   0.0000000000000000     
  -6.1225947691619224E-007   1.9174942422097212E-005   0.0000000000000000     
  -7.3026763571310723E-007   1.8156632125853439E-005   0.0000000000000000     
  -7.3093615296389398E-007   1.8283539033836038E-005   0.0000000000000000     
  -7.3157708858718475E-007   1.8410567167703463E-005   0.0000000000000000     
  -7.3219030666570928E-007   1.8537712301606718E-005   0.0000000000000000     
  -7.3277567128219797E-007   1.8664970209696843E-005   0.0000000000000000     
  -7.3333304651938012E-007   1.8792336666124838E-005   0.0000000000000000     
  -7.3386229645998558E-007   1.8919807445041716E-005   0.0000000000000000     
  -7.3436328518674474E-007   1.9047378320598501E-005   0.0000000000000000     
  -7.3483587678238628E-007   1.9175045066946203E-005   0.0000000000000000     
  -8.5213179552707863E-007   1.8156829170068456E-005   0.0000000000000000     
  -8.5291370020656609E-007   1.8283725865581191E-005   0.0000000000000000     
  -8.5366358001134886E-007   1.8410743820898072E-005   0.0000000000000000     
  -8.5438125372202634E-007   1.8537878912253099E-005   0.0000000000000000     
  -8.5506654011919918E-007   1.8665127015880264E-005   0.0000000000000000     
  -8.5571925798346475E-007   1.8792484008013524E-005   0.0000000000000000     
  -8.5633922609542350E-007   1.8919945764886870E-005   0.0000000000000000     
  -8.5692626323567472E-007   1.9047508162734289E-005   0.0000000000000000     
  -8.5748018818481737E-007   1.9175167077789750E-005   0.0000000000000000     
  -9.7406651866193275E-007   1.8157057774240469E-005   0.0000000000000000     
  -9.7496271902561486E-007   1.8283942744372474E-005   0.0000000000000000     
  -9.7582252220155636E-007   1.8410948995438593E-005   0.0000000000000000     
  -9.7664569121472469E-007   1.8538072514404526E-005   0.0000000000000000     
  -9.7743198909008900E-007   1.8665309288236019E-005   0.0000000000000000     
  -9.7818117885261630E-007   1.8792655303898776E-005   0.0000000000000000     
  -9.7889302352727532E-007   1.8920106548358524E-005   0.0000000000000000     
  -9.7956728613903265E-007   1.9047659008580971E-005   0.0000000000000000     
  -9.8020372971285724E-007   1.9175308671531852E-005   0.0000000000000000     
  -7.4245746549289637E-019   1.9174712096131162E-005   0.0000000000000000     
  -7.4680512679247508E-019   1.9302487983023380E-005   0.0000000000000000     
  -7.5202298209645958E-019   1.9430346046318457E-005   0.0000000000000000     
  -7.5790092752926139E-019   1.9558279297427801E-005   0.0000000000000000     
  -7.6417674683670122E-019   1.9686280747762824E-005   0.0000000000000000     
  -7.7064653999778472E-019   1.9814343408734921E-005   0.0000000000000000     
  -7.7702131078600120E-019   1.9942460291755516E-005   0.0000000000000000     
  -7.8310937301908855E-019   2.0070624408235992E-005   0.0000000000000000     
  -7.8860752622845489E-019   2.0198828769587783E-005   0.0000000000000000     
  -1.2240662102633697E-007   1.9174721164567147E-005   0.0000000000000000     
  -1.2247966539481156E-007   1.9302496616509657E-005   0.0000000000000000     
  -1.2254806499835699E-007   1.9430354334781709E-005   0.0000000000000000     
  -1.2261192871316168E-007   1.9558287336830058E-005   0.0000000000000000     
  -1.2267136541541455E-007   1.9686288640101438E-005   0.0000000000000000     
  -1.2272648398130404E-007   1.9814351262042599E-005   0.0000000000000000     
  -1.2277739328701898E-007   1.9942468220100278E-005   0.0000000000000000     
  -1.2282420220874791E-007   2.0070632531721224E-005   0.0000000000000000     
  -1.2286701962267960E-007   2.0198837214352185E-005   0.0000000000000000     
  -2.4482456064130698E-007   1.9174748514477755E-005   0.0000000000000000     
  -2.4497081831187341E-007   1.9302522612153845E-005   0.0000000000000000     
  -2.4510778421445949E-007   1.9430379238987062E-005   0.0000000000000000     
  -2.4523567418336974E-007   1.9558311435580742E-005   0.0000000000000000     
  -2.4535470405290883E-007   1.9686312242538233E-005   0.0000000000000000     
  -2.4546508965738144E-007   1.9814374700462888E-005   0.0000000000000000     
  -2.4556704683109245E-007   1.9942491849958043E-005   0.0000000000000000     
  -2.4566079140834617E-007   2.0070656731627050E-005   0.0000000000000000     
  -2.4574653922344738E-007   2.0198862386073240E-005   0.0000000000000000     
  -3.6726513743502460E-007   1.9174794362766974E-005   0.0000000000000000     
  -3.6748494627492530E-007   1.9302566112734001E-005   0.0000000000000000     
  -3.6769081186755259E-007   1.9430420817157893E-005   0.0000000000000000     
  -3.6788305316918148E-007   1.9558351564495745E-005   0.0000000000000000     
  -3.6806198913608684E-007   1.9686351443204668E-005   0.0000000000000000     
  -3.6822793872454329E-007   1.9814413541741734E-005   0.0000000000000000     
  -3.6838122089082571E-007   1.9942530948564042E-005   0.0000000000000000     
  -3.6852215459120883E-007   2.0070696752128696E-005   0.0000000000000000     
  -3.6865105878196735E-007   2.0198904040892764E-005   0.0000000000000000     
  -4.8973966999686244E-007   1.9174858926338796E-005   0.0000000000000000     
  -4.9003353680695989E-007   1.9302627261028159E-005   0.0000000000000000     
  -4.9030880217612922E-007   1.9430479127517587E-005   0.0000000000000000     
  -4.9056588242839668E-007   1.9558407694390971E-005   0.0000000000000000     
  -4.9080519388778827E-007   1.9686406130232168E-005   0.0000000000000000     
  -4.9102715287832982E-007   1.9814467603625061E-005   0.0000000000000000     
  -4.9123217572404735E-007   1.9942585283153509E-005   0.0000000000000000     
  -4.9142067874896730E-007   2.0070752337401398E-005   0.0000000000000000     
  -4.9159307827711548E-007   2.0198961934952583E-005   0.0000000000000000     
  -6.1225947691619224E-007   1.9174942422097212E-005   0.0000000000000000     
  -6.1262807743097043E-007   1.9302706199814371E-005   0.0000000000000000     
  -6.1297340935868287E-007   1.9430554228289542E-005   0.0000000000000000     
  -6.1329597871881507E-007   1.9558479796082294E-005   0.0000000000000000     
  -6.1359629153085273E-007   1.9686476191752196E-005   0.0000000000000000     
  -6.1387485381428105E-007   1.9814536703858802E-005   0.0000000000000000     
  -6.1413217158858583E-007   1.9942654620961679E-005   0.0000000000000000     
  -6.1436875087325225E-007   2.0070823231620391E-005   0.0000000000000000     
  -6.1458509768776688E-007   2.0199035824394501E-005   0.0000000000000000     
  -7.3483587678238628E-007   1.9175045066946203E-005   0.0000000000000000     
  -7.3528005566994985E-007   1.9302803071870670E-005   0.0000000000000000     
  -7.3569628763370620E-007   1.9430646177697120E-005   0.0000000000000000     
  -7.3608515879823589E-007   1.9558567840385601E-005   0.0000000000000000     
  -7.3644725528811958E-007   1.9686561515896179E-005   0.0000000000000000     
  -7.3678316322793741E-007   1.9814620660188883E-005   0.0000000000000000     
  -7.3709346874226918E-007   1.9942738729223778E-005   0.0000000000000000     
  -7.3737875795569578E-007   2.0070909178960917E-005   0.0000000000000000     
  -7.3763961699279712E-007   2.0199125465360338E-005   0.0000000000000000     
  -8.5748018818481737E-007   1.9175167077789750E-005   0.0000000000000000     
  -8.5800095904689086E-007   1.9302918019975124E-005   0.0000000000000000     
  -8.5848909121969233E-007   1.9430755033963728E-005   0.0000000000000000     
  -8.5894523942445894E-007   1.9558671798116798E-005   0.0000000000000000     
  -8.5937005838242923E-007   1.9686661990795573E-005   0.0000000000000000     
  -8.5976420281483888E-007   1.9814719290361248E-005   0.0000000000000000     
  -8.6012832744292611E-007   1.9942837375175042E-005   0.0000000000000000     
  -8.6046308698792861E-007   2.0071009923598203E-005   0.0000000000000000     
  -8.6076913617108217E-007   2.0199230613991910E-005   0.0000000000000000     
  -9.8020372971285724E-007   1.9175308671531852E-005   0.0000000000000000     
  -9.8080227508478619E-007   1.9303051186905749E-005   0.0000000000000000     
  -9.8136347433513441E-007   1.9430880855312738E-005   0.0000000000000000     
  -9.8188803735528436E-007   1.9558791640091772E-005   0.0000000000000000     
  -9.8237667403662040E-007   1.9686777504581812E-005   0.0000000000000000     
  -9.8283009427052606E-007   1.9814832412121810E-005   0.0000000000000000     
  -9.8324900794838527E-007   1.9942950326050708E-005   0.0000000000000000     
  -9.8363412496158114E-007   2.0071125209707468E-005   0.0000000000000000     
  -9.8398615520149780E-007   2.0199351026431031E-005   0.0000000000000000     
  -7.8860752622845489E-019   2.0198828769587783E-005   0.0000000000000000     
  -7.9337208655676033E-019   2.0327065209841965E-005   0.0000000000000000     
  -7.9709936239692427E-019   2.0455320853508425E-005   0.0000000000000000     
  -7.9971242595197928E-019   2.0583581647716715E-005   0.0000000000000000     
  -8.0089860295038033E-019   2.0711833539596417E-005   0.0000000000000000     
  -8.0053071437294737E-019   2.0840062476277078E-005   0.0000000000000000     
  -7.9833382606358310E-019   2.0968254404888282E-005   0.0000000000000000     
  -7.9422887765030334E-019   2.1096395272559583E-005   0.0000000000000000     
  -7.8793916429351204E-019   2.1224471026420540E-005   0.0000000000000000     
  -1.2286701962267960E-007   2.0198837214352185E-005   0.0000000000000000     
  -1.2290599547944604E-007   2.0327074118470530E-005   0.0000000000000000     
  -1.2294144402745251E-007   2.0455330426676211E-005   0.0000000000000000     
  -1.2297372058954781E-007   2.0583592154599815E-005   0.0000000000000000     
  -1.2300318048858062E-007   2.0711845317871916E-005   0.0000000000000000     
  -1.2303017904739951E-007   2.0840075932123104E-005   0.0000000000000000     
  -1.2305507158885342E-007   2.0968270012983963E-005   0.0000000000000000     
  -1.2307821343579085E-007   2.1096413576085067E-005   0.0000000000000000     
  -1.2309995991106064E-007   2.1224492637057008E-005   0.0000000000000000     
  -2.4574653922344738E-007   2.0198862386073240E-005   0.0000000000000000     
  -2.4582458895030874E-007   2.0327100714494870E-005   0.0000000000000000     
  -2.4589557062127450E-007   2.0455359060469762E-005   0.0000000000000000     
  -2.4596019710829723E-007   2.0583623628170659E-005   0.0000000000000000     
  -2.4601918128332905E-007   2.0711880621770301E-005   0.0000000000000000     
  -2.4607323601832224E-007   2.0840116245441418E-005   0.0000000000000000     
  -2.4612307418522929E-007   2.0968316703356740E-005   0.0000000000000000     
  -2.4616940865600246E-007   2.1096468199689010E-005   0.0000000000000000     
  -2.4621295230259404E-007   2.1224556938610954E-005   0.0000000000000000     
  -3.6865105878196735E-007   2.0198904040892764E-005   0.0000000000000000     
  -3.6876837840559138E-007   2.0327144803122967E-005   0.0000000000000000     
  -3.6887506234943083E-007   2.0455406626324344E-005   0.0000000000000000     
  -3.6897218548705124E-007   2.0583675997811584E-005   0.0000000000000000     
  -3.6906082269201783E-007   2.0711939404899364E-005   0.0000000000000000     
  -3.6914204883789600E-007   2.0840183334902341E-005   0.0000000000000000     
  -3.6921693879825092E-007   2.0968394275135194E-005   0.0000000000000000     
  -3.6928656744664824E-007   2.1096558712912591E-005   0.0000000000000000     
  -3.6935200965665281E-007   2.1224663135549198E-005   0.0000000000000000     
  -4.9159307827711548E-007   2.0198961934952583E-005   0.0000000000000000     
  -4.9174996183750389E-007   2.0327206189562810E-005   0.0000000000000000     
  -4.9189260177908900E-007   2.0455472995675243E-005   0.0000000000000000     
  -4.9202244165581324E-007   2.0583749192904938E-005   0.0000000000000000     
  -4.9214092502161864E-007   2.0712021620866912E-005   0.0000000000000000     
  -4.9224949543044785E-007   2.0840277119176223E-005   0.0000000000000000     
  -4.9234959643624320E-007   2.0968502527447904E-005   0.0000000000000000     
  -4.9244267159294671E-007   2.1096684685296997E-005   0.0000000000000000     
  -4.9253016445450114E-007   2.1224810432338533E-005   0.0000000000000000     
  -6.1458509768776688E-007   2.0199035824394501E-005   0.0000000000000000     
  -6.1478193723825633E-007   2.0327284679022394E-005   0.0000000000000000     
  -6.1496087147741676E-007   2.0455558039957739E-005   0.0000000000000000     
  -6.1512372154458640E-007   2.0583843142833023E-005   0.0000000000000000     
  -6.1527230857910339E-007   2.0712127223280739E-005   0.0000000000000000     
  -6.1540845372030552E-007   2.0840397516933379E-005   0.0000000000000000     
  -6.1553397810753082E-007   2.0968641259423440E-005   0.0000000000000000     
  -6.1565070288011751E-007   2.1096845686383405E-005   0.0000000000000000     
  -6.1576044917740331E-007   2.1224998033445766E-005   0.0000000000000000     
  -7.3763961699279712E-007   2.0199125465360338E-005   0.0000000000000000     
  -7.3787690260005828E-007   2.0327380076709709E-005   0.0000000000000000     
  -7.3809255401158176E-007   2.0455661630607110E-005   0.0000000000000000     
  -7.3828878108337414E-007   2.0583957776978183E-005   0.0000000000000000     
  -7.3846779367144329E-007   2.0712256165748642E-005   0.0000000000000000     
  -7.3863180163179580E-007   2.0840544446844156E-005   0.0000000000000000     
  -7.3878301482043858E-007   2.0968810270190366E-005   0.0000000000000000     
  -7.3892364309337906E-007   2.1097041285712992E-005   0.0000000000000000     
  -7.3905589630662385E-007   2.1225225143337690E-005   0.0000000000000000     
  -8.6076913617108217E-007   2.0199230613991910E-005   0.0000000000000000     
  -8.6104745591512040E-007   2.0327492187832754E-005   0.0000000000000000     
  -8.6130033194875149E-007   2.0455783639058625E-005   0.0000000000000000     
  -8.6153037620217978E-007   2.0584093024722760E-005   0.0000000000000000     
  -8.6174020060561032E-007   2.0712408401878435E-005   0.0000000000000000     
  -8.6193241708924617E-007   2.0840717827578852E-005   0.0000000000000000     
  -8.6210963758329123E-007   2.0969009358877272E-005   0.0000000000000000     
  -8.6227447401795046E-007   2.1097271052826957E-005   0.0000000000000000     
  -8.6242953832342735E-007   2.1225490966481121E-005   0.0000000000000000     
  -9.8398615520149780E-007   2.0199351026431031E-005   0.0000000000000000     
  -9.8430619517565152E-007   2.0327620817599501E-005   0.0000000000000000     
  -9.8459688785609355E-007   2.0455923936747575E-005   0.0000000000000000     
  -9.8486126283100726E-007   2.0584248815449087E-005   0.0000000000000000     
  -9.8510234968857600E-007   2.0712583885277897E-005   0.0000000000000000     
  -9.8532317801698314E-007   2.0840917577807830E-005   0.0000000000000000     
  -9.8552677740441394E-007   2.0969238324612736E-005   0.0000000000000000     
  -9.8571617743905092E-007   2.1097534557266471E-005   0.0000000000000000     
  -9.8589440770907806E-007   2.1225794707342848E-005   0.0000000000000000     
  -7.8793916429351204E-019   2.1224471026420540E-005   0.0000000000000000     
  -7.7953831799242349E-019   2.1352466355127965E-005   0.0000000000000000     
  -7.7008364359094239E-019   2.1480360913447587E-005   0.0000000000000000     
  -7.6091765522324229E-019   2.1608133097672380E-005   0.0000000000000000     
  -7.5333654490919379E-019   2.1735761304095310E-005   0.0000000000000000     
  -7.4869585487761816E-019   2.1863223929009342E-005   0.0000000000000000     
  -7.4823614925219182E-019   2.1990499368707455E-005   0.0000000000000000     
  -7.5332166858286490E-019   2.2117566019482615E-005   0.0000000000000000     
  -7.6532073762386205E-019   2.2244402277627797E-005   0.0000000000000000     
  -1.2309995991106064E-007   2.1224492637057008E-005   0.0000000000000000     
  -1.2312074643790300E-007   2.1352491912469540E-005   0.0000000000000000     
  -1.2314132884112452E-007   2.1480390922649213E-005   0.0000000000000000     
  -1.2316254304592354E-007   2.1608167888861708E-005   0.0000000000000000     
  -1.2318522497749801E-007   2.1735801032372761E-005   0.0000000000000000     
  -1.2321021056104619E-007   2.1863268574448059E-005   0.0000000000000000     
  -1.2323833572176636E-007   2.1990548736353317E-005   0.0000000000000000     
  -1.2327043638485666E-007   2.2117619739354255E-005   0.0000000000000000     
  -1.2330734847551514E-007   2.2244459804716579E-005   0.0000000000000000     
  -2.4621295230259404E-007   2.1224556938610954E-005   0.0000000000000000     
  -2.4625457530923187E-007   2.1352567718296197E-005   0.0000000000000000     
  -2.4629577710924566E-007   2.1480479712921860E-005   0.0000000000000000     
  -2.4633821444824052E-007   2.1608270690665992E-005   0.0000000000000000     
  -2.4638354407182162E-007   2.1735918419706603E-005   0.0000000000000000     
  -2.4643342272559382E-007   2.1863400668221702E-005   0.0000000000000000     
  -2.4648950715516266E-007   2.1990695204389327E-005   0.0000000000000000     
  -2.4655345410613310E-007   2.2117779796387485E-005   0.0000000000000000     
  -2.4662692032411020E-007   2.2244632212394207E-005   0.0000000000000000     
  -3.6935200965665281E-007   2.1224663135549198E-005   0.0000000000000000     
  -3.6941456904897468E-007   2.1352692473310750E-005   0.0000000000000000     
  -3.6947646423290201E-007   2.1480625428267221E-005   0.0000000000000000     
  -3.6954014256486727E-007   2.1608439145439655E-005   0.0000000000000000     
  -3.6960805140130283E-007   2.1736110769849080E-005   0.0000000000000000     
  -3.6968263809864127E-007   2.1863617446516547E-005   0.0000000000000000     
  -3.6976635001331525E-007   2.1990936320463086E-005   0.0000000000000000     
  -3.6986163450175712E-007   2.2118044536709733E-005   0.0000000000000000     
  -3.6997093892039964E-007   2.2244919240277544E-005   0.0000000000000000     
  -4.9253016445450114E-007   2.1224810432338533E-005   0.0000000000000000     
  -4.9261381009133998E-007   2.1352864878216043E-005   0.0000000000000000     
  -4.9269650963986224E-007   2.1480826212686928E-005   0.0000000000000000     
  -4.9278145575295885E-007   2.1608670895537083E-005   0.0000000000000000     
  -4.9287184108352084E-007   2.1736375386552429E-005   0.0000000000000000     
  -4.9297085828443847E-007   2.1863916145518837E-005   0.0000000000000000     
  -4.9308170000860225E-007   2.1991269632222216E-005   0.0000000000000000     
  -4.9320755890890308E-007   2.2118412306448451E-005   0.0000000000000000     
  -4.9335162763823189E-007   2.2245320627983441E-005   0.0000000000000000     
  -6.1576044917740331E-007   2.1224998033445766E-005   0.0000000000000000     
  -6.1586538087053546E-007   2.1353083633714897E-005   0.0000000000000000     
  -6.1596903275789439E-007   2.1481080210182632E-005   0.0000000000000000     
  -6.1607528236967062E-007   2.1608963583312724E-005   0.0000000000000000     
  -6.1618800723605393E-007   2.1736709573568878E-005   0.0000000000000000     
  -6.1631108488723451E-007   2.1864294001414837E-005   0.0000000000000000     
  -6.1644839285340161E-007   2.1991692687314317E-005   0.0000000000000000     
  -6.1660380866474553E-007   2.2118881451731054E-005   0.0000000000000000     
  -6.1678120985145603E-007   2.2245836115128771E-005   0.0000000000000000     
  -7.3905589630662385E-007   2.1225225143337690E-005   0.0000000000000000     
  -7.3918236382076945E-007   2.1353347440510143E-005   0.0000000000000000     
  -7.3930715301476745E-007   2.1481385564756015E-005   0.0000000000000000     
  -7.3943475077215790E-007   2.1609314851120957E-005   0.0000000000000000     
  -7.3956964397648190E-007   2.1737110634650674E-005   0.0000000000000000     
  -7.3971631951127935E-007   2.1864748250390799E-005   0.0000000000000000     
  -7.3987926426009127E-007   2.1992203033387011E-005   0.0000000000000000     
  -7.4006296510645831E-007   2.2119450318684986E-005   0.0000000000000000     
  -7.4027190893392083E-007   2.2246465441330388E-005   0.0000000000000000     
  -8.6242953832342735E-007   2.1225490966481121E-005   0.0000000000000000     
  -8.6257784137625075E-007   2.1353654999304619E-005   0.0000000000000000     
  -8.6272398983824922E-007   2.1481740420408700E-005   0.0000000000000000     
  -8.6287298931757508E-007   2.1609722341316216E-005   0.0000000000000000     
  -8.6302984542238271E-007   2.1737575873550044E-005   0.0000000000000000     
  -8.6319956376082273E-007   2.1865276128632981E-005   0.0000000000000000     
  -8.6338714994104962E-007   2.1992798218087913E-005   0.0000000000000000     
  -8.6359760957121656E-007   2.2120117253437694E-005   0.0000000000000000     
  -8.6383594825947536E-007   2.2247208346205155E-005   0.0000000000000000     
  -9.8589440770907806E-007   2.1225794707342848E-005   0.0000000000000000     
  -9.8606489597118786E-007   2.1354005010801157E-005   0.0000000000000000     
  -9.8623266265610926E-007   2.1482142921142381E-005   0.0000000000000000     
  -9.8640312636307888E-007   2.1610183696252923E-005   0.0000000000000000     
  -9.8658170569133519E-007   2.1738102594019208E-005   0.0000000000000000     
  -9.8677381924011438E-007   2.1865874872327637E-005   0.0000000000000000     
  -9.8698488560865516E-007   2.1993475789064635E-005   0.0000000000000000     
  -9.8722032339619328E-007   2.2120880602116588E-005   0.0000000000000000     
  -9.8748555120196830E-007   2.2248064569369953E-005   0.0000000000000000     
  -9.2776156694053401E-007   1.4183025301517146E-005   0.0000000000000000     
  -9.2969807941586193E-007   1.4304066624942548E-005   0.0000000000000000     
  -9.3160384510737951E-007   1.4425348612319166E-005   0.0000000000000000     
  -9.3347883148303124E-007   1.4546867457938525E-005   0.0000000000000000     
  -9.3532300601076175E-007   1.4668619356092145E-005   0.0000000000000000     
  -9.3713633615851595E-007   1.4790600501071559E-005   0.0000000000000000     
  -9.3891878939423877E-007   1.4912807087168284E-005   0.0000000000000000     
  -9.4067033318587408E-007   1.5035235308673845E-005   0.0000000000000000     
  -9.4239093500136818E-007   1.5157881359879768E-005   0.0000000000000000     
  -1.0439558240367410E-006   1.4183646060426687E-005   0.0000000000000000     
  -1.0461345091410570E-006   1.4304677548709099E-005   0.0000000000000000     
  -1.0482786452574791E-006   1.4425949612639895E-005   0.0000000000000000     
  -1.0503881898725701E-006   1.4547458454763042E-005   0.0000000000000000     
  -1.0524631004728928E-006   1.4669200277622528E-005   0.0000000000000000     
  -1.0545033345450098E-006   1.4791171283762318E-005   0.0000000000000000     
  -1.0565088495754839E-006   1.4913367675726392E-005   0.0000000000000000     
  -1.0584796030508780E-006   1.5035785656058727E-005   0.0000000000000000     
  -1.0604155524577549E-006   1.5158421427303298E-005   0.0000000000000000     
  -1.1602291494503832E-006   1.4184339977586826E-005   0.0000000000000000     
  -1.1626500413476656E-006   1.4305360513863113E-005   0.0000000000000000     
  -1.1650325910754806E-006   1.4426621509336755E-005   0.0000000000000000     
  -1.1673767454752179E-006   1.4548119180450568E-005   0.0000000000000000     
  -1.1696824513882678E-006   1.4669849743647347E-005   0.0000000000000000     
  -1.1719496556560198E-006   1.4791809415369898E-005   0.0000000000000000     
  -1.1741783051198637E-006   1.4913994412061017E-005   0.0000000000000000     
  -1.1763683466211898E-006   1.5036400950163517E-005   0.0000000000000000     
  -1.1785197270013876E-006   1.5159025246120192E-005   0.0000000000000000     
  -1.2765903171069664E-006   1.4185107102124452E-005   0.0000000000000000     
  -1.2792534498333133E-006   1.4306115549712278E-005   0.0000000000000000     
  -1.2818744520402591E-006   1.4427364325916011E-005   0.0000000000000000     
  -1.2844532605311860E-006   1.4548849663733574E-005   0.0000000000000000     
  -1.2869898121094769E-006   1.4670567796162891E-005   0.0000000000000000     
  -1.2894840435785147E-006   1.4792514956201895E-005   0.0000000000000000     
  -1.2919358917416819E-006   1.4914687376848510E-005   0.0000000000000000     
  -1.2943452934023615E-006   1.5037081291100665E-005   0.0000000000000000     
  -1.2967121853639358E-006   1.5159692931956291E-005   0.0000000000000000     
  -1.3930481009319953E-006   1.4185947483166436E-005   0.0000000000000000     
  -1.3959535083956260E-006   1.4306942685564300E-005   0.0000000000000000     
  -1.3988129976306896E-006   1.4428178085883911E-005   0.0000000000000000     
  -1.4016264972806844E-006   1.4549649933344532E-005   0.0000000000000000     
  -1.4043939359891091E-006   1.4671354477165444E-005   0.0000000000000000     
  -1.4071152423994617E-006   1.4793287966565910E-005   0.0000000000000000     
  -1.4097903451552402E-006   1.4915446650765219E-005   0.0000000000000000     
  -1.4124191728999440E-006   1.5037826778982630E-005   0.0000000000000000     
  -1.4150016542770698E-006   1.5160424600437420E-005   0.0000000000000000     
  -1.5096112748509758E-006   1.4186861169839670E-005   0.0000000000000000     
  -1.5127589908322283E-006   1.4307841950726872E-005   0.0000000000000000     
  -1.5158569973256466E-006   1.4429062812746702E-005   0.0000000000000000     
  -1.5189052179639243E-006   1.4550520018015915E-005   0.0000000000000000     
  -1.5219035763797533E-006   1.4672209828651273E-005   0.0000000000000000     
  -1.5248519962058289E-006   1.4794128506769547E-005   0.0000000000000000     
  -1.5277504010748425E-006   1.4916272314487490E-005   0.0000000000000000     
  -1.5305987146194881E-006   1.5038637513921850E-005   0.0000000000000000     
  -1.5333968604724585E-006   1.5161220367189409E-005   0.0000000000000000     
  -1.6262886127894133E-006   1.4187848211271030E-005   0.0000000000000000     
  -1.6296786709407467E-006   1.4308813374507689E-005   0.0000000000000000     
  -1.6330152206040057E-006   1.4430018530010640E-005   0.0000000000000000     
  -1.6362981848211153E-006   1.4551459946480201E-005   0.0000000000000000     
  -1.6395274866339994E-006   1.4673133892616685E-005   0.0000000000000000     
  -1.6427030490845833E-006   1.4795036637120404E-005   0.0000000000000000     
  -1.6458247952147902E-006   1.4917164448691665E-005   0.0000000000000000     
  -1.6488926480665450E-006   1.5039513596030793E-005   0.0000000000000000     
  -1.6519065306817717E-006   1.5162080347838090E-005   0.0000000000000000     
  -1.7430888886728131E-006   1.4188908656587405E-005   0.0000000000000000     
  -1.7467213225188056E-006   1.4309856986214448E-005   0.0000000000000000     
  -1.7502964369446412E-006   1.4431045261181978E-005   0.0000000000000000     
  -1.7538141600924688E-006   1.4552469747469861E-005   0.0000000000000000     
  -1.7572744201044369E-006   1.4674126711057944E-005   0.0000000000000000     
  -1.7606771451226931E-006   1.4796012417926070E-005   0.0000000000000000     
  -1.7640222632893873E-006   1.4918123134054109E-005   0.0000000000000000     
  -1.7673097027466666E-006   1.5040455125421905E-005   0.0000000000000000     
  -1.7705393916366794E-006   1.5163004658009303E-005   0.0000000000000000     
  -1.8600208764266815E-006   1.4190042554915681E-005   0.0000000000000000     
  -1.8638957193640314E-006   1.4310972815154843E-005   0.0000000000000000     
  -1.8677094158264283E-006   1.4432143029766970E-005   0.0000000000000000     
  -1.8714619060181956E-006   1.4553549449717367E-005   0.0000000000000000     
  -1.8751531301436539E-006   1.4675188325971328E-005   0.0000000000000000     
  -1.8787830284071266E-006   1.4797055909494161E-005   0.0000000000000000     
  -1.8823515410129355E-006   1.4919148451251157E-005   0.0000000000000000     
  -1.8858586081654027E-006   1.5041462202207626E-005   0.0000000000000000     
  -1.8893041700688512E-006   1.5163993413328866E-005   0.0000000000000000     
  -9.4239093500136818E-007   1.5157881359879768E-005   0.0000000000000000     
  -9.4408054885978285E-007   1.5280741448954865E-005   0.0000000000000000     
  -9.4573907498465460E-007   1.5403811839577095E-005   0.0000000000000000     
  -9.4736640015063836E-007   1.5527088809301732E-005   0.0000000000000000     
  -9.4896241113238813E-007   1.5650568635684018E-005   0.0000000000000000     
  -9.5052699470455918E-007   1.5774247596279218E-005   0.0000000000000000     
  -9.5206003764180549E-007   1.5898121968642586E-005   0.0000000000000000     
  -9.5356142671878158E-007   1.6022188030329371E-005   0.0000000000000000     
  -9.5503104871014283E-007   1.6146442058894838E-005   0.0000000000000000     
  -1.0604155524577549E-006   1.5158421427303298E-005   0.0000000000000000     
  -1.0623166436847191E-006   1.5281271201865586E-005   0.0000000000000000     
  -1.0641827762285429E-006   1.5404331231597120E-005   0.0000000000000000     
  -1.0660138379880399E-006   1.5527597778210936E-005   0.0000000000000000     
  -1.0678097168620251E-006   1.5651067103420063E-005   0.0000000000000000     
  -1.0695703007493118E-006   1.5774735468937537E-005   0.0000000000000000     
  -1.0712954775487145E-006   1.5898599136476396E-005   0.0000000000000000     
  -1.0729851351590473E-006   1.6022654367749670E-005   0.0000000000000000     
  -1.0746391614791239E-006   1.6146897424470397E-005   0.0000000000000000     
  -1.1785197270013876E-006   1.5159025246120192E-005   0.0000000000000000     
  -1.1806323840502927E-006   1.5281863520573638E-005   0.0000000000000000     
  -1.1827062193515211E-006   1.5404912010965568E-005   0.0000000000000000     
  -1.1847411254371383E-006   1.5528166958937521E-005   0.0000000000000000     
  -1.1867369948392053E-006   1.5651624606130977E-005   0.0000000000000000     
  -1.1886937200897855E-006   1.5775281194187473E-005   0.0000000000000000     
  -1.1906111937209423E-006   1.5899132964748507E-005   0.0000000000000000     
  -1.1924893082647386E-006   1.6023176159455596E-005   0.0000000000000000     
  -1.1943279562532369E-006   1.6147407019950251E-005   0.0000000000000000     
  -1.2967121853639358E-006   1.5159692931956291E-005   0.0000000000000000     
  -1.2990364981768904E-006   1.5282518530162771E-005   0.0000000000000000     
  -1.3013181373801208E-006   1.5405554307465365E-005   0.0000000000000000     
  -1.3035570022596234E-006   1.5528796483358777E-005   0.0000000000000000     
  -1.3057529921013966E-006   1.5652241277337724E-005   0.0000000000000000     
  -1.3079060061914371E-006   1.5775884908896909E-005   0.0000000000000000     
  -1.3100159438157424E-006   1.5899723597531054E-005   0.0000000000000000     
  -1.3120827042603106E-006   1.6023753562734862E-005   0.0000000000000000     
  -1.3141061868111389E-006   1.6147971024003056E-005   0.0000000000000000     
  -1.4150016542770698E-006   1.5160424600437420E-005   0.0000000000000000     
  -1.4175377142849031E-006   1.5283236355716756E-005   0.0000000000000000     
  -1.4200272633408707E-006   1.5406258250879406E-005   0.0000000000000000     
  -1.4224702082171874E-006   1.5529486483352019E-005   0.0000000000000000     
  -1.4248664556860673E-006   1.5652917250561250E-005   0.0000000000000000     
  -1.4272159125197233E-006   1.5776546749933755E-005   0.0000000000000000     
  -1.4295184854903695E-006   1.5900371178896189E-005   0.0000000000000000     
  -1.4317740813702198E-006   1.6024386734875204E-005   0.0000000000000000     
  -1.4339826069314884E-006   1.6148589615297469E-005   0.0000000000000000     
  -1.5333968604724585E-006   1.5161220367189409E-005   0.0000000000000000     
  -1.5361447605947170E-006   1.5284017122319348E-005   0.0000000000000000     
  -1.5388423302603017E-006   1.5407023970990605E-005   0.0000000000000000     
  -1.5414894830715220E-006   1.5530237090794533E-005   0.0000000000000000     
  -1.5440861326306855E-006   1.5653652659322505E-005   0.0000000000000000     
  -1.5466321925401011E-006   1.5777266854165892E-005   0.0000000000000000     
  -1.5491275764020764E-006   1.5901075852916046E-005   0.0000000000000000     
  -1.5515721978189207E-006   1.6025075833164340E-005   0.0000000000000000     
  -1.5539659703929418E-006   1.6149262972502129E-005   0.0000000000000000     
  -1.6519065306817717E-006   1.5162080347838090E-005   0.0000000000000000     
  -1.6548663653267212E-006   1.5284860955054301E-005   0.0000000000000000     
  -1.6577720711649436E-006   1.5407851597581861E-005   0.0000000000000000     
  -1.6606235665843174E-006   1.5531048437563626E-005   0.0000000000000000     
  -1.6634207699727188E-006   1.5654447637142451E-005   0.0000000000000000     
  -1.6661635997180269E-006   1.5778045358461223E-005   0.0000000000000000     
  -1.6688519742081174E-006   1.5901837763662779E-005   0.0000000000000000     
  -1.6714858118308678E-006   1.6025821014889984E-005   0.0000000000000000     
  -1.6740650309741561E-006   1.6149991274285702E-005   0.0000000000000000     
  -1.7705393916366794E-006   1.5163004658009303E-005   0.0000000000000000     
  -1.7737112567013033E-006   1.5285767979005378E-005   0.0000000000000000     
  -1.7768252190813257E-006   1.5408741260436084E-005   0.0000000000000000     
  -1.7798811985172645E-006   1.5531920655536583E-005   0.0000000000000000     
  -1.7828791147496366E-006   1.5655302317542052E-005   0.0000000000000000     
  -1.7858188875189582E-006   1.5778882399687634E-005   0.0000000000000000     
  -1.7887004365657462E-006   1.5902657055208518E-005   0.0000000000000000     
  -1.7915236816305177E-006   1.6026622437339865E-005   0.0000000000000000     
  -1.7942885424537891E-006   1.6150774699316835E-005   0.0000000000000000     
  -1.8893041700688512E-006   1.5163993413328866E-005   0.0000000000000000     
  -1.8926881629388519E-006   1.5286738319256341E-005   0.0000000000000000     
  -1.8960105070359795E-006   1.5409693089336192E-005   0.0000000000000000     
  -1.8992711186320558E-006   1.5532853876590721E-005   0.0000000000000000     
  -1.9024699139989053E-006   1.5656216834042231E-005   0.0000000000000000     
  -1.9056068094083515E-006   1.5779778114713032E-005   0.0000000000000000     
  -1.9086817211322165E-006   1.5903533871625422E-005   0.0000000000000000     
  -1.9116945654423239E-006   1.6027480257801698E-005   0.0000000000000000     
  -1.9146452586104985E-006   1.6151613426264186E-005   0.0000000000000000     
  -9.5503104871014283E-007   1.6146442058894838E-005   0.0000000000000000     
  -9.5646877755268730E-007   1.6270880338009293E-005   0.0000000000000000     
  -9.5787443583179385E-007   1.6395499175803243E-005   0.0000000000000000     
  -9.5924783329498562E-007   1.6520294886522259E-005   0.0000000000000000     
  -9.6058877968978553E-007   1.6645263784411917E-005   0.0000000000000000     
  -9.6189708476371610E-007   1.6770402183717760E-005   0.0000000000000000     
  -9.6317255826430110E-007   1.6895706398685372E-005   0.0000000000000000     
  -9.6441500993906218E-007   1.7021172743560309E-005   0.0000000000000000     
  -9.6562424953552334E-007   1.7146797532588139E-005   0.0000000000000000     
  -1.0746391614791239E-006   1.6146897424470397E-005   0.0000000000000000     
  -1.0762574267844812E-006   1.6271324577637076E-005   0.0000000000000000     
  -1.0778397308575474E-006   1.6395932135390076E-005   0.0000000000000000     
  -1.0793858558574727E-006   1.6520716415155235E-005   0.0000000000000000     
  -1.0808955839434082E-006   1.6645673734358390E-005   0.0000000000000000     
  -1.0823686972745042E-006   1.6770800410425371E-005   0.0000000000000000     
  -1.0838049780099113E-006   1.6896092760782022E-005   0.0000000000000000     
  -1.0852042083087797E-006   1.7021547102854179E-005   0.0000000000000000     
  -1.0865661703302605E-006   1.7147159754067671E-005   0.0000000000000000     
  -1.1943279562532369E-006   1.6147407019950251E-005   0.0000000000000000     
  -1.1961270074101631E-006   1.6271821801378298E-005   0.0000000000000000     
  -1.1978862402258938E-006   1.6396416812902773E-005   0.0000000000000000     
  -1.1996054103824666E-006   1.6521188377191026E-005   0.0000000000000000     
  -1.2012842735619213E-006   1.6646132816910400E-005   0.0000000000000000     
  -1.2029225854462958E-006   1.6771246454728247E-005   0.0000000000000000     
  -1.2045201017176288E-006   1.6896525613311920E-005   0.0000000000000000     
  -1.2060765780579596E-006   1.7021966615328769E-005   0.0000000000000000     
  -1.2075917701493269E-006   1.7147565783446142E-005   0.0000000000000000     
  -1.3141061868111389E-006   1.6147971024003056E-005   0.0000000000000000     
  -1.3160862629995793E-006   1.6272372218894866E-005   0.0000000000000000     
  -1.3180226933383985E-006   1.6396953457227576E-005   0.0000000000000000     
  -1.3199152105857196E-006   1.6521711066883021E-005   0.0000000000000000     
  -1.3217635474996645E-006   1.6646641375743019E-005   0.0000000000000000     
  -1.3235674368383544E-006   1.6771740711689371E-005   0.0000000000000000     
  -1.3253266113599106E-006   1.6897005402603909E-005   0.0000000000000000     
  -1.3270408038224574E-006   1.7022431776368461E-005   0.0000000000000000     
  -1.3287097469841145E-006   1.7148016160864824E-005   0.0000000000000000     
  -1.4339826069314884E-006   1.6148589615297469E-005   0.0000000000000000     
  -1.4361439371225758E-006   1.6272976039848678E-005   0.0000000000000000     
  -1.4382578195966304E-006   1.6397542317250741E-005   0.0000000000000000     
  -1.4403239701829868E-006   1.6522284778484633E-005   0.0000000000000000     
  -1.4423421047109793E-006   1.6647199754531294E-005   0.0000000000000000     
  -1.4443119390099443E-006   1.6772283576371703E-005   0.0000000000000000     
  -1.4462331889092152E-006   1.6897532574986822E-005   0.0000000000000000     
  -1.4481055702381285E-006   1.7022943081357600E-005   0.0000000000000000     
  -1.4499287988260182E-006   1.7148511426464999E-005   0.0000000000000000     
  -1.5539659703929418E-006   1.6149262972502129E-005   0.0000000000000000     
  -1.5563087733489992E-006   1.6273633473901649E-005   0.0000000000000000     
  -1.5586003484021537E-006   1.6398183641858516E-005   0.0000000000000000     
  -1.5608404028900192E-006   1.6522909806249248E-005   0.0000000000000000     
  -1.5630286441502063E-006   1.6647808296950316E-005   0.0000000000000000     
  -1.5651647795203288E-006   1.6772875443838232E-005   0.0000000000000000     
  -1.5672485163379988E-006   1.6898107576789473E-005   0.0000000000000000     
  -1.5692795619408285E-006   1.7023501025680552E-005   0.0000000000000000     
  -1.5712576236664303E-006   1.7149052120387943E-005   0.0000000000000000     
  -1.6740650309741561E-006   1.6149991274285702E-005   0.0000000000000000     
  -1.6765895152486945E-006   1.6274344730715677E-005   0.0000000000000000     
  -1.6790590091565361E-006   1.6398877679937155E-005   0.0000000000000000     
  -1.6814732224225703E-006   1.6523586444430263E-005   0.0000000000000000     
  -1.6838318647716867E-006   1.6648467346675147E-005   0.0000000000000000     
  -1.6861346459287725E-006   1.6773516709151916E-005   0.0000000000000000     
  -1.6883812756187183E-006   1.6898730854340711E-005   0.0000000000000000     
  -1.6905714635664129E-006   1.7024106104721673E-005   0.0000000000000000     
  -1.6927049194967436E-006   1.7149638782774910E-005   0.0000000000000000     
  -1.7942885424537891E-006   1.6150774699316835E-005   0.0000000000000000     
  -1.7969949063915089E-006   1.6275110019952681E-005   0.0000000000000000     
  -1.7996425312613439E-006   1.6399624680372893E-005   0.0000000000000000     
  -1.8022311424963945E-006   1.6524314987281083E-005   0.0000000000000000     
  -1.8047604655297606E-006   1.6649177247380841E-005   0.0000000000000000     
  -1.8072302257945394E-006   1.6774207767375738E-005   0.0000000000000000     
  -1.8096401487238317E-006   1.6899402853969366E-005   0.0000000000000000     
  -1.8119899597507368E-006   1.7024758813865331E-005   0.0000000000000000     
  -1.8142793843083523E-006   1.7150271953767194E-005   0.0000000000000000     
  -1.9146452586104985E-006   1.6151613426264186E-005   0.0000000000000000     
  -1.9175336903472872E-006   1.6275929551274545E-005   0.0000000000000000     
  -1.9203596441181433E-006   1.6400424892051995E-005   0.0000000000000000     
  -1.9231228768272444E-006   1.6525095729055107E-005   0.0000000000000000     
  -1.9258231453787688E-006   1.6649938342742472E-005   0.0000000000000000     
  -1.9284602066768934E-006   1.6774949013572664E-005   0.0000000000000000     
  -1.9310338176257968E-006   1.6900124022004273E-005   0.0000000000000000     
  -1.9335437351296563E-006   1.7025459648495881E-005   0.0000000000000000     
  -1.9359897160926499E-006   1.7150952173506064E-005   0.0000000000000000     
  -9.6562424953552334E-007   1.7146797532588139E-005   0.0000000000000000     
  -9.6680006105407978E-007   1.7272577080464540E-005   0.0000000000000000     
  -9.6794212550661793E-007   1.7398507703685647E-005   0.0000000000000000     
  -9.6905009815789520E-007   1.7524585719197685E-005   0.0000000000000000     
  -9.7012363427267198E-007   1.7650807443946908E-005   0.0000000000000000     
  -9.7116238911570487E-007   1.7777169194879565E-005   0.0000000000000000     
  -9.7216601795175381E-007   1.7903667288941880E-005   0.0000000000000000     
  -9.7313417604557687E-007   1.8030298043080099E-005   0.0000000000000000     
  -9.7406651866193275E-007   1.8157057774240469E-005   0.0000000000000000     
  -1.0865661703302605E-006   1.7147159754067671E-005   0.0000000000000000     
  -1.0878906221098454E-006   1.7272927032173810E-005   0.0000000000000000     
  -1.0891772251883888E-006   1.7398845256225783E-005   0.0000000000000000     
  -1.0904256169830869E-006   1.7524910745602252E-005   0.0000000000000000     
  -1.0916354349111360E-006   1.7651119819681877E-005   0.0000000000000000     
  -1.0928063163897311E-006   1.7777468797843311E-005   0.0000000000000000     
  -1.0939378988360697E-006   1.7903953999465228E-005   0.0000000000000000     
  -1.0950298196673459E-006   1.8030571743926273E-005   0.0000000000000000     
  -1.0960817163007566E-006   1.8157318350605117E-005   0.0000000000000000     
  -1.2075917701493269E-006   1.7147565783446142E-005   0.0000000000000000     
  -1.2090654119290401E-006   1.7273319439943652E-005   0.0000000000000000     
  -1.2104971503554984E-006   1.7399223905550060E-005   0.0000000000000000     
  -1.2118866106423689E-006   1.7525275500606390E-005   0.0000000000000000     
  -1.2132334180033218E-006   1.7651470545453649E-005   0.0000000000000000     
  -1.2145371976520258E-006   1.7777805360432880E-005   0.0000000000000000     
  -1.2157975748021497E-006   1.7904276265885091E-005   0.0000000000000000     
  -1.2170141746673628E-006   1.8030879582151324E-005   0.0000000000000000     
  -1.2181866224613344E-006   1.8157611629572577E-005   0.0000000000000000     
  -1.3287097469841145E-006   1.7148016160864824E-005   0.0000000000000000     
  -1.3303331541761502E-006   1.7273754882904713E-005   0.0000000000000000     
  -1.3319106610224088E-006   1.7399644265019315E-005   0.0000000000000000     
  -1.3334418837198819E-006   1.7525680628669716E-005   0.0000000000000000     
  -1.3349264384655599E-006   1.7651860295317021E-005   0.0000000000000000     
  -1.3363639414564324E-006   1.7778179586422283E-005   0.0000000000000000     
  -1.3377540088894900E-006   1.7904634823446577E-005   0.0000000000000000     
  -1.3390962569617240E-006   1.8031222327851022E-005   0.0000000000000000     
  -1.3403903018701239E-006   1.8157938421096665E-005   0.0000000000000000     
  -1.4499287988260182E-006   1.7148511426464999E-005   0.0000000000000000     
  -1.4517025725156597E-006   1.7274233940187600E-005   0.0000000000000000     
  -1.4534265172035845E-006   1.7400106947994365E-005   0.0000000000000000     
  -1.4551002407997675E-006   1.7526126774251891E-005   0.0000000000000000     
  -1.4567233512141798E-006   1.7652289743326746E-005   0.0000000000000000     
  -1.4582954563567958E-006   1.7778592179585521E-005   0.0000000000000000     
  -1.4598161641375859E-006   1.7905030407394805E-005   0.0000000000000000     
  -1.4612850824665254E-006   1.8031600751121169E-005   0.0000000000000000     
  -1.4627018192535855E-006   1.8158299535131204E-005   0.0000000000000000     
  -1.5712576236664303E-006   1.7149052120387943E-005   0.0000000000000000     
  -1.5731823906120528E-006   1.7274757190922946E-005   0.0000000000000000     
  -1.5750534789134882E-006   1.7400612567836034E-005   0.0000000000000000     
  -1.5768704864661654E-006   1.7526614581812506E-005   0.0000000000000000     
  -1.5786330111655128E-006   1.7652759563537602E-005   0.0000000000000000     
  -1.5803406509069595E-006   1.7779043843696635E-005   0.0000000000000000     
  -1.5819930035859327E-006   1.7905463752974857E-005   0.0000000000000000     
  -1.5835896670978618E-006   1.8032015622057555E-005   0.0000000000000000     
  -1.5851302393381762E-006   1.8158695781629999E-005   0.0000000000000000     
  -1.6927049194967436E-006   1.7149638782774910E-005   0.0000000000000000     
  -1.6947813321298151E-006   1.7275325214241374E-005   0.0000000000000000     
  -1.6968003061665824E-006   1.7401161737905161E-005   0.0000000000000000     
  -1.6987614253032163E-006   1.7527144695811183E-005   0.0000000000000000     
  -1.7006642732358883E-006   1.7653270430004367E-005   0.0000000000000000     
  -1.7025084336607676E-006   1.7779535282529619E-005   0.0000000000000000     
  -1.7042934902740249E-006   1.7905935595431839E-005   0.0000000000000000     
  -1.7060190267718306E-006   1.8032467710755958E-005   0.0000000000000000     
  -1.7076846268503541E-006   1.8159127970546872E-005   0.0000000000000000     
  -1.8142793843083523E-006   1.7150271953767194E-005   0.0000000000000000     
  -1.8165081207334315E-006   1.7275938589273509E-005   0.0000000000000000     
  -1.8186757589773310E-006   1.7401755071562551E-005   0.0000000000000000     
  -1.8207818618950626E-006   1.7527717760707576E-005   0.0000000000000000     
  -1.8228259923416380E-006   1.7653823016781813E-005   0.0000000000000000     
  -1.8248077131720659E-006   1.7780067199858494E-005   0.0000000000000000     
  -1.8267265872413580E-006   1.7906446670010865E-005   0.0000000000000000     
  -1.8285821774045260E-006   1.8032957787312175E-005   0.0000000000000000     
  -1.8303740465165787E-006   1.8159596911835623E-005   0.0000000000000000     
  -1.9359897160926499E-006   1.7150952173506064E-005   0.0000000000000000     
  -1.9383714800873861E-006   1.7276597895149974E-005   0.0000000000000000     
  -1.9406885973601969E-006   1.7402393182169050E-005   0.0000000000000000     
  -1.9429406008258440E-006   1.7528334420961293E-005   0.0000000000000000     
  -1.9451270233990903E-006   1.7654417997924702E-005   0.0000000000000000     
  -1.9472473979946971E-006   1.7780640299457284E-005   0.0000000000000000     
  -1.9493012575274279E-006   1.7906997711957045E-005   0.0000000000000000     
  -1.9512881349120442E-006   1.8033486621821978E-005   0.0000000000000000     
  -1.9532075630633087E-006   1.8160103415450102E-005   0.0000000000000000     
  -9.7406651866193275E-007   1.8157057774240469E-005   0.0000000000000000     
  -9.7496271902561486E-007   1.8283942744372474E-005   0.0000000000000000     
  -9.7582252220155636E-007   1.8410948995438593E-005   0.0000000000000000     
  -9.7664569121472469E-007   1.8538072514404526E-005   0.0000000000000000     
  -9.7743198909008900E-007   1.8665309288236019E-005   0.0000000000000000     
  -9.7818117885261630E-007   1.8792655303898776E-005   0.0000000000000000     
  -9.7889302352727532E-007   1.8920106548358524E-005   0.0000000000000000     
  -9.7956728613903265E-007   1.9047659008580971E-005   0.0000000000000000     
  -9.8020372971285724E-007   1.9175308671531852E-005   0.0000000000000000     
  -1.0960817163007566E-006   1.8157318350605117E-005   0.0000000000000000     
  -1.0970932360350177E-006   1.8284190103020294E-005   0.0000000000000000     
  -1.0980640656949248E-006   1.8411183141249901E-005   0.0000000000000000     
  -1.0989939019867927E-006   1.8538293569511905E-005   0.0000000000000000     
  -1.0998824416169377E-006   1.8665517492024274E-005   0.0000000000000000     
  -1.1007293812916752E-006   1.8792851013004992E-005   0.0000000000000000     
  -1.1015344177173206E-006   1.8920290236672029E-005   0.0000000000000000     
  -1.1022972476001896E-006   1.9047831267243342E-005   0.0000000000000000     
  -1.1030175676465969E-006   1.9175470208936920E-005   0.0000000000000000     
  -1.2181866224613344E-006   1.8157611629572577E-005   0.0000000000000000     
  -1.2193145434038660E-006   1.8284468712581226E-005   0.0000000000000000     
  -1.2203975627392951E-006   1.8411447071974978E-005   0.0000000000000000     
  -1.2214353057180907E-006   1.8538542932642879E-005   0.0000000000000000     
  -1.2224273975907222E-006   1.8665752519473965E-005   0.0000000000000000     
  -1.2233734636076599E-006   1.8793072057357295E-005   0.0000000000000000     
  -1.2242731290193728E-006   1.8920497771181900E-005   0.0000000000000000     
  -1.2251260190763310E-006   1.9048025885836837E-005   0.0000000000000000     
  -1.2259317590290040E-006   1.9175652626211138E-005   0.0000000000000000     
  -1.3403903018701239E-006   1.8157938421096665E-005   0.0000000000000000     
  -1.3416357496900322E-006   1.8284779428673404E-005   0.0000000000000000     
  -1.3428321660101920E-006   1.8411741692186316E-005   0.0000000000000000     
  -1.3439791062976982E-006   1.8538821557269292E-005   0.0000000000000000     
  -1.3450761260196476E-006   1.8666015369556224E-005   0.0000000000000000     
  -1.3461227806431337E-006   1.8793319474680988E-005   0.0000000000000000     
  -1.3471186256352515E-006   1.8920730218277462E-005   0.0000000000000000     
  -1.3480632164630969E-006   1.9048243945979554E-005   0.0000000000000000     
  -1.3489561085937641E-006   1.9175857003421125E-005   0.0000000000000000     
  -1.4627018192535855E-006   1.8158299535131204E-005   0.0000000000000000     
  -1.4640659634513866E-006   1.8285123106914964E-005   0.0000000000000000     
  -1.4653770281831381E-006   1.8412067906456414E-005   0.0000000000000000     
  -1.4666345076146965E-006   1.8539130396863005E-005   0.0000000000000000     
  -1.4678378959119179E-006   1.8666307041242180E-005   0.0000000000000000     
  -1.4689866872406587E-006   1.8793594302701372E-005   0.0000000000000000     
  -1.4700803757667759E-006   1.8920988644348020E-005   0.0000000000000000     
  -1.4711184556561258E-006   1.9048486529289592E-005   0.0000000000000000     
  -1.4721004210745639E-006   1.9176084420633499E-005   0.0000000000000000     
  -1.5851302393381762E-006   1.8158695781629999E-005   0.0000000000000000     
  -1.5866142932458010E-006   1.8285500602924038E-005   0.0000000000000000     
  -1.5880413019336576E-006   1.8412426619357770E-005   0.0000000000000000     
  -1.5894107135581644E-006   1.8539470404895856E-005   0.0000000000000000     
  -1.5907219762757388E-006   1.8666628533502958E-005   0.0000000000000000     
  -1.5919745382428002E-006   1.8793897579143746E-005   0.0000000000000000     
  -1.5931678476157663E-006   1.8921274115782885E-005   0.0000000000000000     
  -1.5943013525510569E-006   1.9048754717385035E-005   0.0000000000000000     
  -1.5953745012050886E-006   1.9176335957914866E-005   0.0000000000000000     
  -1.7076846268503541E-006   1.8159127970546872E-005   0.0000000000000000     
  -1.7092898476311469E-006   1.8285912772318763E-005   0.0000000000000000     
  -1.7108341399372734E-006   1.8412818735462862E-005   0.0000000000000000     
  -1.7123169280171800E-006   1.8539842534839676E-005   0.0000000000000000     
  -1.7137376361193134E-006   1.8666980845309697E-005   0.0000000000000000     
  -1.7150956884921191E-006   1.8794230341733433E-005   0.0000000000000000     
  -1.7163905093840422E-006   1.8921587698971364E-005   0.0000000000000000     
  -1.7176215230435294E-006   1.9049049591884002E-005   0.0000000000000000     
  -1.7187881537190247E-006   1.9176612695331845E-005   0.0000000000000000     
  -1.8303740465165787E-006   1.8159596911835623E-005   0.0000000000000000     
  -1.8321017351652943E-006   1.8286360470717275E-005   0.0000000000000000     
  -1.8337646948695089E-006   1.8413245159344209E-005   0.0000000000000000     
  -1.8353623548808258E-006   1.8540247740166322E-005   0.0000000000000000     
  -1.8368941444508493E-006   1.8667364975633540E-005   0.0000000000000000     
  -1.8383594928311808E-006   1.8794593628195713E-005   0.0000000000000000     
  -1.8397578292734241E-006   1.8921930460302760E-005   0.0000000000000000     
  -1.8410885830291833E-006   1.9049372234404592E-005   0.0000000000000000     
  -1.8423511833500588E-006   1.9176915712951057E-005   0.0000000000000000     
  -1.9532075630633087E-006   1.8160103415450102E-005   0.0000000000000000     
  -1.9550590644061153E-006   1.8286844553737696E-005   0.0000000000000000     
  -1.9568421194058877E-006   1.8413706795574286E-005   0.0000000000000000     
  -1.9585561980381795E-006   1.8540686974347649E-005   0.0000000000000000     
  -1.9602007702785480E-006   1.8667781923445598E-005   0.0000000000000000     
  -1.9617753061025469E-006   1.8794988476255916E-005   0.0000000000000000     
  -1.9632792754857317E-006   1.8922303466166410E-005   0.0000000000000000     
  -1.9647121484036561E-006   1.9049723726564877E-005   0.0000000000000000     
  -1.9660733948318769E-006   1.9177246090839123E-005   0.0000000000000000     
  -9.8020372971285724E-007   1.9175308671531852E-005   0.0000000000000000     
  -9.8080227508478619E-007   1.9303051186905749E-005   0.0000000000000000     
  -9.8136347433513441E-007   1.9430880855312738E-005   0.0000000000000000     
  -9.8188803735528436E-007   1.9558791640091772E-005   0.0000000000000000     
  -9.8237667403662040E-007   1.9686777504581812E-005   0.0000000000000000     
  -9.8283009427052606E-007   1.9814832412121810E-005   0.0000000000000000     
  -9.8324900794838527E-007   1.9942950326050708E-005   0.0000000000000000     
  -9.8363412496158114E-007   2.0071125209707468E-005   0.0000000000000000     
  -9.8398615520149780E-007   2.0199351026431031E-005   0.0000000000000000     
  -1.1030175676465969E-006   1.9175470208936920E-005   0.0000000000000000     
  -1.1036952498767777E-006   1.9303202867807556E-005   0.0000000000000000     
  -1.1043308675666392E-006   1.9431023857257364E-005   0.0000000000000000     
  -1.1049251693060088E-006   1.9558927492525289E-005   0.0000000000000000     
  -1.1054789036847129E-006   1.9686908088850268E-005   0.0000000000000000     
  -1.1059928192925781E-006   1.9814959961471249E-005   0.0000000000000000     
  -1.1064676647194314E-006   1.9943077425627171E-005   0.0000000000000000     
  -1.1069041885550987E-006   2.0071254796556973E-005   0.0000000000000000     
  -1.1073031393894078E-006   2.0199486389499610E-005   0.0000000000000000     
  -1.2259317590290040E-006   1.9175652626211138E-005   0.0000000000000000     
  -1.2266901637965992E-006   1.9303373967293372E-005   0.0000000000000000     
  -1.2274018069732742E-006   1.9431184884470151E-005   0.0000000000000000     
  -1.2280674518219241E-006   1.9559080103227623E-005   0.0000000000000000     
  -1.2286878616054440E-006   1.9687054349051911E-005   0.0000000000000000     
  -1.2292637995867299E-006   1.9815102347429159E-005   0.0000000000000000     
  -1.2297960290286769E-006   1.9943218823845493E-005   0.0000000000000000     
  -1.2302853131941801E-006   2.0071398503787059E-005   0.0000000000000000     
  -1.2307324153461346E-006   2.0199636112739978E-005   0.0000000000000000     
  -1.3489561085937641E-006   1.9175857003421125E-005   0.0000000000000000     
  -1.3497970557881332E-006   1.9303565542342975E-005   0.0000000000000000     
  -1.3505866049822181E-006   1.9431364938913494E-005   0.0000000000000000     
  -1.3513255014058172E-006   1.9559250375407957E-005   0.0000000000000000     
  -1.3520144902887309E-006   1.9687217034101662E-005   0.0000000000000000     
  -1.3526543168607556E-006   1.9815260097269886E-005   0.0000000000000000     
  -1.3532457263516903E-006   1.9943374747187921E-005   0.0000000000000000     
  -1.3537894639913355E-006   2.0071556166131054E-005   0.0000000000000000     
  -1.3542862750094880E-006   2.0199799536374578E-005   0.0000000000000000     
  -1.4721004210745639E-006   1.9176084420633499E-005   0.0000000000000000     
  -1.4730259647952626E-006   1.9303778649936156E-005   0.0000000000000000     
  -1.4738955740206524E-006   1.9431565022549755E-005   0.0000000000000000     
  -1.4747099345604797E-006   1.9559439212275457E-005   0.0000000000000000     
  -1.4754697322244900E-006   1.9687396892914408E-005   0.0000000000000000     
  -1.4761756528224289E-006   1.9815433738267768E-005   0.0000000000000000     
  -1.4768283821640428E-006   1.9943545422136690E-005   0.0000000000000000     
  -1.4774286060590780E-006   2.0071727618322325E-005   0.0000000000000000     
  -1.4779770103172800E-006   2.0199976000625833E-005   0.0000000000000000     
  -1.5953745012050886E-006   1.9176335957914866E-005   0.0000000000000000     
  -1.5963869297618695E-006   1.9304014347052677E-005   0.0000000000000000     
  -1.5973390265157567E-006   1.9431786137341315E-005   0.0000000000000000     
  -1.5982313677886978E-006   1.9559647517039275E-005   0.0000000000000000     
  -1.5990645299026377E-006   1.9687594674405059E-005   0.0000000000000000     
  -1.5998390891795237E-006   1.9815623797697147E-005   0.0000000000000000     
  -1.6005556219413018E-006   1.9943731075174033E-005   0.0000000000000000     
  -1.6012147045099187E-006   2.0071912695094216E-005   0.0000000000000000     
  -1.6018169132073199E-006   2.0200164845716168E-005   0.0000000000000000     
  -1.7187881537190247E-006   1.9176612695331845E-005   0.0000000000000000     
  -1.7198899896318366E-006   1.9304273690672322E-005   0.0000000000000000     
  -1.7209272748947124E-006   1.9432029285250548E-005   0.0000000000000000     
  -1.7219004175932605E-006   1.9559876192908589E-005   0.0000000000000000     
  -1.7228098258130921E-006   1.9687811127488516E-005   0.0000000000000000     
  -1.7236559076398139E-006   1.9815830802832359E-005   0.0000000000000000     
  -1.7244390711590365E-006   1.9943931932782187E-005   0.0000000000000000     
  -1.7251597244563687E-006   2.0072111231180066E-005   0.0000000000000000     
  -1.7258182756174188E-006   2.0200365411868024E-005   0.0000000000000000     
  -1.8423511833500588E-006   1.9176915712951057E-005   0.0000000000000000     
  -1.8435451833490474E-006   1.9304557737774876E-005   0.0000000000000000     
  -1.8446706315846990E-006   1.9432295468239844E-005   0.0000000000000000     
  -1.8457277004769582E-006   1.9560126143092573E-005   0.0000000000000000     
  -1.8467165624457695E-006   1.9688047001079683E-005   0.0000000000000000     
  -1.8476373899110740E-006   1.9816055280947739E-005   0.0000000000000000     
  -1.8484903552928163E-006   1.9944148221443383E-005   0.0000000000000000     
  -1.8492756310109407E-006   2.0072323061313222E-005   0.0000000000000000     
  -1.8499933894853879E-006   2.0200577039303831E-005   0.0000000000000000     
  -1.9660733948318769E-006   1.9177246090839123E-005   0.0000000000000000     
  -1.9673625498573824E-006   1.9304867545340115E-005   0.0000000000000000     
  -1.9685794090128968E-006   1.9432585688271566E-005   0.0000000000000000     
  -1.9697238329425787E-006   1.9560398270800382E-005   0.0000000000000000     
  -1.9707956822905866E-006   1.9688303044093439E-005   0.0000000000000000     
  -1.9717948177010778E-006   1.9816297759317644E-005   0.0000000000000000     
  -1.9727210998182111E-006   1.9944380167639882E-005   0.0000000000000000     
  -1.9735743892861453E-006   2.0072548020227041E-005   0.0000000000000000     
  -1.9743545467490378E-006   2.0200799068246029E-005   0.0000000000000000     
  -9.8398615520149780E-007   2.0199351026431031E-005   0.0000000000000000     
  -9.8430619517565152E-007   2.0327620817599501E-005   0.0000000000000000     
  -9.8459688785609355E-007   2.0455923936747575E-005   0.0000000000000000     
  -9.8486126283100726E-007   2.0584248815449087E-005   0.0000000000000000     
  -9.8510234968857600E-007   2.0712583885277897E-005   0.0000000000000000     
  -9.8532317801698314E-007   2.0840917577807830E-005   0.0000000000000000     
  -9.8552677740441394E-007   2.0969238324612736E-005   0.0000000000000000     
  -9.8571617743905092E-007   2.1097534557266471E-005   0.0000000000000000     
  -9.8589440770907806E-007   2.1225794707342848E-005   0.0000000000000000     
  -1.1073031393894078E-006   2.0199486389499610E-005   0.0000000000000000     
  -1.1076657181387058E-006   2.0327765594058673E-005   0.0000000000000000     
  -1.1079949350254249E-006   2.0456082097296448E-005   0.0000000000000000     
  -1.1082942525985185E-006   2.0584424660639866E-005   0.0000000000000000     
  -1.1085671334069396E-006   2.0712782045515871E-005   0.0000000000000000     
  -1.1088170399996418E-006   2.0841143013351391E-005   0.0000000000000000     
  -1.1090474349255781E-006   2.0969496325573372E-005   0.0000000000000000     
  -1.1092617807337018E-006   2.1097830743608756E-005   0.0000000000000000     
  -1.1094635399729661E-006   2.1226135028884476E-005   0.0000000000000000     
  -1.2307324153461346E-006   2.0199636112739978E-005   0.0000000000000000     
  -1.2311386216207087E-006   2.0327925436621921E-005   0.0000000000000000     
  -1.2315073096471598E-006   2.0456256503076607E-005   0.0000000000000000     
  -1.2318423799280181E-006   2.0584618400179305E-005   0.0000000000000000     
  -1.2321477329658145E-006   2.0713000216005267E-005   0.0000000000000000     
  -1.2324272692630791E-006   2.0841391038629736E-005   0.0000000000000000     
  -1.2326848893223424E-006   2.0969779956127985E-005   0.0000000000000000     
  -1.2329244936461336E-006   2.1098156056575255E-005   0.0000000000000000     
  -1.2331499827369851E-006   2.1226508428046805E-005   0.0000000000000000     
  -1.3542862750094880E-006   2.0199799536374578E-005   0.0000000000000000     
  -1.3547375022029284E-006   2.0328099087541607E-005   0.0000000000000000     
  -1.3551468786363606E-006   2.0456445238646646E-005   0.0000000000000000     
  -1.3555187349414693E-006   2.0584827456052009E-005   0.0000000000000000     
  -1.3558574017499407E-006   2.0713235206120043E-005   0.0000000000000000     
  -1.3561672096934593E-006   2.0841657955213071E-005   0.0000000000000000     
  -1.3564524894037109E-006   2.0970085169693425E-005   0.0000000000000000     
  -1.3567175715123812E-006   2.1098506315923450E-005   0.0000000000000000     
  -1.3569667866511541E-006   2.1226910860265458E-005   0.0000000000000000     
  -1.4779770103172800E-006   2.0199976000625833E-005   0.0000000000000000     
  -1.4784749564666350E-006   2.0328285289070114E-005   0.0000000000000000     
  -1.4789265089080908E-006   2.0456646388565122E-005   0.0000000000000000     
  -1.4793364077608363E-006   2.0585049250242570E-005   0.0000000000000000     
  -1.4797093931440594E-006   2.0713483825234156E-005   0.0000000000000000     
  -1.4800502051769481E-006   2.0841940064671589E-005   0.0000000000000000     
  -1.4803635839786906E-006   2.0970407919686569E-005   0.0000000000000000     
  -1.4806542696684764E-006   2.1098877341410815E-005   0.0000000000000000     
  -1.4809270023654926E-006   2.1227338280976021E-005   0.0000000000000000     
  -1.6018169132073199E-006   2.0200164845716168E-005   0.0000000000000000     
  -1.6023635809930967E-006   2.0328482783459805E-005   0.0000000000000000     
  -1.6028590673774142E-006   2.0456858037390629E-005   0.0000000000000000     
  -1.6033084885080820E-006   2.0585281204735574E-005   0.0000000000000000     
  -1.6037169605329105E-006   2.0713742882721545E-005   0.0000000000000000     
  -1.6040895995997087E-006   2.0842233668575467E-005   0.0000000000000000     
  -1.6044315218562861E-006   2.0970744159524252E-005   0.0000000000000000     
  -1.6047478434504537E-006   2.1099264952794838E-005   0.0000000000000000     
  -1.6050436805300196E-006   2.1227786645614115E-005   0.0000000000000000     
  -1.7258182756174188E-006   2.0200365411868024E-005   0.0000000000000000     
  -1.7264159723635819E-006   2.0328690312963055E-005   0.0000000000000000     
  -1.7269574209593930E-006   2.0457078269681756E-005   0.0000000000000000     
  -1.7274480673051696E-006   2.0585520741515616E-005   0.0000000000000000     
  -1.7278933573012341E-006   2.0714009187956164E-005   0.0000000000000000     
  -1.7282987368479059E-006   2.0842535068494907E-005   0.0000000000000000     
  -1.7286696518455021E-006   2.0971089842623327E-005   0.0000000000000000     
  -1.7290115481943456E-006   2.1099664969832977E-005   0.0000000000000000     
  -1.7293298717947549E-006   2.1228251909615337E-005   0.0000000000000000     
  -1.8499933894853879E-006   2.0200577039303831E-005   0.0000000000000000     
  -1.8506447271593613E-006   2.0328906619832247E-005   0.0000000000000000     
  -1.8512344365690907E-006   2.0457305169997065E-005   0.0000000000000000     
  -1.8517682342740647E-006   2.0585765282567297E-005   0.0000000000000000     
  -1.8522518368337731E-006   2.0714279550311975E-005   0.0000000000000000     
  -1.8526909608077036E-006   2.0842840566000093E-005   0.0000000000000000     
  -1.8530913227553450E-006   2.0971440922400672E-005   0.0000000000000000     
  -1.8534586392361874E-006   2.1100073212282748E-005   0.0000000000000000     
  -1.8537986268097172E-006   2.1228730028415297E-005   0.0000000000000000     
  -1.9743545467490378E-006   2.0200799068246029E-005   0.0000000000000000     
  -1.9750624419617021E-006   2.0329130446319743E-005   0.0000000000000000     
  -1.9757029811215701E-006   2.0457536822895145E-005   0.0000000000000000     
  -1.9762820795367287E-006   2.0586012249875209E-005   0.0000000000000000     
  -1.9768056525152654E-006   2.0714550779162911E-005   0.0000000000000000     
  -1.9772796153652664E-006   2.0843146462661223E-005   0.0000000000000000     
  -1.9777098833948195E-006   2.0971793352273131E-005   0.0000000000000000     
  -1.9781023719120101E-006   2.1100485499901601E-005   0.0000000000000000     
  -1.9784629962249264E-006   2.1229216957449608E-005   0.0000000000000000     
  -9.8589440770907806E-007   2.1225794707342848E-005   0.0000000000000000     
  -9.8606489597118786E-007   2.1354005010801157E-005   0.0000000000000000     
  -9.8623266265610926E-007   2.1482142921142381E-005   0.0000000000000000     
  -9.8640312636307888E-007   2.1610183696252923E-005   0.0000000000000000     
  -9.8658170569133519E-007   2.1738102594019208E-005   0.0000000000000000     
  -9.8677381924011438E-007   2.1865874872327637E-005   0.0000000000000000     
  -9.8698488560865516E-007   2.1993475789064635E-005   0.0000000000000000     
  -9.8722032339619328E-007   2.2120880602116588E-005   0.0000000000000000     
  -9.8748555120196830E-007   2.2248064569369953E-005   0.0000000000000000     
  -1.1094635399729661E-006   2.1226135028884476E-005   0.0000000000000000     
  -1.1096565523549620E-006   2.1354395788499274E-005   0.0000000000000000     
  -1.1098461662418301E-006   2.1482591012239123E-005   0.0000000000000000     
  -1.1100381071583503E-006   2.1610696535561814E-005   0.0000000000000000     
  -1.1102381006293007E-006   2.1738688193925113E-005   0.0000000000000000     
  -1.1104518721794601E-006   2.1866541822786806E-005   0.0000000000000000     
  -1.1106851473336076E-006   2.1994233257604658E-005   0.0000000000000000     
  -1.1109436516165219E-006   2.2121738333836467E-005   0.0000000000000000     
  -1.1112331105529819E-006   2.2249032886939991E-005   0.0000000000000000     
  -1.2331499827369851E-006   2.1226508428046805E-005   0.0000000000000000     
  -1.2333656045376477E-006   2.1354824097085280E-005   0.0000000000000000     
  -1.2335769967517586E-006   2.1483081844102839E-005   0.0000000000000000     
  -1.2337901445231803E-006   2.1611258387979036E-005   0.0000000000000000     
  -1.2340110329957710E-006   2.1739330447593438E-005   0.0000000000000000     
  -1.2342456473133915E-006   2.1867274741825575E-005   0.0000000000000000     
  -1.2344999726199022E-006   2.1995067989555028E-005   0.0000000000000000     
  -1.2347799940591624E-006   2.2122686909661326E-005   0.0000000000000000     
  -1.2350916967750322E-006   2.2250108221024029E-005   0.0000000000000000     
  -1.3569667866511541E-006   2.1226910860265458E-005   0.0000000000000000     
  -1.3572047888444913E-006   2.1355286314042165E-005   0.0000000000000000     
  -1.3574375256879555E-006   2.1483612368417829E-005   0.0000000000000000     
  -1.3576712681698851E-006   2.1611866759517075E-005   0.0000000000000000     
  -1.3579122872786189E-006   2.1740027223464543E-005   0.0000000000000000     
  -1.3581668540024964E-006   2.1868071496384850E-005   0.0000000000000000     
  -1.3584412393298537E-006   2.1995977314402636E-005   0.0000000000000000     
  -1.3587417142490316E-006   2.2123722413642536E-005   0.0000000000000000     
  -1.3590745497483682E-006   2.2251284530229182E-005   0.0000000000000000     
  -1.4809270023654926E-006   2.1227338280976021E-005   0.0000000000000000     
  -1.4811868416007417E-006   2.1355778816852943E-005   0.0000000000000000     
  -1.4814401245524810E-006   2.1484179536868431E-005   0.0000000000000000     
  -1.4816935078107829E-006   2.1612519156188419E-005   0.0000000000000000     
  -1.4819536479657197E-006   2.1740776389978802E-005   0.0000000000000000     
  -1.4822272016073612E-006   2.1868929953405499E-005   0.0000000000000000     
  -1.4825208253257808E-006   2.1996958561634413E-005   0.0000000000000000     
  -1.4828411757110494E-006   2.2124840929831466E-005   0.0000000000000000     
  -1.4831949093532389E-006   2.2252555773162555E-005   0.0000000000000000     
  -1.6050436805300196E-006   2.1227786645614115E-005   0.0000000000000000     
  -1.6053244991316460E-006   2.1356297983000590E-005   0.0000000000000000     
  -1.6055971648473974E-006   2.1484780301138966E-005   0.0000000000000000     
  -1.6058688931581915E-006   2.1613213084005543E-005   0.0000000000000000     
  -1.6061468995449456E-006   2.1741575815576594E-005   0.0000000000000000     
  -1.6064383994885754E-006   2.1869847979828402E-005   0.0000000000000000     
  -1.6067506084699989E-006   2.1998009060737263E-005   0.0000000000000000     
  -1.6070907419701325E-006   2.2126038542279453E-005   0.0000000000000000     
  -1.6074660154698934E-006   2.2253915908431264E-005   0.0000000000000000     
  -1.7293298717947549E-006   2.1228251909615337E-005   0.0000000000000000     
  -1.7296304977624513E-006   2.1356840189968106E-005   0.0000000000000000     
  -1.7299210180747650E-006   2.1485411612913762E-005   0.0000000000000000     
  -1.7302094539244277E-006   2.1613946048980929E-005   0.0000000000000000     
  -1.7305038265041706E-006   2.1742423368698280E-005   0.0000000000000000     
  -1.7308121570067256E-006   2.1870823442594451E-005   0.0000000000000000     
  -1.7311424666248248E-006   2.1999126141198101E-005   0.0000000000000000     
  -1.7315027765511988E-006   2.2127311335037869E-005   0.0000000000000000     
  -1.7319011079785812E-006   2.2255358894642425E-005   0.0000000000000000     
  -1.8537986268097172E-006   2.1228730028415297E-005   0.0000000000000000     
  -1.8541175738184058E-006   2.1357401815238515E-005   0.0000000000000000     
  -1.8544240557366445E-006   2.1486070423877136E-005   0.0000000000000000     
  -1.8547272198218076E-006   2.1614715557127064E-005   0.0000000000000000     
  -1.8550362133312689E-006   2.1743316917784240E-005   0.0000000000000000     
  -1.8553601835223997E-006   2.1871854208644514E-005   0.0000000000000000     
  -1.8557082776525757E-006   2.2000307132503826E-005   0.0000000000000000     
  -1.8560896429791682E-006   2.2128655392158078E-005   0.0000000000000000     
  -1.8565134267595507E-006   2.2256878690403152E-005   0.0000000000000000     
  -1.9784629962249264E-006   2.1229216957449608E-005   0.0000000000000000     
  -1.9787984636247567E-006   2.1357979236294783E-005   0.0000000000000000     
  -1.9791186493350981E-006   2.1486753685713419E-005   0.0000000000000000     
  -1.9794342205626506E-006   2.1615519114456457E-005   0.0000000000000000     
  -1.9797558445141134E-006   2.1744254331274832E-005   0.0000000000000000     
  -1.9800941883961861E-006   2.1872938144919490E-005   0.0000000000000000     
  -1.9804599194155666E-006   2.2001549364141368E-005   0.0000000000000000     
  -1.9808637047789556E-006   2.2130066797691405E-005   0.0000000000000000     
  -1.9813162116930526E-006   2.2258469254320571E-005   0.0000000000000000     
  -1.8600208764266815E-006   1.4190042554915681E-005   0.0000000000000000     
  -1.8638957193640314E-006   1.4310972815154843E-005   0.0000000000000000     
  -1.8677094158264283E-006   1.4432143029766970E-005   0.0000000000000000     
  -1.8714619060181956E-006   1.4553549449717367E-005   0.0000000000000000     
  -1.8751531301436539E-006   1.4675188325971328E-005   0.0000000000000000     
  -1.8787830284071266E-006   1.4797055909494161E-005   0.0000000000000000     
  -1.8823515410129355E-006   1.4919148451251157E-005   0.0000000000000000     
  -1.8858586081654027E-006   1.5041462202207626E-005   0.0000000000000000     
  -1.8893041700688512E-006   1.5163993413328866E-005   0.0000000000000000     
  -1.9770933419600593E-006   1.4191249940129786E-005   0.0000000000000000     
  -1.9812106251816882E-006   1.4312160885866379E-005   0.0000000000000000     
  -1.9852629165979426E-006   1.4433311858863478E-005   0.0000000000000000     
  -1.9892501760165263E-006   1.4554699081192062E-005   0.0000000000000000     
  -1.9931723632451432E-006   1.4676318774923121E-005   0.0000000000000000     
  -1.9970294380914960E-006   1.4798167162127622E-005   0.0000000000000000     
  -2.0008213603632881E-006   1.4920240464876539E-005   0.0000000000000000     
  -2.0045480898682235E-006   1.5042534905240860E-005   0.0000000000000000     
  -2.0082095864140051E-006   1.5165046705291550E-005   0.0000000000000000     
  -2.0943150191161371E-006   1.4192530785091871E-005   0.0000000000000000     
  -2.0986747633075987E-006   1.4313421203805748E-005   0.0000000000000000     
  -2.1029656580865631E-006   1.4434551769935802E-005   0.0000000000000000     
  -2.1071876882177812E-006   1.4555918666810816E-005   0.0000000000000000     
  -2.1113408384660076E-006   1.4677518077759577E-005   0.0000000000000000     
  -2.1154250935959948E-006   1.4799346186110874E-005   0.0000000000000000     
  -2.1194404383724975E-006   1.4921399175193489E-005   0.0000000000000000     
  -2.1233868575602661E-006   1.5043673228336217E-005   0.0000000000000000     
  -2.1272643359240569E-006   1.5166164528867837E-005   0.0000000000000000     
  -2.2116946337216414E-006   1.4193885047411140E-005   0.0000000000000000     
  -2.2162968469852252E-006   1.4314753769659473E-005   0.0000000000000000     
  -2.2208263489893669E-006   1.4435862784039864E-005   0.0000000000000000     
  -2.2252831519302976E-006   1.4557208230727342E-005   0.0000000000000000     
  -2.2296672680042511E-006   1.4678786249896936E-005   0.0000000000000000     
  -2.2339787094074634E-006   1.4800592981723681E-005   0.0000000000000000     
  -2.2382174883361640E-006   1.4922624566382611E-005   0.0000000000000000     
  -2.2423836169865894E-006   1.5044877144048760E-005   0.0000000000000000     
  -2.2464771075549718E-006   1.5167346854897156E-005   0.0000000000000000     
  -2.3292409116032975E-006   1.4195312684696781E-005   0.0000000000000000     
  -2.3340855894580300E-006   1.4316158584114053E-005   0.0000000000000000     
  -2.3388536980034336E-006   1.4437244922231577E-005   0.0000000000000000     
  -2.3435452764624152E-006   1.4558567797095367E-005   0.0000000000000000     
  -2.3481603640578824E-006   1.4680123306751445E-005   0.0000000000000000     
  -2.3526990000127387E-006   1.4801907549245822E-005   0.0000000000000000     
  -2.3571612235498909E-006   1.4923916622624511E-005   0.0000000000000000     
  -2.3615470738922481E-006   1.5046146624933540E-005   0.0000000000000000     
  -2.3658565902627140E-006   1.5168593654218916E-005   0.0000000000000000     
  -2.4469625785878324E-006   1.4196813654558003E-005   0.0000000000000000     
  -2.4520497039694741E-006   1.4317635647855993E-005   0.0000000000000000     
  -2.4570564138258443E-006   1.4438698205566855E-005   0.0000000000000000     
  -2.4619827711224756E-006   1.4559997390068626E-005   0.0000000000000000     
  -2.4668288388249026E-006   1.4681529263739349E-005   0.0000000000000000     
  -2.4715946798986597E-006   1.4803289888957061E-005   0.0000000000000000     
  -2.4762803573092802E-006   1.4925275328099802E-005   0.0000000000000000     
  -2.4808859340222993E-006   1.5047481643545612E-005   0.0000000000000000     
  -2.4854114730032471E-006   1.5169904897672534E-005   0.0000000000000000     
  -2.5648683605019723E-006   1.4198387914604002E-005   0.0000000000000000     
  -2.5701979037630201E-006   1.4319184961571807E-005   0.0000000000000000     
  -2.5754432051536745E-006   1.4440222655101612E-005   0.0000000000000000     
  -2.5806043452188156E-006   1.4561497033800844E-005   0.0000000000000000     
  -2.5856814045033192E-006   1.4683004136276896E-005   0.0000000000000000     
  -2.5906744635520663E-006   1.4804740001137176E-005   0.0000000000000000     
  -2.5955836029099330E-006   1.4926700666989088E-005   0.0000000000000000     
  -2.6004089031217973E-006   1.5048882172440040E-005   0.0000000000000000     
  -2.6051504447325377E-006   1.5171280556097428E-005   0.0000000000000000     
  -2.6829669831724421E-006   1.4200035422443974E-005   0.0000000000000000     
  -2.6885389020821288E-006   1.4320806525947982E-005   0.0000000000000000     
  -2.6940227806840054E-006   1.4441818291891771E-005   0.0000000000000000     
  -2.6994187080597752E-006   1.4563066752445742E-005   0.0000000000000000     
  -2.7047267732911394E-006   1.4684547939780334E-005   0.0000000000000000     
  -2.7099470654597975E-006   1.4806257886065933E-005   0.0000000000000000     
  -2.7150796736474503E-006   1.4928192623472975E-005   0.0000000000000000     
  -2.7201246869358020E-006   1.5050348184171873E-005   0.0000000000000000     
  -2.7250821944065491E-006   1.5172720600333023E-005   0.0000000000000000     
  -2.8012671724259704E-006   1.4201756135687122E-005   0.0000000000000000     
  -2.8070814121702618E-006   1.4322500341671045E-005   0.0000000000000000     
  -2.8128038491139156E-006   1.4443485136993238E-005   0.0000000000000000     
  -2.8184345689536956E-006   1.4564706570157067E-005   0.0000000000000000     
  -2.8239736573863648E-006   1.4686160689665893E-005   0.0000000000000000     
  -2.8294212001086911E-006   1.4807843544023112E-005   0.0000000000000000     
  -2.8347772828174358E-006   1.4929751181732074E-005   0.0000000000000000     
  -2.8400419912093661E-006   1.5051879651296157E-005   0.0000000000000000     
  -2.8452154109812475E-006   1.5174225001218738E-005   0.0000000000000000     
  -1.8893041700688512E-006   1.5163993413328866E-005   0.0000000000000000     
  -1.8926881629388519E-006   1.5286738319256341E-005   0.0000000000000000     
  -1.8960105070359795E-006   1.5409693089336192E-005   0.0000000000000000     
  -1.8992711186320558E-006   1.5532853876590721E-005   0.0000000000000000     
  -1.9024699139989053E-006   1.5656216834042231E-005   0.0000000000000000     
  -1.9056068094083515E-006   1.5779778114713032E-005   0.0000000000000000     
  -1.9086817211322165E-006   1.5903533871625422E-005   0.0000000000000000     
  -1.9116945654423239E-006   1.6027480257801698E-005   0.0000000000000000     
  -1.9146452586104985E-006   1.6151613426264186E-005   0.0000000000000000     
  -2.0082095864140051E-006   1.5165046705291550E-005   0.0000000000000000     
  -2.0118058010620216E-006   1.5287772077193212E-005   0.0000000000000000     
  -2.0153366498884044E-006   1.5410707193484897E-005   0.0000000000000000     
  -2.0188020402229694E-006   1.5533848216799287E-005   0.0000000000000000     
  -2.0222018793955335E-006   1.5657191309769061E-005   0.0000000000000000     
  -2.0255360747359125E-006   1.5780732635026893E-005   0.0000000000000000     
  -2.0288045335739226E-006   1.5904468355205458E-005   0.0000000000000000     
  -2.0320071632393804E-006   1.6028394632937436E-005   0.0000000000000000     
  -2.0351438710621021E-006   1.6152507630855496E-005   0.0000000000000000     
  -2.1272643359240569E-006   1.5166164528867837E-005   0.0000000000000000     
  -2.1310728433025302E-006   1.5288869259411054E-005   0.0000000000000000     
  -2.1348122898299859E-006   1.5411783599764159E-005   0.0000000000000000     
  -2.1384825707146345E-006   1.5534903729019402E-005   0.0000000000000000     
  -2.1420835811646834E-006   1.5658225826268968E-005   0.0000000000000000     
  -2.1456152163883421E-006   1.5781746070605079E-005   0.0000000000000000     
  -2.1490773715938206E-006   1.5905460641119976E-005   0.0000000000000000     
  -2.1524699419893263E-006   1.6029365716905854E-005   0.0000000000000000     
  -2.1557928227830703E-006   1.6153457477054935E-005   0.0000000000000000     
  -2.2464771075549718E-006   1.5167346854897156E-005   0.0000000000000000     
  -2.2504979506943615E-006   1.5290029848807204E-005   0.0000000000000000     
  -2.2544460508850808E-006   1.5412922314475777E-005   0.0000000000000000     
  -2.2583212910642672E-006   1.5536020450304117E-005   0.0000000000000000     
  -2.2621235541690568E-006   1.5659320454693458E-005   0.0000000000000000     
  -2.2658527231365916E-006   1.5782818526045058E-005   0.0000000000000000     
  -2.2695086809040063E-006   1.5906510862760142E-005   0.0000000000000000     
  -2.2730913104084400E-006   1.6030393663239953E-005   0.0000000000000000     
  -2.2766004945870313E-006   1.6154463125885740E-005   0.0000000000000000     
  -2.3658565902627140E-006   1.5168593654218916E-005   0.0000000000000000     
  -2.3700897842715014E-006   1.5291253828278999E-005   0.0000000000000000     
  -2.3742465570780446E-006   1.5414123343921511E-005   0.0000000000000000     
  -2.3783267822290836E-006   1.5537198417706518E-005   0.0000000000000000     
  -2.3823303332713587E-006   1.5660475266194085E-005   0.0000000000000000     
  -2.3862570837516098E-006   1.5783950105944262E-005   0.0000000000000000     
  -2.3901069072165761E-006   1.5907619153517134E-005   0.0000000000000000     
  -2.3938796772129986E-006   1.6031478625472757E-005   0.0000000000000000     
  -2.3975752672876171E-006   1.6155524738371184E-005   0.0000000000000000     
  -2.4854114730032471E-006   1.5169904897672534E-005   0.0000000000000000     
  -2.4898570050679319E-006   1.5292541180723761E-005   0.0000000000000000     
  -2.4942224324332326E-006   1.5415386694403136E-005   0.0000000000000000     
  -2.4985076251663008E-006   1.5538437668279662E-005   0.0000000000000000     
  -2.5027124533342891E-006   1.5661690331922338E-005   0.0000000000000000     
  -2.5068367870043470E-006   1.5785140914900163E-005   0.0000000000000000     
  -2.5108804962436261E-006   1.5908785646782129E-005   0.0000000000000000     
  -2.5148434511192798E-006   1.6032620757137253E-005   0.0000000000000000     
  -2.5187255216984569E-006   1.6156642475534514E-005   0.0000000000000000     
  -2.6051504447325377E-006   1.5171280556097428E-005   0.0000000000000000     
  -2.6098082741176382E-006   1.5293891889038837E-005   0.0000000000000000     
  -2.6143823009750006E-006   1.5416712372222449E-005   0.0000000000000000     
  -2.6188724008331368E-006   1.5539738239076642E-005   0.0000000000000000     
  -2.6232784492205500E-006   1.5662965723029773E-005   0.0000000000000000     
  -2.6276003216657525E-006   1.5786391057510211E-005   0.0000000000000000     
  -2.6318378936972556E-006   1.5910010475946321E-005   0.0000000000000000     
  -2.6359910408435592E-006   1.6033820211766447E-005   0.0000000000000000     
  -2.6400596386331798E-006   1.6157816498398984E-005   0.0000000000000000     
  -2.7250821944065491E-006   1.5172720600333023E-005   0.0000000000000000     
  -2.7299522524546044E-006   1.5295305936121541E-005   0.0000000000000000     
  -2.7347347867277064E-006   1.5418100383681209E-005   0.0000000000000000     
  -2.7394296901868041E-006   1.5541100167150510E-005   0.0000000000000000     
  -2.7440368557928460E-006   1.5664301510667898E-005   0.0000000000000000     
  -2.7485561765067786E-006   1.5787700638371847E-005   0.0000000000000000     
  -2.7529875452895533E-006   1.5911293774400850E-005   0.0000000000000000     
  -2.7573308551021175E-006   1.6035077142893359E-005   0.0000000000000000     
  -2.7615859989054191E-006   1.6159046967987851E-005   0.0000000000000000     
  -2.8452154109812475E-006   1.5174225001218738E-005   0.0000000000000000     
  -2.8502976011128152E-006   1.5296783304869220E-005   0.0000000000000000     
  -2.8552885137157040E-006   1.5419550735081206E-005   0.0000000000000000     
  -2.8601880741845222E-006   1.5542523489554329E-005   0.0000000000000000     
  -2.8649962079138774E-006   1.5665697765988232E-005   0.0000000000000000     
  -2.8697128402983748E-006   1.5789069762082549E-005   0.0000000000000000     
  -2.8743378967326233E-006   1.5912635675536914E-005   0.0000000000000000     
  -2.8788713026112295E-006   1.6036391704050984E-005   0.0000000000000000     
  -2.8833129833288027E-006   1.6160334045324375E-005   0.0000000000000000     
  -1.9146452586104985E-006   1.6151613426264186E-005   0.0000000000000000     
  -1.9175336903472872E-006   1.6275929551274545E-005   0.0000000000000000     
  -1.9203596441181433E-006   1.6400424892051995E-005   0.0000000000000000     
  -1.9231228768272444E-006   1.6525095729055107E-005   0.0000000000000000     
  -1.9258231453787688E-006   1.6649938342742472E-005   0.0000000000000000     
  -1.9284602066768934E-006   1.6774949013572664E-005   0.0000000000000000     
  -1.9310338176257968E-006   1.6900124022004273E-005   0.0000000000000000     
  -1.9335437351296563E-006   1.7025459648495881E-005   0.0000000000000000     
  -1.9359897160926499E-006   1.7150952173506064E-005   0.0000000000000000     
  -2.0351438710621021E-006   1.6152507630855496E-005   0.0000000000000000     
  -2.0382145473392233E-006   1.6276803524984608E-005   0.0000000000000000     
  -2.0412190142371470E-006   1.6401278544918841E-005   0.0000000000000000     
  -2.0441570768895993E-006   1.6525928933644560E-005   0.0000000000000000     
  -2.0470285404303023E-006   1.6650750934148131E-005   0.0000000000000000     
  -2.0498332099929805E-006   1.6775740789415912E-005   0.0000000000000000     
  -2.0525708907113583E-006   1.6900894742434271E-005   0.0000000000000000     
  -2.0552413877191569E-006   1.7026209036189568E-005   0.0000000000000000     
  -2.0578445061501022E-006   1.7151679913668155E-005   0.0000000000000000     
  -2.1557928227830703E-006   1.6153457477054935E-005   0.0000000000000000     
  -2.1590459042038902E-006   1.6277732103951786E-005   0.0000000000000000     
  -2.1622290565631492E-006   1.6402185793150372E-005   0.0000000000000000     
  -2.1653421451928399E-006   1.6526814743496997E-005   0.0000000000000000     
  -2.1683850354249529E-006   1.6651615153837981E-005   0.0000000000000000     
  -2.1713575925914814E-006   1.6776583223019626E-005   0.0000000000000000     
  -2.1742596820244163E-006   1.6901715149888245E-005   0.0000000000000000     
  -2.1770911690557521E-006   1.7027007133290149E-005   0.0000000000000000     
  -2.1798519190174788E-006   1.7152455372071649E-005   0.0000000000000000     
  -2.2766004945870313E-006   1.6154463125885740E-005   0.0000000000000000     
  -2.2800361244312130E-006   1.6278715441686430E-005   0.0000000000000000     
  -2.2833981231495929E-006   1.6403146771981676E-005   0.0000000000000000     
  -2.2866864220050735E-006   1.6527753270698814E-005   0.0000000000000000     
  -2.2899009522605613E-006   1.6652531091765203E-005   0.0000000000000000     
  -2.2930416451789553E-006   1.6777476389108180E-005   0.0000000000000000     
  -2.2961084320231604E-006   1.6902585316655084E-005   0.0000000000000000     
  -2.2991012440560808E-006   1.7027854028333263E-005   0.0000000000000000     
  -2.3020200125406187E-006   1.7153278678070061E-005   0.0000000000000000     
  -2.3975752672876171E-006   1.6155524738371184E-005   0.0000000000000000     
  -2.4011935715111112E-006   1.6279753691698883E-005   0.0000000000000000     
  -2.4047345660499168E-006   1.6404161616647830E-005   0.0000000000000000     
  -2.4081982475944106E-006   1.6528744627336406E-005   0.0000000000000000     
  -2.4115846128349682E-006   1.6653498837882996E-005   0.0000000000000000     
  -2.4148936584619667E-006   1.6778420362405964E-005   0.0000000000000000     
  -2.4181253811657815E-006   1.6903505315023691E-005   0.0000000000000000     
  -2.4212797776367886E-006   1.7028749809854566E-005   0.0000000000000000     
  -2.4243568445653642E-006   1.7154149961016944E-005   0.0000000000000000     
  -2.5187255216984569E-006   1.6156642475534514E-005   0.0000000000000000     
  -2.5225266089335056E-006   1.6280847007499478E-005   0.0000000000000000     
  -2.5262467373175616E-006   1.6405230462383924E-005   0.0000000000000000     
  -2.5298859622289549E-006   1.6529788925496160E-005   0.0000000000000000     
  -2.5334443390460157E-006   1.6654518482144534E-005   0.0000000000000000     
  -2.5369219231470752E-006   1.6779415217637359E-005   0.0000000000000000     
  -2.5403187699104654E-006   1.6904475217282957E-005   0.0000000000000000     
  -2.5436349347145150E-006   1.7029694566389676E-005   0.0000000000000000     
  -2.5468704729375564E-006   1.7155069350265833E-005   0.0000000000000000     
  -2.6400596386331798E-006   1.6157816498398984E-005   0.0000000000000000     
  -2.6440436001883210E-006   1.6281995542598576E-005   0.0000000000000000     
  -2.6479429890059700E-006   1.6406353444425032E-005   0.0000000000000000     
  -2.6517579061768153E-006   1.6530886277264471E-005   0.0000000000000000     
  -2.6554884527915458E-006   1.6655590114503004E-005   0.0000000000000000     
  -2.6591347299408463E-006   1.6780461029526738E-005   0.0000000000000000     
  -2.6626968387154029E-006   1.6905495095721786E-005   0.0000000000000000     
  -2.6661748802059039E-006   1.7030688386474252E-005   0.0000000000000000     
  -2.6695689555030350E-006   1.7156036975170253E-005   0.0000000000000000     
  -2.7615859989054191E-006   1.6159046967987851E-005   0.0000000000000000     
  -2.7657529087654752E-006   1.6283199450506505E-005   0.0000000000000000     
  -2.7698316731685817E-006   1.6407530698006242E-005   0.0000000000000000     
  -2.7738224197061008E-006   1.6532036794727723E-005   0.0000000000000000     
  -2.7777252759693991E-006   1.6656713824911596E-005   0.0000000000000000     
  -2.7815403695498376E-006   1.6781557872798491E-005   0.0000000000000000     
  -2.7852678280387823E-006   1.6906565022629054E-005   0.0000000000000000     
  -2.7889077790275981E-006   1.7031731358643931E-005   0.0000000000000000     
  -2.7924603501076447E-006   1.7157052965083757E-005   0.0000000000000000     
  -2.8833129833288027E-006   1.6160334045324375E-005   0.0000000000000000     
  -2.8876628981548920E-006   1.6284458884733603E-005   0.0000000000000000     
  -2.8919211418588369E-006   1.6408762358362636E-005   0.0000000000000000     
  -2.8960878430849182E-006   1.6533240589972321E-005   0.0000000000000000     
  -2.9001631304774166E-006   1.6657889703323499E-005   0.0000000000000000     
  -2.9041471326806148E-006   1.6782705822176994E-005   0.0000000000000000     
  -2.9080399783387940E-006   1.6907685070293665E-005   0.0000000000000000     
  -2.9118417960962376E-006   1.7032823571434346E-005   0.0000000000000000     
  -2.9155527145972250E-006   1.7158117449359873E-005   0.0000000000000000     
  -1.9359897160926499E-006   1.7150952173506064E-005   0.0000000000000000     
  -1.9383714800873861E-006   1.7276597895149974E-005   0.0000000000000000     
  -1.9406885973601969E-006   1.7402393182169050E-005   0.0000000000000000     
  -1.9429406008258440E-006   1.7528334420961293E-005   0.0000000000000000     
  -1.9451270233990903E-006   1.7654417997924702E-005   0.0000000000000000     
  -1.9472473979946971E-006   1.7780640299457284E-005   0.0000000000000000     
  -1.9493012575274279E-006   1.7906997711957045E-005   0.0000000000000000     
  -1.9512881349120442E-006   1.8033486621821978E-005   0.0000000000000000     
  -1.9532075630633087E-006   1.8160103415450102E-005   0.0000000000000000     
  -2.0578445061501022E-006   1.7151679913668155E-005   0.0000000000000000     
  -2.0603799992147527E-006   1.7277303647552754E-005   0.0000000000000000     
  -2.0628474124310047E-006   1.7403076629311433E-005   0.0000000000000000     
  -2.0652462393935885E-006   1.7528995280108606E-005   0.0000000000000000     
  -2.0675759736972376E-006   1.7655056021108708E-005   0.0000000000000000     
  -2.0698361089366823E-006   1.7781255273476146E-005   0.0000000000000000     
  -2.0720261387066558E-006   1.7907589458375357E-005   0.0000000000000000     
  -2.0741455566018883E-006   1.8034054996970747E-005   0.0000000000000000     
  -2.0761938562171109E-006   1.8160648310426735E-005   0.0000000000000000     
  -2.1798519190174788E-006   1.7152455372071649E-005   0.0000000000000000     
  -2.1825417285729581E-006   1.7278056108369259E-005   0.0000000000000000     
  -2.1851601197110229E-006   1.7403805757480326E-005   0.0000000000000000     
  -2.1877065457518762E-006   1.7529700777992419E-005   0.0000000000000000     
  -2.1901804600157163E-006   1.7655737628493093E-005   0.0000000000000000     
  -2.1925813158227469E-006   1.7781912767569899E-005   0.0000000000000000     
  -2.1949085664931708E-006   1.7908222653810393E-005   0.0000000000000000     
  -2.1971616653471857E-006   1.8034663745802136E-005   0.0000000000000000     
  -2.1993400657049951E-006   1.8161232502132687E-005   0.0000000000000000     
  -2.3020200125406187E-006   1.7153278678070061E-005   0.0000000000000000     
  -2.3048645839780178E-006   1.7278855476038254E-005   0.0000000000000000     
  -2.3076344658228863E-006   1.7404580857392341E-005   0.0000000000000000     
  -2.3103290807681722E-006   1.7530451313532278E-005   0.0000000000000000     
  -2.3129478515068259E-006   1.7656463335858015E-005   0.0000000000000000     
  -2.3154902007317942E-006   1.7782613415769477E-005   0.0000000000000000     
  -2.3179555511360270E-006   1.7908898044666614E-005   0.0000000000000000     
  -2.3203433254124716E-006   1.8035313713949372E-005   0.0000000000000000     
  -2.3226529462540769E-006   1.8161856915017691E-005   0.0000000000000000     
  -2.4243568445653642E-006   1.7154149961016944E-005   0.0000000000000000     
  -2.4273564812459473E-006   1.7279701948998505E-005   0.0000000000000000     
  -2.4302781973892255E-006   1.7405402219764070E-005   0.0000000000000000     
  -2.4331214053099477E-006   1.7531247285647744E-005   0.0000000000000000     
  -2.4358855173228641E-006   1.7657233658983631E-005   0.0000000000000000     
  -2.4385699457427263E-006   1.7783357852105850E-005   0.0000000000000000     
  -2.4411741028842815E-006   1.7909616377348505E-005   0.0000000000000000     
  -2.4436974010622834E-006   1.8036005747045707E-005   0.0000000000000000     
  -2.4461392525914779E-006   1.8162522473531558E-005   0.0000000000000000     
  -2.5468704729375564E-006   1.7155069350265833E-005   0.0000000000000000     
  -2.5500253361927607E-006   1.7280595725688788E-005   0.0000000000000000     
  -2.5530990610326693E-006   1.7406270135312095E-005   0.0000000000000000     
  -2.5560910802446653E-006   1.7532089093258339E-005   0.0000000000000000     
  -2.5590008266161286E-006   1.7658049113650104E-005   0.0000000000000000     
  -2.5618277329344438E-006   1.7784146710609967E-005   0.0000000000000000     
  -2.5645712319869906E-006   1.7910378398260530E-005   0.0000000000000000     
  -2.5672307565611533E-006   1.8036740690724356E-005   0.0000000000000000     
  -2.5698057394443129E-006   1.8163230102124050E-005   0.0000000000000000     
  -2.6695689555030350E-006   1.7156036975170253E-005   0.0000000000000000     
  -2.6728790646344748E-006   1.7281537004547864E-005   0.0000000000000000     
  -2.6761048033758538E-006   1.7407184894753023E-005   0.0000000000000000     
  -2.6792456664397939E-006   1.7532977135283623E-005   0.0000000000000000     
  -2.6823011485389180E-006   1.7658910215637585E-005   0.0000000000000000     
  -2.6852707443858495E-006   1.7784980625312788E-005   0.0000000000000000     
  -2.6881539486932081E-006   1.7911184853807153E-005   0.0000000000000000     
  -2.6909502561736186E-006   1.8037519390618578E-005   0.0000000000000000     
  -2.6936591615397003E-006   1.8163980725244944E-005   0.0000000000000000     
  -2.7924603501076447E-006   1.7157052965083757E-005   0.0000000000000000     
  -2.7959255823871034E-006   1.7282525984014507E-005   0.0000000000000000     
  -2.7993031710414057E-006   1.7408146788803443E-005   0.0000000000000000     
  -2.8025927247627993E-006   1.7533911810643150E-005   0.0000000000000000     
  -2.8057938522435305E-006   1.7659817480726234E-005   0.0000000000000000     
  -2.8089061621758445E-006   1.7785860230245272E-005   0.0000000000000000     
  -2.8119292632519907E-006   1.7912036490392855E-005   0.0000000000000000     
  -2.8148627641642138E-006   1.8038342692361588E-005   0.0000000000000000     
  -2.8177062736047598E-006   1.8164775267344033E-005   0.0000000000000000     
  -2.9155527145972250E-006   1.7158117449359873E-005   0.0000000000000000     
  -2.9191728052666632E-006   1.7283562862527478E-005   0.0000000000000000     
  -2.9227019106519620E-006   1.7409156108179947E-005   0.0000000000000000     
  -2.9261398160811507E-006   1.7534893518256470E-005   0.0000000000000000     
  -2.9294863068822642E-006   1.7660771424696217E-005   0.0000000000000000     
  -2.9327411683833342E-006   1.7786786159438366E-005   0.0000000000000000     
  -2.9359041859123921E-006   1.7912934054422110E-005   0.0000000000000000     
  -2.9389751447974728E-006   1.8039211441586622E-005   0.0000000000000000     
  -2.9419538303666081E-006   1.8165614652871074E-005   0.0000000000000000     
  -1.9532075630633087E-006   1.8160103415450102E-005   0.0000000000000000     
  -1.9550590644061153E-006   1.8286844553737696E-005   0.0000000000000000     
  -1.9568421194058877E-006   1.8413706795574286E-005   0.0000000000000000     
  -1.9585561980381795E-006   1.8540686974347649E-005   0.0000000000000000     
  -1.9602007702785480E-006   1.8667781923445598E-005   0.0000000000000000     
  -1.9617753061025469E-006   1.8794988476255916E-005   0.0000000000000000     
  -1.9632792754857317E-006   1.8922303466166410E-005   0.0000000000000000     
  -1.9647121484036561E-006   1.9049723726564877E-005   0.0000000000000000     
  -1.9660733948318769E-006   1.9177246090839123E-005   0.0000000000000000     
  -2.0761938562171109E-006   1.8160648310426735E-005   0.0000000000000000     
  -2.0781705404560075E-006   1.8287365897481367E-005   0.0000000000000000     
  -2.0800751494580569E-006   1.8414204567167076E-005   0.0000000000000000     
  -2.0819072326716898E-006   1.8541161206089927E-005   0.0000000000000000     
  -2.0836663395453385E-006   1.8668232700855982E-005   0.0000000000000000     
  -2.0853520195274323E-006   1.8795415938071287E-005   0.0000000000000000     
  -2.0869638220664022E-006   1.8922707804341911E-005   0.0000000000000000     
  -2.0885012966106790E-006   1.9050105186273912E-005   0.0000000000000000     
  -2.0899639926086937E-006   1.9177604970473337E-005   0.0000000000000000     
  -2.1993400657049951E-006   1.8161232502132687E-005   0.0000000000000000     
  -2.2014432545954699E-006   1.8287925459982353E-005   0.0000000000000000     
  -2.2034708538821562E-006   1.8414739470902497E-005   0.0000000000000000     
  -2.2054225191372720E-006   1.8541671465037242E-005   0.0000000000000000     
  -2.2072979059330326E-006   1.8668718372530690E-005   0.0000000000000000     
  -2.2090966698416541E-006   1.8795877123526963E-005   0.0000000000000000     
  -2.2108184664353524E-006   1.8923144648170166E-005   0.0000000000000000     
  -2.2124629512863458E-006   1.9050517876604426E-005   0.0000000000000000     
  -2.2140297799668483E-006   1.9177993738973843E-005   0.0000000000000000     
  -2.3226529462540769E-006   1.8161856915017691E-005   0.0000000000000000     
  -2.3248838946495296E-006   1.8288524219757923E-005   0.0000000000000000     
  -2.3270358847704532E-006   1.8415312522001949E-005   0.0000000000000000     
  -2.3291086890842115E-006   1.8542218796068109E-005   0.0000000000000000     
  -2.3311020800581674E-006   1.8669240016274695E-005   0.0000000000000000     
  -2.3330158301596826E-006   1.8796373156940014E-005   0.0000000000000000     
  -2.3348497118561179E-006   1.8923615192382372E-005   0.0000000000000000     
  -2.3366034976148393E-006   1.9050963096920091E-005   0.0000000000000000     
  -2.3382769599032066E-006   1.9178413844871460E-005   0.0000000000000000     
  -2.4461392525914779E-006   1.8162522473531558E-005   0.0000000000000000     
  -2.4484991484432128E-006   1.8289163155325327E-005   0.0000000000000000     
  -2.4507768942152113E-006   1.8415924735686834E-005   0.0000000000000000     
  -2.4529723741617939E-006   1.8542804244061057E-005   0.0000000000000000     
  -2.4550854725372783E-006   1.8669798709892960E-005   0.0000000000000000     
  -2.4571160735959858E-006   1.8796905162627534E-005   0.0000000000000000     
  -2.4590640615922355E-006   1.8924120631709754E-005   0.0000000000000000     
  -2.4609293207803465E-006   1.9051442146584584E-005   0.0000000000000000     
  -2.4627117354146371E-006   1.9178866736697003E-005   0.0000000000000000     
  -2.5698057394443129E-006   1.8163230102124050E-005   0.0000000000000000     
  -2.5722957038015457E-006   1.8289843245201835E-005   0.0000000000000000     
  -2.5747005343086958E-006   1.8416577127178531E-005   0.0000000000000000     
  -2.5770202060193021E-006   1.8543428853894584E-005   0.0000000000000000     
  -2.5792546939869013E-006   1.8670395531190458E-005   0.0000000000000000     
  -2.5814039732650335E-006   1.8797474264906610E-005   0.0000000000000000     
  -2.5834680189072360E-006   1.8924662160883491E-005   0.0000000000000000     
  -2.5854468059670475E-006   1.9051956324961571E-005   0.0000000000000000     
  -2.5873403094980064E-006   1.9179353862981300E-005   0.0000000000000000     
  -2.6936591615397003E-006   1.8163980725244944E-005   0.0000000000000000     
  -2.6962802485495540E-006   1.8290565467904729E-005   0.0000000000000000     
  -2.6988134571431696E-006   1.8417270711698453E-005   0.0000000000000000     
  -2.7012588163060199E-006   1.8544093670447234E-005   0.0000000000000000     
  -2.7036163550235712E-006   1.8671031557972155E-005   0.0000000000000000     
  -2.7058861022812937E-006   1.8798081588094315E-005   0.0000000000000000     
  -2.7080680870646569E-006   1.8925240974634814E-005   0.0000000000000000     
  -2.7101623383591296E-006   1.9052506931414729E-005   0.0000000000000000     
  -2.7121688851501804E-006   1.9179876672255166E-005   0.0000000000000000     
  -2.8177062736047598E-006   1.8164775267344033E-005   0.0000000000000000     
  -2.8204594705122640E-006   1.8291330801951246E-005   0.0000000000000000     
  -2.8231223148109002E-006   1.8418006504467990E-005   0.0000000000000000     
  -2.8256948366712328E-006   1.8544799738597510E-005   0.0000000000000000     
  -2.8281770662638248E-006   1.8671707868043026E-005   0.0000000000000000     
  -2.8305690337592374E-006   1.8798728256507746E-005   0.0000000000000000     
  -2.8328707693280332E-006   1.8925858267694903E-005   0.0000000000000000     
  -2.8350823031407773E-006   1.9053095265307729E-005   0.0000000000000000     
  -2.8372036653680292E-006   1.9180436613049439E-005   0.0000000000000000     
  -2.9419538303666081E-006   1.8165614652871074E-005   0.0000000000000000     
  -2.9448400575147005E-006   1.8292140225858655E-005   0.0000000000000000     
  -2.9476337594041505E-006   1.8418785520708547E-005   0.0000000000000000     
  -2.9503348987642271E-006   1.8545548103223940E-005   0.0000000000000000     
  -2.9529434383241972E-006   1.8672425539208014E-005   0.0000000000000000     
  -2.9554593408133314E-006   1.8799415394463971E-005   0.0000000000000000     
  -2.9578825689609004E-006   1.8926515234794979E-005   0.0000000000000000     
  -2.9602130854961737E-006   1.9053722626004240E-005   0.0000000000000000     
  -2.9624508531484187E-006   1.9181035133894930E-005   0.0000000000000000     
  -1.9660733948318769E-006   1.9177246090839123E-005   0.0000000000000000     
  -1.9673625498573824E-006   1.9304867545340115E-005   0.0000000000000000     
  -1.9685794090128968E-006   1.9432585688271566E-005   0.0000000000000000     
  -1.9697238329425787E-006   1.9560398270800382E-005   0.0000000000000000     
  -1.9707956822905866E-006   1.9688303044093439E-005   0.0000000000000000     
  -1.9717948177010778E-006   1.9816297759317644E-005   0.0000000000000000     
  -1.9727210998182111E-006   1.9944380167639882E-005   0.0000000000000000     
  -1.9735743892861453E-006   2.0072548020227041E-005   0.0000000000000000     
  -1.9743545467490378E-006   2.0200799068246029E-005   0.0000000000000000     
  -2.0899639926086937E-006   1.9177604970473337E-005   0.0000000000000000     
  -2.0913514470324411E-006   1.9305204268855485E-005   0.0000000000000000     
  -2.0926631469481689E-006   1.9432901094572470E-005   0.0000000000000000     
  -2.0938985669456899E-006   1.9560693686085684E-005   0.0000000000000000     
  -2.0950571816148160E-006   1.9688580281856473E-005   0.0000000000000000     
  -2.0961384655453599E-006   1.9816559120346204E-005   0.0000000000000000     
  -2.0971418933271339E-006   1.9944628440016237E-005   0.0000000000000000     
  -2.0980669395499500E-006   2.0072786479327949E-005   0.0000000000000000     
  -2.0989130788036197E-006   2.0201031476742679E-005   0.0000000000000000     
  -2.2140297799668483E-006   1.9177993738973843E-005   0.0000000000000000     
  -2.2155185084766852E-006   1.9305569457839071E-005   0.0000000000000000     
  -2.2169282945261077E-006   1.9433243425426770E-005   0.0000000000000000     
  -2.2182581962529787E-006   1.9561014326380161E-005   0.0000000000000000     
  -2.2195072717951576E-006   1.9688880845342438E-005   0.0000000000000000     
  -2.2206745792905035E-006   1.9816841666956807E-005   0.0000000000000000     
  -2.2217591768768779E-006   1.9944895475866480E-005   0.0000000000000000     
  -2.2227601226921412E-006   2.0073040956714656E-005   0.0000000000000000     
  -2.2236764748741545E-006   2.0201276794144529E-005   0.0000000000000000     
  -2.3382769599032066E-006   1.9178413844871460E-005   0.0000000000000000     
  -2.3398696867242904E-006   1.9305964760316620E-005   0.0000000000000000     
  -2.3413805282239896E-006   1.9433614566383039E-005   0.0000000000000000     
  -2.3428081500839113E-006   1.9561362335959991E-005   0.0000000000000000     
  -2.3441512179856629E-006   1.9689207141936773E-005   0.0000000000000000     
  -2.3454083976108504E-006   1.9817148057202664E-005   0.0000000000000000     
  -2.3465783546410813E-006   1.9945184154646959E-005   0.0000000000000000     
  -2.3476597547579614E-006   2.0073314507158942E-005   0.0000000000000000     
  -2.3486512636430983E-006   2.0201538187627898E-005   0.0000000000000000     
  -2.4627117354146371E-006   1.9178866736697003E-005   0.0000000000000000     
  -2.4644109343094352E-006   1.9306391824313912E-005   0.0000000000000000     
  -2.4660255245190889E-006   1.9434016402989864E-005   0.0000000000000000     
  -2.4675538576579546E-006   1.9561739859101374E-005   0.0000000000000000     
  -2.4689942853403886E-006   1.9689561579024908E-005   0.0000000000000000     
  -2.4703451591807461E-006   1.9817480949136968E-005   0.0000000000000000     
  -2.4716048307933816E-006   1.9945497355814047E-005   0.0000000000000000     
  -2.4727716517926543E-006   2.0073610185432620E-005   0.0000000000000000     
  -2.4738439737929161E-006   2.0201818824369188E-005   0.0000000000000000     
  -2.5873403094980064E-006   1.9179353862981300E-005   0.0000000000000000     
  -2.5891482037662946E-006   1.9306852297856671E-005   0.0000000000000000     
  -2.5908689598886796E-006   1.9434450820795832E-005   0.0000000000000000     
  -2.5925007481945735E-006   1.9562149040080472E-005   0.0000000000000000     
  -2.5940417390133873E-006   1.9689946563992275E-005   0.0000000000000000     
  -2.5954901026745311E-006   1.9817843000812914E-005   0.0000000000000000     
  -2.5968440095074178E-006   1.9945837958824087E-005   0.0000000000000000     
  -2.5981016298414591E-006   2.0073931046307470E-005   0.0000000000000000     
  -2.5992611340060661E-006   2.0202121871544754E-005   0.0000000000000000     
  -2.7121688851501804E-006   1.9179876672255166E-005   0.0000000000000000     
  -2.7140874476290476E-006   1.9307347828970663E-005   0.0000000000000000     
  -2.7159165108100393E-006   1.9434919705349520E-005   0.0000000000000000     
  -2.7176542509132359E-006   1.9562592023173486E-005   0.0000000000000000     
  -2.7192988441587136E-006   1.9690364504224296E-005   0.0000000000000000     
  -2.7208484667665510E-006   1.9818236870283705E-005   0.0000000000000000     
  -2.7223012949568275E-006   1.9946208843133452E-005   0.0000000000000000     
  -2.7236555049496212E-006   2.0074280144555297E-005   0.0000000000000000     
  -2.7249092729650078E-006   2.0202450496330958E-005   0.0000000000000000     
  -2.8372036653680292E-006   1.9180436613049439E-005   0.0000000000000000     
  -2.8392346184318702E-006   1.9307880065681649E-005   0.0000000000000000     
  -2.8411738537604411E-006   1.9435424942199510E-005   0.0000000000000000     
  -2.8430197950334058E-006   1.9563070952656581E-005   0.0000000000000000     
  -2.8447708659304220E-006   1.9690817807106411E-005   0.0000000000000000     
  -2.8464254901311490E-006   1.9818665215602531E-005   0.0000000000000000     
  -2.8479820913152483E-006   1.9946612888198507E-005   0.0000000000000000     
  -2.8494390931623805E-006   2.0074660534947879E-005   0.0000000000000000     
  -2.8507949193522033E-006   2.0202807865904172E-005   0.0000000000000000     
  -2.9624508531484187E-006   1.9181035133894930E-005   0.0000000000000000     
  -2.9645956687089390E-006   1.9308450656015369E-005   0.0000000000000000     
  -2.9666466652171622E-006   1.9435968416894384E-005   0.0000000000000000     
  -2.9686028097745512E-006   1.9563587972805957E-005   0.0000000000000000     
  -2.9704630694825669E-006   1.9691308880024034E-005   0.0000000000000000     
  -2.9722264114426690E-006   1.9819130694822594E-005   0.0000000000000000     
  -2.9738918027563192E-006   1.9947052973475589E-005   0.0000000000000000     
  -2.9754582105249800E-006   2.0075075272256991E-005   0.0000000000000000     
  -2.9769246018501111E-006   2.0203197147440760E-005   0.0000000000000000     
  -1.9743545467490378E-006   2.0200799068246029E-005   0.0000000000000000     
  -1.9750624419617021E-006   2.0329130446319743E-005   0.0000000000000000     
  -1.9757029811215701E-006   2.0457536822895145E-005   0.0000000000000000     
  -1.9762820795367287E-006   2.0586012249875209E-005   0.0000000000000000     
  -1.9768056525152654E-006   2.0714550779162911E-005   0.0000000000000000     
  -1.9772796153652664E-006   2.0843146462661223E-005   0.0000000000000000     
  -1.9777098833948195E-006   2.0971793352273131E-005   0.0000000000000000     
  -1.9781023719120101E-006   2.1100485499901601E-005   0.0000000000000000     
  -1.9784629962249264E-006   2.1229216957449608E-005   0.0000000000000000     
  -2.0989130788036197E-006   2.0201031476742679E-005   0.0000000000000000     
  -2.0996808768166843E-006   2.0329361276026749E-005   0.0000000000000000     
  -2.1003752638725913E-006   2.0457772142166118E-005   0.0000000000000000     
  -2.1010022613935158E-006   2.0586259945451709E-005   0.0000000000000000     
  -2.1015678908016355E-006   2.0714820556174439E-005   0.0000000000000000     
  -2.1020781735191233E-006   2.0843449844625217E-005   0.0000000000000000     
  -2.1025391309681579E-006   2.0972143681094968E-005   0.0000000000000000     
  -2.1029567845709120E-006   2.1100897935874599E-005   0.0000000000000000     
  -2.1033371557495645E-006   2.1229708479255012E-005   0.0000000000000000     
  -2.2236764748741545E-006   2.0201276794144529E-005   0.0000000000000000     
  -2.2245084456296297E-006   2.0329601557949817E-005   0.0000000000000000     
  -2.2252608634406957E-006   2.0458013358526307E-005   0.0000000000000000     
  -2.2259397108583353E-006   2.0586510191420292E-005   0.0000000000000000     
  -2.2265509704335286E-006   2.0715090052178067E-005   0.0000000000000000     
  -2.2271006247172569E-006   2.0843750936345916E-005   0.0000000000000000     
  -2.2275946562605022E-006   2.0972490839470145E-005   0.0000000000000000     
  -2.2280390476142462E-006   2.1101307757097045E-005   0.0000000000000000     
  -2.2284397813294682E-006   2.1230199684772893E-005   0.0000000000000000     
  -2.3486512636430983E-006   2.0201538187627898E-005   0.0000000000000000     
  -2.3495527257706690E-006   2.0329854482434331E-005   0.0000000000000000     
  -2.3503687007851241E-006   2.0458263531923591E-005   0.0000000000000000     
  -2.3511049271234851E-006   2.0586765689932220E-005   0.0000000000000000     
  -2.3517671432227743E-006   2.0715361310296807E-005   0.0000000000000000     
  -2.3523610875200135E-006   2.0844050746853895E-005   0.0000000000000000     
  -2.3528924984522221E-006   2.0972834353440038E-005   0.0000000000000000     
  -2.3533671144564238E-006   2.1101712483891818E-005   0.0000000000000000     
  -2.3537906739696382E-006   2.1230685492045781E-005   0.0000000000000000     
  -2.4738439737929161E-006   2.0201818824369188E-005   0.0000000000000000     
  -2.4748212946099361E-006   2.0330123239825693E-005   0.0000000000000000     
  -2.4757076968651140E-006   2.0458525722305827E-005   0.0000000000000000     
  -2.4765084093812659E-006   2.0587029143138770E-005   0.0000000000000000     
  -2.4772286609812034E-006   2.0715636373653674E-005   0.0000000000000000     
  -2.4778736804877400E-006   2.0844350285179713E-005   0.0000000000000000     
  -2.4784486967236883E-006   2.0973173749046039E-005   0.0000000000000000     
  -2.4789589385118622E-006   2.1102109636581811E-005   0.0000000000000000     
  -2.4794096346750738E-006   2.1231160819116193E-005   0.0000000000000000     
  -2.5992611340060661E-006   2.0202121871544754E-005   0.0000000000000000     
  -2.6003217295175603E-006   2.0330411020469260E-005   0.0000000000000000     
  -2.6012867726399053E-006   2.0458802989620888E-005   0.0000000000000000     
  -2.6021606568239749E-006   2.0587303253191189E-005   0.0000000000000000     
  -2.6029477755206431E-006   2.0715917285371698E-005   0.0000000000000000     
  -2.6036525221807832E-006   2.0844650560353945E-005   0.0000000000000000     
  -2.6042792902552697E-006   2.0973508552329501E-005   0.0000000000000000     
  -2.6048324731949755E-006   2.1102496735489891E-005   0.0000000000000000     
  -2.6053164644507743E-006   2.1231620584026662E-005   0.0000000000000000     
  -2.7249092729650078E-006   2.0202450496330958E-005   0.0000000000000000     
  -2.7260616078636752E-006   2.0330721014710444E-005   0.0000000000000000     
  -2.7271148490687364E-006   2.0459098393816666E-005   0.0000000000000000     
  -2.7280721686439119E-006   2.0587590722240747E-005   0.0000000000000000     
  -2.7289367386529234E-006   2.0716206088573866E-005   0.0000000000000000     
  -2.7297117311594914E-006   2.0844952581407179E-005   0.0000000000000000     
  -2.7304003182273358E-006   2.0973838289331818E-005   0.0000000000000000     
  -2.7310056719201786E-006   2.1102871300938939E-005   0.0000000000000000     
  -2.7315309643017416E-006   2.1232059704819701E-005   0.0000000000000000     
  -2.8507949193522033E-006   2.0202807865904172E-005   0.0000000000000000     
  -2.8520485070184131E-006   2.0331056412894625E-005   0.0000000000000000     
  -2.8532008471108468E-006   2.0459414994840994E-005   0.0000000000000000     
  -2.8542534440333757E-006   2.0587894252438705E-005   0.0000000000000000     
  -2.8552078021898721E-006   2.0716504826383227E-005   0.0000000000000000     
  -2.8560654259842081E-006   2.0845257357369964E-005   0.0000000000000000     
  -2.8568278198202562E-006   2.0974162486094352E-005   0.0000000000000000     
  -2.8574964881018876E-006   2.1103230853251843E-005   0.0000000000000000     
  -2.8580729352329747E-006   2.1232473099537854E-005   0.0000000000000000     
  -2.9769246018501111E-006   2.0203197147440760E-005   0.0000000000000000     
  -2.9782900043519046E-006   2.0331420405367181E-005   0.0000000000000000     
  -2.9795536877254740E-006   2.0459755852641756E-005   0.0000000000000000     
  -2.9807149821846647E-006   2.0588216545936344E-005   0.0000000000000000     
  -2.9817732179433195E-006   2.0716815541922768E-005   0.0000000000000000     
  -2.9827277252152835E-006   2.0845565897272877E-005   0.0000000000000000     
  -2.9835778342144009E-006   2.0974480668658490E-005   0.0000000000000000     
  -2.9843228751545154E-006   2.1103572912751465E-005   0.0000000000000000     
  -2.9849621782494720E-006   2.1232855686223622E-005   0.0000000000000000     
  -1.9784629962249264E-006   2.1229216957449608E-005   0.0000000000000000     
  -1.9787984636247567E-006   2.1357979236294783E-005   0.0000000000000000     
  -1.9791186493350981E-006   2.1486753685713419E-005   0.0000000000000000     
  -1.9794342205626506E-006   2.1615519114456457E-005   0.0000000000000000     
  -1.9797558445141134E-006   2.1744254331274832E-005   0.0000000000000000     
  -1.9800941883961861E-006   2.1872938144919490E-005   0.0000000000000000     
  -1.9804599194155666E-006   2.2001549364141368E-005   0.0000000000000000     
  -1.9808637047789556E-006   2.2130066797691405E-005   0.0000000000000000     
  -1.9813162116930526E-006   2.2258469254320571E-005   0.0000000000000000     
  -2.1033371557495645E-006   2.1229708479255012E-005   0.0000000000000000     
  -2.1036873652539749E-006   2.1358568060484652E-005   0.0000000000000000     
  -2.1040189311447518E-006   2.1487456944641944E-005   0.0000000000000000     
  -2.1043444708101901E-006   2.1616352275762856E-005   0.0000000000000000     
  -2.1046766016385825E-006   2.1745231197883337E-005   0.0000000000000000     
  -2.1050279410182216E-006   2.1874070855039329E-005   0.0000000000000000     
  -2.1054111063374038E-006   2.2002848391266799E-005   0.0000000000000000     
  -2.1058387149844220E-006   2.2131540950601701E-005   0.0000000000000000     
  -2.1063233843475691E-006   2.2260125677079976E-005   0.0000000000000000     
  -2.2284397813294682E-006   2.1230199684772893E-005   0.0000000000000000     
  -2.2288043237674303E-006   2.1359160814614673E-005   0.0000000000000000     
  -2.2291460765305012E-006   2.1488170125022005E-005   0.0000000000000000     
  -2.2294799250313300E-006   2.1617202790965206E-005   0.0000000000000000     
  -2.2298207546825649E-006   2.1746233987414559E-005   0.0000000000000000     
  -2.2301834508968526E-006   2.1875238889340357E-005   0.0000000000000000     
  -2.2305828990868444E-006   2.2004192671712926E-005   0.0000000000000000     
  -2.2310339846651872E-006   2.2133070509502550E-005   0.0000000000000000     
  -2.2315515930445264E-006   2.2261847577679532E-005   0.0000000000000000     
  -2.3537906739696382E-006   2.1230685492045781E-005   0.0000000000000000     
  -2.3541708459737138E-006   2.1359749255356177E-005   0.0000000000000000     
  -2.3545230216298046E-006   2.1488881745747947E-005   0.0000000000000000     
  -2.3548645226438924E-006   2.1618056458763746E-005   0.0000000000000000     
  -2.3552126707219562E-006   2.1747246889946221E-005   0.0000000000000000     
  -2.3555847875699764E-006   2.1876426534838000E-005   0.0000000000000000     
  -2.3559981948939336E-006   2.2005568888981719E-005   0.0000000000000000     
  -2.3564702143998093E-006   2.2134647447920033E-005   0.0000000000000000     
  -2.3570181677935839E-006   2.2263635707195570E-005   0.0000000000000000     
  -2.4794096346750738E-006   2.1231160819116193E-005   0.0000000000000000     
  -2.4798084386814188E-006   2.1360325139380428E-005   0.0000000000000000     
  -2.4801727025801247E-006   2.1489580325714065E-005   0.0000000000000000     
  -2.4805222030656980E-006   2.1618899077858721E-005   0.0000000000000000     
  -2.4808767168326491E-006   2.1748254095556044E-005   0.0000000000000000     
  -2.4812560205754856E-006   2.1877618078547647E-005   0.0000000000000000     
  -2.4816798909887174E-006   2.2006963726575155E-005   0.0000000000000000     
  -2.4821681047668524E-006   2.2136263739380209E-005   0.0000000000000000     
  -2.4827404386043998E-006   2.2265490816704419E-005   0.0000000000000000     
  -2.6053164644507743E-006   2.1231620584026662E-005   0.0000000000000000     
  -2.6057386086991374E-006   2.1360880223358745E-005   0.0000000000000000     
  -2.6061180555189172E-006   2.1490254383814675E-005   0.0000000000000000     
  -2.6064769057145671E-006   2.1619716446950368E-005   0.0000000000000000     
  -2.6068372600905375E-006   2.1749239794321740E-005   0.0000000000000000     
  -2.6072212194512778E-006   2.1878797807484711E-005   0.0000000000000000     
  -2.6076508846012402E-006   2.2008363867995210E-005   0.0000000000000000     
  -2.6081483563448760E-006   2.2137911357409154E-005   0.0000000000000000     
  -2.6087357354866355E-006   2.2267413657282454E-005   0.0000000000000000     
  -2.7315309643017416E-006   2.1232059704819701E-005   0.0000000000000000     
  -2.7319828628354614E-006   2.1361406263962424E-005   0.0000000000000000     
  -2.7323820165836479E-006   2.1490892438944101E-005   0.0000000000000000     
  -2.7327525700083230E-006   2.1620494364738910E-005   0.0000000000000000     
  -2.7331186675715149E-006   2.1750188176321032E-005   0.0000000000000000     
  -2.7335044537352493E-006   2.1879950008664622E-005   0.0000000000000000     
  -2.7339340729615490E-006   2.2009755996743860E-005   0.0000000000000000     
  -2.7344316697124411E-006   2.2139582275532928E-005   0.0000000000000000     
  -2.7350213884499496E-006   2.2269404980005988E-005   0.0000000000000000     
  -2.8580729352329747E-006   2.1232473099537854E-005   0.0000000000000000     
  -2.8585627078989844E-006   2.1361895017862742E-005   0.0000000000000000     
  -2.8589875219117717E-006   2.1491483009996645E-005   0.0000000000000000     
  -2.8593731353647855E-006   2.1621218629924588E-005   0.0000000000000000     
  -2.8597453063514782E-006   2.1751083431631621E-005   0.0000000000000000     
  -2.8601297929652936E-006   2.1881058969102760E-005   0.0000000000000000     
  -2.8605523532996875E-006   2.2011126796323071E-005   0.0000000000000000     
  -2.8610387454481067E-006   2.2141268467277608E-005   0.0000000000000000     
  -2.8616147275040011E-006   2.2271465535951376E-005   0.0000000000000000     
  -2.9849621782494720E-006   2.1232855686223622E-005   0.0000000000000000     
  -2.9854996506982980E-006   2.1362338241731031E-005   0.0000000000000000     
  -2.9859575076407525E-006   2.1492014615866646E-005   0.0000000000000000     
  -2.9863625412017771E-006   2.1621875041207640E-005   0.0000000000000000     
  -2.9867415435063154E-006   2.1751909750331213E-005   0.0000000000000000     
  -2.9871213066793100E-006   2.1882108975814556E-005   0.0000000000000000     
  -2.9875286228457019E-006   2.2012462950234838E-005   0.0000000000000000     
  -2.9879902841304350E-006   2.2142961906169242E-005   0.0000000000000000     
  -2.9885330826584510E-006   2.2273596076194963E-005   0.0000000000000000     
  -2.8012671724259704E-006   1.4201756135687122E-005   0.0000000000000000     
  -2.8070814121702618E-006   1.4322500341671045E-005   0.0000000000000000     
  -2.8128038491139156E-006   1.4443485136993238E-005   0.0000000000000000     
  -2.8184345689536956E-006   1.4564706570157067E-005   0.0000000000000000     
  -2.8239736573863648E-006   1.4686160689665893E-005   0.0000000000000000     
  -2.8294212001086911E-006   1.4807843544023112E-005   0.0000000000000000     
  -2.8347772828174358E-006   1.4929751181732074E-005   0.0000000000000000     
  -2.8400419912093661E-006   1.5051879651296157E-005   0.0000000000000000     
  -2.8452154109812475E-006   1.5174225001218738E-005   0.0000000000000000     
  -2.9197776695708170E-006   1.4203550024305728E-005   0.0000000000000000     
  -2.9258341649611408E-006   1.4324266402776470E-005   0.0000000000000000     
  -2.9317951352058208E-006   1.4445223196331724E-005   0.0000000000000000     
  -2.9376606491094677E-006   1.4566416495393693E-005   0.0000000000000000     
  -2.9434307754766894E-006   1.4687842390384572E-005   0.0000000000000000     
  -2.9491055831120933E-006   1.4809496971726568E-005   0.0000000000000000     
  -2.9546851408202902E-006   1.4931376329841882E-005   0.0000000000000000     
  -2.9601695174058896E-006   1.5053476555152721E-005   0.0000000000000000     
  -2.9655587816734974E-006   1.5175793738081273E-005   0.0000000000000000     
  -3.0385072778413843E-006   1.4205417107724384E-005   0.0000000000000000     
  -3.0448059621495101E-006   1.4326104676695641E-005   0.0000000000000000     
  -3.0510054279834878E-006   1.4447032415312138E-005   0.0000000000000000     
  -3.0571057173382001E-006   1.4568196473835219E-005   0.0000000000000000     
  -3.0631068722085360E-006   1.4689593002526244E-005   0.0000000000000000     
  -3.0690089345893771E-006   1.4811218151646534E-005   0.0000000000000000     
  -3.0748119464756100E-006   1.4933068071457451E-005   0.0000000000000000     
  -3.0805159498621187E-006   1.5055138912220330E-005   0.0000000000000000     
  -3.0861209867437882E-006   1.5177426824196520E-005   0.0000000000000000     
  -3.1574648159536102E-006   1.4207357417730781E-005   0.0000000000000000     
  -3.1640056231203738E-006   1.4328015124208911E-005   0.0000000000000000     
  -3.1704435325360174E-006   1.4448912724209173E-005   0.0000000000000000     
  -3.1767785543515595E-006   1.4570046435466423E-005   0.0000000000000000     
  -3.1830106987180208E-006   1.4691412475715520E-005   0.0000000000000000     
  -3.1891399757864256E-006   1.4813007062691335E-005   0.0000000000000000     
  -3.1951663957077918E-006   1.4934826414128717E-005   0.0000000000000000     
  -3.2010899686331463E-006   1.5056866747762539E-005   0.0000000000000000     
  -3.2069107047135067E-006   1.5179124281327656E-005   0.0000000000000000     
  -3.2766591026234302E-006   1.4209370986112589E-005   0.0000000000000000     
  -3.2834419672587377E-006   1.4329997706096641E-005   0.0000000000000000     
  -3.2901182539525119E-006   1.4450864053297521E-005   0.0000000000000000     
  -3.2966879408612021E-006   1.4571966310272042E-005   0.0000000000000000     
  -3.3031510061412533E-006   1.4693300759577028E-005   0.0000000000000000     
  -3.3095074279491150E-006   1.4814863683769281E-005   0.0000000000000000     
  -3.3157571844412353E-006   1.4936651365405629E-005   0.0000000000000000     
  -3.3219002537740618E-006   1.5058660087042885E-005   0.0000000000000000     
  -3.3279366141040402E-006   1.5180886131237859E-005   0.0000000000000000     
  -3.3960989565667824E-006   1.4211457844657498E-005   0.0000000000000000     
  -3.4031238139496031E-006   1.4332052383139189E-005   0.0000000000000000     
  -3.4100383973220760E-006   1.4452886332851880E-005   0.0000000000000000     
  -3.4168426575787934E-006   1.4573956028236856E-005   0.0000000000000000     
  -3.4235365456143469E-006   1.4695257803735370E-005   0.0000000000000000     
  -3.4301200123233296E-006   1.4816787993788701E-005   0.0000000000000000     
  -3.4365930086003341E-006   1.4938542932838121E-005   0.0000000000000000     
  -3.4429554853399525E-006   1.5060518955324895E-005   0.0000000000000000     
  -3.4492073934367784E-006   1.5182712395690307E-005   0.0000000000000000     
  -3.5157931964996035E-006   1.4213618025153184E-005   0.0000000000000000     
  -3.5230599825779751E-006   1.4334179116116907E-005   0.0000000000000000     
  -3.5302127677338117E-006   1.4454979493146958E-005   0.0000000000000000     
  -3.5372514852159952E-006   1.4576015519345612E-005   0.0000000000000000     
  -3.5441760682734124E-006   1.4697283557815171E-005   0.0000000000000000     
  -3.5509864501549483E-006   1.4818779971657913E-005   0.0000000000000000     
  -3.5576825641094855E-006   1.4940501123976136E-005   0.0000000000000000     
  -3.5642643433859123E-006   1.5062443377872129E-005   0.0000000000000000     
  -3.5707317212331100E-006   1.5184603096448174E-005   0.0000000000000000     
  -3.6357506411378313E-006   1.4215851559387328E-005   0.0000000000000000     
  -3.6432592925288590E-006   1.4336377865810163E-005   0.0000000000000000     
  -3.6506501702768213E-006   1.4457143464457434E-005   0.0000000000000000     
  -3.6579232044844707E-006   1.4578144713583087E-005   0.0000000000000000     
  -3.6650783252545651E-006   1.4699377971441046E-005   0.0000000000000000     
  -3.6721154626898528E-006   1.4820839596285244E-005   0.0000000000000000     
  -3.6790345468930891E-006   1.4942525946369625E-005   0.0000000000000000     
  -3.6858355079670284E-006   1.5064433379948109E-005   0.0000000000000000     
  -3.6925182760144220E-006   1.5186558255274641E-005   0.0000000000000000     
  -3.7559801091974026E-006   1.4218158479147611E-005   0.0000000000000000     
  -3.7637305631872553E-006   1.4338648592999299E-005   0.0000000000000000     
  -3.7713594100402069E-006   1.4459378177058017E-005   0.0000000000000000     
  -3.7788665960958836E-006   1.4580343540934033E-005   0.0000000000000000     
  -3.7862520676939126E-006   1.4701540994237611E-005   0.0000000000000000     
  -3.7935157711739220E-006   1.4822966846579016E-005   0.0000000000000000     
  -3.8006576528755390E-006   1.4944617407568521E-005   0.0000000000000000     
  -3.8076776591383916E-006   1.5066488986816387E-005   0.0000000000000000     
  -3.8145757363021069E-006   1.5188577893932886E-005   0.0000000000000000     
  -2.8452154109812475E-006   1.5174225001218738E-005   0.0000000000000000     
  -2.8502976011128152E-006   1.5296783304869220E-005   0.0000000000000000     
  -2.8552885137157040E-006   1.5419550735081206E-005   0.0000000000000000     
  -2.8601880741845222E-006   1.5542523489554329E-005   0.0000000000000000     
  -2.8649962079138774E-006   1.5665697765988232E-005   0.0000000000000000     
  -2.8697128402983748E-006   1.5789069762082549E-005   0.0000000000000000     
  -2.8743378967326233E-006   1.5912635675536914E-005   0.0000000000000000     
  -2.8788713026112295E-006   1.6036391704050984E-005   0.0000000000000000     
  -2.8833129833288027E-006   1.6160334045324375E-005   0.0000000000000000     
  -2.9655587816734974E-006   1.5175793738081273E-005   0.0000000000000000     
  -2.9708529866240250E-006   1.5298323979363192E-005   0.0000000000000000     
  -2.9760521220435692E-006   1.5421063420987842E-005   0.0000000000000000     
  -2.9811561619145288E-006   1.5544008215258042E-005   0.0000000000000000     
  -2.9861650802193026E-006   1.5667154514476610E-005   0.0000000000000000     
  -2.9910788509402881E-006   1.5790498470946343E-005   0.0000000000000000     
  -2.9958974480598823E-006   1.5914036236970070E-005   0.0000000000000000     
  -3.0006208455604858E-006   1.6037763964850591E-005   0.0000000000000000     
  -3.0052490174244934E-006   1.6161677806890723E-005   0.0000000000000000     
  -3.0861209867437882E-006   1.5177426824196520E-005   0.0000000000000000     
  -3.0916270975110790E-006   1.5299927948420720E-005   0.0000000000000000     
  -3.0970343161367549E-006   1.5422638389021061E-005   0.0000000000000000     
  -3.1023426749891519E-006   1.5545554240899013E-005   0.0000000000000000     
  -3.1075522064366092E-006   1.5668671598956067E-005   0.0000000000000000     
  -3.1126629428474640E-006   1.5791986558093687E-005   0.0000000000000000     
  -3.1176749165900549E-006   1.5915495213213361E-005   0.0000000000000000     
  -3.1225881600327190E-006   1.6039193659216576E-005   0.0000000000000000     
  -3.1274027055437954E-006   1.6163077991004799E-005   0.0000000000000000     
  -3.2069107047135067E-006   1.5179124281327656E-005   0.0000000000000000     
  -3.2126286277945954E-006   1.5301595202043086E-005   0.0000000000000000     
  -3.2182438165009315E-006   1.5424275575064433E-005   0.0000000000000000     
  -3.2237563631517389E-006   1.5547161435031459E-005   0.0000000000000000     
  -3.2291663600662366E-006   1.5670248816583931E-005   0.0000000000000000     
  -3.2344738995636458E-006   1.5793533754361604E-005   0.0000000000000000     
  -3.2396790739631848E-006   1.5917012283004231E-005   0.0000000000000000     
  -3.2447819755840794E-006   1.6040680437151589E-005   0.0000000000000000     
  -3.2497826967455454E-006   1.6164534251443422E-005   0.0000000000000000     
  -3.3279366141040402E-006   1.5180886131237859E-005   0.0000000000000000     
  -3.3338662714951857E-006   1.5303325730231537E-005   0.0000000000000000     
  -3.3396893436417723E-006   1.5425974915001527E-005   0.0000000000000000     
  -3.3454059761456395E-006   1.5548829666209606E-005   0.0000000000000000     
  -3.3510163146086269E-006   1.5671885964517549E-005   0.0000000000000000     
  -3.3565205046325738E-006   1.5795139790587120E-005   0.0000000000000000     
  -3.3619186918193211E-006   1.5918587125080107E-005   0.0000000000000000     
  -3.3672110217707083E-006   1.6042223948658276E-005   0.0000000000000000     
  -3.3723976400885751E-006   1.6166046241983408E-005   0.0000000000000000     
  -3.4492073934367784E-006   1.5182712395690307E-005   0.0000000000000000     
  -3.4553487226334689E-006   1.5305119522987339E-005   0.0000000000000000     
  -3.4613796180649467E-006   1.5427736344715921E-005   0.0000000000000000     
  -3.4673002637142013E-006   1.5550558802987669E-005   0.0000000000000000     
  -3.4731108435642212E-006   1.5673582839914244E-005   0.0000000000000000     
  -3.4788115415979933E-006   1.5796804397607286E-005   0.0000000000000000     
  -3.4844025417985092E-006   1.5920219418178427E-005   0.0000000000000000     
  -3.4898840281487550E-006   1.6043823843739304E-005   0.0000000000000000     
  -3.4952561846317207E-006   1.6167613616401569E-005   0.0000000000000000     
  -3.5707317212331100E-006   1.5184603096448174E-005   0.0000000000000000     
  -3.5770846752300597E-006   1.5306976570311758E-005   0.0000000000000000     
  -3.5833233602761286E-006   1.5429559800091167E-005   0.0000000000000000     
  -3.5894479756007742E-006   1.5552348713919885E-005   0.0000000000000000     
  -3.5954587204334605E-006   1.5675339239931371E-005   0.0000000000000000     
  -3.6013557940036481E-006   1.5798527306259130E-005   0.0000000000000000     
  -3.6071393955407963E-006   1.5921908841036621E-005   0.0000000000000000     
  -3.6128097242743659E-006   1.6045479772397330E-005   0.0000000000000000     
  -3.6183669794338191E-006   1.6169236028474733E-005   0.0000000000000000     
  -3.6925182760144220E-006   1.5186558255274641E-005   0.0000000000000000     
  -3.6990828233055760E-006   1.5308896862206059E-005   0.0000000000000000     
  -3.7055292907809869E-006   1.5431445217010860E-005   0.0000000000000000     
  -3.7118578615487087E-006   1.5554199267560454E-005   0.0000000000000000     
  -3.7180687187167892E-006   1.5677154961726260E-005   0.0000000000000000     
  -3.7241620453932780E-006   1.5800308247379676E-005   0.0000000000000000     
  -3.7301380246862271E-006   1.5923655072392126E-005   0.0000000000000000     
  -3.7359968397036866E-006   1.6047191384634998E-005   0.0000000000000000     
  -3.7417386735537043E-006   1.6170913131979717E-005   0.0000000000000000     
  -3.8145757363021069E-006   1.5188577893932886E-005   0.0000000000000000     
  -3.8213518608806312E-006   1.5310880388671495E-005   0.0000000000000000     
  -3.8280061300851967E-006   1.5433392531358555E-005   0.0000000000000000     
  -3.8345386713013511E-006   1.5556110332463622E-005   0.0000000000000000     
  -3.8409496119146444E-006   1.5679029802456242E-005   0.0000000000000000     
  -3.8472390793106283E-006   1.5802146951805974E-005   0.0000000000000000     
  -3.8534072008748505E-006   1.5925457790982366E-005   0.0000000000000000     
  -3.8594541039928625E-006   1.6048958330454970E-005   0.0000000000000000     
  -3.8653799160502137E-006   1.6172644580693346E-005   0.0000000000000000     
  -2.8833129833288027E-006   1.6160334045324375E-005   0.0000000000000000     
  -2.8876628981548920E-006   1.6284458884733603E-005   0.0000000000000000     
  -2.8919211418588369E-006   1.6408762358362636E-005   0.0000000000000000     
  -2.8960878430849182E-006   1.6533240589972321E-005   0.0000000000000000     
  -2.9001631304774166E-006   1.6657889703323499E-005   0.0000000000000000     
  -2.9041471326806148E-006   1.6782705822176994E-005   0.0000000000000000     
  -2.9080399783387940E-006   1.6907685070293665E-005   0.0000000000000000     
  -2.9118417960962376E-006   1.7032823571434346E-005   0.0000000000000000     
  -2.9155527145972250E-006   1.7158117449359873E-005   0.0000000000000000     
  -3.0052490174244934E-006   1.6161677806890723E-005   0.0000000000000000     
  -3.0097819589013840E-006   1.6285773922408466E-005   0.0000000000000000     
  -3.0142197503089381E-006   1.6410048498782546E-005   0.0000000000000000     
  -3.0185624932320197E-006   1.6534497730406892E-005   0.0000000000000000     
  -3.0228102892554893E-006   1.6659117811675415E-005   0.0000000000000000     
  -3.0269632399642099E-006   1.6783904936982047E-005   0.0000000000000000     
  -3.0310214469430403E-006   1.6908855300720695E-005   0.0000000000000000     
  -3.0349850117768441E-006   1.7033965097285282E-005   0.0000000000000000     
  -3.0388540360504818E-006   1.7159230521069731E-005   0.0000000000000000     
  -3.1274027055437954E-006   1.6163077991004799E-005   0.0000000000000000     
  -3.1321185897693215E-006   1.6287144335132650E-005   0.0000000000000000     
  -3.1367358664661284E-006   1.6411388944767306E-005   0.0000000000000000     
  -3.1412545936687463E-006   1.6535808104729061E-005   0.0000000000000000     
  -3.1456748294117062E-006   1.6660398099838210E-005   0.0000000000000000     
  -3.1499966317295411E-006   1.6785155214915054E-005   0.0000000000000000     
  -3.1542200586567787E-006   1.6910075734779914E-005   0.0000000000000000     
  -3.1583451682279525E-006   1.7035155944253071E-005   0.0000000000000000     
  -3.1623720184775914E-006   1.7160392128154832E-005   0.0000000000000000     
  -3.2497826967455454E-006   1.6164534251443422E-005   0.0000000000000000     
  -3.2546813165779720E-006   1.6288569818125990E-005   0.0000000000000000     
  -3.2594778614564122E-006   1.6412783459871514E-005   0.0000000000000000     
  -3.2641723445670831E-006   1.6537171556958690E-005   0.0000000000000000     
  -3.2687647790962058E-006   1.6661730489666246E-005   0.0000000000000000     
  -3.2732551782299998E-006   1.6786456638272864E-005   0.0000000000000000     
  -3.2776435551546825E-006   1.6911346383057275E-005   0.0000000000000000     
  -3.2819299230564747E-006   1.7036396104298176E-005   0.0000000000000000     
  -3.2861142951215925E-006   1.7161602182274281E-005   0.0000000000000000     
  -3.3723976400885751E-006   1.6166046241983408E-005   0.0000000000000000     
  -3.3774786651465963E-006   1.6290050066608281E-005   0.0000000000000000     
  -3.3824541064057910E-006   1.6414231807649735E-005   0.0000000000000000     
  -3.3873239460990160E-006   1.6538587931115657E-005   0.0000000000000000     
  -3.3920881664591272E-006   1.6663114903013888E-005   0.0000000000000000     
  -3.3967467497189765E-006   1.6787809189352298E-005   0.0000000000000000     
  -3.4012996781114228E-006   1.6912667256138736E-005   0.0000000000000000     
  -3.4057469338693219E-006   1.7037685569381073E-005   0.0000000000000000     
  -3.4100884992255251E-006   1.7162860595087170E-005   0.0000000000000000     
  -3.4952561846317207E-006   1.6167613616401569E-005   0.0000000000000000     
  -3.5005191612944572E-006   1.6291584775799324E-005   0.0000000000000000     
  -3.5056729724402712E-006   1.6415733751656590E-005   0.0000000000000000     
  -3.5107175984365301E-006   1.6540057071219828E-005   0.0000000000000000     
  -3.5156530196506047E-006   1.6664551261735528E-005   0.0000000000000000     
  -3.5204792164498626E-006   1.6789212850450174E-005   0.0000000000000000     
  -3.5251961692016736E-006   1.6914038364610247E-005   0.0000000000000000     
  -3.5298038582734047E-006   1.7039024331462227E-005   0.0000000000000000     
  -3.5343022640324286E-006   1.7164167278252587E-005   0.0000000000000000     
  -3.6183669794338191E-006   1.6169236028474733E-005   0.0000000000000000     
  -3.6238113308408214E-006   1.6293173640918956E-005   0.0000000000000000     
  -3.6291428306858560E-006   1.6417289055446634E-005   0.0000000000000000     
  -3.6343615017516133E-006   1.6541578821291071E-005   0.0000000000000000     
  -3.6394673668207805E-006   1.6666039487685538E-005   0.0000000000000000     
  -3.6444604486760480E-006   1.6790667603863349E-005   0.0000000000000000     
  -3.6493407701001047E-006   1.6915459719057777E-005   0.0000000000000000     
  -3.6541083538756406E-006   1.7040412382502101E-005   0.0000000000000000     
  -3.6587632227853429E-006   1.7165522143429634E-005   0.0000000000000000     
  -3.7417386735537043E-006   1.6170913131979717E-005   0.0000000000000000     
  -3.7473636996049497E-006   1.6294816357186962E-005   0.0000000000000000     
  -3.7528720522685479E-006   1.6418897482574465E-005   0.0000000000000000     
  -3.7582638562162469E-006   1.6543153025349236E-005   0.0000000000000000     
  -3.7635392361197926E-006   1.6667579502718295E-005   0.0000000000000000     
  -3.7686983166509226E-006   1.6792173431888626E-005   0.0000000000000000     
  -3.7737412224813902E-006   1.6916931330067254E-005   0.0000000000000000     
  -3.7786680782829386E-006   1.7041849714461185E-005   0.0000000000000000     
  -3.7834790087273073E-006   1.7166925102277411E-005   0.0000000000000000     
  -3.8653799160502137E-006   1.6172644580693346E-005   0.0000000000000000     
  -3.8711847934061062E-006   1.6296512619823168E-005   0.0000000000000000     
  -3.8768690083143529E-006   1.6420558796594678E-005   0.0000000000000000     
  -3.8824328620024211E-006   1.6544779527414220E-005   0.0000000000000000     
  -3.8878766556977749E-006   1.6669171228688159E-005   0.0000000000000000     
  -3.8932006906278801E-006   1.6793730316822845E-005   0.0000000000000000     
  -3.8984052680202033E-006   1.6918453208224645E-005   0.0000000000000000     
  -3.9034906891022085E-006   1.7043336319299910E-005   0.0000000000000000     
  -3.9084572551013640E-006   1.7168376066455007E-005   0.0000000000000000     
  -2.9155527145972250E-006   1.7158117449359873E-005   0.0000000000000000     
  -2.9191728052666632E-006   1.7283562862527478E-005   0.0000000000000000     
  -2.9227019106519620E-006   1.7409156108179947E-005   0.0000000000000000     
  -2.9261398160811507E-006   1.7534893518256470E-005   0.0000000000000000     
  -2.9294863068822642E-006   1.7660771424696217E-005   0.0000000000000000     
  -2.9327411683833342E-006   1.7786786159438366E-005   0.0000000000000000     
  -2.9359041859123921E-006   1.7912934054422110E-005   0.0000000000000000     
  -2.9389751447974728E-006   1.8039211441586622E-005   0.0000000000000000     
  -2.9419538303666081E-006   1.8165614652871074E-005   0.0000000000000000     
  -3.0388540360504818E-006   1.7159230521069731E-005   0.0000000000000000     
  -3.0426286088924453E-006   1.7284647765744963E-005   0.0000000000000000     
  -3.0463087696057326E-006   1.7410213022089854E-005   0.0000000000000000     
  -3.0498945450369787E-006   1.7535922480160348E-005   0.0000000000000000     
  -3.0533859620328106E-006   1.7661772330012325E-005   0.0000000000000000     
  -3.0567830474398631E-006   1.7787758761701687E-005   0.0000000000000000     
  -3.0600858281047631E-006   1.7913877965284339E-005   0.0000000000000000     
  -3.0632943308741426E-006   1.8040126130816187E-005   0.0000000000000000     
  -3.0664085825946324E-006   1.8166499448353123E-005   0.0000000000000000     
  -3.1623720184775914E-006   1.7160392128154832E-005   0.0000000000000000     
  -3.1663007080968371E-006   1.7285780528202751E-005   0.0000000000000000     
  -3.1701314984032691E-006   1.7411317213703384E-005   0.0000000000000000     
  -3.1738646913710738E-006   1.7536998210860500E-005   0.0000000000000000     
  -3.1775005889744425E-006   1.7662819545877913E-005   0.0000000000000000     
  -3.1810394931875608E-006   1.7788777244959406E-005   0.0000000000000000     
  -3.1844817059846197E-006   1.7914867334308776E-005   0.0000000000000000     
  -3.1878275293398059E-006   1.8041085840129813E-005   0.0000000000000000     
  -3.1910772652273087E-006   1.8167428788626327E-005   0.0000000000000000     
  -3.2861142951215925E-006   1.7161602182274281E-005   0.0000000000000000     
  -3.2901967775155105E-006   1.7286960911656113E-005   0.0000000000000000     
  -3.2941778483207009E-006   1.7412468244681444E-005   0.0000000000000000     
  -3.2980580785988955E-006   1.7538120047979868E-005   0.0000000000000000     
  -3.3018380394118197E-006   1.7663912188180971E-005   0.0000000000000000     
  -3.3055183018212037E-006   1.7789840531914356E-005   0.0000000000000000     
  -3.3090994368887725E-006   1.7915900945809612E-005   0.0000000000000000     
  -3.3125820156762575E-006   1.8042089296496315E-005   0.0000000000000000     
  -3.3159666092453833E-006   1.8168401450604079E-005   0.0000000000000000     
  -3.4100884992255251E-006   1.7162860595087170E-005   0.0000000000000000     
  -3.4143244917841273E-006   1.7288188677860239E-005   0.0000000000000000     
  -3.4184555706341608E-006   1.7413665676684962E-005   0.0000000000000000     
  -3.4224825302358980E-006   1.7539287329141372E-005   0.0000000000000000     
  -3.4264061650496105E-006   1.7665049372809492E-005   0.0000000000000000     
  -3.4302272695355636E-006   1.7790947545269367E-005   0.0000000000000000     
  -3.4339466381540332E-006   1.7916977584101017E-005   0.0000000000000000     
  -3.4375650653652878E-006   1.8043135226884496E-005   0.0000000000000000     
  -3.4410833456295979E-006   1.8169416211199805E-005   0.0000000000000000     
  -3.5343022640324286E-006   1.7164167278252587E-005   0.0000000000000000     
  -3.5386915255383548E-006   1.7289463588570371E-005   0.0000000000000000     
  -3.5429724166197800E-006   1.7414909071374878E-005   0.0000000000000000     
  -3.5471458697975405E-006   1.7540499391967969E-005   0.0000000000000000     
  -3.5512128175924722E-006   1.7666230215651474E-005   0.0000000000000000     
  -3.5551741925254169E-006   1.7792097207727262E-005   0.0000000000000000     
  -3.5590309271172109E-006   1.7918096033497198E-005   0.0000000000000000     
  -3.5627839538886906E-006   1.8044222358263125E-005   0.0000000000000000     
  -3.5664342053606981E-006   1.8170471847326894E-005   0.0000000000000000     
  -3.6587632227853429E-006   1.7165522143429634E-005   0.0000000000000000     
  -3.6633055534138623E-006   1.7290785405541746E-005   0.0000000000000000     
  -3.6677361375536891E-006   1.7416197990412121E-005   0.0000000000000000     
  -3.6720559207992774E-006   1.7541755574082576E-005   0.0000000000000000     
  -3.6762658487450761E-006   1.7667453832594903E-005   0.0000000000000000     
  -3.6803668669855387E-006   1.7793288441990887E-005   0.0000000000000000     
  -3.6843599211151165E-006   1.7919255078312340E-005   0.0000000000000000     
  -3.6882459567282641E-006   1.8045349417601035E-005   0.0000000000000000     
  -3.6920259194194288E-006   1.8171567135898776E-005   0.0000000000000000     
  -3.7834790087273073E-006   1.7166925102277411E-005   0.0000000000000000     
  -3.7881742500463132E-006   1.7292153890529561E-005   0.0000000000000000     
  -3.7927544847120188E-006   1.7417531995457601E-005   0.0000000000000000     
  -3.7972205067565655E-006   1.7543055213108141E-005   0.0000000000000000     
  -3.8015731102120833E-006   1.7668719339527767E-005   0.0000000000000000     
  -3.8058130891107013E-006   1.7794520170763057E-005   0.0000000000000000     
  -3.8099412374845635E-006   1.7920453502860618E-005   0.0000000000000000     
  -3.8139583493657969E-006   1.8046515131867016E-005   0.0000000000000000     
  -3.8178652187865363E-006   1.8172700853828848E-005   0.0000000000000000     
  -3.9084572551013640E-006   1.7168376066455007E-005   0.0000000000000000     
  -3.9133052900713742E-006   1.7293568805289055E-005   0.0000000000000000     
  -3.9180352093709044E-006   1.7418910648172262E-005   0.0000000000000000     
  -3.9226474511848639E-006   1.7544397646667608E-005   0.0000000000000000     
  -3.9271424536981540E-006   1.7670025852338067E-005   0.0000000000000000     
  -3.9315206550956830E-006   1.7795791316746614E-005   0.0000000000000000     
  -3.9357824935623574E-006   1.7921690091456218E-005   0.0000000000000000     
  -3.9399284072830822E-006   1.8047718228029861E-005   0.0000000000000000     
  -3.9439588344427655E-006   1.8173871778030529E-005   0.0000000000000000     
  -2.9419538303666081E-006   1.8165614652871074E-005   0.0000000000000000     
  -2.9448400575147005E-006   1.8292140225858655E-005   0.0000000000000000     
  -2.9476337594041505E-006   1.8418785520708547E-005   0.0000000000000000     
  -2.9503348987642271E-006   1.8545548103223940E-005   0.0000000000000000     
  -2.9529434383241972E-006   1.8672425539208014E-005   0.0000000000000000     
  -2.9554593408133314E-006   1.8799415394463971E-005   0.0000000000000000     
  -2.9578825689609004E-006   1.8926515234794979E-005   0.0000000000000000     
  -2.9602130854961737E-006   1.9053722626004240E-005   0.0000000000000000     
  -2.9624508531484187E-006   1.9181035133894930E-005   0.0000000000000000     
  -3.0664085825946324E-006   1.8166499448353123E-005   0.0000000000000000     
  -3.0694285765132381E-006   1.8292994379923333E-005   0.0000000000000000     
  -3.0723541714784587E-006   1.8419608475444022E-005   0.0000000000000000     
  -3.0751851927391733E-006   1.8546339556804710E-005   0.0000000000000000     
  -3.0779214655442564E-006   1.8673185445894883E-005   0.0000000000000000     
  -3.0805628151425833E-006   1.8800143964604045E-005   0.0000000000000000     
  -3.0831090667830310E-006   1.8927212934821685E-005   0.0000000000000000     
  -3.0855600457144752E-006   1.9054390178437310E-005   0.0000000000000000     
  -3.0879155771857931E-006   1.9181673517340408E-005   0.0000000000000000     
  -3.1910772652273087E-006   1.8167428788626327E-005   0.0000000000000000     
  -3.1942311109896219E-006   1.8293892551558015E-005   0.0000000000000000     
  -3.1972888454424506E-006   1.8420474882908346E-005   0.0000000000000000     
  -3.2002501427698075E-006   1.8547173882216677E-005   0.0000000000000000     
  -3.2031146771557029E-006   1.8673987649022376E-005   0.0000000000000000     
  -3.2058821227841495E-006   1.8800914282864833E-005   0.0000000000000000     
  -3.2085521538391573E-006   1.8927951883283408E-005   0.0000000000000000     
  -3.2111244445047374E-006   1.9055098549817473E-005   0.0000000000000000     
  -3.2135986689649029E-006   1.9182352382006404E-005   0.0000000000000000     
  -3.3159666092453833E-006   1.8168401450604079E-005   0.0000000000000000     
  -3.3192536235569480E-006   1.8294833689954587E-005   0.0000000000000000     
  -3.3224428041680238E-006   1.8421383957137940E-005   0.0000000000000000     
  -3.3255337315347512E-006   1.8548050609936349E-005   0.0000000000000000     
  -3.3285259861132699E-006   1.8674832006132017E-005   0.0000000000000000     
  -3.3314191483597222E-006   1.8801726503507156E-005   0.0000000000000000     
  -3.3342127987302473E-006   1.8928732459843963E-005   0.0000000000000000     
  -3.3369065176809861E-006   1.9055848232924644E-005   0.0000000000000000     
  -3.3394998856680789E-006   1.9183072180531415E-005   0.0000000000000000     
  -3.4410833456295979E-006   1.8169416211199805E-005   0.0000000000000000     
  -3.4445020768283094E-006   1.8295816744304895E-005   0.0000000000000000     
  -3.4478210705270758E-006   1.8422334912169240E-005   0.0000000000000000     
  -3.4510399417126266E-006   1.8548969270440263E-005   0.0000000000000000     
  -3.4541583053716918E-006   1.8675718374765337E-005   0.0000000000000000     
  -3.4571757764909953E-006   1.8802580780791841E-005   0.0000000000000000     
  -3.4600919700572709E-006   1.8929555044167177E-005   0.0000000000000000     
  -3.4629065010572468E-006   1.9056639720538741E-005   0.0000000000000000     
  -3.4656189844776497E-006   1.9183833365553919E-005   0.0000000000000000     
  -3.5664342053606981E-006   1.8170471847326894E-005   0.0000000000000000     
  -3.5699824334167993E-006   1.8296840663800785E-005   0.0000000000000000     
  -3.5734286673915065E-006   1.8423326962038688E-005   0.0000000000000000     
  -3.5767727559820591E-006   1.8549929394204932E-005   0.0000000000000000     
  -3.5800145478856966E-006   1.8676646612463838E-005   0.0000000000000000     
  -3.5831538917996626E-006   1.8803477268979708E-005   0.0000000000000000     
  -3.5861906364211990E-006   1.8930420015916880E-005   0.0000000000000000     
  -3.5891246304475437E-006   1.9057473505439665E-005   0.0000000000000000     
  -3.5919557225759411E-006   1.9184636389712386E-005   0.0000000000000000     
  -3.6920259194194288E-006   1.8171567135898776E-005   0.0000000000000000     
  -3.6957006559355148E-006   1.8297904397634129E-005   0.0000000000000000     
  -3.6992706176332130E-006   1.8424359320782697E-005   0.0000000000000000     
  -3.7027361570216691E-006   1.8550930511706885E-005   0.0000000000000000     
  -3.7060976266100230E-006   1.8677616576769053E-005   0.0000000000000000     
  -3.7093553789074198E-006   1.8804416122331605E-005   0.0000000000000000     
  -3.7125097664229990E-006   1.8931327754756897E-005   0.0000000000000000     
  -3.7155611416659072E-006   1.9058350080407347E-005   0.0000000000000000     
  -3.7185098571452828E-006   1.9185481705645309E-005   0.0000000000000000     
  -3.8178652187865363E-006   1.8172700853828848E-005   0.0000000000000000     
  -3.8216627069975458E-006   1.8299006894996783E-005   0.0000000000000000     
  -3.8253519441240920E-006   1.8425431202437720E-005   0.0000000000000000     
  -3.8289341275100804E-006   1.8551972153422635E-005   0.0000000000000000     
  -3.8324104544994030E-006   1.8678628125222513E-005   0.0000000000000000     
  -3.8357821224359568E-006   1.8805397495108325E-005   0.0000000000000000     
  -3.8390503286636415E-006   1.8932278640351055E-005   0.0000000000000000     
  -3.8422162705263609E-006   1.9059269938221676E-005   0.0000000000000000     
  -3.8452811453680044E-006   1.9186369765991157E-005   0.0000000000000000     
  -3.9439588344427655E-006   1.8173871778030529E-005   0.0000000000000000     
  -3.9478745492159873E-006   1.8300147105080600E-005   0.0000000000000000     
  -3.9516776697360462E-006   1.8426541821040158E-005   0.0000000000000000     
  -3.9553706501259152E-006   1.8553053849828703E-005   0.0000000000000000     
  -3.9589559445085636E-006   1.8679681115365723E-005   0.0000000000000000     
  -3.9624360070069688E-006   1.8806421541570709E-005   0.0000000000000000     
  -3.9658132917440992E-006   1.8933273052363163E-005   0.0000000000000000     
  -3.9690902528429295E-006   1.9060233571662568E-005   0.0000000000000000     
  -3.9722693444264352E-006   1.9187301023388444E-005   0.0000000000000000     
  -2.9624508531484187E-006   1.9181035133894930E-005   0.0000000000000000     
  -2.9645956687089390E-006   1.9308450656015369E-005   0.0000000000000000     
  -2.9666466652171622E-006   1.9435968416894384E-005   0.0000000000000000     
  -2.9686028097745512E-006   1.9563587972805957E-005   0.0000000000000000     
  -2.9704630694825669E-006   1.9691308880024034E-005   0.0000000000000000     
  -2.9722264114426690E-006   1.9819130694822594E-005   0.0000000000000000     
  -2.9738918027563192E-006   1.9947052973475589E-005   0.0000000000000000     
  -2.9754582105249800E-006   2.0075075272256991E-005   0.0000000000000000     
  -2.9769246018501111E-006   2.0203197147440760E-005   0.0000000000000000     
  -3.0879155771857931E-006   1.9181673517340408E-005   0.0000000000000000     
  -3.0901754859791408E-006   1.9309061013395017E-005   0.0000000000000000     
  -3.0923395950098046E-006   1.9436551688363323E-005   0.0000000000000000     
  -3.0944077267263551E-006   1.9564144803982056E-005   0.0000000000000000     
  -3.0963797035773595E-006   1.9691839621987945E-005   0.0000000000000000     
  -3.0982553480113869E-006   1.9819635404117723E-005   0.0000000000000000     
  -3.1000344824770061E-006   1.9947531412108095E-005   0.0000000000000000     
  -3.1017169294227848E-006   2.0075526907695820E-005   0.0000000000000000     
  -3.1033025112972924E-006   2.0203621152617592E-005   0.0000000000000000     
  -3.2135986689649029E-006   1.9182352382006404E-005   0.0000000000000000     
  -3.2159746977001958E-006   1.9309711612833514E-005   0.0000000000000000     
  -3.2182531863772841E-006   1.9437175009057858E-005   0.0000000000000000     
  -3.2204349869593679E-006   1.9564741470882429E-005   0.0000000000000000     
  -3.2225209514096467E-006   1.9692409898510229E-005   0.0000000000000000     
  -3.2245119316913207E-006   1.9820179192144253E-005   0.0000000000000000     
  -3.2264087797675896E-006   1.9948048251987485E-005   0.0000000000000000     
  -3.2282123476016533E-006   2.0076015978242935E-005   0.0000000000000000     
  -3.2299234871567116E-006   2.0204081271113589E-005   0.0000000000000000     
  -3.3394998856680789E-006   1.9183072180531415E-005   0.0000000000000000     
  -3.3419928663145373E-006   1.9310402694741241E-005   0.0000000000000000     
  -3.3443869559108441E-006   1.9437838304810135E-005   0.0000000000000000     
  -3.3466840339143569E-006   1.9565377574288898E-005   0.0000000000000000     
  -3.3488859797824305E-006   1.9693019066728308E-005   0.0000000000000000     
  -3.3509946729724200E-006   1.9820761345679159E-005   0.0000000000000000     
  -3.3530119929416810E-006   1.9948602974692227E-005   0.0000000000000000     
  -3.3549398191475675E-006   2.0076542517318310E-005   0.0000000000000000     
  -3.3567800310474346E-006   2.0204578537108179E-005   0.0000000000000000     
  -3.4656189844776497E-006   1.9183833365553919E-005   0.0000000000000000     
  -3.4682295542645944E-006   1.9311134499528548E-005   0.0000000000000000     
  -3.4707404202017287E-006   1.9438541501452286E-005   0.0000000000000000     
  -3.4731543110320920E-006   1.9566052714983270E-005   0.0000000000000000     
  -3.4754739554987170E-006   1.9693666483779613E-005   0.0000000000000000     
  -3.4777020823446368E-006   1.9821381151499409E-005   0.0000000000000000     
  -3.4798414203128876E-006   1.9949195061800796E-005   0.0000000000000000     
  -3.4818946981465063E-006   2.0077106558341894E-005   0.0000000000000000     
  -3.4838646445885247E-006   2.0205113984780792E-005   0.0000000000000000     
  -3.5919557225759411E-006   1.9184636389712386E-005   0.0000000000000000     
  -3.5946843239927955E-006   1.9311907267605792E-005   0.0000000000000000     
  -3.5973130958411825E-006   1.9439284524816459E-005   0.0000000000000000     
  -3.5998452617533392E-006   1.9566766493747378E-005   0.0000000000000000     
  -3.6022840453615063E-006   1.9694351506801545E-005   0.0000000000000000     
  -3.6046326702979209E-006   1.9822037896381973E-005   0.0000000000000000     
  -3.6068943601948227E-006   1.9949823994891675E-005   0.0000000000000000     
  -3.6090723386844506E-006   2.0077708134733622E-005   0.0000000000000000     
  -3.6111698293990435E-006   2.0205688648310848E-005   0.0000000000000000     
  -3.7185098571452828E-006   1.9185481705645309E-005   0.0000000000000000     
  -3.7213567379415768E-006   1.9312721239383352E-005   0.0000000000000000     
  -3.7241044994204498E-006   1.9440067300734776E-005   0.0000000000000000     
  -3.7267563295188699E-006   1.9567518511363031E-005   0.0000000000000000     
  -3.7293154161738053E-006   1.9695073492931555E-005   0.0000000000000000     
  -3.7317849473222233E-006   1.9822730867103838E-005   0.0000000000000000     
  -3.7341681109010943E-006   1.9950489255543326E-005   0.0000000000000000     
  -3.7364680948473834E-006   2.0078347279913488E-005   0.0000000000000000     
  -3.7386880870980589E-006   2.0206303561877776E-005   0.0000000000000000     
  -3.8452811453680044E-006   1.9186369765991157E-005   0.0000000000000000     
  -3.8482463585533654E-006   1.9313576655271598E-005   0.0000000000000000     
  -3.8511141475307687E-006   1.9440889755039378E-005   0.0000000000000000     
  -3.8538869577694461E-006   1.9568308368612031E-005   0.0000000000000000     
  -3.8565672347386161E-006   1.9695831799307062E-005   0.0000000000000000     
  -3.8591574239074947E-006   1.9823459350441954E-005   0.0000000000000000     
  -3.8616599707453137E-006   1.9951190325334241E-005   0.0000000000000000     
  -3.8640773207212849E-006   2.0079024027301431E-005   0.0000000000000000     
  -3.8664119193046368E-006   2.0206959759661010E-005   0.0000000000000000     
  -3.9722693444264352E-006   1.9187301023388444E-005   0.0000000000000000     
  -3.9753527482705900E-006   1.9314473755680866E-005   0.0000000000000000     
  -3.9783415567633919E-006   1.9441751813562407E-005   0.0000000000000000     
  -3.9812365899458425E-006   1.9569135666276222E-005   0.0000000000000000     
  -3.9840386678589415E-006   1.9696625783065465E-005   0.0000000000000000     
  -3.9867486105436895E-006   1.9824222633173302E-005   0.0000000000000000     
  -3.9893672380410873E-006   1.9951926685842888E-005   0.0000000000000000     
  -3.9918953703921354E-006   2.0079738410317390E-005   0.0000000000000000     
  -3.9943338276378379E-006   2.0207658275839970E-005   0.0000000000000000     
  -2.9769246018501111E-006   2.0203197147440760E-005   0.0000000000000000     
  -2.9782900043519046E-006   2.0331420405367181E-005   0.0000000000000000     
  -2.9795536877254740E-006   2.0459755852641756E-005   0.0000000000000000     
  -2.9807149821846647E-006   2.0588216545936344E-005   0.0000000000000000     
  -2.9817732179433195E-006   2.0716815541922768E-005   0.0000000000000000     
  -2.9827277252152835E-006   2.0845565897272877E-005   0.0000000000000000     
  -2.9835778342144009E-006   2.0974480668658490E-005   0.0000000000000000     
  -2.9843228751545154E-006   2.1103572912751465E-005   0.0000000000000000     
  -2.9849621782494720E-006   2.1232855686223622E-005   0.0000000000000000     
  -3.1033025112972924E-006   2.0203621152617592E-005   0.0000000000000000     
  -3.1047905306297221E-006   2.0331816073555007E-005   0.0000000000000000     
  -3.1061782102717527E-006   2.0460124256968966E-005   0.0000000000000000     
  -3.1074622531556945E-006   2.0588560954265257E-005   0.0000000000000000     
  -3.1086393622138526E-006   2.0717141416849644E-005   0.0000000000000000     
  -3.1097062403785342E-006   2.0845880896127890E-005   0.0000000000000000     
  -3.1106595905820441E-006   2.0974794643505761E-005   0.0000000000000000     
  -3.1114961157566899E-006   2.1103897910389035E-005   0.0000000000000000     
  -3.1122125188347771E-006   2.1233205948183469E-005   0.0000000000000000     
  -3.2299234871567116E-006   2.0204081271113589E-005   0.0000000000000000     
  -3.2315419301991880E-006   2.0332246063211030E-005   0.0000000000000000     
  -3.2330629277083892E-006   2.0460524416781166E-005   0.0000000000000000     
  -3.2344806104668472E-006   2.0588933426478462E-005   0.0000000000000000     
  -3.2357891092570946E-006   2.0717490186957423E-005   0.0000000000000000     
  -3.2369825548616605E-006   2.0846211792872513E-005   0.0000000000000000     
  -3.2380550780630788E-006   2.0975115338878237E-005   0.0000000000000000     
  -3.2390008096438794E-006   2.1104217919629072E-005   0.0000000000000000     
  -3.2398138803865920E-006   2.1233536629779494E-005   0.0000000000000000     
  -3.3567800310474346E-006   2.0204578537108179E-005   0.0000000000000000     
  -3.3585329008030703E-006   2.0332712911169705E-005   0.0000000000000000     
  -3.3601922713939851E-006   2.0460960770839020E-005   0.0000000000000000     
  -3.3617503785041226E-006   2.0589340561009324E-005   0.0000000000000000     
  -3.3631994578174269E-006   2.0717870726573812E-005   0.0000000000000000     
  -3.3645317450178389E-006   2.0846569712425690E-005   0.0000000000000000     
  -3.3657394757893038E-006   2.0975455963458164E-005   0.0000000000000000     
  -3.3668148858157645E-006   2.1104547924564444E-005   0.0000000000000000     
  -3.3677502107811624E-006   2.1233864040637708E-005   0.0000000000000000     
  -3.4838646445885247E-006   2.0205113984780792E-005   0.0000000000000000     
  -3.4857521401841316E-006   2.0333219154265468E-005   0.0000000000000000     
  -3.4875506726871416E-006   2.0461437757903219E-005   0.0000000000000000     
  -3.4892518816535186E-006   2.0589788956291193E-005   0.0000000000000000     
  -3.4908474066392307E-006   2.0718291910026513E-005   0.0000000000000000     
  -3.4923288872002410E-006   2.0846965779706323E-005   0.0000000000000000     
  -3.4936879628925180E-006   2.0975829725927771E-005   0.0000000000000000     
  -3.4949162732720274E-006   2.1104902909287996E-005   0.0000000000000000     
  -3.4960054578947339E-006   2.1234204490384129E-005   0.0000000000000000     
  -3.6111698293990435E-006   2.0205688648310848E-005   0.0000000000000000     
  -3.6131883460851372E-006   2.0333767329332751E-005   0.0000000000000000     
  -3.6151225629464600E-006   2.0461959816734439E-005   0.0000000000000000     
  -3.6169654443010349E-006   2.0590285210757431E-005   0.0000000000000000     
  -3.6187099544668859E-006   2.0718762611643221E-005   0.0000000000000000     
  -3.6203490577620398E-006   2.0847411119633344E-005   0.0000000000000000     
  -3.6218757185045180E-006   2.0976249834969302E-005   0.0000000000000000     
  -3.6232829010123470E-006   2.1105297857892609E-005   0.0000000000000000     
  -3.6245635696035490E-006   2.1234574288644790E-005   0.0000000000000000     
  -3.7386880870980589E-006   2.0206303561877776E-005   0.0000000000000000     
  -3.7408302162488529E-006   2.0334359973206007E-005   0.0000000000000000     
  -3.7428923735305420E-006   2.0462531386093363E-005   0.0000000000000000     
  -3.7448713908326708E-006   2.0590835922841402E-005   0.0000000000000000     
  -3.7467641000447780E-006   2.0719291705751652E-005   0.0000000000000000     
  -3.7485673330564094E-006   2.0847916857125668E-005   0.0000000000000000     
  -3.7502779217571036E-006   2.0976729499264988E-005   0.0000000000000000     
  -3.7518926980364051E-006   2.1105747754471140E-005   0.0000000000000000     
  -3.7534084937838554E-006   2.1234989745045694E-005   0.0000000000000000     
  -3.8664119193046368E-006   2.0206959759661010E-005   0.0000000000000000     
  -3.8686664484180406E-006   2.0334999622719661E-005   0.0000000000000000     
  -3.8708445357979886E-006   2.0463156904740662E-005   0.0000000000000000     
  -3.8729500456344226E-006   2.0591447690976470E-005   0.0000000000000000     
  -3.8749868421172866E-006   2.0719888066679496E-005   0.0000000000000000     
  -3.8769587894365208E-006   2.0848494117102209E-005   0.0000000000000000     
  -3.8788697517820735E-006   2.0977281927497053E-005   0.0000000000000000     
  -3.8807235933438838E-006   2.1106267583116459E-005   0.0000000000000000     
  -3.8825241783118952E-006   2.1235467169212859E-005   0.0000000000000000     
  -3.9943338276378379E-006   2.0207658275839970E-005   0.0000000000000000     
  -3.9966857403354671E-006   2.0335688814708160E-005   0.0000000000000000     
  -3.9989634811074005E-006   2.0463840811437016E-005   0.0000000000000000     
  -4.0011817330922923E-006   2.0592127113595978E-005   0.0000000000000000     
  -4.0033551794287907E-006   2.0720560568754459E-005   0.0000000000000000     
  -4.0054985032555526E-006   2.0849154024481910E-005   0.0000000000000000     
  -4.0076263877112253E-006   2.0977920328347747E-005   0.0000000000000000     
  -4.0097535159344622E-006   2.1106872327921402E-005   0.0000000000000000     
  -4.0118945710639175E-006   2.1236022870772321E-005   0.0000000000000000     
  -2.9849621782494720E-006   2.1232855686223622E-005   0.0000000000000000     
  -2.9854996506982980E-006   2.1362338241731031E-005   0.0000000000000000     
  -2.9859575076407525E-006   2.1492014615866646E-005   0.0000000000000000     
  -2.9863625412017771E-006   2.1621875041207640E-005   0.0000000000000000     
  -2.9867415435063154E-006   2.1751909750331213E-005   0.0000000000000000     
  -2.9871213066793100E-006   2.1882108975814556E-005   0.0000000000000000     
  -2.9875286228457019E-006   2.2012462950234838E-005   0.0000000000000000     
  -2.9879902841304350E-006   2.2142961906169242E-005   0.0000000000000000     
  -2.9885330826584510E-006   2.2273596076194963E-005   0.0000000000000000     
  -3.1122125188347771E-006   2.1233205948183469E-005   0.0000000000000000     
  -3.1128105531087609E-006   2.1362731888368493E-005   0.0000000000000000     
  -3.1133121733116818E-006   2.1492480382718095E-005   0.0000000000000000     
  -3.1137443845367334E-006   2.1622453963079913E-005   0.0000000000000000     
  -3.1141341918771056E-006   2.1752655161301622E-005   0.0000000000000000     
  -3.1145086004259875E-006   2.1883086509230840E-005   0.0000000000000000     
  -3.1148946152765703E-006   2.2013750538715237E-005   0.0000000000000000     
  -3.1153192415220462E-006   2.2144649781602439E-005   0.0000000000000000     
  -3.1158094842556036E-006   2.2275786769740116E-005   0.0000000000000000     
  -3.2398138803865920E-006   2.1233536629779494E-005   0.0000000000000000     
  -3.2404936972727883E-006   2.1363088695096093E-005   0.0000000000000000     
  -3.2410607720801875E-006   2.1492891865793813E-005   0.0000000000000000     
  -3.2415408927855505E-006   2.1622964023199702E-005   0.0000000000000000     
  -3.2419598473656330E-006   2.1753323048640803E-005   0.0000000000000000     
  -3.2423434237971964E-006   2.1883986823444175E-005   0.0000000000000000     
  -3.2427174100569970E-006   2.2014973228936856E-005   0.0000000000000000     
  -3.2431075941217954E-006   2.2146300146445886E-005   0.0000000000000000     
  -3.2435397639683500E-006   2.2277985457298317E-005   0.0000000000000000     
  -3.3677502107811624E-006   2.1233864040637708E-005   0.0000000000000000     
  -3.3685427203995658E-006   2.1363425595364718E-005   0.0000000000000000     
  -3.3692098205055316E-006   2.1493265227606309E-005   0.0000000000000000     
  -3.3697739509637389E-006   2.1623418415016894E-005   0.0000000000000000     
  -3.3702575516388687E-006   2.1753920635250834E-005   0.0000000000000000     
  -3.3706830623956020E-006   2.1884807365962540E-005   0.0000000000000000     
  -3.3710729230986208E-006   2.2016114084806391E-005   0.0000000000000000     
  -3.3714495736126015E-006   2.2147876269436786E-005   0.0000000000000000     
  -3.3718354538022273E-006   2.2280129397508106E-005   0.0000000000000000     
  -3.4960054578947339E-006   2.1234204490384129E-005   0.0000000000000000     
  -3.4969512596982754E-006   2.1363759522625252E-005   0.0000000000000000     
  -3.4977658351469704E-006   2.1493616630668106E-005   0.0000000000000000     
  -3.4984654440868091E-006   2.1623830331981377E-005   0.0000000000000000     
  -3.4990663463637797E-006   2.1754455144033755E-005   0.0000000000000000     
  -3.4995848018238706E-006   2.1885545584293921E-005   0.0000000000000000     
  -3.5000370703130735E-006   2.2017156170230556E-005   0.0000000000000000     
  -3.5004394116773777E-006   2.2149341419312351E-005   0.0000000000000000     
  -3.5008080857627697E-006   2.2282155849007986E-005   0.0000000000000000     
  -3.6245635696035490E-006   2.1234574288644790E-005   0.0000000000000000     
  -3.6257129523781001E-006   2.1364107410328588E-005   0.0000000000000000     
  -3.6267353325637675E-006   2.1493962237491695E-005   0.0000000000000000     
  -3.6276372571702728E-006   2.1624212967543067E-005   0.0000000000000000     
  -3.6284252732073320E-006   2.1754933797891620E-005   0.0000000000000000     
  -3.6291059276846687E-006   2.1886198925946306E-005   0.0000000000000000     
  -3.6296857676119977E-006   2.2018082549116043E-005   0.0000000000000000     
  -3.6301713399990401E-006   2.2150658864809793E-005   0.0000000000000000     
  -3.6305691918555157E-006   2.2284002070436476E-005   0.0000000000000000     
  -3.7534084937838554E-006   2.1234989745045694E-005   0.0000000000000000     
  -3.7548214356482228E-006   2.1364486191925608E-005   0.0000000000000000     
  -3.7561248293151811E-006   2.1494318210589604E-005   0.0000000000000000     
  -3.7573112752296407E-006   2.1624579515151844E-005   0.0000000000000000     
  -3.7583733738364977E-006   2.1755363819726486E-005   0.0000000000000000     
  -3.7593037255806593E-006   2.1886764838427672E-005   0.0000000000000000     
  -3.7600949309070273E-006   2.2018876285369565E-005   0.0000000000000000     
  -3.7607395902605076E-006   2.2151791874666322E-005   0.0000000000000000     
  -3.7612303040860004E-006   2.2285605320432102E-005   0.0000000000000000     
  -3.8825241783118952E-006   2.1235467169212859E-005   0.0000000000000000     
  -3.8842703467178257E-006   2.1364912800867204E-005   0.0000000000000000     
  -3.8859408419604750E-006   2.1494700712474336E-005   0.0000000000000000     
  -3.8875093832804216E-006   2.1624943168257621E-005   0.0000000000000000     
  -3.8889496899182416E-006   2.1755752432440404E-005   0.0000000000000000     
  -3.8902354811145086E-006   2.1887240769246021E-005   0.0000000000000000     
  -3.8913404761097994E-006   2.2019520442897827E-005   0.0000000000000000     
  -3.8922383941446935E-006   2.2152703717619151E-005   0.0000000000000000     
  -3.8929029544597601E-006   2.2286902857633382E-005   0.0000000000000000     
  -4.0118945710639175E-006   2.1236022870772321E-005   0.0000000000000000     
  -4.0140533227960933E-006   2.1365404170604268E-005   0.0000000000000000     
  -4.0161898870589078E-006   2.1495125905658417E-005   0.0000000000000000     
  -4.0182534663381318E-006   2.1625317120310301E-005   0.0000000000000000     
  -4.0201932631195340E-006   2.1756106858935427E-005   0.0000000000000000     
  -4.0219584798888853E-006   2.1887624165909325E-005   0.0000000000000000     
  -4.0234983191319551E-006   2.2019998085607506E-005   0.0000000000000000     
  -4.0247619833345152E-006   2.2153357662405507E-005   0.0000000000000000     
  -4.0256986749823332E-006   2.2287831940678835E-005   0.0000000000000000     
 </DataArray>
 <DataArray  type="Float64" Name="stress" NumberOfComponents="3" format="ascii">
   5998.9684625997634      -0.21201682690252710       0.21541689768616878     
   5905.7077497675291       0.16452547429503284        8.0702909330475969E-002
   5812.3315170748483       0.29337215596638089       -1.2911127745855626E-003
   5718.8584927446300       0.23695062730030259       -3.8704840207998380E-002
   5625.3074049978386        5.7688292023158283E-002  -3.9677944470557364E-002
   5531.6969820550348      -0.18198744816572798       -1.2350097180338911E-002
   5438.0459521372932      -0.41964918904932347        3.5139029829564551E-002
   5344.3730434672889      -0.59286952252909941        9.4649765141432515E-002
   5250.6969842652616      -0.63922104747507547       0.15804243751346669     
   5811.8597516422515        2.7660442910246275E-002   92.591212000775201     
   5721.4757069332945       0.15856912779759114        92.378314507827199     
   5631.0110700961486       0.19977434910606462        92.212343864132720     
   5540.4721788234665       0.17240175070310215        92.091607083464567     
   5449.8653708097472        9.7576980160738458E-002   92.014411180260083     
   5359.1969837490587       -3.5743150021971815E-003   91.979063168995751     
   5268.4733553348078      -0.10992649044305836        91.983870064069848     
   5177.7008232622047      -0.20035389571376072        92.027138879704751     
   5086.8857252235766      -0.25373088945661948        92.107176630474640     
   5624.7211625393438       0.23396132795346603        181.91649430520812     
   5537.1722948755232       0.16132270086473000        181.68243821232915     
   5449.5838667290509       0.12769865637415023        181.48099981070672     
   5361.9524295304800       0.12159396298943648        181.31549031046166     
   5274.2745347103455       0.13151338941634094        181.18922092249662     
   5186.5467336984320       0.14596170177242129        181.10550285742116     
   5098.7655779253537       0.15344366888894001        181.06764732562974     
   5010.9276188219092       0.14246405961102937        181.07896553810198     
   4923.0294078178185       0.10152763983046498        181.14276870529471     
   5437.5444419419473       0.40440982329573671        268.21923283658373     
   5352.8039507180274       0.17471732799708661        268.00756032560304     
   5268.0669131743753        8.2246940049117256E-002   267.80871861494995     
   5183.3226987424487        9.1563430597943807E-002   267.62958062230462     
   5098.5606768518210       0.16723156564989949        267.47701926427209     
   5013.7702169329777       0.27381611308646825        267.35790745808299     
   4928.9406884167629       0.37588184256060231        267.27911812079191     
   4844.0614607333764       0.43799352132668901        267.24752417023183     
   4759.1219033131747       0.42471591699495548        267.26999852290140     
   5250.3213365015890       0.53652992480147077        351.52739661924971     
   5168.3771115858435       0.20068414579077398        351.36816714994643     
   5086.4772156318631        6.8521059545673779E-002   351.19954216545136     
   5004.6064403337532        8.9346312488487456E-002   351.03051379992837     
   4922.7495773856872       0.21246555251150312        350.87007418716013     
   4840.8914184818450       0.38718442665549446        350.72721546130543     
   4759.0167553162592       0.56280858169361636        350.61092975614213     
   4677.1103795830550       0.68864366475327188        350.53020920571856     
   4595.1570829763186       0.71399532280179301        350.49404594430058     
   5063.0435928691732       0.62784562703109259        431.86895467766146     
   4983.8982146047620       0.24115429421863155        431.77874498793057     
   4904.8317803013169        9.1622874549784683E-002   431.65751234985191     
   4825.8271081809025       0.12197877433322901        431.51492562468331     
   4746.8670164646146       0.27494939803773377        431.36065367346731     
   4667.9343233743648       0.49326215136170504        431.20436535732972     
   4589.0118471314163       0.71964443910542286        431.05572953730587     
   4510.0824059573042       0.89682366592683138        430.92441507469249     
   4431.1288180735464       0.96752723719009737        430.82009083035388     
   4875.7029576958603       0.67588092594178306        509.27187603655273     
   4799.3736968993262       0.29805890861166517        509.25378014235389     
   4723.1476133826527       0.15665424482062917        509.18667105629100     
   4647.0081561588131       0.19649697681484213        509.07945187777796     
   4570.9387742403587       0.36241714678385506        508.94102570490060     
   4494.9229166396617       0.59924479559435895        508.78029563648016     
   4418.9440323695790       0.85180996655390118        508.60616477086268     
   4342.9855704424672        1.0649427004607332        508.42753620652320     
   4267.0309798710095        1.1834730399930322        508.25331304212460     
   4688.2911776334795       0.67815981710805318        583.76412972140747     
   4614.8099955950784       0.37332912833426235        583.80775891558574     
   4541.4417210760539       0.26871703114011325        583.79106017298955     
   4468.1730381434863       0.31993708384902675        583.72072834022777     
   4394.9906308647087       0.48260284360480910        583.60345826348771     
   4321.8811833073023       0.71232786863811270        583.44594478902798     
   4248.8313795381391       0.96472571597200840        583.25488276273370     
   4175.8279036251006        1.1954099446936652        583.03696703134722     
   4102.8574396349713        1.3599941108761868        582.79889244074809     
   4500.7999993325102       0.63220629539455331        655.37368475595031     
   4430.2135478169521       0.46889608962169405        655.45516760998692     
   4359.7311095810246       0.43291309303344860        655.47472158766629     
   4289.3452080101770       0.49933525733558781        655.43539079332254     
   4219.0483664900712       0.64324053528912373        655.34021933109398     
   4148.8331084064866       0.83970687923260812        655.19225130498228     
   4078.6919571451567        1.0638122415643920        654.99453081940453     
   4008.6174360916048        1.2906345739031622        654.75010197872382     
   3938.6020686317688        1.4952518295920072        654.46200888703970     
   5250.6969842652616      -0.63922104747507547       0.15804243751346669     
   5157.1061043642221      -0.49600979710521642       0.17820637168454873     
   5063.6615504030842      -0.19115245137663806       0.12887000606579277     
   4970.3412758131271       0.20186242637805663        3.3152338452844113E-002
   4877.1232340251718       0.60954627312116827       -8.5827633417292784E-002
   4783.9853784697461       0.95841052364153256      -0.20495091180761341     
   4690.9056625783305        1.1749666163232177      -0.30109849864881572     
   4597.8620397810628        1.1857259845621684      -0.35115139665713929     
   4504.8324635095287       0.91720006730088244      -0.33199060745908321     
   5086.8857252235766      -0.25373088945661948        92.107176630474640     
   4996.1384324216197      -0.22600025712699789        92.163663063781385     
   4905.5583993640648      -0.10949376711846526        92.144210227054899     
   4815.1355887081399        6.2330770994321938E-002   92.059023584843104     
   4724.8599631115549       0.25601554989020769        91.918308601469064     
   4634.7214852309435       0.43810275819623712        91.732270741558892     
   4544.7101177233108       0.57513458560879371        91.511115469374587     
   4454.8158232462401       0.63365322468553131        91.265048249625920     
   4365.0285644559453       0.58020086244187041        91.004274546536422     
   4923.0294078178185       0.10152763983046498        181.14276870529471     
   4835.1802518494806        5.4535723064418562E-002   181.19752860382954     
   4747.4915280416244        3.2290249738935017E-002   181.17932546536147     
   4659.9628931062116        3.3646926761775831E-002   181.08788318366837     
   4572.5940037560331        5.7461463083427589E-002   180.92292565201498     
   4485.3845167036998       0.10258956784082329        180.68417676419867     
   4398.3340886622409       0.16788695071568327        180.37136041363812     
   4311.4423763435734       0.25220931838771321        179.98420049401616     
   4224.7090364608657       0.35441238125486052        179.52242089904379     
   4759.1219033131747       0.42471591699495548        267.26999852290140     
   4674.2126881273143       0.33993578971058014        267.29293692149895     
   4589.4362645912497       0.22679804688186778        267.25260268710798     
   4504.7996683025922       0.10875468047629511        267.14067010486713     
   4420.3099348591450        9.2576832564645883E-003   266.94881345984641     
   4335.9740998582156       -4.8240953867434655E-002   266.66870703724555     
   4251.7991988972499       -4.0289239457479198E-002   266.29202512220303     
   4167.7922675739883        5.6564819019058632E-002   265.81044199971933     
   4083.9603414859153       0.26577321344711891        265.21563195493178     
   4595.1570829763186       0.71399532280179301        350.49404594430058     
   4513.2168667329452       0.62453758399828985        350.46302194667942     
   4431.3679371681055       0.46662807112761584        350.38242885859285     
   4349.6223935937933       0.28059782348054796        350.23832331909364     
   4267.9923353214945       0.10677788024077017        350.01676196727112     
   4186.4898616633745       -1.4500718366434739E-002   349.70380144219621     
   4105.1270719311860       -4.2906933276981363E-002   349.28549838281475     
   4023.9160654367101        6.1890274615507224E-002   348.74790942869453     
   3942.8689414923911       0.34022194712815690        348.07709121881993     
   4431.1288180735464       0.96752723719009737        430.82009083035388     
   4352.1739131453278       0.90267875061795166        430.72091760945619     
   4273.2618739272684       0.74437876849015083        430.58719094620977     
   4194.4075482747348       0.54212014226845895        430.40178179641958     
   4115.6257840433054       0.34539572379867423        430.14756111576776     
   4036.9314290886832       0.20369836547388331        429.80739985966648     
   3958.3393312665253       0.16652091932860458        429.36416898380992     
   3879.8643384322359       0.28335623683301492        428.80073944387044     
   3801.5212984413338       0.60369716989907829        428.09998219524959     
   4267.0309798710095        1.1834730399930322        508.25331304212460     
   4191.0649528430622        1.1686969331115051        508.07975783905817     
   4115.0934030236222        1.0526485854711609        507.88527591584847     
   4039.1316116415364       0.88626542650399642        507.65198450718589     
   3963.1948599255074       0.72048488502377950        507.36200084745445     
   3887.2984291040334       0.60624438976788042        506.99744217119854     
   3811.4576004059350       0.59448136977107424        506.54042571298481     
   3735.6876550598372       0.73613325397377594        505.97306870744933     
   3660.0038742944334        1.0821374712829765        505.27748838887322     
   4102.8574396349713        1.3599941108761868        582.79889244074809     
   4029.8711113043696        1.4169297739733793        582.55267656576768     
   3956.8378526123715        1.3840359687610544        582.29507073411639     
   3883.7710629899830        1.3059774650955660        582.00987042156999     
   3810.6841418682452        1.2274190331495447        581.68087110421186     
   3737.5904886787566        1.1930254448473079        581.29186825792021     
   3664.5035028522202        1.2474614693048807        580.82665735864248     
   3591.4365838198059        1.4353918770800647        580.26903388212963     
   3518.4031310128439        1.8014814391431173        579.60279330443552     
   3938.6020686317688        1.4952518295920072        654.46200888703970     
   3868.5735140083489        1.6417149182987032        654.15280771916935     
   3798.4705508485567        1.7311393647150908        653.83496236693588     
   3728.3023816156342        1.7942000462389842        653.49637850993565     
   3658.0782087725047        1.8615718394562464        653.12496182813641     
   3587.8072347821649        1.9639296211537385        652.70861800096566     
   3517.4986621076359        2.1319482675362451        652.23525270853770     
   3447.1616932118027        2.3963026552758038        651.69277163045717     
   3376.8055305579674        2.7876676621292518        651.06908044649572     
   4504.8324635095287       0.91720006730088244      -0.33199060745908321     
   4411.8778313380626       0.34986316644835824      -0.17517579805690001     
   4319.0973875980671      -0.40798789341351949       0.12920373166509394     
   4226.5266058554689       -1.2381078917210289       0.51647252948308942     
   4134.2009596761027       -2.0222516096787331       0.92195514346648089     
   4042.1559226249269       -2.6421738303363327        1.2809761217042097     
   3950.4269682686058       -2.9796293322010570        1.5288600119724667     
   3859.0495701716104       -2.9163728992239157        1.6009313621720542     
   3768.0592019006963       -2.3341593095467488        1.4325147205067517     
   4365.0285644559453       0.58020086244187041        91.004274546536422     
   4275.3180167437795       0.38849396180489748        90.814656038713025     
   4185.6713418105346        9.0536683863092549E-002   90.748333301944214     
   4096.1047317770699      -0.25969723529760813        90.764930146518381     
   4006.6343787649180      -0.60823405684664067        90.824070382391653     
   3917.2764748947025      -0.90110004565212876        90.885377819803566     
   3828.0472122876163       -1.0843214645176431        90.908476268937449     
   3738.9627830659579       -1.1039245723065960        90.852989540194741     
   3650.0393793499261      -0.90593563516836184        90.678541443529710     
   4224.7090364608657       0.35441238125486052        179.52242089904379     
   4138.0594342851591       0.45156558492521981        179.07409575863542     
   4051.4195959713084       0.52294132053793874        178.71377348418906     
   3964.7901695574888       0.57069971543273823        178.42088939061136     
   3878.1718030813859       0.59700089561420100        178.17487879241813     
   3791.5651445811473       0.60400498772173705        177.95517700516109     
   3704.9708420947113       0.59387211843568366        177.74121934344393     
   3618.3895436597168       0.56876241309714715        177.51244112223421     
   3531.8218973145131       0.53083599984734064        177.24827765670577     
   4083.9603414859153       0.26577321344711891        265.21563195493178     
   4000.2215025347145       0.57490360669885376        264.58620331977659     
   3916.4817031005982       0.93109192351266756        264.00282094418952     
   3832.7297844999989        1.2971425521627680        263.46024389035875     
   3748.9545880482769        1.6358598774643269        262.95323122033557     
   3665.1449550614489        1.9100482859500971        262.47654199642784     
   3581.2897268553834        2.0825121634247807        262.02493528092759     
   3497.3777447461302        2.1160558972592298        261.59317013606443     
   3413.3978500492294        1.9734838724405108        261.17600562380176     
   3942.8689414923911       0.34022194712815690        348.07709121881993     
   3861.9236400650025       0.79433359835957162        347.33403868001704     
   3780.9972162183799        1.3568543990340913        346.59277234805802     
   3700.0704419072026        1.9636908649938505        345.85888727460156     
   3619.1240890862468        2.5507495122378714        345.13797851207232     
   3538.1389297110863        3.0539368591746552        344.43564111225004     
   3457.0957357363236        3.4091594210701714        343.75747012703073     
   3375.9752791171677        3.5523237155264269        343.10906060862055     
   3294.7583318087459        3.4193362594437531        342.49600760889228     
   3801.5212984413338       0.60369716989907829        428.09998219524959     
   3723.2852654492485        1.1456811333362111        427.30066179730102     
   3645.1056883443030        1.8420946522221584        426.46092436156010     
   3566.9590070820623        2.6144042448022446        425.59271317232992     
   3488.8216616174059        3.3840764277326798        424.70797151399728     
   3410.6700919064451        4.0725777210175238        423.81864267097552     
   3332.4807379041849        4.6013746415103469        422.93666992732346     
   3254.2300395660795        4.8919337073862152        422.07399656754541     
   3175.8944368473180        4.8657214360923717        421.24256587588593     
   3660.0038742944334        1.0821374712829765        505.27748838887322     
   3584.4257972598111        1.6647717824528172        504.46913262942110     
   3508.9466724985923        2.4286785898334529        503.58457365067380     
   3433.5423453274225        3.2933422824091849        502.63761521207488     
   3358.1886610634729        4.1782472505863097        501.64206107252465     
   3282.8614650239415        5.0028778851224160        500.61171499121127     
   3207.5366025253566        5.6867185743869868        499.56038072735748     
   3132.1899188849306        6.1492537092969997        498.50186204006303     
   3056.7972594196726        6.3099676794902280        497.44996268868931     
   3518.4031310128439        1.8014814391431173        579.60279330443552     
   3445.4646540695639        2.3874311176937226        578.82251113440395     
   3372.6597217009335        3.1584721171698220        577.94101688161788     
   3299.9673219466044        4.0445645697795953        576.96948702261091     
   3227.3664428462098        4.9756686076743790        575.91909803371584     
   3154.8360724395593        5.8817443634688971        574.80102639164591     
   3082.3551987667533        6.6927519707611509        573.62644857289536     
   3009.9028098669996        7.3386515604458964        572.40654105374210     
   2937.4578937803899        7.7494032660431458        571.15248031104386     
   3376.8055305579674        2.7876676621292518        651.06908044649572     
   3306.5212544513406        3.3494847114448021        650.34385727021970     
   3236.3843889714876        4.0733411409917153        649.50755072024936     
   3166.3808022419471        4.9121306959925732        648.56422223275717     
   3096.4963623867866        5.8187471237193904        647.51793324407708     
   3026.7169375296644        6.7460841694168039        646.37274519071877     
   2957.0283957942952        7.6470355785519359        645.13271950927719     
   2887.4166053045283        8.4744950974632047        643.80191763599339     
   2817.8674341839633        9.1813564718517000        642.38440100724836     
   3768.0592019006963       -2.3341593095467488        1.4325147205067517     
   3677.5292072490975       -1.1638148347492461       0.93902714614860816     
   3587.4532387198587       0.39819661941669438       0.17179400129245170     
   3497.7472329470093        2.0716638335100015      -0.72999771266517710     
   3408.3271265636822        3.5763755839843725       -1.6271609928226254     
   3319.1088562035602        4.6321206504640031       -2.3805088374461683     
   3230.0083584996005        4.9586878090824484       -2.8508542446066114     
   3140.9415700841532        4.2758658344505420       -2.8990102121139323     
   3051.8244275922170        2.3034435101715189       -2.3857897380004531     
   3650.0393793499261      -0.90593563516836184        90.678541443529710     
   3561.5652114663635      -0.38643489479909476        90.257140057641379     
   3473.7867410244166       0.41933501442304078        89.536369943730989     
   3386.6575370721716        1.3566042527033915        88.589219635913508     
   3300.1311686557806        2.2706029742425926        87.488677668401692     
   3214.1612048229758        3.0065613377987574        86.307732575305636     
   3128.7012146208453        3.4097095002343849        85.119372890447153     
   3043.7047670958964        3.3252776168396849        83.996587148512376     
   2959.1254312957908        2.5984958463942576        83.012363883417777     
   3531.8218973145131       0.53083599984734064        177.24827765670577     
   3445.6552753994215       0.59013494263740540        176.80571166245826     
   3360.2663223187005       0.82094151854312258        176.06777015543670     
   3275.6395942046652        1.1717761689747022        175.05295489965675     
   3191.7596471904353        1.5911593372929929        173.77976765989644     
   3108.6110374085224        2.0276114656372783        172.26671020000276     
   3026.1783209923301        2.4296529982997299        170.53228428459741     
   2944.4460540739365        2.7458043757343376        168.59499167801519     
   2863.3987927864091        2.9245860414777098        166.47333414462878     
   3413.3978500492294        1.9734838724405108        261.17600562380176     
   3329.7440146806471        1.7492793689764312        260.63772614701384     
   3246.8235816056035        1.5824958308153327        259.82992786230290     
   3164.6454487146157        1.5027928932590839        258.72833746213581     
   3083.2185138981208        1.5398301913629666        257.30868163915039     
   3002.5516750464462        1.7232673591873890        255.54668708602978     
   2922.6538300504299        2.0827640327094059        253.41808049556997     
   2843.5338767999788        2.6479798451367742        250.89858856048562     
   2765.2007131858122        3.4485744324526877        247.96393797312678     
   3294.7583318087459        3.4193362594437531        342.49600760889228     
   3213.7760449412708        3.0743830724688905        341.80616769802066     
   3133.3901178891515        2.6834776544551460        340.88677629091910     
   3053.6271449719839        2.3352677377647524        339.68249670648686     
   2974.5137205099750        2.1184010563183620        338.13799226410936     
   2896.0764388232051        2.1215253436331523        336.19792628281886     
   2818.3418942319495        2.4332883338616966        333.80696208167274     
   2741.3366810561329        3.1423377602801565        330.90976297975914     
   2665.0873936156704        4.3373213558709267        327.45099229629358     
   3175.8944368473180        4.8657214360923717        421.24256587588593     
   3097.6959818130122        4.5488307425792982        420.36402050170756     
   3019.8975301720097        4.1033666878859094        419.30224866733136     
   2942.5367273460438        3.6548140110475060        417.98256201629954     
   2865.6512187565581        3.3286574502661779        416.33027219227552     
   2789.2786498254427        3.2503817452587782        414.27069083925818     
   2713.4566659742559        3.5454716342726442        411.72912960065361     
   2638.2229126243110        4.3394118554025454        408.63090012037861     
   2563.6150351974775        5.7576871480786167        404.90131404184081     
   3056.7972594196726        6.3099676794902280        497.44996268868931     
   2981.4484409273555        6.1560070683660797        496.36426874457959     
   2906.2774174582578        5.8216426340661656        495.14027821778740     
   2831.3262402070877        5.4470450255591913        493.69566277454447     
   2756.6369603691855        5.1723848940135895        491.94809408135234     
   2682.2516291397224        5.1378328898334757        489.81524380479505     
   2608.2122977138733        5.4835596638502011        487.21478361088839     
   2534.5610172863958        6.3497358650710112        484.06438516632625     
   2461.3398390528637        7.8765321455081221        480.28172013734820     
   2937.4578937803899        7.7494032660431458        571.15248031104386     
   2864.9780379161530        7.8792967399962208        569.85989661316626     
   2792.4613787508201        7.8177851926744779        568.46479816866145     
   2719.9477279247180        7.6975740916958557        566.88892836480625     
   2647.4768970786167        7.6513689063165202        565.05403058904346     
   2575.0886978528811        7.8118751043140264        562.88184822860376     
   2502.8229418879750        8.3117981541251993        560.29412467030284     
   2430.7194408248006        9.2838435252626823        557.21260330195037     
   2358.8180063034351        10.860716684744375        553.55902751037547     
   2817.8674341839633        9.1813564718517000        642.38440100724836     
   2748.2293884110686        9.7020844469511758        640.90388829372273     
   2678.3810130534903        10.071274065814009        639.33974174613695     
   2608.3532348688846        10.392014520545899        637.62948817039489     
   2538.1769806154925        10.767395005615981        635.71065437292589     
   2467.8831770511138        11.300504713367786        633.52076715979865     
   2397.5027509335400        12.094432836458623        630.99735333713124     
   2327.0666290207400        13.252268568122304        628.07793971132014     
   2256.6057380706234        14.877101101665744        624.70005308837187     
   3051.8244275922170        2.3034435101715189       -2.3857897380004531     
   2963.4619981223686      -0.85542283173481337      -0.99184719588365811     
   2876.8131444923192       -4.5849244620496847        1.2166668766560995     
   2792.0244969128439       -8.3962940111006219        3.8006952344370033     
   2709.2426855920603       -11.800764118855341        6.3211806328538698     
   2628.6143407399736       -14.309567418406800        8.3390658269008036     
   2550.2860925663513       -15.433936543901154        9.4152935719335300     
   2474.4045712812213       -14.685104128384182        9.1108066233615244     
   2401.1164070937502       -11.574302808199718        6.9865477363499284     
   2959.1254312957908        2.5984958463942576        83.012363883417777     
   2875.1088140973702        1.1984814251170519        82.557603762271654     
   2791.8879189504705      -0.61432650086931062        82.769947978641341     
   2709.5474097578253       -2.5577149224119466        83.342495856680927     
   2628.1719504234361       -4.3494708260900552        83.968346719997243     
   2547.8462048510137       -5.7073811994331436        84.340599892793279     
   2468.6548369431703       -6.3492330342794503        84.152354698878625     
   2390.6825106050869       -5.9928133127102683        83.096710462202779     
   2314.0138897391935       -4.3559090270828165        80.866766506688364     
   2863.3987927864091        2.9245860414777098        166.47333414462878     
   2782.7789100711784        2.8663903482330397        164.58290011153267     
   2702.3611219914060        2.5794200542320596        163.19648135223952     
   2622.1784993627698        2.1739112120100117        162.11838464941565     
   2542.2641130007510        1.7600998731152231        161.15291678589841     
   2462.6510337208665        1.4482220891834459        160.10438454497961     
   2383.3723323387953        1.3485139124148873        158.77709470930361     
   2304.4610796696434        1.5712113934613399        156.97535406211543     
   2225.9503465296948        2.2265505863538237        154.50346938632910     
   2765.2007131858122        3.4485744324526877        247.96393797312678     
   2687.2030462022431        4.3675319830136914        245.01746512582147     
   2609.0782182133967        5.2499545848704656        242.40839870428138     
   2530.8180801646367        6.0686787224527734        240.03130384059116     
   2452.4144830016353        6.7965408817826756        237.78074566710421     
   2373.8592776697451        7.4063775470422115        235.55128931633524     
   2295.1443151141461        7.8710252021019187        233.23749992065109     
   2216.2614462809156        8.1633203339375768        230.73394261234927     
   2137.2025221149088        8.2560994256343747        227.93518252355267     
   2665.0873936156704        4.3373213558709267        327.45099229629358     
   2589.1119826500076        5.9211343783591701        323.79472207829792     
   2512.8846722138842        7.6509164694776928        320.31783174159779     
   2436.3664666008854        9.3966819412466975        316.98419565828948     
   2359.5183701036722        11.028445102866385        313.75768820043885     
   2282.3013870163290        12.416220267637868        310.60218374019121     
   2204.6765216318049        13.430021745246108        307.48155664976412     
   2126.6047782437308        13.939863848106029        304.35968130103242     
   2048.0471611453968        13.815760886969201        301.20043206656129     
   2563.6150351974775        5.7576871480786167        404.90131404184081     
   2489.2364795735853        7.7464255822325185        400.84809424232225     
   2414.6259485905489        10.035945087974255        396.83691217110749     
   2339.7239731077252        12.428015196732986        392.88000233039463     
   2264.4710839842351        14.724405438717554        388.98959922242415     
   2188.8078120799232        16.726885346750578        385.17793734959974     
   2112.6746882531997        18.237224449017845        381.45725121392366     
   2036.0122433639392        19.057192278303773        377.83977531769511     
   1958.7610082711335        18.988558364867686        374.33774416339367     
   2461.3398390528637        7.8765321455081221        480.28172013734820     
   2388.3072971318511        10.062633641489128        476.11100489132480     
   2315.1475119408528        12.658679818969631        471.87777169959963     
   2241.7909141231030        15.432772822158086        467.62166608486376     
   2168.1679343215178        18.153014794145406        463.38233356994584     
   2094.2090031798334        20.587507880674821        459.19941967749628     
   2019.8445513406095        22.504354223516998        455.11256993017213     
   1945.0050094470132        23.671655966726576        451.16142985078523     
   1869.6208081422003        23.857515253998940        447.38564496202167     
   2358.8180063034351        10.860716684744375        553.55902751037547     
   2287.0551954838579        13.088986603822718        549.51687729855280     
   2215.2948268623204        15.772760041656170        545.35254203389957     
   2143.4676040839686        18.681049148532111        541.11212914973521     
   2071.5042307932090        21.582866072668025        536.84174607964724     
   1999.3354106354998        24.247222965484411        532.58750025710606     
   1926.8918472554863        26.443131975748088        528.39549911581094     
   1854.1042442984369        27.939605254449248        524.31185008933460     
   1780.9033054090544        28.505654950481244        520.38266061103025     
   2256.6057380706234        14.877101101665744        624.70005308837187     
   2186.2109347889404        17.044712517951325        620.99913473768459     
   2115.9133579528593        19.631825136287830        617.17335488085962     
   2045.6543574272532        22.442938506070163        613.25433375293994     
   1975.3752830764620        25.282552175717569        609.27369158821546     
   1905.0174847658732        27.955165695996016        605.26304862162158     
   1834.5223123599910        30.265278615238230        601.25402508797731     
   1763.8311157236540        32.017390482912674        597.27824122192465     
   1692.8852447216962        33.016000848809540        593.36731725833295     
   2401.1164070937502       -11.574302808199718        6.9865477363499284     
   2329.7935357249639       -6.1034552797149217        3.1572073656371078     
   2259.4673016209817       0.59021151067452138       -1.5512320687365120     
   2189.7734480819695        7.2925085638605651       -6.5108898643466162     
   2120.3477184060421        12.789246872992635       -11.093885317967468     
   2050.8258558918392        15.866237434260256       -14.672337726969511     
   1980.8436038381221        15.309291242853760       -16.618366388950420     
   1910.0367055440511        9.9042192966337552       -16.304090600757760     
   1838.0409043076006       -1.5631674113158169       -13.101629659869479     
   2314.0138897391935       -4.3559090270828165        80.866766506688364     
   2239.2078733335165       -1.1731239831068478        77.400383219242173     
   2166.6135748646811        3.1216529752871338        73.067385537258019     
   2096.0009799707859        7.7617073082387833        68.208819610730487     
   2027.1400742911928        11.980324480687955        63.165731589243656     
   1959.8008434623935        15.010789947228886        58.279167622630872     
   1893.7532731239060        16.086389172978443        53.890173860938013     
   1828.7673489139131        14.440407618745326        50.339796453752243     
   1764.6130564699683        9.3061307427703923        47.969081550799977     
   2225.9503465296948        2.2265505863538237        154.50346938632910     
   2149.0443411061501        3.6992111525689779        151.21833196315885     
   2074.8458681614043        6.0358613374359038        147.17813176627533     
   2003.2358933686087        8.8397200515869372        142.48912361711930     
   1934.0953824036926        11.714006214657275        137.25756233689711     
   1867.3053009407515        14.261938740443611        131.58970274766276     
   1802.7466146548270        16.086736545708959        125.59179967043076     
   1740.3002892208208        16.791618546654718        119.37010792673290     
   1679.8472903132954        15.979803658570290        113.03088233816942     
   2137.2025221149088        8.2560994256343747        227.93518252355267     
   2059.3796807029134        8.5365726281735306        224.69338207225624     
   1984.1896151068588        9.3404666765193269        220.87999806589778     
   1911.6010087348996        10.563392931337034        216.41853722221268     
   1841.5825449948597        12.100962752309783        211.23250625905123     
   1774.1029072959113        13.848787503012659        205.24541189425400     
   1709.1307790462572        15.702478543918573        198.38076084536831     
   1646.6348436541912        17.557647236461207        190.56205983002067     
   1586.5837845278484        19.309904940826129        181.71281556632945     
   2048.0471611453968        13.815760886969201        301.20043206656129     
   1970.2906337821551        13.361982938898791        297.90786202090993     
   1894.6702492968568        13.043099072348241        294.27197588362958     
   1821.2191465283004        12.969572083417461        290.08557549349126     
   1749.9704643156026        13.251864769391318        285.14146268895325     
   1680.9573414976944        14.000439926309809        279.23243930859968     
   1614.2129169141476        15.325760352851034        272.15130719129888     
   1549.7703294036303        17.338288844558974        263.69086817543842     
   1487.6627178052559        20.148488198652444        253.64392409992769     
   1958.7610082711335        18.988558364867686        374.33774416339367     
   1881.8539420031145        18.198464583088594        370.94410028389126     
   1806.3132043267715        17.151388603191549        367.45305666749050     
   1732.2131272090617        16.095103648571239        363.57875349808893     
   1659.6280426162102        15.277382939492441        359.03533095991088     
   1588.6322825158218        14.945999701687072        353.53692923727561     
   1519.3001788745771        15.348727157360372        346.79768851404498     
   1451.7060636590111        16.733338528186607        338.53174897461423     
   1385.9242688361617        19.347607037819785        328.45325080304497     
   1869.6208081422003        23.857515253998940        447.38564496202167     
   1794.1463470249487        23.069040058820065        443.88442533578717     
   1719.1439137921466        21.672965347903073        440.52223186467268     
   1644.7057712361116        19.976833762572824        436.98658630317851     
   1570.9241821481164        18.288187940282000        432.96501040558331     
   1497.8914093200231        16.914570520677614        428.14502592617674     
   1425.6997155434779        16.163524142364054        422.21415461940512     
   1354.4413636103498        16.342591445067399        414.85991823935660     
   1284.2086163121455        17.759315067224804        405.76983854033989     
   1780.9033054090544        28.505654950481244        520.38266061103025     
   1707.2445905065022        27.996731862728552        516.81116565102013     
   1633.1878112885611        26.615459385460554        513.57849292314108     
   1558.8198990689389        24.651608564215223        510.39758897628735     
   1484.2277851615181        22.394950445243694        506.98140035968174     
   1409.4984008794513        20.135256072467598        503.04287362229979     
   1334.7186775367513        18.162296492702865        498.29495531307703     
   1259.9755464471705        16.765842751446144        492.45059198124591     
   1185.3559389240213        16.235665893438295        485.22273017587457     
   1692.8852447216962        33.016000848809540        593.36731725833295     
   1621.2254141068665        33.004562493029255        589.80664970450664     
   1548.4703304112143        31.986500793574805        586.72083129041607     
   1474.6783311670838        30.156274191414695        583.90027658467329     
   1399.9077539069426        27.708341128733025        581.13540015540161     
   1324.2169361638857        24.837160048791020        578.21661657133006     
   1247.6642154703773        21.737189392831397        574.93434040082286     
   1170.3079293592748        18.602887604090370        571.07898621235915     
   1092.2064153628073        15.628713123346586        566.44096857423813     
   1838.0409043076006       -1.5631674113158169       -13.101629659869479     
   1770.5665212618501       -17.803230142928555       -5.2956068870864623     
   1714.2224987117477       -34.530926253822827        5.8666039414847342     
   1669.9925117143803       -48.467338886449738        16.568757846730726     
   1638.8602353285623       -56.333551178752259        22.994609850046348     
   1621.8093446118985       -54.850646271494611        21.327914971702491     
   1619.8235146221864       -40.739707305640991        7.7524282331477403     
   1633.8864204180097       -10.721817419063996       -21.548095345064805     
   1664.9817370569449        38.481940246498993       -70.389900741585507     
   1764.6130564699683        9.3061307427703923        47.969081550799977     
   1701.8076818413235       0.59188283292405686        49.106484564761359     
   1641.4630368334936       -9.8122593020499380        54.115847068842214     
   1584.2408957230709       -19.700381406862448        60.391294453901381     
   1530.8030327870611       -26.866569224702971        65.326952111931433     
   1481.8112223007765       -29.104908504878040        66.316945433654382     
   1437.9272385406466       -24.209484992374769        60.755399810657188     
   1399.8128557822454       -9.9743844354409816        46.036440633961803     
   1368.1298483038402        15.806307426991054        19.554193294729430     
   1679.8472903132954        15.979803658570290        113.03088233816942     
   1618.6689279584352        12.724732672166738        109.27956124462287     
   1554.3763388702619        7.1992686706913105        109.69793999321413     
   1487.3452287506846       0.65576399394859664        112.70680891528561     
   1417.9513033041496       -5.6534290099616555        116.72695834220903     
   1346.5702682351232       -10.475957992771612        120.17917860566887     
   1273.5778292464413       -12.559470611716279        121.48426003738869     
   1199.3496920423001       -10.651614519399118        119.06299296852491     
   1124.2615623270533       -3.5000373681914425        111.33616773094860     
   1586.5837845278484        19.309904940826129        181.71281556632945     
   1524.6432109425473        19.643204779198527        174.71382531488149     
   1456.5832561278046        17.589913054169813        172.00604841947555     
   1382.5293894241729        13.568260900968596        172.85323472151555     
   1302.6070801724184        7.9964794555926346        176.51913406270842     
   1216.9417977139212        1.2927998559359821        182.26749628480991     
   1125.6590113881000       -6.1245467668077822        189.36207122952081     
   1028.8841905369575       -13.837329272304260        197.06660873857649     
   926.74280450107403       -21.427316525735819        204.64485865350818     
   1487.6627178052559        20.148488198652444        253.64392409992769     
   1423.2234821195982        22.395184547354006        244.89947893814050     
   1351.7046399127314        22.445929241118108        240.43333805214479     
   1273.0172563720009        20.004272904725553        240.16850536404189     
   1187.0723966836188        14.773766158754995        244.02798479539570     
   1093.7811260350929        6.4579596282408716        251.93478026767721     
   993.05450961375152       -5.2395960625150337        263.81189570331952     
   884.80361260609243       -20.615350291416519        279.58233502353113     
   768.93950019973204       -39.965752433747355        299.16910215010512     
   1385.9242688361617        19.347607037819785        328.45325080304497     
   1317.9026928176359        22.028557376750200        319.32672427622140     
   1243.3613415316952        22.853572624446770        314.37297459601626     
   1162.0327082217568        20.930963592441401        313.99055433395000     
   1073.6492861293639        15.369041085916535        318.57801606189980     
   977.94356849831615        5.2761159173576857        328.53391235154334     
   874.64804857093543       -10.239501105424210        344.25679577460085     
   763.49521958939442       -32.069499174967348        366.14521890288086     
   644.21757479722010       -61.105567479968329        394.59773430789397     
   1284.2086163121455        17.759315067224804        405.76983854033989     
   1212.1737943638136        19.591208664802423        397.48576349204995     
   1135.1742122909166        19.899098595574173        393.21812375553930     
   1052.7996236013098        17.315496552600678        393.65731512257423     
   964.63978180237746        10.472914227154490        399.49373338455428     
   870.28444040156990       -1.9961366891891998        411.41777433303855     
   769.32335290731396       -21.459144501970400        430.11983375990576     
   661.34627282676126       -49.283597520167035        456.29030745634407     
   545.94295366753215       -86.836984052162308        490.61959121431755     
   1185.3559389240213        16.235665893438295        485.22273017587457     
   1109.5297380858585        16.131023810440297        478.86679874766020     
   1030.7641034966100        14.668762545732534        476.36195123554199     
   948.54188113868281        10.125035373929052        478.50672122088741     
   862.34591699361692       0.77599556680678461        486.09964228491134     
   771.65905704365684       -15.102203601400845        499.93924800912538     
   675.96414727095009       -39.233408856775384        520.82407197478096     
   574.74403365723992       -73.341466927021116        549.55264776354261     
   467.48156218475475       -119.15022453817642        586.92350895628294     
   1092.2064153628073        15.628713123346586        566.44096857423813     
   1013.4634753110578        12.695888211629324        562.96003220556031     
   933.75186645551719        8.2488198680465530        563.19762274048685     
   852.48335946172460       0.32674364457449201        567.87670611990154     
   769.06972499580741       -13.031104905001456        577.72024828492704     
   682.92273372327963       -33.785490229047582        593.45121517664006     
   593.45415630980904       -63.897176775485548        615.79257273597909     
   500.07576342091744       -105.32692899231472        645.46728690383270     
   402.19932572272529       -160.03551132597065        683.19832362153079     
   1664.9817370569449        38.481940246498993       -70.389900741585507     
   1685.6383559582232        99.116439567899192       -123.43461560672084     
   1665.0916196786193        152.44805821347444       -157.37089598558185     
   1599.3848799779348        185.28796871530739       -164.05552945070562     
   1484.5614886161952        184.44734360742746       -135.34530357523516     
   1316.6647973545732        136.73735542674979       -63.097005931746672     
   1091.7381579539922        28.969176709987721        60.832575907388915     
   805.82492217426534       -152.04602001061522        244.58665436875859     
   454.96844177582244       -419.49706219960296        496.30844188014657     
   1368.1298483038402        15.806307426991054        19.554193294729430     
   1329.9581088371071        48.651101618166877       -5.5955038414367451     
   1268.9320284558164        72.593503634123749       -10.329537099651727     
   1180.5451289419607        72.611919415451894        11.727131875055393     
   1060.2909320799495        33.684754909717981        66.949541439512487     
   903.66295965245808       -59.209583940065897        161.71272994852433     
   706.15473344288330       -221.09269118995795        302.39173575842028     
   463.25977523416071       -466.98616089711982        495.36159722500759     
   170.47160680940624       -811.91158711606943        746.99735270295719     
   1124.2615623270533       -3.5000373681914425        111.33616773094860     
   1046.0321335786330        6.7071549211531760        108.95442259281138     
   958.89435694906160        6.1627153416695819        126.83047066897599     
   857.99532465439052       -21.309715386956270        169.77821456018998     
   738.48212890765194       -91.886496554215626        242.61155686759670     
   595.50186192514104       -221.74398743932036        350.14440019193393     
   424.20161592015955       -427.05854733151551        497.19064713399933     
   219.72848310845001       -724.00653551083155        688.56420029444632     
  -22.770444295893981       -1128.7643112648007        929.07896227506467     
   926.74280450107403       -21.427316525735819        204.64485865350818     
   824.23835228588280       -29.602023892725470        220.19734115104498     
   722.96006204019659       -50.449869595345717        254.62194662128593     
   617.91199681856290       -100.62397678495591        311.37848022703986     
   504.09821967646224       -196.77746861005016        393.92674713099336     
   376.52279366844630       -355.56346822178330        505.72655249535421     
   230.18978184899248       -593.63509877237766        650.23770148315475     
   60.103247273722616       -927.64548340971510        830.91999925697939     
  -138.73274700323287       -1374.2477452861444        1051.2332509795408     
   768.93950019973204       -39.965752433747355        299.16910215010512     
   654.95468706286954       -63.163058191070888        328.11542928882795     
   549.11060060837985       -100.84981411647806        373.55771005773499     
   446.47167514035829       -169.47790586304745        437.80869049836946     
   342.10234496216333       -285.49921908607348        523.18111665074991     
   231.06704437818249       -465.36563943804686        631.98773455642561     
   108.43020769149393       -725.52905257519501        766.54129025632960     
  -30.743730794014198       -1082.4413441501804        929.15452979095312     
  -191.39033677425527       -1552.5543998181272        1122.1401992016856     
   644.21757479722010       -61.105567479968329        394.59773430789397     
   528.55906001278413       -96.862571343421394        432.69086446187805     
   425.32742953470841       -148.64268115489543        484.15058027936146     
   329.85088932380688       -232.01854371181966        550.34960699616863     
   237.45764534161816       -362.56280580846766        632.66066984858321     
   143.47590354977200       -555.84811423983524        732.45649407178746     
   43.233869909390364       -827.44711580226306        851.10980490268469     
  -67.940249617884660       -1192.9324572898984        989.99332757586342     
  -194.71824907126853       -1667.8767855005594        1150.4797873285395     
   545.94295366753215       -86.836984052162308        490.61959121431755     
   435.42939323959314       -133.58718671724645        533.90582412553931     
   339.59200569910348       -197.43403364796185        586.91337658627538     
   254.22616907349220       -292.39293141968784        650.28199134376109     
   175.12726139102486       -432.47928660445416        724.65141114569553     
   98.090660678824065       -631.70850577861574        810.66137873894934     
   18.911744965073751       -904.09599551516760        908.95163687170611     
  -66.614107722109509       -1263.6571623869011        1020.1619282908905     
  -162.69151935549201       -1724.4074129700909        1144.9319957440582     
   467.48156218475475       -119.15022453817642        586.92350895628294     
   365.94360884619880       -176.22352768335415        631.74248573546174     
   279.88578598181806       -250.82943453208821        682.35891827950218     
   205.77404409422817       -354.74811007508077        738.88660516361733     
   140.07433368639599       -499.75971930257089        801.43934496349766     
   79.252605261229093       -697.64442720511636        870.13093625513307     
   19.774809321641840       -960.18239877265228        945.07517761339125     
  -41.893103629663017       -1299.1537989964377        1026.3858676148443     
  -109.28518309013378       -1726.3387928671750        1114.1768048341191     
   402.19932572272529       -160.03551132597065        683.19832362153079     
   310.47962893615602       -227.65821761038112        726.18302674738061     
   234.19022726348993       -312.43444674141955        771.00002465943476     
   170.67104409058524       -423.23112076656378        817.44421007815629     
   117.26200280480313       -568.91516172775823        865.31047572398415     
   71.303026792419018       -758.35349167050538        914.39371431690029     
   30.134039440685399       -1000.4130326381451        964.48881857802269     
  -8.9050358646058498       -1303.9607066767883        1015.3906812265910     
  -48.474275735905508       -1677.8634358287243        1066.8941949839441     
   4500.7999993325102       0.63220629539455331        655.37368475595031     
   4430.2135478169521       0.46889608962169405        655.45516760998692     
   4359.7311095810246       0.43291309303344860        655.47472158766629     
   4289.3452080101770       0.49933525733558781        655.43539079332254     
   4219.0483664900712       0.64324053528912373        655.34021933109398     
   4148.8331084064866       0.83970687923260812        655.19225130498228     
   4078.6919571451567        1.0638122415643920        654.99453081940453     
   4008.6174360916048        1.2906345739031622        654.75010197872382     
   3938.6020686317688        1.4952518295920072        654.46200888703970     
   4313.2344056918610       0.56799976939441876        724.13479877904626     
   4245.5858032051010       0.56987072509809877        724.22223727414882     
   4178.0186676849899       0.61524907930879635        724.25472685191960     
   4110.5319757677853       0.70072361828783869        724.23136487089073     
   4043.1247040892486       0.82288312828609378        724.15124869016051     
   3975.7958292851763       0.97831639577361784        724.01347566780669     
   3908.5443279916044        1.1636122069955945        723.81714316305715     
   3841.3691768444146        1.3753593485462261        723.56134853430638     
   3774.2693524797405        1.6101466070867900        723.24518914038617     
   4125.6147625712183       0.52013453512108754        790.05200779805773     
   4060.9284688773250       0.66144120956278130        790.11947278180173     
   3996.2967837373872       0.77858150821975869        790.14332072788989     
   3931.7237606377425       0.88506705122586027        790.11955273214051     
   3867.2134530640169       0.99440945797937275        790.04416989047400     
   3802.7699145027736        1.1201203499956591        789.91317329848380     
   3738.3971984398763        1.2757113470088370        789.72256405195867     
   3674.0993583617774        1.4746940705028919        789.46834324657311     
   3609.8804477541735        1.7305801394106766        789.14651197814578     
   3937.9558910633896       0.49305692092548270        853.10869839052600     
   3876.2483681768958       0.74565454660751129        853.13777117403356     
   3814.5667132814733       0.92328704261581152        853.13730492104037     
   3752.9186803137964        1.0518008634599028        853.10105494619484     
   3691.3120232099200        1.1570424634448955        853.02277656534761     
   3629.7544959060092        1.2648582961910506        852.89622509362857     
   3568.2538523384787        1.4010948165314403        852.71515584667338     
   3506.8178464439197        1.5915984795922213        852.47332413980314     
   3445.4542321583026        1.8622157386516847        852.16448528836020     
   3750.2726122609042       0.49121325436294683        913.28825713367962     
   3691.5523244464966       0.82455773817332556        913.26802949280216     
   3632.8297118606838        1.0497423452472958        913.23348113634540     
   3574.1148524904343        1.2003603638952427        913.17697208208881     
   3515.4178243220663        1.3100050822881713        913.09086234751101     
   3456.7487053416476        1.4122697883005912        912.96751195021147     
   3398.1175735359816        1.5407477702999586        912.79928090803560     
   3339.5345068913357        1.7290323163890662        912.57852923842631     
   3281.0095833941814        2.0107167142571143        912.29761695914237     
   3562.5797472563700       0.51904986283466314        970.57407060502101     
   3506.8471610289880       0.90019778704163400        970.50114477903389     
   3451.0870350188161        1.1583240795339407        970.42865107965440     
   3395.3103948622579        1.3301808610078751        970.34840470916902     
   3339.5282661960323        1.4525202542556599        970.25222087006000     
   3283.7516746564902        1.5620943803742193        970.13191476493057     
   3227.9916458804760        1.6956553620780142        969.97930159643988     
   3172.2592055044220        1.8899553207083954        969.78619656684077     
   3116.5653791648278        2.1817463783459061        969.54441487862732     
   3374.8921171429456       0.58101307517722489        1024.9495253818529     
   3322.1397012676789       0.97462169721575265        1024.8280140742040     
   3269.3399382988428        1.2494089079541482        1024.7196164556008     
   3216.5034251231455        1.4406976628149550        1024.6164533963113     
   3163.6407586270675        1.5838109172407258        1024.5106457660811     
   3110.7625356973040        1.7140716266458185        1024.3943144347413     
   3057.8793532205896        1.8668027467753063        1024.2595802726178     
   3005.0018080834598        2.0773272329402062        1024.0985641491222     
   2952.1404971725792        2.3809680405169047        1023.9033869348328     
   3187.2245430129792       0.68154921852419648        1076.3980080420840     
   3137.4367685052757        1.0498764708561339        1076.2395344199315     
   3087.5896772445949        1.3233734942399451        1076.1031789701967     
   3037.6920609674430        1.5313460776135344        1075.9822187131140     
   2987.7527114106178        1.7031000103306724        1075.8699306685276     
   2937.7804203108108        1.8679410810683521        1075.7595918564391     
   2887.7839794045699        2.0551750787711853        1075.6444792968407     
   2837.7721804288603        2.2941077929422136        1075.5178700100075     
   2787.7538151203189        2.6140450123900791        1075.3730410156679     
   2999.5918459593190       0.82510462061486578        1124.9029051627240     
   2952.7451860849333        1.1280091107156522        1124.7266028573558     
   2905.8375073994239        1.3805945011604308        1124.5761403282386     
   2858.8744200894962        1.6015614138810861        1124.4468012283874     
   2811.8615343419524        1.8096104717399157        1124.3338692101040     
   2764.8044603435164        2.0234422971000185        1124.2326279266233     
   2717.7088082809678        2.2617575125849498        1124.1383610301002     
   2670.5801883410140        2.5432567408312252        1124.0463521735498     
   2623.4242107105160        2.8866406043658799        1123.9518850094403     
   3938.6020686317688        1.4952518295920072        654.46200888703970     
   3868.5735140083489        1.6417149182987032        654.15280771916935     
   3798.4705508485567        1.7311393647150908        653.83496236693588     
   3728.3023816156342        1.7942000462389842        653.49637850993565     
   3658.0782087725047        1.8615718394562464        653.12496182813641     
   3587.8072347821649        1.9639296211537385        652.70861800096566     
   3517.4986621076359        2.1319482675362451        652.23525270853770     
   3447.1616932118027        2.3963026552758038        651.69277163045717     
   3376.8055305579674        2.7876676621292518        651.06908044649572     
   3774.2693524797405        1.6101466070867900        723.24518914038617     
   3707.1619691523574        1.8427227334184408        722.89506237541048     
   3639.9677261893548        2.0597867182900700        722.53315695236120     
   3572.6909778338636        2.2758527056596449        722.15225720816716     
   3505.3360783291464        2.5054348398330148        721.74514747971830     
   3437.9073819185614        2.7630472652303979        721.30461210411579     
   3370.4092428454856        3.0632041263056635        720.82343541824957     
   3302.8460153531892        3.4204195673878530        720.29440175917000     
   3235.2220536847512        3.8492077322607656        719.71029546353680     
   3609.8804477541735        1.7305801394106766        789.14651197814578     
   3545.6574185682130        2.0289636795932893        788.78197270694352     
   3481.3448662241376        2.3475837145142577        788.40013912186032     
   3416.9433094131191        2.6881692147758258        787.99777916110429     
   3352.4532668263546        3.0524491508479059        787.57166076321812     
   3287.8752571550422        3.4421524933975434        787.11855186668970     
   3223.2097990902512        3.8590082127175265        786.63522040980524     
   3158.4574113227886        4.3047452781356697        786.11843433101023     
   3093.6186125442782        4.7810926617574978        785.56496156882167     
   3445.4542321583026        1.8622157386516847        852.16448528836020     
   3384.0876881846048        2.2087855346292145        851.80810428847610     
   3322.6361878059197        2.6047954087268863        851.42771358171251     
   3261.0974268288924        3.0425647163592657        851.02316965240834     
   3199.4691010597248        3.5144128114682189        850.59432898490002     
   3137.7489063048215        4.0126590488061993        850.14104806301941     
   3075.9345383709183        4.5296227842092094        849.66318337107077     
   3014.0236930641481        5.0576233713902639        849.16059139322454     
   2952.0140661911764        5.5889801658903480        848.63312861373026     
   3281.0095833941814        2.0107167142571143        912.29761695914237     
   3222.4806039304176        2.3905360769567778        911.96802269415525     
   3163.8759077882064        2.8416868576334764        911.60768503829706     
   3105.1913805563554        3.3504543522057020        911.21865396580245     
   3046.4229078244562        3.9031238595634932        910.80297945090058     
   2987.5663751815587        4.4859806762283370        910.36271146766478     
   2928.6176682171831        5.0853101007487567        909.89989999022112     
   2869.5726725204058        5.6873974301087173        909.41659499286368     
   2810.4272736805087        6.2785279618826735        908.91484644968364     
   3116.5653791648278        2.1817463783459061        969.54441487862732     
   3060.8639917350765        2.5825630867182099        969.25629349871497     
   3005.0982430240188        3.0685231163752178        968.93185819802568     
   2949.2632210711208        3.6232532657390948        968.57445738491344     
   2893.3540139162901        4.2303803343811524        968.18743946766290     
   2837.3657095988146        4.8735311196859357        967.77415285506254     
   2781.2933961583840        5.5363324209014309        967.33794595524580     
   2725.1321616346845        6.2024110370180097        966.88216717670616     
   2668.8770940672816        6.8553937663385796        966.41016492806955     
   2952.1404971725792        2.3809680405169047        1023.9033869348328     
   2899.2656775272767        2.7932143415791870        1023.6674822767486     
   2846.3374103666752        3.2955692415301883        1023.3920377672712     
   2793.3509988487281        3.8723765999471880        1023.0808051931832     
   2740.3017461306445        4.5079802743774735        1022.7375363417146     
   2687.1849553698589        5.1867241226160559        1022.3659829996966     
   2633.9959297238738        5.8929520035143241        1021.9698969541374     
   2580.7299723501892        6.6110077749648326        1021.5530299920579     
   2527.3823864062119        7.3252352950563591        1021.1191339004198     
   2787.7538151203189        2.6140450123900791        1075.3730410156679     
   2737.7134872359306        3.0308376202036698        1075.1961546024552     
   2687.6276266695395        3.5330902892067115        1074.9800284521637     
   2637.4927643642413        4.1092394964564392        1074.7279226744618     
   2587.3054312629488        4.7477217182134837        1074.4430973791384     
   2537.0621583081684        5.4369734293323972        1074.1288126760603     
   2486.7594764430442        6.1654311072305745        1073.7883286750068     
   2436.3939166101827        6.9215312271694529        1073.4249054858262     
   2385.9620097524139        7.6937102651521627        1073.0418032182495     
   2623.4242107105160        2.8866406043658799        1123.9518850094403     
   2576.2352467899291        3.3037807008935260        1123.8368760506805     
   2529.0031087856496        3.7913513148446327        1123.6876349592549     
   2481.7265680933801        4.3452570987265062        1123.5060351121795     
   2434.4043961087150        4.9614027043654687        1123.2939498863800     
   2387.0353642274090        5.6356927842161895        1123.0532526585844     
   2339.6182438452474        6.3640319908581660        1122.7858168058942     
   2292.1518063576805        7.1423249760227918        1122.4935157049856     
   2244.6348231606935        7.9664763927527247        1122.1782227328811     
   3376.8055305579674        2.7876676621292518        651.06908044649572     
   3306.5212544513406        3.3494847114448021        650.34385727021970     
   3236.3843889714876        4.0733411409917153        649.50755072024936     
   3166.3808022419471        4.9121306959925732        648.56422223275717     
   3096.4963623867866        5.8187471237193904        647.51793324407708     
   3026.7169375296644        6.7460841694168039        646.37274519071877     
   2957.0283957942952        7.6470355785519359        645.13271950927719     
   2887.4166053045283        8.4744950974632047        643.80191763599339     
   2817.8674341839633        9.1813564718517000        642.38440100724836     
   3235.2220536847512        3.8492077322607656        719.71029546353680     
   3167.6389738230173        4.3879616230192369        719.04371223499527     
   3100.1914031821170        5.0517790126353930        718.26914057777640     
   3032.8732131524948        5.8202312026681966        717.38220403066089     
   2965.6782751242399        6.6728894936491088        716.37852613230189     
   2898.6004604879545        7.5893251874263115        715.25373042137596     
   2831.6336406340897        8.5491095854875994        714.00344043665450     
   2764.7716869528981        9.5318139884893753        712.62327971667332     
   2698.0084708349714        10.517009698894753        711.10887180014367     
   3093.6186125442782        4.7810926617574978        785.56496156882167     
   3028.7890812243463        5.3182590008724446        784.94664300842817     
   2964.0644058133303        5.9461528683469851        784.23015936506511     
   2899.4449699722932        6.6660531346327616        783.40453832169123     
   2834.9311573620898        7.4792386692779473        782.45880756164161     
   2770.5233516441544        8.3869883435937709        781.38199476792465     
   2706.2219364794091        9.3905810272558483        780.16312762370114     
   2642.0272955287037        10.491295589724700        778.79123381218551     
   2577.9398124533509        11.690410902285976        777.25534101653147     
   2952.0140661911764        5.5889801658903480        848.63312861373026     
   2889.9828356595081        6.1437545453122766        848.05674822177639     
   2828.0123187965946        6.7591392868104094        847.39701499720616     
   2766.1079205382784        7.4531508435135265        846.63820280985738     
   2704.2750458202399        8.2438056673008759        845.76458552962845     
   2642.5190995784324        9.1491202115508941        844.76043702622667     
   2580.8454867485293        10.187110928647940        843.61003116961581     
   2519.2596122662853        11.375794270736264        842.29764182956308     
   2457.7668810676851        12.733186691425772        840.80754287596812     
   2810.4272736805087        6.2785279618826735        908.91484644968364     
   2751.2314961330876        6.8678259581648717        908.37812650574642     
   2692.0440640638008        7.4934148478952238        907.77611538943881     
   2632.8739126873538        8.1850786802166340        907.09017519932365     
   2573.7299772181273        8.9726015030164490        906.30166803418103     
   2514.6211928708240        9.8857673653873235        905.39195599269476     
   2455.5564948600168        10.954360315605072        904.34240117366812     
   2396.5448184002571        12.208164402415832        903.13436567589076     
   2337.5950987060182        13.676963674117587        901.74921159782048     
   2668.8770940672816        6.8553937663385796        966.41016492806955     
   2612.5463216494109        7.4938509402138607        965.91487649149656     
   2556.1685635466215        8.1516561307740858        965.37386845687377     
   2499.7547942562155        8.8653909957490669        964.76743319402419     
   2443.3159882754189        9.6716371925431304        964.07586307284362     
   2386.8631201017320        10.606976379452931        963.27945046319144     
   2330.4071642326030        11.707990214589131        962.35848773497469     
   2273.9590951650989        13.011260354929846        961.29326725777400     
   2217.5298873968891        14.553368459466242        960.06408140163228     
   2527.3823864062119        7.3252352950563591        1021.1191339004198     
   2473.9385712132130        8.0252071936180300        1020.6710968097159     
   2420.3947391769429        8.7365397153511140        1020.1966821146787     
   2366.7624130818749        9.4976421414738752        1019.6769544981801     
   2313.0531157118835        10.346923752056796        1019.0929786435446     
   2259.2783698512749        11.322793827798819        1018.4258192339529     
   2205.4496982843502        12.463661649871938        1017.6565409525700     
   2151.5786237953698        13.807936498823210        1016.7662084825612     
   2097.6766691684070        15.394027655391369        1015.7358865068339     
   2385.9620097524139        7.6937102651521627        1073.0418032182495     
   2335.4195038288367        8.4652724193293807        1072.6508860916520     
   2284.7315128864930        9.2507421807569017        1072.2509642779071     
   2233.9086170009004        10.085386467871785        1071.8257168157963     
   2182.9613962469393        11.004472196840311        1071.3588227438720     
   2131.9004306995912        12.043266284378205        1070.8339611010251     
   2080.7363004341000        13.237035648021447        1070.2348109258214     
   2029.4795855254274        14.621047204017373        1069.5450512569125     
   1978.1408660489369        16.230567870663208        1068.7483611329699     
   2244.6348231606935        7.9664763927527247        1122.1782227328811     
   2197.0003785007098        8.8174243184362240        1121.8583429679916     
   2149.1878066072213        9.6969401074001098        1121.5431228618420     
   2101.2052538503754        10.632178326573808        1121.2206978509473     
   2053.0608666001499        11.650293542698364        1120.8792033715952     
   2004.7627912266853        12.778440322851111        1120.5067748604515     
   1956.3191740999755        14.043773233613820        1120.0915477537624     
   1907.7381615899785        15.473446841618511        1119.6216574879065     
   1859.0279000668554        17.094615713925350        1119.0852394995056     
   2817.8674341839633        9.1813564718517000        642.38440100724836     
   2748.2293884110686        9.7020844469511758        640.90388829372273     
   2678.3810130534903        10.071274065814009        639.33974174613695     
   2608.3532348688846        10.392014520545899        637.62948817039489     
   2538.1769806154925        10.767395005615981        635.71065437292589     
   2467.8831770511138        11.300504713367786        633.52076715979865     
   2397.5027509335400        12.094432836458623        630.99735333713124     
   2327.0666290207400        13.252268568122304        628.07793971132014     
   2256.6057380706234        14.877101101665744        624.70005308837187     
   2698.0084708349714        10.517009698894753        711.10887180014367     
   2631.1231942810514        11.432894271928262        709.50074514944333     
   2563.9122378486968        12.264927119053596        707.81407938345978     
   2496.3952407629977        13.078572324245442        706.00647477542066     
   2428.5918422488385        13.939293970416657        704.03553159857324     
   2360.5216815311487        14.912556140610718        701.85885012631638     
   2292.2043978352531        16.063822919147015        699.43403063195774     
   2223.6596303860292        17.458558388866777        696.71867338890547     
   2154.9070184083671        19.162226633143746        693.67037867028444     
   2577.9398124533509        11.690410902285976        777.25534101653147     
   2513.7056273700628        12.917891290268926        775.60351917441301     
   2449.0774191013193        14.125496764631635        773.87418119405743     
   2384.0653793666584        15.347199724366305        772.04186921394285     
   2318.6796998859163        16.616972568782330        770.08112537288673     
   2252.9305723788575        17.968787696989239        767.96649180932764     
   2186.8281885650867        19.436617507661254        765.67251066203630     
   2120.3827401644348        21.054434400139485        763.17372406961613     
   2053.6044188963110        22.856210772631812        760.44467417074156     
   2457.7668810676851        12.733186691425772        840.80754287596812     
   2396.1095082721104        14.196921679895354        839.18802050254567     
   2334.0278285371414        15.698364519152278        837.49007992490476     
   2271.5244261044841        17.246129348639897        835.70207354511444     
   2208.6018852162492        18.848830308354422        833.81235376550887     
   2145.2627901141218        20.515081537296965        831.80927298807558     
   2081.5097250404101        22.253497176734641        829.68118361500660     
   2017.3452742368770        24.072691365582386        827.41643804847808     
   1952.7720219456064        25.981278244326063        825.00338869073471     
   2337.5950987060182        13.676963674117587        901.74921159782048     
   2278.4676575815497        15.309831619998135        900.23005926749715     
   2218.9147378826474        17.028911901336073        898.63180832287401     
   2158.9331564011723        18.823593824426098        896.95348982771077     
   2098.5197299289148        20.683266695152497        895.19413484596828     
   2037.6712752574695        22.597319818912524        893.35277444168582     
   1976.3846091788032        24.555142502129570        891.42843967851036     
   1914.6565484848131        26.546124051280913        889.42016162050356     
   1852.4839099669830        28.559653771204353        887.32697133152999     
   2217.5298873968891        14.553368459466242        960.06408140163228     
   2160.9128958922379        16.296467287942392        958.70544560302790     
   2103.8894188641034        18.162520429080246        957.26939913479691     
   2046.4523456813188        20.127825779332738        955.76252012052635     
   1988.5945657131583        22.168681236152906        954.19138668420396     
   1930.3089683288658        24.261384696788923        952.56257694941519     
   1871.5884428975903        26.382234058631070        950.88266904036050     
   1812.4258787886333        28.507527219311896        949.15824108051640     
   1752.8141653710597        30.613562075766140        947.39587119392388     
   2097.6766691684070        15.394027655391369        1015.7358865068339     
   2043.5780437986054        17.196674862966461        1014.5899896429564     
   1989.1031432074512        19.144571619710746        1013.3728851075148     
   1934.2427693694992        21.207057840654443        1012.0955664824313     
   1878.9877242584653        23.353473438537321        1010.7690273494736     
   1823.3288098486159        25.553158327254323        1009.4042612907057     
   1767.2568281145013        27.775452422302351        1008.0122618881001     
   1710.7625810297141        29.989695635362409        1006.6040227235745     
   1653.8368705687412        32.165227881509963        1005.1905373791960     
   1978.1408660489369        16.230567870663208        1068.7483611329699     
   1926.5959218943935        18.050300522099064        1067.8595015212099     
   1874.7071826391530        20.020446991470180        1066.9122989881141     
   1822.4652028900612        22.109522635057374        1065.9190309721223     
   1769.8605372537604        24.286042808262323        1064.8919749115369     
   1716.8837403370878        26.518522867110164        1063.8434082445724     
   1663.5253667465927        28.775478166926291        1062.7856084096218     
   1609.7759710889522        31.025424063259891        1061.7308528448179     
   1555.6261079710487        33.236875912392463        1060.6914189883246     
   1859.0279000668554        17.094615713925350        1119.0852394995056     
   1810.0993507738151        18.897190443974750        1118.4897913711295     
   1760.8528088851608        20.835528061840591        1117.8576735232591     
   1711.2804216679153        22.883452790862520        1117.1993156486408     
   1661.3743363886185        25.014788852930110        1116.5251474400484     
   1611.1267003141872        27.203360471290239        1115.8455985903213     
   1560.5296607115870        29.422991868738166        1115.1710987922013     
   1509.5753648474447        31.647507267638332        1114.5120777388220     
   1458.2559599885699        33.850730890690329        1113.8789651224240     
   2256.6057380706234        14.877101101665744        624.70005308837187     
   2186.2109347889404        17.044712517951325        620.99913473768459     
   2115.9133579528593        19.631825136287830        617.17335488085962     
   2045.6543574272532        22.442938506070163        613.25433375293994     
   1975.3752830764620        25.282552175717569        609.27369158821546     
   1905.0174847658732        27.955165695996016        605.26304862162158     
   1834.5223123599910        30.265278615238230        601.25402508797731     
   1763.8311157236540        32.017390482912674        597.27824122192465     
   1692.8852447216962        33.016000848809540        593.36731725833295     
   2154.9070184083671        19.162226633143746        693.67037867028444     
   2086.1334286345309        21.258224494768456        690.39303864671876     
   2017.4832194560215        23.688254347646762        687.02481448549361     
   1948.9122675853187        26.305238566628418        683.57470995495180     
   1880.3764497354418        28.962099528735507        680.05172882337058     
   1811.8316426196957        31.511759611531943        676.46487485930038     
   1743.2337229507693        33.807141190468883        672.82315183138917     
   1674.5385674419322        35.701166643072952        669.13556350794738     
   1605.7020528056946        37.046758344843283        665.41111365719621     
   2053.6044188963110        22.856210772631812        760.44467417074156     
   1986.7218011992059        24.919998825120956        757.56963602353858     
   1919.9351967642501        27.229628266167651        754.64390851157145     
   1853.2123971912411        29.677737761969070        751.65856951163175     
   1786.5211940803738        32.156965979934853        748.60469690042146     
   1719.8293790314553        34.559951585964541        745.47336855481910     
   1653.1047436444262        36.779333246353247        742.25566235155293     
   1586.3150795192503        38.707749627609303        738.94265616741257     
   1519.4281782558096        40.237839396456081        735.52542787910465     
   1952.7720219456064        25.981278244326063        825.00338869073471     
   1888.0171285270833        28.042358320255858        822.51602848064203     
   1823.2907611976973        30.262388287209774        820.02134379520328     
   1758.5700144828857        32.565016563254858        817.49717719428736     
   1693.8319829085326        34.873891567973942        814.92137123774739     
   1629.0537609998680        37.112661718876780        812.27176848510805     
   1564.2124432826461        39.204975435108508        809.52621149626350     
   1499.2851242825664        41.074481135707060        806.66254283105400     
   1434.2488985251725        42.644827239104700        803.65860504901013     
   1852.4839099669830        28.559653771204353        887.32697133152999     
   1790.0604866633369        30.637625795357849        885.21931763045723     
   1727.5713840771925        32.792975807959237        883.14782717221522     
   1665.0003876985279        34.971655442610199        881.08179777395230     
   1602.3312830172229        37.119616331963755        878.99052725308900     
   1539.5478555234229        39.182810109844297        876.84331342714222     
   1476.6338907072288        41.107188409950368        874.60945411337946     
   1413.5731740583155        42.838702864647701        872.25824712921963     
   1350.3494910671252        44.323305108613795        869.75899029191703     
   1752.8141653710597        30.613562075766140        947.39587119392388     
   1692.8929516523090        32.718124062370293        945.66660508571113     
   1632.7985367228173        34.827832223635255        944.01406547838872     
   1572.5187850756552        36.902234869759525        942.40369602162070     
   1512.0415612039487        38.900880311288915        940.80094036490630     
   1451.3547296009888        40.783316858965236        939.17124215822969     
   1390.4461547596015        42.509092822341813        937.48004505086260     
   1329.3037011733318        44.037756513262480        935.69279269249364     
   1267.9152333351281        45.328856241586834        933.77492873303083     
   1653.8368705687412        32.165227881509963        1005.1905373791960     
   1596.5555995390971        34.296175936037287        1003.8449924588489     
   1538.9936904553260        36.373398931217707        1002.6107655496905     
   1481.1404748526850        38.361335317558371        1001.4541367083723     
   1422.9852842660687        40.224423545042157        1000.3413859912573     
   1364.5174502307170        41.927102064293592        999.23879345517003     
   1305.7263042816439        43.433809325511504        998.11263915645031     
   1246.6011779538901        44.708983778529046        996.92920315161462     
   1187.1314027825915        45.717063874126495        995.65476549735456     
   1555.6261079710487        33.236875912392463        1060.6914189883246     
   1501.0895063680377        35.384104228620686        1059.7415813623620     
   1446.1783165950280        37.436117326240208        1058.9286342219966     
   1390.8807252675256        39.353537257124003        1058.2243846052370     
   1335.1849190011026        41.096986072978439        1057.6006395502816     
   1279.0790844117494        42.627085827207907        1057.0292060951685     
   1222.5514081151455        43.904458572034912        1056.4818912780063     
   1165.5900767267754        44.889726359049519        1055.9305021368721     
   1108.1832768626105        45.543511241519468        1055.3468457098497     
   1458.2559599885699        33.850730890690329        1113.8789651224240     
   1406.5357481842520        35.994231754630164        1113.3434734089228     
   1354.3738864623037        38.022428805015920        1112.9583783310945     
   1301.7548045580952        39.883421159528723        1112.7057044833612     
   1248.6629322064564        41.525307934343687        1112.5674764600437     
   1195.0826991425151        42.896188246632278        1112.5257188553746     
   1140.9985351014502        43.944161213537029        1112.5624562634450     
   1086.3948698184390        44.617325952307681        1112.6597132788388     
   1031.2561330285791        44.863781579974614        1112.7995144956903     
   1692.8852447216962        33.016000848809540        593.36731725833295     
   1621.2254141068665        33.004562493029255        589.80664970450664     
   1548.4703304112143        31.986500793574805        586.72083129041607     
   1474.6783311670838        30.156274191414695        583.90027658467329     
   1399.9077539069426        27.708341128733025        581.13540015540161     
   1324.2169361638857        24.837160048791020        578.21661657133006     
   1247.6642154703773        21.737189392831397        574.93434040082286     
   1170.3079293592748        18.602887604090370        571.07898621235915     
   1092.2064153628073        15.628713123346586        566.44096857423813     
   1605.7020528056946        37.046758344843283        665.41111365719621     
   1536.0128794959289        37.529226174103371        661.98482176583343     
   1464.8026583554424        36.976914639267648        659.10961862588897     
   1392.0916316814798        35.457298064520614        656.67137496529676     
   1317.9000417710513        33.037850773404671        654.55596151104510     
   1242.2481309211607        29.786047089190617        652.64924899109246     
   1165.1561414293819        25.769361337056864        650.83710813288951     
   1086.6443155923523        21.055267839117732        649.00540966363883     
   1006.7328957075338        15.711240920417197        647.04002431101389     
   1519.4281782558096        40.237839396456081        735.52542787910465     
   1451.6331076516667        41.038034921481938        732.36115886961761     
   1382.1313454084554        40.818134917900693        729.78981856502060     
   1310.9092979814841        39.532827570624249        727.77666690650824     
   1237.9533718261375        37.136801064310873        726.28696383547549     
   1163.2499733980801        33.584743584101545        725.28596929299488     
   1086.7855091526792        28.831343314729509        724.73894322064291     
   1008.5463855450703        22.831288439828086        724.61114555981487     
   928.51900903111186        15.539267145976737        724.86783625137230     
   1434.2488985251725        42.644827239104700        803.65860504901013     
   1368.3159291960285        43.599937921311323        800.87028863796525     
   1300.6848698027279        43.578705098365390        798.68731051920054     
   1231.3125503526344        42.437228794971134        797.13825290249554     
   1160.1558008533777        40.031609036601708        796.25169799768480     
   1087.1714513124662        36.217945848039108        796.05622801457469     
   1012.3163317373474        30.852339254376034        796.58042516291027     
   935.54727213572426        23.790889280986903        797.85287165262446     
   856.82110251524250        14.889695953633634        799.90214969368719     
   1350.3494910671252        44.323305108613795        869.75899029191703     
   1286.2911747512260        45.283884360928369        867.44683869280232     
   1220.6917097714263        45.327168651307034        865.72797390030519     
   1153.4826090808770        44.224867823679858        864.67823344720966     
   1084.5953856332171        41.748691723474508        864.37345486706818     
   1013.9615523820955        37.670350196075560        864.88947569278901     
   941.51262228086512        31.761553086171034        866.30213345757295     
   867.18010828301556        23.794010238530404        868.68726569432624     
   790.89552334223197        13.539431499007208        872.12070993627117     
   1267.9152333351281        45.328856241586834        933.77492873303083     
   1205.7886749395182        46.158823427601817        932.02543665587052     
   1142.3803435472312        46.132069045993205        930.83768811960010     
   1077.6006944520793        44.950110742765219        930.31870903488186     
   1011.3601829469414        42.314466160679217        930.57552531312479     
   943.56926432524995        37.926652944620514        931.71516286539054     
   874.13839388038150        31.488188739161927        933.84464760277626     
   802.97802690543028        22.700591187981814        937.07100543641184     
   729.99861869392021        11.265377936211024        941.50126227728163     
   1187.1314027825915        45.717063874126495        995.65476549735456     
   1127.0382603823739        46.293704306191671        994.54071014947226     
   1065.9792493631703        46.061949752912540        993.94233258887743     
   1003.8480267519077        44.667323637404763        993.98178015948235     
   940.53824957493975        41.755349380986047        994.78120020518497     
   875.94357485978048        36.971550408607612        996.46274006971123     
   809.95765963272618        29.961450141387047        999.14854709700614     
   742.47416092131925        20.370572004084153        1002.9607686309758     
   673.38673575215773        7.8444394192699178        1008.0215520153188     
   1108.1832768626105        45.543511241519468        1055.3468457098497     
   1050.2697617023321        45.757476184653797        1054.9272867951017     
   991.71690545211652        45.185354241812604        1054.9677867197006     
   932.40582626586820        43.430872592723063        1055.5895473150269     
   872.21764229819030        40.097758419331313        1056.9137704122436     
   811.03347170336531        34.789738902669910        1059.0616578429524     
   748.73443263580918        27.110541224173517        1062.1544114383071     
   685.20164324953942        16.663892563676086        1066.3132330298113     
   620.31622169918330        3.0535201034580552        1071.6593244485866     
   1031.2561330285791        44.863781579974614        1112.7995144956903     
   975.71300952130537        44.619088249331355        1113.1197942149649     
   919.82179004664545        43.570825981718087        1113.8399299236703     
   863.45531328024776        41.295123695840914        1115.0641109955989     
   806.48641789758290        37.368110310155544        1116.8965268039249     
   748.78794257436266        31.365914743577491        1119.4413667225315     
   690.23272598611970        22.864665914421124        1122.8028201250986     
   630.69360680842078        11.440492741400760        1127.0850763848025     
   570.04342371697987       -3.3304758564873396        1132.3923248754700     
   1092.2064153628073        15.628713123346586        566.44096857423813     
   1013.4634753110578        12.695888211629324        562.96003220556031     
   933.75186645551719        8.2488198680465530        563.19762274048685     
   852.48335946172460       0.32674364457449201        567.87670611990154     
   769.06972499580741       -13.031104905001456        577.72024828492704     
   682.92273372327963       -33.785490229047582        593.45121517664006     
   593.45415630980904       -63.897176775485548        615.79257273597909     
   500.07576342091744       -105.32692899231472        645.46728690383270     
   402.19932572272529       -160.03551132597065        683.19832362153079     
   1006.7328957075338        15.711240920417197        647.04002431101389     
   926.63340795700321        9.8323742048440863        646.55429026707679     
   847.12252243701300        2.0642410303273095        649.61392867339555     
   767.56819731602468       -9.6999647081358376        656.78338468245852     
   687.33839076248512       -27.567049115742634        668.62710344629284     
   605.80106094471466       -53.643818297988929        685.70953011750919     
   522.32416603135482       -90.037078359722386        708.59510984831422     
   436.27566419060429       -138.85363540675209        737.84828779087218     
   347.02351359106478       -202.20029554352712        774.03350909766721     
   928.51900903111186        15.539267145976737        724.86783625137230     
   848.69066105645891        7.1848710619242979        726.78639921928675     
   770.61957816340703       -3.4324578611833090        731.94986075686086     
   693.64859945191085       -18.503255956820510        740.78194436140063     
   617.12056402147471       -40.218059559930964        753.70637352957624     
   540.37831097210949       -70.767405003587072        771.14687175845836     
   462.76467940368900       -112.34182862198924        793.52716254507277     
   383.62250841608352       -167.13186674868970        821.27096938604734     
   302.29463710917304       -237.32805571744450        854.80201577853131     
   856.82110251524250        14.889695953633634        799.90214969368719     
   778.61727060910221        4.4479895824935056        803.66856105327872     
   703.00161311894078       -8.6137029612254992        810.27388667522916     
   629.31054350440263       -26.507336811774081        820.01892753453080     
   556.88047522577585       -51.444867101526683        833.20448460584225     
   485.04782174276340       -85.638248964768849        850.13135886422378     
   413.14899651546978       -131.29943753464929        871.10035128441018     
   340.52041300338510       -190.64038794582555        896.41226284104039     
   266.49848466698228       -265.87305533064148        926.36789450925539     
   790.89552334223197        13.539431499007208        872.12070993627117     
   715.39527261478020        1.3163405662645289        877.21297776050585     
   643.02720678758806       -13.851920425528164        884.65447411289256     
   573.14000710931350       -34.136413980831151        894.64087657933283     
   505.08235482836255       -61.708202604863146        907.36786274594522     
   438.20293119383001       -98.738348800647174        923.03111019884932     
   371.85041745413366       -147.39791507346422        941.82629652398407     
   305.37349485818163       -209.85796392689664        963.94909930759468     
   238.12084465446770       -288.28955786615080        989.59519613556722     
   729.99861869392021        11.265377936211024        941.50126227728163     
   658.00670307342921       -2.5154651860480612        947.43185133216014     
   589.45493865387800       -19.519536407935448        955.16009075404213     
   523.72296790154314       -41.814694174803407        964.79433387324775     
   460.19043328252815       -71.468796933102766        976.44293402056542     
   398.23697726266630       -110.54970312991657        990.21424452669874     
   337.24224230855128       -161.12527121010839        1006.2166187219772     
   276.58587088620544       -225.26335962031135        1024.5584099373148     
   215.64750546191493       -305.03182680610553        1045.3479715032061     
   673.38673575215773        7.8444394192699178        1008.0215520153188     
   605.43359798465701       -7.3528168755830450        1014.3373837596520     
   541.04338820198370       -25.988977063316014        1021.8592042830084     
   479.64540351662379       -49.966384102398337        1030.6258417938716     
   420.66894104075607       -81.187380951982959        1040.6761245007269     
   363.54329788658754       -121.55431057147851        1052.0488806120625     
   307.69777116688743       -172.96951591838371        1064.7829383360888     
   252.56165799340721       -237.33533995360310        1078.9171258818501     
   197.56425547902626       -316.55412563421430        1094.4902714574780     
   620.31622169918330        3.0535201034580552        1071.6593244485866     
   556.65799334847634       -13.501103701618405        1077.9417770340658     
   496.55113491622387       -33.632668546450986        1084.8202823841311     
   439.49329158991725       -59.015690472874070        1092.2819427187030     
   384.98210855637910       -91.324685524692171        1100.3138602570079     
   332.51523100298897       -132.23416974395715        1108.9031372190716     
   281.59030411704674       -183.41865917301550        1118.0368758245656     
   231.70497308552825       -246.55266985529414        1127.7021782929278     
   182.35688309562317       -323.31071783363387        1137.8861468442169     
   570.04342371697987       -3.3304758564873396        1132.3923248754700     
   510.66192516460592       -21.265714864439843        1138.2572331467602     
   454.73675828075557       -42.823037012282526        1144.1117927418584     
   401.85260975660151       -69.386819996239126        1149.9091790250563     
   351.59416628251086       -102.34144151491891        1155.6025673606885     
   303.54611454923997       -143.07127926581558        1161.1451331124190     
   257.29314124764403       -192.96071094614760        1166.4900516449861     
   212.41993306818824       -253.39411425436458        1171.5904983223350     
   168.51117670185232       -325.75586688714395        1176.3996485085777     
   402.19932572272529       -160.03551132597065        683.19832362153079     
   310.47962893615602       -227.65821761038112        726.18302674738061     
   234.19022726348993       -312.43444674141955        771.00002465943476     
   170.67104409058524       -423.23112076656378        817.44421007815629     
   117.26200280480313       -568.91516172775823        865.31047572398415     
   71.303026792419018       -758.35349167050538        914.39371431690029     
   30.134039440685399       -1000.4130326381451        964.48881857802269     
  -8.9050358646058498       -1303.9607066767883        1015.3906812265910     
  -48.474275735905508       -1677.8634358287243        1066.8941949839441     
   347.02351359106478       -202.20029554352712        774.03350909766721     
   263.98227023957276       -279.73992809895753        813.25886083550506     
   195.81478564904265       -373.64108404780984        850.99053124980230     
   140.76146124735678       -489.76909196366620        886.83011726079235     
   97.062698461772897       -633.98928042228158        920.37921578916553     
   62.958898720145044       -812.16697799787551        951.23942375558772     
   36.690463449724518       -1030.1675132661933        979.01233808027541     
   16.497794078397021       -1293.8562148006160        1003.2995556839028     
  0.62129203327526739       -1609.0984111770194        1023.7026734860139     
   302.29463710917304       -237.32805571744450        854.80201577853131     
   226.91507078699303       -322.66171436358508        889.66284836021907     
   165.38291493703989       -423.64716091079305        920.74852004789636     
   116.68865893293133       -543.64943078046417        947.51151375618247     
   79.822792148468181       -686.03355939325957        969.40431239950749     
   53.775803957367827       -854.16458217015611        985.87939889283155     
   37.538183733658570       -1051.4075345310623        996.38925615054711     
   30.100420850434205       -1281.1274518985356        1000.3863670872867     
   30.453004682498204       -1546.6893696909372        997.32321461825268     
   266.49848466698228       -265.87305533064148        926.36789450925539     
   197.93403463486982       -356.82677518603197        956.36933680594416     
   141.84706854684060       -462.76694130566057        981.18318006670461     
   97.827773627522106       -585.05959627358925        1000.1569749946581     
   65.466337103067190       -725.07078267002657        1012.6382722927573     
   44.352946198195752       -884.16654307885335        1017.9746226636787     
   34.077788138591472       -1063.7129200812994        1015.5135768103944     
   34.231050149271539       -1265.0759562599817        1004.6026854356525     
   44.402919455916447       -1489.6216941970683        984.58949924227079     
   238.12084465446770       -288.28955786615080        989.59519613556722     
   175.69516583934029       -382.63830934973015        1014.3526736567729     
   124.15969989769295       -491.31468920739405        1033.2037003187531     
   83.553941812060629       -614.18704749749145        1045.4350764071621     
   53.917386564196875       -751.12373428059254        1050.3336022066646     
   35.289529136641363       -901.99309961544122        1047.1860780031382     
   27.709864511802550       -1066.6634935605482        1035.2793040809759     
   31.217887671284757       -1245.0032661767582        1013.9000807261589     
   45.853093597521706       -1436.8807675225421        982.33520822317757     
   215.64750546191493       -305.03182680610553        1045.3479715032061     
   158.85446845642997       -400.49951563790069        1064.5872063969553     
   111.27326240988796       -509.60466858786049        1077.7192698164665     
   73.242299966240239       -631.21924350959841        1084.0143934233886     
   45.099993770335573       -764.21519825360224        1082.7428088793270     
   27.184756466545309       -907.46449067194931        1073.1747478454761     
   19.835000699167892       -1059.8390786173059        1054.5804419839028     
   23.389139112688724       -1220.2109199404697        1026.2301229558827     
   38.185584351630382       -1387.4519724941986        987.39402242244648     
   197.56425547902626       -316.55412563421430        1094.4902714574780     
   146.06794654216520       -410.81359283374820        1108.0472825108275     
   102.14020950210912       -517.95114342400313        1115.6390775724785     
   66.267984570601442       -636.34364336520400        1116.5635014742682     
   38.938211959934506       -764.36795861729809        1110.1183990482543     
   20.637831881587033       -900.40095514113398        1095.6016151263091     
   11.853784548101544       -1042.8194988952969        1072.3109945403296     
   13.073010171078465       -1190.0004558408350        1039.5443821219076     
   24.782448962570186       -1340.3206919380818        996.59962270421295     
   182.35688309562317       -323.31071783363387        1137.8861468442169     
   135.99160415285542       -413.98373972015611        1145.7072494831164     
   95.712994594647938       -516.66837768769142        1147.8723125996091     
   62.006132105810650       -629.74770611983263        1143.7509759901839     
   35.356094371416901       -751.60479940020025        1132.7128794513601     
   16.247959076136453       -880.62273191310101        1114.1276627796001     
   5.1668039050297807       -1015.1845780415315        1087.3649657715328     
   2.5977065427121602       -1153.6734121697593        1051.7944282228498     
   9.0257446743064520       -1294.4723086814056        1006.7856899304445     
   168.51117670185232       -325.75586688714395        1176.3996485085777     
   127.28144534432894       -410.41315508098404        1178.5414547974758     
   90.944071106639399       -506.07063535411260        1175.3281639102190     
   59.831879052016859       -611.61889082960465        1166.2453924016579     
   34.277694243436969       -725.94850463067883        1150.7787568269096     
   14.614341743822138       -847.95005988082232        1128.4138737407484     
   1.1746466164524350       -976.51413970216902        1098.6363596982867     
  -5.7085660755012100       -1110.5313272180485        1060.9318312550033     
  -5.7024712689809576       -1248.8922055512583        1014.7859049655483     
   2999.5918459593190       0.82510462061486578        1124.9029051627240     
   2952.7451860849333        1.1280091107156522        1124.7266028573558     
   2905.8375073994239        1.3805945011604308        1124.5761403282386     
   2858.8744200894962        1.6015614138810861        1124.4468012283874     
   2811.8615343419524        1.8096104717399157        1124.3338692101040     
   2764.8044603435164        2.0234422971000185        1124.2326279266233     
   2717.7088082809678        2.2617575125849498        1124.1383610301002     
   2670.5801883410140        2.5432567408312252        1124.0463521735498     
   2623.4242107105160        2.8866406043658799        1123.9518850094403     
   2811.9944550111832       0.97666519891720327        1170.4446382395013     
   2768.0673593968882        1.1987506967745958        1170.2732963311241     
   2724.0850074771956        1.4206046125433431        1170.1268479058108     
   2680.0495182135628        1.6492901495582828        1170.0028207797302     
   2635.9630105666279        1.8918705107175811        1169.8987427688614     
   2591.8276034973064        2.1554088989903448        1169.8121416894078     
   2547.6454159667846        2.4469685182950798        1169.7405453574249     
   2503.4185669356725        2.7736125708747750        1169.6814815890114     
   2459.1491753650271        3.1424042598748656        1169.6324782001313     
   2624.4215730866104        1.0978490373413479        1213.0201837175339     
   2583.4025150375542        1.2508786698564336        1212.8721849357212     
   2542.3362896612748        1.4436965535234094        1212.7457397767630     
   2501.2222817414267        1.6742519663426947        1212.6402447994428     
   2460.0598760611765        1.9404941861558882        1212.5550965619134     
   2418.8484574040835        2.2403724909798939        1212.4896916228013     
   2377.5874105531434        2.5718361578021813        1212.4434265404623     
   2336.2761202921652        2.9328344658330252        1212.4156978732638     
   2294.9139714040839        3.3213166916690398        1212.4059021797254     
   2436.8711821118441        1.1880507138112080        1252.6377606013016     
   2398.7527081596618        1.2850095761110651        1252.5269054376345     
   2360.5964096986650        1.4513870481000595        1252.4327536936394     
   2322.3996943833154        1.6785419774802222        1252.3561952486236     
   2284.1599698671248        1.9578332100427360        1252.2981199822784     
   2245.8746438046846        2.2806195937919256        1252.2594177745632     
   2207.5411238495358        2.6382599742830735        1252.2409785048708     
   2169.1568176561536        3.0221131994028383        1252.2436920530508     
   2130.7191328784074        3.4235381156007634        1252.2684482986979     
   2249.3412640125302        1.2466648057155680        1289.3055878928940     
   2214.1199939155540        1.3017599609996751        1289.2410946028542     
   2178.8704233366793        1.4451928208738991        1289.1878274080750     
   2143.5887398493373        1.6642552957877115        1289.1477940881534     
   2108.2711310262798        1.9462392953997778        1289.1230024229596     
   2072.9137844407401        2.2784367307207276        1289.1154601925837     
   2037.5128876654808        2.6481395106510490        1289.1271751764662     
   2002.0646282735336        3.0426395454995827        1289.1601551546328     
   1966.5651938380706        3.4492287457067050        1289.2164079068386     
   2061.8298007147864        1.2730858915632552        1323.0318845968911     
   2029.5064274575741        1.3017463704285319        1323.0183891980159     
   1997.1633863224838        1.4266305956008409        1323.0108986726186     
   1964.7964018500320        1.6334870345318677        1323.0121632793268     
   1932.4011985804170        1.9080641551615827        1323.0249332769567     
   1899.9735010536936        2.2361104241613248        1323.0519589245289     
   1867.5090338101086        2.6033743091384167        1323.0959904807432     
   1835.0035213900931        2.9956042782085888        1323.1597782043425     
   1802.4526883335111        3.3985487974612170        1323.2460723544950     
   1874.3347741445907        1.2667085486265250        1353.8248697153383     
   1844.9140639380198        1.2855853494708072        1353.8624259894307     
   1815.4803544030506        1.3972170959309551        1353.9019052395342     
   1786.0296640954687        1.5883323065078230        1353.9464247833148     
   1756.5580115706985        1.8456595001042615        1353.9991019372007     
   1727.0614153847778        2.1559271963027413        1354.0630540183070     
   1697.5358940929971        2.5058639131182190        1354.1413983430609     
   1667.9774662512705        2.8821981701468076        1354.2372522287728     
   1638.3821504154289        3.2716584865526102        1354.3537329919611     
   1686.8541662277119        1.2269273543869303        1381.6927622527517     
   1660.3449585095916        1.2538934450293482        1381.7768417428044     
   1633.8263833257486        1.3584690467290557        1381.8607848609158     
   1607.2955102959190        1.5308862253671123        1381.9477005609292     
   1580.7494090392454        1.7613770444023658        1382.0406977967116     
   1554.1851491753739        2.0401735696880792        1382.1428855217634     
   1527.5998003235468        2.3575078654419599        1382.2573726894636     
   1500.9904321033248        2.7036119964071190        1382.3872682541630     
   1474.3541141341314        3.0687180278664528        1382.5356811692989     
   1499.3859588903406        1.1531368872462622        1406.6437812116576     
   1475.8011663245265        1.2072872020127079        1406.7652732249628     
   1452.2065288377489        1.3119031721977876        1406.8874752891318     
   1428.6009241616589        1.4632439035367497        1407.0131125736973     
   1404.9832300275393        1.6575684999269242        1407.1449102482898     
   1381.3523241668997        1.8911360666101018        1407.2855934823979     
   1357.7070843110982        2.1602057082048987        1407.4378874454492     
   1334.0463881915427        2.4610365296917962        1407.6045173070252     
   1310.3691135399272        2.7898876361586531        1407.7882082366061     
   2623.4242107105160        2.8866406043658799        1123.9518850094403     
   2576.2352467899291        3.3037807008935260        1123.8368760506805     
   2529.0031087856496        3.7913513148446327        1123.6876349592549     
   2481.7265680933801        4.3452570987265062        1123.5060351121795     
   2434.4043961087150        4.9614027043654687        1123.2939498863800     
   2387.0353642274090        5.6356927842161895        1123.0532526585844     
   2339.6182438452474        6.3640319908581660        1122.7858168058942     
   2292.1518063576805        7.1423249760227918        1122.4935157049856     
   2244.6348231606935        7.9664763927527247        1122.1782227328811     
   2459.1491753650271        3.1424042598748656        1169.6324782001313     
   2414.8356693353549        3.5588579402581217        1169.5748642102301     
   2370.4758946178449        4.0265469358004111        1169.4917795427359     
   2326.0710967100740        4.5496229051036607        1169.3834683705461     
   2281.6225211092478        5.1322375053031237        1169.2501748661969     
   2237.1314133127139        5.7785423944430931        1169.0921432023013     
   2192.5990188178362        6.4926892303005843        1168.9096175516306     
   2148.0265831219567        7.2788296707523159        1168.7028420867723     
   2103.4153517224509        8.1411153736565893        1168.4720609804124     
   2294.9139714040839        3.3213166916690398        1212.4059021797254     
   2253.4990163417251        3.7367481899839277        1212.3976363892596     
   2212.0318338546563        4.1870153051243051        1212.3742497801084     
   2170.5155981716084        4.6826987996515754        1212.3347674337451     
   2128.9534835221375        5.2343794382020405        1212.2782144318096     
   2087.3486641349118        5.8526379838123148        1212.2036158556946     
   2045.7043142389598        6.5480551993017571        1212.1099967870757     
   2004.0236080635832        7.3312118490777038        1211.9963823076055     
   1962.3097198374678        8.2126886956996259        1211.8617974986473     
   2130.7191328784074        3.4235381156007634        1252.2684482986979     
   2092.2224362245511        3.8365959758355075        1252.3032077409441     
   2053.6658610275003        4.2712367817590575        1252.3341483620641     
   2015.0539648781942        4.7426525034502447        1252.3594862653981     
   1976.3913053673489        5.2660351097438252        1252.3774375545197     
   1937.6824400855000        5.8565765690257194        1252.3862183332114     
   1898.9319266238538        6.5294688521889839        1252.3840447049447     
   1860.1443225729076        7.2999039274658344        1252.3691327730894     
   1821.3241855234362        8.1830737641388396        1252.3396986414512     
   1966.5651938380706        3.4492287457067050        1289.2164079068386     
   1931.0030773986293        3.8575458210896159        1289.2895934180285     
   1895.3729106681226        4.2776917256253455        1289.3705779792290     
   1859.6800892292865        4.7276517352338487        1289.4571788290925     
   1823.9300086644844        5.2254111243599937        1289.5472132063157     
   1788.1280645564154        5.7889551685674405        1289.6384983495250     
   1752.2796524876430        6.4362691432838801        1289.7288514977274     
   1716.3901680406007        7.1853383233177510        1289.8160898891972     
   1680.4650067980360        8.0541479842398758        1289.8980307628633     
   1802.4526883335111        3.3985487974612170        1323.2460723544950     
   1769.8380882791380        3.7987422506682833        1323.3548085735013     
   1737.1479173081582        4.2048604962676563        1323.4826413226115     
   1704.3878636248430        4.6358642150747755        1323.6273990886607     
   1671.5636154336055        5.1107140887446576        1323.7869103584810     
   1638.6808609391517        5.6483707992374548        1323.9590036194361     
   1605.7452883455599        6.2677950271124701        1324.1415073581418     
   1572.7625858574349        6.9879474542663615        1324.3322500615884     
   1539.7384416791485        7.8277887619263993        1324.5290602169057     
   1638.3821504154289        3.2716584865526102        1354.3537329919611     
   1608.7246172814673        3.6593297897316006        1354.4968683604216     
   1578.9858154790722        4.0512234524630912        1354.6694410828761     
   1549.1711804648712        4.4654576637080368        1354.8697010075664     
   1519.2861476948444        4.9201506097461447        1355.0958979829413     
   1489.3361526254696        5.4334204789035994        1355.3462818573435     
   1459.3266307130361        6.0233854588103100        1355.6191024789121     
   1429.2630174139190        6.7081637373278795        1355.9126096962393     
   1399.1507481842311        7.5058735017047979        1356.2250533574140     
   1474.3541141341314        3.0687180278664528        1382.5356811692989     
   1447.6598128205055        3.4384529622320770        1382.7137879316690     
   1420.8815397127214        3.8152609549537146        1382.9300799508519     
   1394.0239321490135        4.2145997999218139        1383.1836385497593     
   1367.0916274678716        4.6519272922672599        1383.4735450511976     
   1340.0892630071187        5.1427012249490645        1383.7988807778622     
   1313.0214761052669        5.7023793925038149        1384.1587270528937     
   1285.8929041006274        6.3464195896053752        1384.5521651987447     
   1258.7081843311223        7.0902796093193956        1384.9782765384230     
   1310.3691135399272        2.7898876361586531        1407.7882082366061     
   1286.6408233114580        3.1352562928054226        1408.0035824401375     
   1262.8300245404848        3.4954533619043673        1408.2636606173544     
   1238.9400110774307        3.8814583449722591        1408.5687656786954     
   1214.9740767723458        4.3042507422006224        1408.9192205347233     
   1190.9355154755717        4.7748100543956866        1409.3153480957581     
   1166.8276210374715        5.3041157829223380        1409.7574712724613     
   1142.6536873080001        5.9031474277798566        1410.2459129749948     
   1118.4170081375505        6.5828844901813000        1410.7809961139110     
   2244.6348231606935        7.9664763927527247        1122.1782227328811     
   2197.0003785007098        8.8174243184362240        1121.8583429679916     
   2149.1878066072213        9.6969401074001098        1121.5431228618420     
   2101.2052538503754        10.632178326573808        1121.2206978509473     
   2053.0608666001499        11.650293542698364        1120.8792033715952     
   2004.7627912266853        12.778440322851111        1120.5067748604515     
   1956.3191740999755        14.043773233613820        1120.0915477537624     
   1907.7381615899785        15.473446841618511        1119.6216574879065     
   1859.0279000668554        17.094615713925350        1119.0852394995056     
   2103.4153517224509        8.1411153736565893        1168.4720609804124     
   2058.6852409945491        9.0613144206928382        1168.2390025154668     
   2013.7588246687988        10.030052744461955        1168.0206669934328     
   1968.6413342754761        11.064768779314022        1167.8102066147351     
   1923.3380013445087        12.182900958208620        1167.6007735794890     
   1877.8540574056242        13.401887713626138        1167.3855200881808     
   1832.1947339892422        14.739167480371634        1167.1575983409641     
   1786.3652626249989        16.212178690446194        1166.9101605382129     
   1740.3708748431650        17.838359778268568        1166.6363588801885     
   1962.3097198374678        8.2126886956996259        1211.8617974986473     
   1920.4777177917974        9.1764684703248349        1211.7286851190174     
   1878.4424509490923        10.205803208670773        1211.6184363094753     
   1836.2067647250412        11.310177629794339        1211.5284987242171     
   1793.7735045359022        12.499076454673400        1211.4563200173768     
   1751.1455157978669        13.781984403860861        1211.3993478431382     
   1708.3256439266524        15.168386196247070        1211.3550298560099     
   1665.3167343382884        16.667766552178819        1211.3208137097877     
   1622.1216324492159        18.289610192986629        1211.2941470589917     
   1821.3241855234362        8.1830737641388396        1252.3396986414512     
   1782.3884389703021        9.1660754904958139        1252.3169173718998     
   1743.2516267000015        10.228073873805101        1252.3238344892932     
   1703.9147367404526        11.372362340211339        1252.3614717919900     
   1664.3787571198459        12.602234317297302        1252.4308510782073     
   1624.6446758662362        13.920983231760943        1252.5329941459906     
   1584.7134810075190        15.331902509960230        1252.6689227936395     
   1544.5861605722203        16.838285580344689        1252.8396588191508     
   1504.2637025877705        18.443425867606038        1253.0462240210445     
   1680.4650067980360        8.0541479842398758        1289.8980307628633     
   1644.4280346081555        9.0333245053261635        1289.9932258670374     
   1608.1992931743755        10.100747116472689        1290.1242652123528     
   1571.7784418634601        11.255280373377616        1290.2950234310219     
   1535.1651400410713        12.495788828366699        1290.5093751549948     
   1498.3590470736215        13.821137036198877        1290.7711950168978     
   1461.3598223273061        15.230189550567275        1291.0843576487327     
   1424.1671251682010        16.721810925509772        1291.4527376826359     
   1386.7806149623332        18.294865714143725        1291.8802097509886     
   1539.7384416791485        7.8277887619263993        1324.5290602169057     
   1506.6071347827872        8.7814045366072833        1324.7471371978970     
   1473.2983916248297        9.8277053128008447        1325.0071321580056     
   1439.8110716354154        10.962889191060867        1325.3150512536538     
   1406.1440342447270        12.183154271856949        1325.6769006410871     
   1372.2961388832000        13.484698656647879        1326.0986864765005     
   1338.2662449811244        14.863720446344075        1326.5864149163617     
   1304.0532119687659        16.316417741978114        1327.1460921166597     
   1269.6558992761052        17.838988643578944        1327.7837242338344     
   1399.1507481842311        7.5058735017047979        1356.2250533574140     
   1368.9363695726338        8.4135046095393591        1356.5681779574668     
   1338.5618633038184        9.4128308383172907        1356.9598390059045     
   1308.0258175980362        10.499146256100857        1357.4074528730475     
   1277.3268206758876        11.667744931157984        1357.9184359294975     
   1246.4634607576800        12.913920931342261        1358.5002045454255     
   1215.4343260642368        14.232968325657282        1359.1601750914065     
   1184.2380048154430        15.620181180909640        1359.9057639375521     
   1152.8730852321121        17.070853566333426        1360.7443874545231     
   1258.7081843311223        7.0902796093193956        1384.9782765384230     
   1231.4263690553871        7.9328137465834061        1385.4458747389479     
   1204.0026494637802        8.8600060686040933        1385.9697894352382     
   1176.4358712930123        9.8680090313775395        1386.5581259019386     
   1148.7248802797305        10.952975090234702        1387.2189894132416     
   1120.8685221603689        12.111056700010749        1387.9604852439747     
   1092.8656426718780        13.338406317018610        1388.7907186686130     
   1064.7150875507421        14.631176396379658        1389.7177949617483     
   1036.4157025336156        15.985519393587083        1390.7498193978674     
   1118.4170081375505        6.5828844901813000        1410.7809961139110     
   1094.0877633089319        7.3425209710968602        1411.3697541357290     
   1069.6336913573482        8.1731133795992719        1412.0243871256957     
   1045.0544242617545        9.0734349787663859        1412.7529679526776     
   1020.3495940010441        10.042259031686058        1413.5635694854304     
   995.51883255394682        11.078358800882029        1414.4642645926333     
   970.56177189951450        12.180507549479387        1415.4631261431723     
   945.47804401647159        13.347478540231066        1416.5682270055520     
   920.26728088373238        14.578045036064907        1417.7876400488133     
   1859.0279000668554        17.094615713925350        1119.0852394995056     
   1810.0993507738151        18.897190443974750        1118.4897913711295     
   1760.8528088851608        20.835528061840591        1117.8576735232591     
   1711.2804216679153        22.883452790862520        1117.1993156486408     
   1661.3743363886185        25.014788852930110        1116.5251474400484     
   1611.1267003141872        27.203360471290239        1115.8455985903213     
   1560.5296607115870        29.422991868738166        1115.1710987922013     
   1509.5753648474447        31.647507267638332        1114.5120777388220     
   1458.2559599885699        33.850730890690329        1113.8789651224240     
   1740.3708748431650        17.838359778268568        1166.6363588801885     
   1694.1464015193449        19.608580279081366        1166.3395989953301     
   1647.6194884280917        21.489759391659391        1166.0327710814868     
   1600.7845894476507        23.463410043397914        1165.7232541927847     
   1553.6361584563729        25.511045162204994        1165.4184273831938     
   1506.1686493327702        27.614177676337420        1165.1256697070539     
   1458.3765159552786        29.754320513984226        1164.8523602184323     
   1410.2542122022110        31.912986602863782        1164.6058779714654     
   1361.7961919520044        34.071688871107142        1164.3936020202630     
   1622.1216324492159        18.289610192986629        1211.2941470589917     
   1578.6889194847261        20.023837960151013        1211.2766348874102     
   1534.9628453037033        21.845932806998064        1211.2749532298803     
   1490.9397582713959        23.743722617712251        1211.2941563174195     
   1446.6160067531541        25.705035277024990        1211.3392983807187     
   1401.9879391143004        27.717698669011838        1211.4154336506558     
   1357.0519037203474        29.769540678818885        1211.5276163583196     
   1311.8042489364104        31.848389190242642        1211.6809007343168     
   1266.2413231280100        33.942072088239627        1211.8803410095916     
   1504.2637025877705        18.443425867606038        1253.0462240210445     
   1463.7003866704561        20.135008086488085        1253.2901652182909     
   1422.8483875685620        21.893700724953419        1253.5746515132935     
   1381.7055360097938        23.712272875455881        1253.9031381292532     
   1340.2696627219093        25.583493630441410        1254.2790802888837     
   1298.5385984323493        27.500132081360391        1254.7059332154302     
   1256.5101738691455        29.454957321640393        1255.1871521317464     
   1214.1822197594613        31.440738442046836        1255.7261922607022     
   1171.5525668315513        33.450244536469143        1256.3265088254682     
   1386.7806149623332        18.294865714143725        1291.8802097509886     
   1349.1542850771609        19.934135258067442        1292.3694561587545     
   1311.2416232789810        21.622715561930363        1292.9222974765298     
   1273.0415305330600        23.356943176357504        1293.5413157348710     
   1234.5529078052318        25.133154654320208        1294.2290929643248     
   1195.7746560603364        26.947686545175486        1294.9882111953718     
   1156.7056762638638        28.796875400532031        1295.8212524584369     
   1117.3448693812268        30.677057771930720        1296.7307987840832     
   1077.6911363778268        32.584570210584047        1297.7194322028026     
   1269.6558992761052        17.838988643578944        1327.7837242338344     
   1235.0240967057007        19.413264075771451        1328.5037738797200     
   1200.1080604916592        21.022629735351472        1329.3083226644005     
   1164.9073497124796        22.665615884089107        1330.1998052411200     
   1129.4215234462845        24.340752782346044        1331.1806562634331     
   1093.6501407717801        26.046570692388514        1332.2533103847281     
   1057.5927607672072        27.781599874986398        1333.4202022584727     
   1021.2489425111273        29.544370592178893        1334.6837665379242     
   984.61824508174550        31.333413104650333        1336.0464378766171     
   1152.8730852321121        17.070853566333426        1360.7443874545231     
   1121.2833035566684        18.564439139331682        1361.6823845521742     
   1089.4132072631717        20.083095662515575        1362.7231586216890     
   1057.2626014180048        21.626173357748485        1363.8697227545892     
   1024.8312910880238        23.193022447453359        1365.1250900427651     
   992.11908134025293        24.782993155241172        1366.4922735776940     
   959.12577724160997        26.395435703828184        1367.9742864515122     
   925.85118385874830        28.029700315660421        1369.5741417556235     
   892.29510625850605        29.685137213642292        1371.2948525817787     
   1036.4157025336156        15.985519393587083        1390.7498193978674     
   1007.9053876310657        17.379705049843210        1391.8945543470350     
   979.12257164980622        18.793765759840994        1393.1572368932373     
   950.06689352024057        20.226497958535049        1394.5421843820641     
   920.73799217332430        21.676698082408109        1396.0537141587124     
   891.13550653946709        23.143162566064404        1397.6961435687351     
   861.25907554938340        24.624687845121741        1399.4737899576069     
   831.10833813385113        26.120070355660033        1401.3909706705942     
   800.68293322315071        27.628106531971611        1403.4520030533304     
   920.26728088373238        14.578045036064907        1417.7876400488133     
   894.86383092919948        15.851106406211613        1419.1295494350491     
   869.20166170809773        17.144292444185339        1420.6009890240393     
   843.27983389010546        18.454472048871366        1422.2083062301044     
   817.09740814506961        19.778514119894879        1423.9578484678455     
   790.65344514277035        21.113287556599914        1425.8559631516925     
   763.94700555313159        22.455661258327723        1427.9089976963692     
   736.97715004576810        23.802504124135908        1430.1232995163946     
   709.74293929057262        25.150685053579792        1432.5052160261337     
   1458.2559599885699        33.850730890690329        1113.8789651224240     
   1406.5357481842520        35.994231754630164        1113.3434734089228     
   1354.3738864623037        38.022428805015920        1112.9583783310945     
   1301.7548045580952        39.883421159528723        1112.7057044833612     
   1248.6629322064564        41.525307934343687        1112.5674764600437     
   1195.0826991425151        42.896188246632278        1112.5257188553746     
   1140.9985351014502        43.944161213537029        1112.5624562634450     
   1086.3948698184390        44.617325952307681        1112.6597132788388     
   1031.2561330285791        44.863781579974614        1112.7995144956903     
   1361.7961919520044        34.071688871107142        1164.3936020202630     
   1312.9380874570702        36.186880523294292        1164.2800397988478     
   1263.6057552742939        38.182429112380646        1164.3205005072343     
   1213.7789857392370        39.990969090391502        1164.5085658478636     
   1163.4375691871933        41.545134908010368        1164.8378175236676     
   1112.5612959537175        42.777561017348262        1165.3018372370486     
   1061.1299563740940        43.620881869147809        1165.8942066910247     
   1009.1233407835728        44.007731914345129        1166.6085075881342     
   956.52123951776377        43.870745604964384        1167.4383216310202     
   1266.2413231280100        33.942072088239627        1211.8803410095916     
   1220.2887994733389        36.006926389042746        1212.1798245703590     
   1173.8587841467854        37.954065762541859        1212.6319542095994     
   1126.9272750065927        39.703483069695437        1213.2398572681423     
   1079.4702699117965        41.175171174021614        1214.0066610869198     
   1031.4637667211468        42.289122937813545        1214.9354930066745     
   982.88376329322489        42.965331223213809        1216.0294803685115     
   933.70625748722262        43.123788893868380        1217.2917505131911     
   883.90724716147656        42.684488811213640        1218.7254307815401     
   1171.5525668315513        33.450244536469143        1256.3265088254682     
   1128.5517295042841        35.443522934615658        1257.0286885922419     
   1085.0937032483566        37.325557805523374        1257.8781225180207     
   1041.1515403689116        39.006523499798391        1258.8854721115467     
   996.69829317149629        40.396594369049467        1260.0613988817950     
   951.70701396096013        41.405944762853096        1261.4165643377194     
   906.15075504263064        41.944749032381367        1262.9616299879856     
   860.00256872166949        41.923181528055096        1264.7072573415962     
   813.23550730309125        41.251416600044621        1266.6641079074177     
   1077.6911363778268        32.584570210584047        1297.7194322028026     
   1037.6907228201662        34.485823739518764        1298.8124927333874     
   997.27124274791515        36.285124292426417        1300.0443885122561     
   956.40364983559959        37.885650784405357        1301.4313037457889     
   915.05889775778917        39.190582130589576        1302.9894226407473     
   873.20794018958827        40.103097248089199        1304.7349294038720     
   830.82173080526468        40.526375050895211        1306.6840082418826     
   787.87122327930740        40.363594454527885        1308.8528433609279     
   744.32737128706401        39.517934376242636        1311.2576189682331     
   984.61824508174550        31.333413104650333        1336.0464378766171     
   947.66962469209693        33.122982386136925        1337.5170978628041     
   910.35213281409017        34.820984273463296        1339.1161352719282     
   872.63547141501692        36.326425324321605        1340.8632455381430     
   834.48934246233512        37.538312096876552        1342.7781240957265     
   795.88344792291900        38.355651147322050        1344.8804663789820     
   756.78748976401118        38.677449033003711        1347.1899678219861     
   717.17116995302990        38.402712312337457        1349.7263238589337     
   677.00419045692638        37.430447541714102        1352.5092299241430     
   892.29510625850605        29.685137213642292        1371.2948525817787     
   858.45228039077972        31.344152455428627        1373.1283648492160     
   824.29710361589389        32.921356800011864        1375.0787458768268     
   789.79887311674372        34.314407524150511        1377.1671908562332     
   754.92688607630043        35.420961904238851        1379.4148949789501     
   719.65043967714291        36.138677215398531        1381.8430534366678     
   683.93883110242643        36.365210734705101        1384.4728614207713     
   647.76135753468429        35.998219737576164        1387.3255141229356     
   611.08731615694876        34.935361500699372        1390.4222067347644     
   800.68293322315071        27.628106531971611        1403.4520030533304     
   770.00253518675777        29.138487527766415        1405.6321545615792     
   739.06688532179771        30.574460922050292        1407.9176034067082     
   707.84572294951840        31.835157785944318        1410.3290330674622     
   676.30878739119612        32.819709190220351        1412.8871270224927     
   644.42581796865863        33.427246207691212        1415.6125687504930     
   612.16655400358752        33.556899910443633        1418.5260417305105     
   579.50073481703180        33.107801368833975        1421.6482294407208     
   546.39809973080685        31.979081655621087        1424.9998153600811     
   709.74293929057262        25.150685053579792        1432.5052160261337     
   682.28423435127615        26.495141185853441        1435.0143278688158     
   654.62220810070153        27.768515690437368        1437.6180909412994     
   626.72788892221206        28.874236511790684        1440.3346655393780     
   598.57230519879863        29.715731593361937        1443.1822119585513     
   570.12648531388675        30.196428879954482        1446.1788904946370     
   541.36145765061474        30.219756315020220        1449.3428614431346     
   512.24825059249451        29.689141843875490        1452.6922850997071     
   482.75789252262388        28.508013410123922        1456.2453217599950     
   1031.2561330285791        44.863781579974614        1112.7995144956903     
   975.71300952130537        44.619088249331355        1113.1197942149649     
   919.82179004664545        43.570825981718087        1113.8399299236703     
   863.45531328024776        41.295123695840914        1115.0641109955989     
   806.48641789758290        37.368110310155544        1116.8965268039249     
   748.78794257436266        31.365914743577491        1119.4413667225315     
   690.23272598611970        22.864665914421124        1122.8028201250986     
   630.69360680842078        11.440492741400760        1127.0850763848025     
   570.04342371697987       -3.3304758564873396        1132.3923248754700     
   956.52123951776377        43.870745604964384        1167.4383216310202     
   903.59844245583758        43.174633729003403        1168.4620498512168     
   850.55533482646206        41.636091572504370        1169.8159891645203     
   797.26009998948018        38.815730335009846        1171.5805651002477     
   743.58092130470993        34.274161215965876        1173.8362031875677     
   689.38598213167427        27.571995413670834        1176.6633289555207     
   634.54346583035192        18.269844128152812        1180.1423679333789     
   578.92155576043046        5.9283185583261684        1184.3537456504230     
   522.38843528170207       -9.8919700965234938        1189.3778876358097     
   883.90724716147656        42.684488811213640        1218.7254307815401     
   833.85964102126138        41.631148423359747        1220.3487555408369     
   783.86336051678768        39.704194327939177        1222.2173581689624     
   733.78492262376460        36.458683110862722        1224.3904645225159     
   683.49084431829340        31.449671359143593        1226.9273004584247     
   632.84764257638335        24.232215659444989        1229.8870918337641     
   581.72183437384706        14.361372597692252        1233.3290645051918     
   529.97993668657830        1.3921987602872150        1237.3124443297479     
   477.48846649075278       -15.120249265483352        1241.8964571642198     
   813.23550730309125        41.251416600044621        1266.6641079074177     
   766.28114868682394        39.923995372266177        1268.7908654984333     
   719.50092891809777        37.701652786789765        1271.0661664928389     
   672.76268752097383        34.143853923635362        1273.5306012471651     
   625.93426402012471        28.810063865018520        1276.2247601182914     
   578.88349793911573        21.259747689532304        1279.1892334626223     
   531.47822880227056        11.052370478256677        1282.4646116368644     
   483.58629613365349       -2.2526026884952159        1286.0914849975616     
   435.07553945758769       -19.095706729774918        1290.1104439014127     
   744.32737128706401        39.517934376242636        1311.2576189682331     
   700.64750892209156        37.988537616979926        1313.7993339379805     
   657.22310183160948        35.554985489993101        1316.3845436923004     
   613.92630102009855        31.791114676673573        1319.0377672596678     
   570.62925749151634        26.270761856934712        1321.7835236686747     
   527.20412225047392        18.567763712808556        1324.6463319474826     
   483.52304630157050        8.2559569260980368        1327.6507111248729     
   439.45818064851846       -5.0908218236486391        1330.8211802287874     
   394.88167629582711       -21.898735855191376        1334.1822582880586     
   677.00419045692638        37.430447541714102        1352.5092299241430     
   636.74326519651538        35.760138198129965        1355.3851150739069     
   596.78494105809705        33.190710977187393        1358.1946193234685     
   557.00866945870416        29.320337269069597        1360.9487545450606     
   517.29390181435292        23.747188460395307        1363.6585326111133     
   477.52008954173732        16.069435940118098        1366.3349653936382     
   437.56668405737150        5.8852510965962495        1368.9890647653476     
   397.31313677775319       -7.2071946817365529        1371.6318425984302     
   356.63889911908200       -23.609730007452512        1374.2743107648657     
   611.08731615694876        34.935361500699372        1390.4222067347644     
   574.35296097971991        33.174160156853873        1393.5591631204807     
   537.94150839914755        30.535347790614850        1396.5185229423200     
   501.74269917556984        26.651393603662967        1399.3003550884346     
   465.64627407012608        21.154766799395446        1401.9047284471151     
   429.54197384312363        13.677936579001496        1404.3317119066674     
   393.31953925563357        3.8533721456992964        1406.5813743551641     
   356.86871106779591       -8.6864572995519040        1408.6537846810502     
   320.07923004080743       -24.309082552956994        1410.5490117723566     
   546.39809973080685        31.979081655621087        1424.9998153600811     
   513.26113974125110        30.165966534051790        1428.3324322919707     
   480.44786565518672        27.515414468914685        1431.3783841049153     
   447.86129650918485        23.704155582459421        1434.1293608749165     
   415.40445134047940        18.408919998593319        1436.5770526784477     
   382.98034918575115        11.306437839657008        1438.7131495914787     
   350.49200908200015        2.0734392287982217        1440.5293416904535     
   317.84245006607040       -9.6133457110303908        1442.0173190517178     
   284.93469117479742       -24.077186856971821        1443.1687717512166     
   482.75789252262388        28.508013410123922        1456.2453217599950     
   453.25234495052820        26.670920370266884        1459.7158768027471     
   424.05907462723764        24.057429552371204        1462.7963323671895     
   395.09736779765615        20.398495106132700        1465.4725638897271     
   366.28651070692905        15.425071182170939        1467.7304468063712     
   337.54578960008524        8.8681119305320664        1469.5558565536521     
   308.79449072242016       0.45857150196437146        1470.9346685678777     
   279.95190031885636       -10.072595953550049        1471.8527582852694     
   250.93730463452692       -22.994436285625227        1472.2960011421228     
   570.04342371697987       -3.3304758564873396        1132.3923248754700     
   510.66192516460592       -21.265714864439843        1138.2572331467602     
   454.73675828075557       -42.823037012282526        1144.1117927418584     
   401.85260975660151       -69.386819996239126        1149.9091790250563     
   351.59416628251086       -102.34144151491891        1155.6025673606885     
   303.54611454923997       -143.07127926581558        1161.1451331124190     
   257.29314124764403       -192.96071094614760        1166.4900516449861     
   212.41993306818824       -253.39411425436458        1171.5904983223350     
   168.51117670185232       -325.75586688714395        1176.3996485085777     
   522.38843528170207       -9.8919700965234938        1189.3778876358097     
   467.11945091243717       -29.036365392993844        1194.5839801948698     
   415.16058164986578       -51.781435958076628        1199.2409533351438     
   366.18595957228183       -79.213408197479566        1203.2788481378786     
   319.86971675750522       -112.41850851823423        1206.6277056847234     
   275.88598528450842       -152.48296332418278        1209.2175670572417     
   233.90889723064345       -200.49299902367787        1210.9784733371209     
   193.61258467438671       -257.53484202210325        1211.8404656058235     
   154.67117969429509       -324.69471872436452        1211.7335849450471     
   477.48846649075278       -15.120249265483352        1241.8964571642198     
   426.22031698679825       -35.048063640792435        1246.3395462030214     
   378.07049792824654       -58.522948016639987        1249.8011326098274     
   332.78870111967819       -86.379263044174934        1252.1919091964203     
   290.12461836625448       -119.45136937282032        1253.4225687741477     
   249.82794147243047       -158.57362765461076        1253.4038041543238     
   211.64836224356347       -204.58039853830545        1252.0463081487858     
   175.33557248416327       -258.30604267552582        1249.2607735688412     
   140.63926399912123       -320.58492071663261        1244.9578932258680     
   435.07553945758769       -19.095706729774918        1290.1104439014127     
   387.72009276031321       -39.374138796073765        1293.7120830518629     
   343.25644092578221       -63.110593045763238        1295.9900239502572     
   301.49594982507949       -90.933849908340022        1296.8393971503656     
   262.24998532870075       -123.47268981563103        1296.1553332062779     
   225.32991330749886       -161.35589319800852        1293.8329626717309     
   190.54709963199201       -205.21224048721623        1289.7674161004545     
   157.71291017316713       -255.67051211310232        1283.8538240465123     
   126.63871080149420       -313.35948850762429        1275.9873170636815     
   394.88167629582711       -21.898735855191376        1334.1822582880586     
   351.37434760544329       -42.087920047753812        1336.8897426230531     
   310.50834445314217       -65.607390901016373        1338.0053207405792     
   272.14282111489848       -92.926634162054214        1337.4123469494930     
   236.13693186648047       -124.51513557817994        1334.9941755588584     
   202.34983098354729       -160.84238089699534        1330.6341608767416     
   170.64067274199448       -202.37785586589283        1324.2156572124920     
   140.86861141759431       -249.59104623191001        1315.6220188743325     
   112.89280128622092       -302.95143774236749        1304.7366001712458     
   356.63889911908200       -23.609730007452512        1374.2743107648657     
   316.93865089475753       -43.262736583817272        1376.0606767977063     
   279.61614232032900       -66.076361440108442        1376.0447163653146     
   244.56443041541451       -92.407081177410632        1374.1017935436971     
   211.67657220041025       -122.61137239460597        1370.1072724091650     
   180.84562469490902       -157.04571169277483        1363.9365170374867     
   151.96464491945630       -196.06657567036046        1355.4648915048726     
   124.92668989374354       -240.03044092839997        1344.5677598875975     
   99.624816638005314       -289.29378406588944        1331.1204862614229     
   320.07923004080743       -24.309082552956994        1410.5490117723566     
   284.16857200113532       -42.971917592012801        1411.4130374571869     
   250.36976833744723       -64.580524520270231        1410.3059042087461     
   218.59589315298405       -89.424656326453956        1407.0987718827207     
   188.76002055123712       -117.79406599954643        1401.6628003351334     
   160.77522463584728       -149.97850652688271        1393.8691494218488     
   134.55457951016032       -186.26773089749409        1383.5889789985904     
   110.01115927772409       -226.95149209988878        1370.6934489217365     
   87.058038041990713       -272.31954312197217        1355.0537190466473     
   284.93469117479742       -24.077186856971821        1443.1687717512166     
   252.81968029722958       -41.288792260352963        1443.1349764829624     
   222.55915631488108       -61.182899997570502        1440.9865776550910     
   194.07232475372680       -84.028824982014484        1436.5943169161280     
   167.27839114011465       -110.09588212575379        1429.8289359140695     
   142.09656100016710       -139.65338634187475        1420.5611762972337     
   118.44603985987263       -172.97065254371046        1408.6617797137080     
   96.246033245528182       -210.31699564358996        1394.0014878120367     
   75.415746683123217       -251.96173055490510        1376.4510422402525     
   250.93730463452692       -22.994436285625227        1472.2960011421228     
   222.64754515531763       -38.286689778212079        1471.4146457560423     
   195.97424006261247       -55.946507730004498        1468.2844300888357     
   170.82884064418502       -76.269052515312438        1462.7794635936471     
   147.12279818822512       -99.549486506704270        1454.7738557237171     
   124.76756398231097       -126.08297207882651        1444.1417159316231     
   103.67458931471651       -156.16467160430216        1430.7571536707237     
   83.755325473319303       -190.08974745698453        1414.4942783940623     
   64.921223745922944       -228.15336201051736        1395.2271995544668     
   168.51117670185232       -325.75586688714395        1176.3996485085777     
   127.28144534432894       -410.41315508098404        1178.5414547974758     
   90.944071106639399       -506.07063535411260        1175.3281639102190     
   59.831879052016859       -611.61889082960465        1166.2453924016579     
   34.277694243436969       -725.94850463067883        1150.7787568269096     
   14.614341743822138       -847.95005988082232        1128.4138737407484     
   1.1746466164524350       -976.51413970216902        1098.6363596982867     
  -5.7085660755012100       -1110.5313272180485        1060.9318312550033     
  -5.7024712689809576       -1248.8922055512583        1014.7859049655483     
   154.67117969429509       -324.69471872436452        1211.7335849450471     
   118.28199727661027       -402.37287246581712        1208.6312530654845     
   85.944367617485455       -489.96282921647122        1200.2954137044753     
   57.785445607633250       -587.04073933982966        1186.3388909826695     
   33.932386138049281       -693.18275319992040        1166.3745090211817     
   14.512344100274333       -807.96502115815008        1140.0150919408052     
 -0.34752561506769553       -930.96369357890148        1106.8734638622254     
  -10.520068116890059       -1061.7549208246821        1066.5624489063002     
  -15.878128513643560       -1199.9148532585075        1018.6948711945142     
   140.63926399912123       -320.58492071663261        1244.9578932258680     
   108.43173670896772       -391.80574054495321        1237.3046957096542     
   79.728855805618338       -471.87865913949480        1224.3399554073303     
   54.495661003091243       -560.92021078679193        1205.7819838264916     
   32.697192013926951       -659.04692977864090        1181.3490924738403     
   14.298488551543073       -766.37535040303567        1150.7595928568971     
 -0.73540967066344365       -883.02200694945338        1113.7317964827537     
  -12.439462939744715       -1009.1034337074012        1069.9840148594283     
  -20.848631542160035       -1144.7361649656491        1019.2345594931114     
   126.63871080149420       -313.35948850762429        1275.9873170636815     
   98.027592096007282       -378.62268078355419        1264.4061754310021     
   72.606053741418748       -451.72556970104011        1247.2866448685427     
   50.220575267264479       -533.17989016188960        1224.4308040902947     
   30.717636203164460       -623.49737706733254        1195.6407318103011     
   13.943716078228050       -723.18976532028751        1160.7185067428613     
 -0.25470557761923374       -832.76878982143194        1119.4662076024895     
  -12.031149235342980       -952.74618547285036        1071.6859131023493     
  -21.539135365165976       -1083.6336871762994        1017.1797019577829     
   112.89280128622092       -302.95143774236749        1304.7366001712458     
   87.366491893428275       -362.73461464296008        1289.7800849311768     
   64.884479494368520       -429.41100548106300        1268.9603379375985     
   45.218238429276568       -503.74236245552163        1242.1414849323205     
   28.139243037824315       -586.49043776745248        1209.1876516567156     
   13.418967660085855       -678.41698361676026        1169.9629638526210     
  0.82888663605200463       -780.28375220358794        1124.3315472616068     
  -9.8595256947332928       -892.85249572869157        1072.1575276255578     
  -18.874794991921704       -1016.8849663920000        1013.3050306861738     
   99.624816638005314       -289.29378406588944        1331.1204862614229     
   76.745364555955788       -344.05246358860506        1313.2708169111208     
   56.872651134322581       -404.84241105798282        1289.1858904641215     
   39.746700517721280       -472.53021265934581        1258.7701595101864     
   25.107536850386367       -547.98245457804660        1221.9280766388545     
   12.695184277307135       -632.06572299775723        1178.5640944395934     
   2.2496669426252538       -725.64660410452200        1128.5826655026274     
  -6.4889910089303839       -829.59168408256380        1071.8882424171302     
  -13.780765432807357       -944.76754911679620        1008.3852777730096     
   87.058038041990713       -272.31954312197217        1355.0537190466473     
   66.461138539045621       -322.48714908223178        1334.7227640721276     
   48.879086730988035       -377.92723101159817        1307.7881582975776     
   34.064011561148874       -439.46602576582609        1274.1729609816550     
   21.768041973222097       -507.92977019940855        1233.8002313823054     
   11.743306909868153       -584.14470116973280        1186.5930287578096     
   3.7419353148280834       -668.93705553162772        1132.4744123666019     
  -2.4839438690374607       -763.13307014108284        1071.3674414662173     
  -7.1822016981943193       -867.55898185401293        1003.1951753155238     
   75.415746683123217       -251.96173055490510        1376.4510422402525     
   56.810742297499630       -297.94959258880988        1353.9803191155036     
   41.212304354027694       -348.57290992119312        1324.5919972879503     
   28.428221588991136       -404.47238676444806        1288.2060225047960     
   18.266282738094333       -466.28872733328149        1244.7423405132906     
   10.534276538054428       -534.66263583836883        1194.1208970608427     
   5.0399917245708536       -610.23481649388918        1136.2616378949399     
   1.5912170338195892       -693.64597351236011        1071.0845087621917     
  -4.2587977914081421E-003  -785.53681110638252        998.50945541082081     
   64.921223745922944       -228.15336201051736        1395.2271995544668     
   48.091104286776869       -270.35071557062008        1370.8878747425917     
   34.180822073534358       -316.68689236460193        1339.4222632844362     
   23.097380629544020       -367.47188064825366        1300.7254772370698     
   14.747783477942505       -423.01566867783924        1254.6926286575294     
   9.0390341417376305       -483.62824470969622        1201.2188296023030     
   5.8781361442316609       -549.61959699955651        1140.1991921290569     
   5.1720930087649037       -621.29971380291579        1071.5288282940119     
   6.8279082584207060       -698.97858337631544        995.10285015425154     
   1499.3859588903406        1.1531368872462622        1406.6437812116576     
   1475.8011663245265        1.2072872020127079        1406.7652732249628     
   1452.2065288377489        1.3119031721977876        1406.8874752891318     
   1428.6009241616589        1.4632439035367497        1407.0131125736973     
   1404.9832300275393        1.6575684999269242        1407.1449102482898     
   1381.3523241668997        1.8911360666101018        1407.2855934823979     
   1357.7070843110982        2.1602057082048987        1407.4378874454492     
   1334.0463881915427        2.4610365296917962        1407.6045173070252     
   1310.3691135399272        2.7898876361586531        1407.7882082366061     
   1311.9315365420241        1.0564952354410480        1428.6818553629994     
   1291.2827022570502        1.1428196860341018        1428.8276404014648     
   1270.6214103039704        1.2496557909123567        1428.9776613298052     
   1249.9484692567776        1.3796987953227813        1429.1341075415419     
   1229.2646876889983        1.5356439445625938        1429.2991684294439     
   1208.5708741738561        1.7201864831050671        1429.4750333868180     
   1187.8678372849831        1.9360216562839128        1429.6638918071519     
   1167.1563855960460        2.1858447099136242        1429.8679330830289     
   1146.4373276802542        2.4723508873941000        1430.0893466080781     
   1124.4917272432369       0.94799358264475586        1447.8013578038560     
   1106.7853120194595        1.0562632139182710        1447.9592091638820     
   1089.0645162737310        1.1617239763016300        1448.1262885966653     
   1071.3315678338338        1.2718019615909952        1448.3043211560212     
   1053.5886945270556        1.3939232613254831        1448.4950318959643     
   1035.8381241807463        1.5355139664594617        1448.7001458699283     
   1018.0820846222983        1.7040001683136552        1448.9213881316873     
   1000.3228036794051        1.9068079593280913        1449.1604837348325     
   982.56250917940861        2.1513634304315019        1449.4191577331478     
   937.06367839576308       0.82677614898608454        1463.9961740280992     
   922.30464702237703       0.94631320920740336        1464.1566351667113     
   907.53020627092656        1.0464155862966891        1464.3321860521853     
   892.74349163533282        1.1375349257157836        1464.5241588359929     
   877.94763860838486        1.2301228703699962        1464.7338856689175     
   863.14578268345144        1.3346310651535873        1464.9626987023369     
   848.34105935373827        1.4615111536493828        1465.2119300871611     
   833.53660411258602        1.6212147805858308        1465.4829119743301     
   818.73555245324678        1.8241935900530848        1465.7769765150551     
   749.64453740171825       0.69198715621760698        1477.2601895290143     
   737.83635867553494       0.81166509417334964        1477.4165740645046     
   726.01283981912331       0.90203847776388102        1477.5941826595385     
   714.17751240360383       0.97487920916972826        1477.7940259993834     
   702.33390799967287        1.0419591917053879        1478.0171147693586     
   690.48555817819931        1.1150503281985493        1478.2644596549037     
   678.63599451003040        1.2059245214506120        1478.5370713410325     
   666.78874856612083        1.3263536745245403        1478.8359605132855     
   654.94735191745235        1.4881096905257039        1479.1621378567363     
   562.23145166273343       0.54277082367264029        1487.5872898003090     
   553.37609838942512       0.65101429277692091        1487.7356815121905     
   544.50677644225493       0.72690050763571890        1487.9111073815693     
   535.62690188157899       0.78181633585526811        1488.1143280648662     
   526.73989076771045       0.82714864559443413        1488.3461042182105     
   517.84915916102614       0.87428430462523465        1488.6071964983619     
   508.95812312181039       0.93461018084013858        1488.8983655613497     
   500.07019871070457        1.0195131422490817        1489.2203720634902     
   491.18880198797649        1.1403800573398541        1489.5739766613210     
   374.82156858089172       0.37827137267484545        1494.9713603357775     
   368.91951757421339       0.46305622734674046        1495.1106131644274     
   363.00637566385967       0.51930953285294379        1495.2817891812697     
   357.08493181153278       0.55632782776392276        1495.4854704506972     
   351.15797497888320       0.58340765125718974        1495.7222390366005     
   345.22829412779214       0.60984554262671509        1495.9926770035663     
   339.29867821988370       0.64493804100489172        1496.2973664155877     
   333.37191621683775       0.69798168504409830        1496.6368893369499     
   327.45079708063452       0.77827301468097687        1497.0118278319676     
   187.41203555814963       0.19763302332199828        1499.4062866285472     
   184.46226763997586       0.24648632125424541        1499.5380246756799     
   181.50599700764261       0.27757341062156371        1499.7050570216857     
   178.54487393600633       0.29639520787277718        1499.9078585753068     
   175.58054869997579       0.30845262922854744        1500.1469042455124     
   172.61467157467419       0.31924659167039238        1500.4226689412753     
   169.64889283470322       0.33427801093989729        1500.7356275715592     
   166.68486275523406       0.35904780390055180        1501.0862550455513     
   163.72423161118567       0.39905688727615996        1501.4750262718978     
  -3.6943667776399098E-009  -3.5477649213843581E-009   1500.8859541722504     
  -2.9529802474332614E-009  -2.1564434951114291E-009   1501.0145717011467     
  -2.3665728224110534E-009  -1.2181916150758961E-009   1501.1797398659050     
  -2.1341041646343925E-009  -5.3858729571980165E-010   1501.3818978572854     
  -2.1885562826721686E-009  -2.7540205853721554E-010   1501.6214848657637     
  -2.4220720965649410E-009  -5.3230435902313433E-011   1501.8989400823491     
  -2.8788066892087263E-009  -1.3962081548147908E-011   1502.2147026971145     
  -3.6444741518577004E-009  -6.9755868359691727E-011   1502.5692119008472     
  -4.4144611334856332E-009   2.5114294184730864E-010   1502.9629068842487     
   1310.3691135399272        2.7898876361586531        1407.7882082366061     
   1286.6408233114580        3.1352562928054226        1408.0035824401375     
   1262.8300245404848        3.4954533619043673        1408.2636606173544     
   1238.9400110774307        3.8814583449722591        1408.5687656786954     
   1214.9740767723458        4.3042507422006224        1408.9192205347233     
   1190.9355154755717        4.7748100543956866        1409.3153480957581     
   1166.8276210374715        5.3041157829223380        1409.7574712724613     
   1142.6536873080001        5.9031474277798566        1410.2459129749948     
   1118.4170081375505        6.5828844901813000        1410.7809961139110     
   1146.4373276802542        2.4723508873941000        1430.0893466080781     
   1125.6755409241557        2.7879715733830039        1430.3440800750122     
   1104.8365824864063        3.1274040590874392        1430.6477410072705     
   1083.9222805994802        3.4967424528135211        1431.0020085442418     
   1062.9344634958586        3.9020808628121699        1431.4085618251972     
   1041.8749594078502        4.3495133968604591        1431.8690799895819     
   1020.7455965681847        4.8451341637983205        1432.3852421768140     
   999.54820320918486        5.3950372715668209        1432.9587275260465     
   978.28460756314837        6.0053168277900113        1433.5912151768159     
   982.56250917940861        2.1513634304315019        1449.4191577331478     
   964.76753947466943        2.4335350900287835        1449.7129684674551     
   946.90319018272157        2.7457156633677187        1450.0582272678564     
   928.97012502835878        3.0901175672088357        1450.4577886719032     
   910.96900773727225        3.4689532196173900        1450.9145072175065     
   892.90050203399676        3.8844350364448132        1451.4312374423159     
   874.76527164399431        4.3387754353858554        1452.0108338840421     
   856.56398029235243        4.8341868333712910        1452.6561510805386     
   838.29729170381904        5.3728816467026377        1453.3700435694441     
   818.73555245324678        1.8241935900530848        1465.7769765150551     
   803.90748984735433        2.0691481078586662        1466.1080519333027     
   789.01977832352463        2.3473673829479935        1466.4917444228558     
   774.07221820988161        2.6581858425699636        1466.9319030892559     
   759.06460983482157        3.0009379146409572        1467.4323770380045     
   743.99675352609472        3.3749580246665971        1467.9970153750019     
   728.86844961231816        3.7795806019082079        1468.6296672055594     
   713.67949842145003        4.2141400725028291        1469.3341816352024     
   698.42970028179491        4.6779708643447009        1470.1144077698243     
   654.94735191745235        1.4881096905257039        1479.1621378567363     
   643.08606292652576        1.6920118922689085        1479.5271347881537     
   631.17627760315486        1.9293384261555673        1479.9449174961387     
   619.21723398920096        2.1975494318533322        1480.4201488236647     
   607.20817012620773        2.4941050477480360        1480.9574916135191     
   595.14832405597929        2.8164654130946190        1481.5616087087806     
   583.03693382028109        3.1620906672777380        1482.2371629523370     
   570.87323746065351        3.5284409487697417        1482.9888171870284     
   558.65647301892216        3.9129763968381610        1483.8212342559386     
   491.18880198797649        1.1403800573398541        1489.5739766613210     
   482.29392959628024        1.2993277076785148        1489.9680213477727     
   473.36261871582576        1.4886080012909986        1490.4143715116259     
   464.39384621176919        1.7048104884087820        1490.9183229025796     
   455.38658894981057        1.9445247216718542        1491.4851712704551     
   446.33982379585154        2.2043402536446877        1492.1202123650291     
   437.25252761533432        2.4808466361140802        1492.8287419358282     
   428.12367727379063        2.7706334207396139        1493.6160557328678     
   418.95224963706892        3.0702901603717976        1494.4874495056722     
   327.45079708063452       0.77827301468097687        1497.0118278319676     
   321.52176074154306       0.88829682126603871        1497.4285159279161     
   315.56873235577740        1.0221553166112045        1497.8967314930801     
   309.59072872332229        1.1765711670505823        1498.4222223535819     
   303.58676664393823        1.3482670385931783        1499.0107363354991     
   297.55586291767122        1.5339655979080362        1499.6680212648241     
   291.49703434480728        1.7303895126579363        1500.3998249673468     
   285.40929772489284        1.9342614478878204        1501.2118952695525     
   279.29166985820655        2.1423040714893915        1502.1099799971446     
   163.72423161118567       0.39905688727615996        1501.4750262718978     
   160.76022724616007       0.45612049673439969        1501.9064228443176     
   157.78454921728428       0.52695958058870218        1502.3886224644141     
   154.79655536888151       0.60943361980402244        1502.9276442040562     
   151.79560354609126       0.70140209802199394        1503.5295071350986     
   148.78105159349099       0.80072449736471896        1504.2002303292652     
   145.75225735581668       0.90526030021958803        1504.9458328582477     
   142.70857867799481        1.0128689897180223        1505.7723337940295     
   139.64937340465980        1.1214100478924962        1506.6857522083401     
  -4.4144611334856332E-009   2.5114294184730864E-010   1502.9629068842487     
  -5.2113469378461691E-009   3.4242004996832514E-010   1503.3995464127340     
  -5.5958277584782892E-009   7.7341205475771246E-010   1503.8866694494700     
  -5.6521996627289364E-009   1.6522378252039412E-009   1504.4303854814552     
  -5.4743576490094038E-009   2.3376887662083225E-009   1505.0368039958719     
  -4.9244261620317318E-009   3.2046467673386258E-009   1505.7120344795051     
  -4.1362448428863684E-009   4.0084808888446072E-009   1506.4621864196909     
  -3.1883231305911232E-009   4.4687987188232101E-009   1507.2933693032139     
  -1.8670793550260651E-009   5.2589925411292235E-009   1508.2116926171625     
   1118.4170081375505        6.5828844901813000        1410.7809961139110     
   1094.0877633089319        7.3425209710968602        1411.3697541357290     
   1069.6336913573482        8.1731133795992719        1412.0243871256957     
   1045.0544242617545        9.0734349787663859        1412.7529679526776     
   1020.3495940010441        10.042259031686058        1413.5635694854304     
   995.51883255394682        11.078358800882029        1414.4642645926333     
   970.56177189951450        12.180507549479387        1415.4631261431723     
   945.47804401647159        13.347478540231066        1416.5682270055520     
   920.26728088373238        14.578045036064907        1417.7876400488133     
   978.28460756314837        6.0053168277900113        1433.5912151768159     
   956.93373428376083        6.6745531932333506        1434.2893953771193     
   935.47366054210897        7.3985017866885983        1435.0639751984463     
   913.90494334710843        8.1790193044884631        1435.9226590151395     
   892.22813970741583        9.0179624422494271        1436.8731512013078     
   870.44380663185325        9.9171878961226980        1437.9231561314925     
   848.55250112907993        10.878552361334016        1439.0803781799082     
   826.55478020800922        11.903912534457902        1440.3525217206816     
   804.45120087753571        12.995125111891326        1441.7472911282323     
   838.29729170381904        5.3728816467026377        1453.3700435694441     
   819.95078483877876        5.9528335962990013        1454.1599493655995     
   801.51041676588011        6.5732767638692167        1455.0363268002723     
   782.97741837286333        7.2383141089364926        1456.0065608858217     
   764.35302054799968        7.9520485924934121        1457.0780366347285     
   745.63845417938637        8.7185831747674456        1458.2581390594960     
   726.83495015484721        9.5420208148237293        1459.5542531723499     
   707.94373936283614        10.426464474322927        1460.9737639859068     
   688.96605269112172        11.376017112784808        1462.5240565123745     
   698.42970028179491        4.6779708643447009        1470.1144077698243     
   683.10952641418703        5.1685456122905862        1470.9793002034426     
   667.71068356534397        5.6874553711007536        1471.9399906485955     
   652.23482535182427        6.2402121958184580        1473.0035938884562     
   636.68360539054720        6.8323281430628811        1474.1772247062038     
   621.05867729786326        7.4693152670977838        1475.4679978850622     
   605.36169469068830        8.1566856244006090        1476.8830282081133     
   589.59431118564180        8.8999512704228891        1478.4294304583696     
   573.75818039950730        9.7046242610725244        1480.1143194192066     
   558.65647301892216        3.9129763968381610        1483.8212342559386     
   546.38057044999346        4.3128726732740574        1484.7453319928186     
   534.04118447781832        4.7310546700533394        1485.7735154609138     
   521.64014029718487        5.1736063695721555        1486.9126783466295     
   509.17926310253478        5.6466117535733247        1488.1697143363958     
   496.66037808857601        6.1561548041855190        1489.5515171167906     
   484.08531045008209        6.7083195040449937        1491.0649803742419     
   471.45588538150662        7.3091898347257427        1492.7169977952738     
   458.77392807771912        7.9648497791545196        1494.5144630664067     
   418.95224963706892        3.0702901603717976        1494.4874495056722     
   409.73452838624115        3.3769982109669172        1495.4559288363034     
   400.46864304038837        3.6940917217843037        1496.5354499548569     
   391.15633922160407        4.0273894332504341        1497.7327345839440     
   381.79936255163773        4.3827100844997204        1499.0545044459736     
   372.39945865260700        4.7658724158275163        1500.5074812633543     
   362.95837314658115        5.1826951674863579        1502.0983867584544     
   353.47785165544730        5.6389970790951338        1503.8339426538587     
   343.95963980103949        6.1405968902665933        1505.7208706718536     
   279.29166985820655        2.1423040714893915        1502.1099799971446     
   273.14201166301660        2.3521056572124763        1503.1089748358268     
   266.95978279015668        2.5665835876229721        1504.2243428477982     
   260.74639813807954        2.7904541908823433        1505.4626829240676     
   254.50327260573138        3.0284337967950563        1506.8305939555939     
   248.23182109135413        3.2852387329187849        1508.3346748332503     
   241.93345849396906        3.5655853291735298        1509.9815244482479     
   235.60959971202519        3.8741899138074842        1511.7777416912431     
   229.26165964430666        4.2157688161471043        1513.7299254534366     
   139.64937340465980        1.1214100478924962        1506.6857522083401     
   136.57363172062875        1.2293784447782059        1507.7023540939097     
   133.48132726422395        1.3385473285635854        1508.8387428573196     
   130.37329305974566        1.4516934469112996        1510.1014436906582     
   127.25036213210377        1.5715935496150664        1511.4969817858569     
   124.11336750586428        1.7010243852257503        1513.0318823351954     
   120.96314220581786        1.8427627030177760        1514.7126705308199     
   117.80051925657359        1.9995852515694423        1516.5458715646851     
   114.62633168267803        2.1742687796176767        1518.5380106290447     
  -1.8670793550260651E-009   5.2589925411292235E-009   1508.2116926171625     
  -8.4435688162423895E-010   5.4387543410616271E-009   1509.2339507128841     
  -4.1118330159295282E-010   5.2574218069550570E-009   1510.3771987009409     
  -6.0892128151859640E-010   4.7597608627732634E-009   1511.6479372071715     
  -1.3236053307644123E-009   4.1324270862130472E-009   1513.0526668574876     
  -2.4907917166847305E-009   3.7695656762281367E-009   1514.5978882777729     
  -4.2185120452583463E-009   3.1575465578660458E-009   1516.2901020938382     
  -6.2885542529144008E-009   3.0494685934133612E-009   1518.1358089314015     
  -8.8135639772683045E-009   3.0734032007860366E-009   1520.1415094164975     
   920.26728088373238        14.578045036064907        1417.7876400488133     
   894.86383092919948        15.851106406211613        1419.1295494350491     
   869.20166170809773        17.144292444185339        1420.6009890240393     
   843.27983389010546        18.454472048871366        1422.2083062301044     
   817.09740814506961        19.778514119894879        1423.9578484678455     
   790.65344514277035        21.113287556599914        1425.8559631516925     
   763.94700555313159        22.455661258327723        1427.9089976963692     
   736.97715004576810        23.802504124135908        1430.1232995163946     
   709.74293929057262        25.150685053579792        1432.5052160261337     
   804.45120087753571        12.995125111891326        1441.7472911282323     
   782.17621266377125        14.133118527543218        1443.2721152724710     
   759.66281979673852        15.294003561805312        1444.9350139937578     
   736.90941134039713        16.472410427855579        1446.7445781225647     
   713.91437635881846        17.662969339378634        1448.7093984890716     
   690.67610391607491        18.860310509970617        1450.8380659234519     
   667.19298307630504        20.059064153229286        1453.1391712563523     
   643.46340290368823        21.253860483100482        1455.6213053177382     
   619.48575246207429        22.439329712678642        1458.2930589380705     
   688.96605269112172        11.376017112784808        1462.5240565123745     
   669.83975159168870        12.374108595444426        1464.2110030529063     
   650.50050551999891        13.396862132266534        1466.0425759825312     
   630.94625736927571        14.437420701031300        1468.0293104250827     
   611.17495003264764        15.488927278942668        1470.1817415045659     
   591.18452640325529        16.544524843014955        1472.5104043449912     
   570.97292937461361        17.597356371292818        1475.0258340701607     
   550.53810183967516        18.640564840400089        1477.7385658041276     
   529.87798669157121        19.667293227737559        1480.6591346707762     
   573.75818039950730        9.7046242610725244        1480.1143194192066     
   557.79738903020132        10.556959004524828        1481.9414875541399     
   541.65340280276189        11.434473332830635        1483.9181043348685     
   525.32394387481054        12.329574437998957        1486.0563500567509     
   508.80673440298330        13.234669508951725        1488.3684050152722     
   492.09949654485115        14.142165737406884        1490.8664495060750     
   475.19995245760174        15.044470314082332        1493.5626638243659     
   458.10582429810705        15.933990428553102        1496.4692282658812     
   440.81483422401669        16.803133272941480        1499.5983231258485     
   458.77392807771912        7.9648497791545196        1494.5144630664067     
   445.99206629657431        8.6645521500115592        1496.4588435537885     
   433.06019557034801        9.3884423417894141        1498.5560283955570     
   419.97604275498441        10.128943207387664        1500.8195439366359     
   406.73733470674142        10.878477601246971        1503.2629165220701     
   393.34179828150548        11.629468376165477        1505.8996724966319     
   379.78716033513456        12.374338384926233        1508.7433382053748     
   366.07114772399410        13.105510482279101        1511.8074399931186     
   352.19148730384256        13.815407520717784        1515.1055042046562     
   343.95963980103949        6.1405968902665933        1505.7208706718536     
   334.36672470828671        6.6797704275358996        1507.7583458292547     
   324.65956774755364        7.2403743357908468        1509.9507775093380     
   314.83612590846064        7.8155985805197616        1512.3127389840770     
   304.89435618037840        8.3986331263138823        1514.8588035259927     
   294.83221555341925        8.9826679400634646        1517.6035444072213     
   284.64766101715560        9.5608929870474100        1520.5615348998351     
   274.33864956166843        10.126498234221614        1523.7473482761502     
   263.90313817612162        10.672673645592027        1527.1755578083548     
   229.26165964430666        4.2157688161471043        1513.7299254534366     
   222.86430558269961        4.5854962322220132        1515.8352691584707     
   216.39020325947888        4.9718744927779142        1518.0967810209229     
   209.83776523262259        5.3696121243851422        1520.5297821182523     
   203.20540406065891        5.7734176554953009        1523.1495935280136     
   196.49153230155775        6.1779996126945989        1525.9715363274174     
   189.69456251384869        6.5780665243475198        1529.0109315939430     
   182.81290725564938        6.9683269175221341        1532.2831004052409     
   175.84497908540783        7.3434893204428704        1535.8033638384043     
   114.62633168267803        2.1742687796176767        1518.5380106290447     
   111.42775023711158        2.3646119591922883        1520.6848883189771     
   108.19078603121375        2.5645479902989265        1522.9884682752790     
   104.91453262619805        2.7710554103371479        1525.4645202584848     
   101.59808358399280        2.9811127591069102        1528.1288140289589     
   98.240532466276420        3.1916985755656420        1530.9971193474992     
   94.840972834563615        3.3997913980559886        1534.0852059745885     
   91.398498250826975        3.6023697663837595        1537.4088436706213     
   87.912202276364269        3.7964122184544031        1540.9838021962030     
  -8.8135639772683045E-009   3.0734032007860366E-009   1520.1415094164975     
  -1.1073501401855378E-008   3.7167933711266219E-009   1522.3024780883427     
  -1.2342829140601366E-008   5.3116993989734821E-009   1524.6202686169613     
  -1.2925571519217184E-008   7.0299953225020962E-009   1527.1108003235388     
  -1.2799389207225799E-008   8.7449752516630262E-009   1529.7899925299398     
  -1.1984658117386535E-008   1.0587904568761282E-008   1532.6737645574815     
  -1.0622373457583271E-008   1.1915753063371186E-008   1535.7780357277520     
  -8.6131099361664964E-009   1.3095589858725461E-008   1539.1187253624792     
  -6.2064943001904036E-009   1.3283000806849769E-008   1542.7117527829059     
   709.74293929057262        25.150685053579792        1432.5052160261337     
   682.28423435127615        26.495141185853441        1435.0143278688158     
   654.62220810070153        27.768515690437368        1437.6180909412994     
   626.72788892221206        28.874236511790684        1440.3346655393780     
   598.57230519879863        29.715731593361937        1443.1822119585513     
   570.12648531388675        30.196428879954482        1446.1788904946370     
   541.36145765061474        30.219756315020220        1449.3428614431346     
   512.24825059249451        29.689141843875490        1452.6922850997071     
   482.75789252262388        28.508013410123922        1456.2453217599950     
   619.48575246207429        22.439329712678642        1458.2930589380705     
   595.31248020015244        23.613473936287477        1461.0997314398071     
   570.97909487200729        24.717829599760961        1463.9907962156328     
   546.45857600061652        25.662328446406235        1466.9811052002078     
   521.72390310833430        26.356902217403928        1470.0855103284896     
   496.74805571788977        26.711482655293423        1473.3188635352317     
   471.50401335216770        26.636001502762369        1476.6960167554500     
   445.96475553340360        26.040390500716796        1480.2318219238186     
   420.10326178463430        24.834581392794476        1483.9411309753309     
   529.87798669157121        19.667293227737559        1480.6591346707762     
   509.05048479627266        20.677279209249804        1483.7199862987566     
   488.09847368688855        21.620182684429437        1486.8545326932456     
   466.99736125733028        22.414029966580415        1490.0747585430813     
   445.72255540174268        22.976847369723117        1493.3926485371605     
   424.24946401483504        23.226661209335191        1496.8201873643418     
   402.55349499056234        23.081497798386295        1500.3693597133722     
   380.61005622335051        22.459383451691536        1504.0521502732086     
   358.39455560722934        21.278344482997653        1507.8805437326273     
   440.81483422401669        16.803133272941480        1499.5983231258485     
   423.38425803152074        17.652359973156948        1502.8711148470782     
   405.85843241095660        18.439001302207615        1506.2070220468331     
   388.21567086068387        19.090768921287861        1509.6156032826166     
   370.43428687850491        19.535374489831838        1513.1064171121959     
   352.49259396250864        19.700529667963309        1516.6890220932446     
   334.36890561066224        19.513946115728487        1520.3729767831392     
   316.04153532120631        18.903335493852836        1524.1678397396938     
   297.48879659194796        17.796409461677953        1528.0831695204201     
   352.19148730384256        13.815407520717784        1515.1055042046562     
   338.19980979724187        14.504519195031293        1518.5491394864716     
   324.13705891116086        15.137711815114798        1522.0459859490938     
   309.98493098040848        15.653973163436277        1525.6036171336891     
   295.72512233829980        15.992291017943515        1529.2296065813566     
   281.33932931941905        16.091653160369660        1532.9315278335043     
   266.80924825730807        15.891047369267099        1536.7169544311114     
   252.11657548617669        15.329461425394115        1540.5934599151035     
   237.24300734017771        14.345883109251645        1544.5686178271278     
   263.90313817612162        10.672673645592027        1527.1755578083548     
   253.38314998494812        11.199559842277239        1530.7500826183768     
   242.81244105378178        11.679740582963603        1534.3691460726711     
   232.17656778492761        12.065070542058258        1538.0387778108602     
   221.46108658059990        12.307404393592542        1541.7650074721862     
   210.65155384309634        12.358596811823297        1545.5538646965633     
   199.73352597445580        12.170502470197398        1549.4113791231093     
   188.69255937722741        11.694976043929742        1553.3435803914344     
   177.51421045336940        10.883872206300083        1557.3564981411141     
   175.84497908540783        7.3434893204428704        1535.8033638384043     
   168.82028848645456        7.7032848831714347        1539.4699666443857     
   161.76266670481931        8.0285139648663346        1543.1742240902497     
   154.66200744352156        8.2854889088534662        1546.9210630287344     
   147.50820440506146        8.4405220568759205        1550.7154103124415     
   140.29115129201136        8.4599257508242189        1554.5621927938678     
   133.00074180724778        8.3100123335286185        1558.4663373257411     
   125.62686965331761        7.9570941468896450        1562.4327707605455     
   118.15942853279063        7.3674835328478068        1566.4664199508588     
   87.912202276364269        3.7964122184544031        1540.9838021962030     
   84.397235192762679        3.9814972834747842        1544.7048139659912     
   80.865823730573865        4.1474583206607250        1548.4589416744225     
   77.312676124971176        4.2766561139340418        1552.2504505021907     
   73.732500611288359        4.3514514477939272        1556.0836056294984     
   70.120005424533048        4.3542051056224302        1559.9626722370353     
   66.469898800357100        4.2672778728994132        1563.8919155050057     
   62.776888973506658        4.0730305319756965        1567.8756006141805     
   59.035684179826767        3.7538238692746724        1571.9179927447410     
  -6.2064943001904036E-009   1.3283000806849769E-008   1542.7117527829059     
  -4.0184615955762909E-009   1.2389340324758633E-008   1546.4506469847972     
  -2.5569807095239196E-009   1.0489973656152476E-008   1550.2210204979751     
  -1.7153289811996337E-009   8.1060791263207518E-009   1554.0269179457396     
  -1.4237832658723726E-009   5.2808082935482042E-009   1557.8723839510483     
  -1.6687741655375289E-009   2.2532836200992851E-009   1561.7614631372551     
  -2.2591738732524103E-009  -5.2369804469384716E-010   1565.6982001272245     
  -3.0422448523936265E-009  -2.4705357905637071E-009   1569.6866395441734     
  -3.9823347095704579E-009  -3.5071003588753776E-009   1573.7308260112834     
   482.75789252262388        28.508013410123922        1456.2453217599950     
   453.25234495052820        26.670920370266884        1459.7158768027471     
   424.05907462723764        24.057429552371204        1462.7963323671895     
   395.09736779765615        20.398495106132700        1465.4725638897271     
   366.28651070692905        15.425071182170939        1467.7304468063712     
   337.54578960008524        8.8681119305320664        1469.5558565536521     
   308.79449072242016       0.45857150196437146        1470.9346685678777     
   279.95190031885636       -10.072595953550049        1471.8527582852694     
   250.93730463452692       -22.994436285625227        1472.2960011421228     
   420.10326178463430        24.834581392794476        1483.9411309753309     
   394.23911176052627        23.013835680915065        1487.5086493173312     
   368.66729134310390        20.491435625142458        1490.5969318453283     
   343.32388939480256        17.054344100287466        1493.1876047266446     
   318.14499477787001        12.489523980536134        1495.2622941279340     
   293.06669635479994        6.5839381409248148        1496.8026262164494     
   268.02508298810170      -0.87545054372222353        1497.7902271589803     
   242.95624353997488       -10.101679199335479        1498.2067231228032     
   217.79626687316178       -21.307784949919593        1498.0337402747336     
   358.39455560722934        21.278344482997653        1507.8805437326273     
   336.18301440600101        19.534238205542309        1511.5184722712211     
   314.23516419835738        17.168622981937830        1514.6071739207532     
   292.50197835015615        14.018076698713799        1517.1245921480568     
   270.93443022757555        9.9191772432932055        1519.0486704201783     
   249.48349319640300        4.7085025014936974        1520.3573522040585     
   228.10014062315159       -1.7773696385746405        1521.0285809665475     
   206.73534587358245       -9.7018612910364084        1521.0403001747159     
   185.34008231366269       -19.228394568965939        1520.3704532954760     
   297.48879659194796        17.796409461677953        1528.0831695204201     
   278.94215497932106        16.189558571605062        1531.7691545353848     
   260.62349354530755        14.047231727875257        1534.8528290470886     
   242.49675204573018        11.249228116485753        1537.3090203914553     
   224.52587023654371        7.6753469241294283        1539.1125559049087     
   206.67478787387174        3.2053873376653002        1540.2382629233123     
   188.90744471352815       -2.2808514567171017        1540.6609687829978     
   171.18778051159333       -8.9035702721396461        1540.3555008200130     
   153.47973502416752       -16.782969921611404        1539.2966863704723     
   237.24300734017771        14.345883109251645        1544.5686178271278     
   222.37463557280756        12.937227407082403        1548.2845049805981     
   207.69307973646718        11.085501968575123        1551.3596676781385     
   193.17332786343272        8.7073335676691528        1553.7663836944041     
   178.79036798552832        5.7193489774321691        1555.4769308038817     
   164.51918813543037        2.0381749731881911        1556.4635867812074     
   150.33477634498809       -2.4195616721430468        1556.6986294009030     
   136.21212064643711       -7.7372341843735839        1556.1543364375073     
   122.12620907200146       -13.998215789424492        1554.8029856656337     
   177.51421045336940        10.883872206300083        1557.3564981411141     
   166.33855827886217        9.7346753398758423        1561.0883324774741     
   155.30472312454964        8.2416738102786695        1564.1534602677805     
   144.39682318524726        6.3519282669789305        1566.5221762941308     
   133.59897665544241        4.0124993582749582        1568.1647753389943     
   122.89530172984993        1.1704477330929492        1569.0515521844541     
   112.26991660314958       -2.2271659596425906        1569.1528016127722     
   101.70693947024695       -6.2332810701977621        1568.4388184062550     
   91.190488525585195       -10.900836950278098        1566.8798973468308     
   118.15942853279063        7.3674835328478068        1566.4664199508588     
   110.69202518968537        6.5393329970785601        1570.2044458969056     
   103.31922406192231        5.4739873584380554        1573.2599772697049     
   96.032355393059731        4.1425474287029473        1575.6018924284504     
   88.822749426502654        2.5161140192890770        1577.1990697322267     
   81.681736405681590       0.56578794164940049        1578.0203875401910     
   74.600646574112844       -1.7373299926169352        1578.0347242114849     
   67.570810175192534       -4.4221389721089750        1577.2109581050508     
   60.583557452416926       -7.5175381851313787        1575.5179675801712     
   59.035684179826767        3.7538238692746724        1571.9179927447410     
   55.293138397787118        3.3086310070647187        1575.6566541095881     
   51.597382901318802        2.7406827193015566        1578.7049891378658     
   47.945041869072824        2.0387262681369798        1581.0310263346216     
   44.332739479754949        1.1915089159940244        1582.6027942052813     
   40.757099911672235       0.18777792392874026        1583.3883212551755     
   37.214747343473810      -0.98371944592679839        1583.3556359891713     
   33.702305953715907       -2.3342359318664396        1582.4727669130314     
   30.216399920720299       -3.8750242725341568        1580.7077425315481     
  -3.9823347095704579E-009  -3.5071003588753776E-009   1573.7308260112834     
  -4.7996400581951606E-009  -3.6506480097922722E-009   1577.4687659864571     
  -4.7970221679048830E-009  -1.7440385113830132E-009   1580.5142663258055     
  -4.7304404915221529E-009  -1.2317173815756644E-010   1582.8350722502639     
  -4.2371426978241553E-009   2.2292208451811491E-009   1584.3989289800293     
  -3.5842844909337321E-009   4.6072469376121676E-009   1585.1735817360254     
  -2.9521076173365018E-009   6.2393706390858088E-009   1585.1267757386859     
  -2.2552143141883654E-009   7.4743576565552677E-009   1584.2262562088429     
  -1.7075625733384773E-009   7.5430145563868540E-009   1582.4397683669049     
   250.93730463452692       -22.994436285625227        1472.2960011421228     
   222.64754515531763       -38.286689778212079        1471.4146457560423     
   195.97424006261247       -55.946507730004498        1468.2844300888357     
   170.82884064418502       -76.269052515312438        1462.7794635936471     
   147.12279818822512       -99.549486506704270        1454.7738557237171     
   124.76756398231097       -126.08297207882651        1444.1417159316231     
   103.67458931471651       -156.16467160430216        1430.7571536707237     
   83.755325473319303       -190.08974745698453        1414.4942783940623     
   64.921223745922944       -228.15336201051736        1395.2271995544668     
   217.79626687316178       -21.307784949919593        1498.0337402747336     
   193.30112202885647       -34.479098468585420        1496.4055833831856     
   170.20270209115043       -49.681203618541204        1492.3881674144245     
   148.40098198653106       -67.247517311427004        1485.8605338314028     
   127.79593664157510       -87.511456458586011        1476.7017240978030     
   108.28754098300433       -110.80643797117659        1464.7907796770182     
   89.775769937261174       -137.46587876080423        1450.0067420324369     
   72.160598430877926       -167.82319573926449        1432.2286526274715     
   55.342001390750625       -202.21180581687128        1411.3355529254311     
   185.34008231366269       -19.228394568965939        1520.3704532954760     
   164.54116338756597       -30.345967551025815        1518.1237059139330     
   144.92804694794916       -43.168096954338196        1513.3416385515982     
   126.39567297448869       -58.044982846187978        1505.9075670810057     
   108.83898144672582       -75.326825295012256        1495.7048073745452     
   92.152912344171767       -95.363824369222257        1482.6166753046477     
   76.232405646599688       -118.50618013616614        1466.5264867435160     
   60.972401333573394       -145.10409266408149        1447.3175575637326     
   46.267839384493975       -175.50776202128128        1424.8732036377228     
   153.47973502416752       -16.782969921611404        1539.2966863704723     
   136.29093412924928       -25.910317555817514        1536.5507328929114     
   120.08394149946334       -36.427087676880966        1531.1252514081054     
   104.75510358202533       -48.678792127182774        1522.9071745961096     
   90.200766823752161       -63.010942750900746        1511.7834351369272     
   76.317277671434354       -79.769051391787414        1497.6409657103986     
   63.000982572553617       -99.298629891872991        1480.3666989965695     
   50.148227973823573       -121.94519009531994        1459.8475676753433     
   37.655360322286498       -148.05424384516920        1435.9705044267814     
   122.12620907200146       -13.998215789424492        1554.8029856656337     
   108.47369915154445       -21.195169013726293        1551.6683838655765     
   95.604052612202992       -29.478075725762245        1545.7194138917116     
   83.421463782958497       -39.166288162393201        1536.8459676305436     
   71.830126992943548       -50.579158559856573        1524.9379369680335     
   60.734236570633286       -64.036039156431627        1509.8852137903200     
   50.037986844925399       -79.856282189388509        1491.5776899838361     
   39.645572144876191       -98.359239894699812        1469.9052574346094     
   29.461186799103658       -119.86426451082370        1444.7578080287790     
   91.190488525585195       -10.900836950278098        1566.8798973468308     
   81.012723351734678       -16.223542456361269        1563.4583783766921     
   71.422047152142014       -22.340961042193637        1557.1045339099846     
   62.336943551295384       -29.524813959143039        1547.7105574376565     
   53.675896174860497       -38.046822455219598        1535.1686424510231     
   45.357388647252904       -48.178707782059689        1519.3709824408129     
   37.299904594075585       -60.192191187981777        1500.2097708980716     
   29.421927639958945       -74.358993924045606        1477.5772013138999     
   21.641941410409878       -90.950837238687555        1451.3654671793161     
   60.583557452416926       -7.5175381851313787        1575.5179675801712     
   53.831271627986915       -11.018458413214642        1571.9024359714592     
   47.471591985552202       -15.035643566396832        1565.2610193704609     
   41.443732860815871       -19.771712525617538        1555.4875552714250     
   35.686908589463059       -25.429284172009737        1542.4758811691975     
   30.140333507089593       -32.210977386649716        1526.1198345577104     
   24.743221949545553       -40.319411050424200        1506.3132529318284     
   19.434788252401678       -49.957204044574276        1482.9499737858832     
   14.154246751243985       -61.326975250496872        1455.9238346141342     
   30.216399920720299       -3.8750242725341568        1580.7077425315481     
   26.852608877761725       -5.6029374152820886        1576.9822761949272     
   23.686353979009361       -7.5820232374622414        1570.1692781807658     
   20.684021685186810       -9.9243268702187013        1560.1635723854815     
   17.811998457272232       -12.741893443370538        1546.8599827053145     
   15.036670755835701       -16.146768088602098        1530.1533330373663     
   12.324425041319589       -20.250995937451055        1509.9384472775741     
   9.6416477747850013       -25.166622119904968        1486.1101493226893     
   6.9547254167871060       -31.005691767653595        1458.5632630692182     
  -1.7075625733384773E-009   7.5430145563868540E-009   1582.4397683669049     
  -1.4396651336333907E-009   6.1622519542847105E-009   1578.6796185923088     
  -1.3829441773440403E-009   3.6381693994086145E-009   1571.8097182486115     
  -1.4163659100499190E-009   1.8495394900812058E-010   1561.7252200331743     
  -1.2402691565239049E-009  -2.9576488184509233E-009   1548.3212766431880     
  -1.0435783327143727E-009  -6.6007049464013897E-009   1531.4930407756935     
  -4.0247881637777957E-010  -9.2305829926333341E-009   1511.1356651278929     
   5.4476660759247756E-010  -1.1380702646512310E-008   1487.1443023970637     
   2.2356783078971679E-009  -1.1526570948092776E-008   1459.4141052803482     
   64.921223745922944       -228.15336201051736        1395.2271995544668     
   48.091104286776869       -270.35071557062008        1370.8878747425917     
   34.180822073534358       -316.68689236460193        1339.4222632844362     
   23.097380629544020       -367.47188064825366        1300.7254772370698     
   14.747783477942505       -423.01566867783924        1254.6926286575294     
   9.0390341417376305       -483.62824470969622        1201.2188296023030     
   5.8781361442316609       -549.61959699955651        1140.1991921290569     
   5.1720930087649037       -621.29971380291579        1071.5288282940119     
   6.8279082584207060       -698.97858337631544        995.10285015425154     
   55.342001390750625       -202.21180581687128        1411.3355529254311     
   40.249091549669942       -240.59857432940561        1385.2916304121150     
   27.887214917813793       -282.69625568807231        1352.0494776895689     
   18.270696336909808       -328.45710042051229        1311.4707438959206     
   11.413860648762864       -377.83335905423178        1263.4170781694420     
   7.3310326950112028       -430.77728211683325        1207.7501296479709     
   6.0365373174614092       -487.24112013567651        1144.3315474695485     
   7.5446993579257366       -547.17712363778753        1073.0229807720343     
   11.869843658393336       -610.53754315088838        993.68607869484561     
   46.267839384493975       -175.50776202128128        1424.8732036377228     
   33.007742729584763       -209.66837368647714        1397.2494831363549     
   22.214043798781375       -247.09408147254354        1362.4686756104322     
   13.981046821317690       -287.47053794860705        1320.3634290020211     
   8.4030560260605114       -330.48339568522420        1270.7663912524135     
   5.5743756424475919       -375.81830725056045        1213.5102103036099     
   5.5893098995665582       -423.16092521506943        1148.4275340973420     
   8.5421630265302895       -472.19690214725597        1075.3510105755163     
   14.527239252830157       -522.61189061682296        994.11328767986379     
   37.655360322286498       -148.05424384516920        1435.9705044267814     
   26.328243682510212       -177.57175788529841        1406.9233719460858     
   17.139805612190358       -209.88682064861928        1370.8414834535879     
   10.236987796180557       -244.50962651915901        1327.5329474173418     
   5.7667319201568716       -280.95036987778354        1276.8058723052934     
   3.8759796694866537       -318.71924510659306        1218.4683665853465     
   4.7116727299418244       -357.32644658665203        1152.3285387253040     
   8.4207527865302154       -396.28216870072708        1078.1944971934838     
   15.150161525040346       -435.09660583000846        995.87435045804409     
   29.461186799103658       -119.86426451082370        1444.7578080287790     
   20.171780264703152       -144.32037116803312        1414.4752358725543     
   12.642997253168488       -171.08092414894611        1377.3295276256467     
   7.0470749753531408       -199.57179941703964        1333.1087140048978     
   3.5562506414316459       -229.21887293862360        1281.6008257268822     
   2.3427614621223398       -259.44802067780080        1222.5938935083759     
   3.5788446484707350       -289.68511859824667        1155.8759480656915     
   7.4367374103145210       -319.35604266588024        1081.2350201159159     
   14.088676959243585       -347.88666884389204        998.45914037597413     
   21.641941410409878       -90.950837238687555        1451.3654671793161     
   14.499538331989442       -109.92585777859422        1420.0670139467470     
   8.7021156176773928       -130.68284290283918        1382.0944345334838     
   4.4198640721031310       -152.65448992908270        1337.2201436272821     
   1.8229744999579154       -175.27349617512351        1285.2165559160960     
   1.0816377059778830       -197.97255895842949        1225.8560860880220     
   2.3660444946231394       -220.18437559794708        1158.9111488308670     
   5.8463856706252955       -241.34164341041622        1084.1541588329646     
   11.692852038451662       -260.87705971480653        1001.3575307809406     
   14.154246751243985       -61.326975250496872        1455.9238346141342     
   9.2727037401517300       -74.399861960728913        1423.8606451997250     
   5.2956576005911913       -88.699027843744517        1385.2978305833899     
   2.3639108000821025       -103.75513134098060        1339.9966511468797     
  0.61826580628346761       -119.09883089364982        1287.7183672719327     
  0.19952508633635802       -134.26078494443308        1228.2242393402539     
   1.2484911082756085       -148.77165193378497        1161.2755277333879     
   3.9059663390637311       -162.16209030413563        1086.6334928331664     
   8.3127532464085050       -173.96275849739718        1004.0593950213370     
   6.9547254167871060       -31.005691767653595        1458.5632630692182     
   4.4524623455002228       -37.754027956846123        1426.0180686625706     
   2.4021200977681776       -45.135929902156548        1387.1013421822884     
  0.88777087307929037       -52.871156938125900        1341.5676514266681     
  -6.5131294475584411E-003  -60.679468401660841        1289.1715641932562     
 -0.19665971040354435       -68.280623627759852        1229.6676482802707     
  0.40140332896999098       -75.394381953927208        1162.8104714859028     
   1.8717481882983549       -81.740502714663279        1088.3546016074224     
   4.2984470666855117       -87.038745246206119        1006.0546064438008     
   2.2356783078971679E-009  -1.1526570948092776E-008   1459.4141052803482     
   3.6999516102591699E-009  -1.0960234015296027E-008   1426.7012233664443     
   4.5697892907087777E-009  -8.9713354987623748E-009   1387.6665957369578     
   4.5007642500551219E-009  -6.9210474549217063E-009   1342.0625593287830     
   3.2453985928572817E-009  -5.3695984058934572E-009   1289.6414510788418     
   6.8963956546882584E-010  -4.9499505923619396E-009   1230.1556079237500     
  -3.5505137061891493E-009  -6.4113878469094728E-009   1163.3573668001018     
  -9.3315899263332158E-009  -9.7780193029280848E-009   1088.9990646450415     
  -1.7061663651836619E-008  -1.6299333999307752E-008   1006.8330383952832     
  -3.6943667776399098E-009  -3.5477649213843581E-009   1500.8859541722504     
  -2.9529802474332614E-009  -2.1564434951114291E-009   1501.0145717011467     
  -2.3665728224110534E-009  -1.2181916150758961E-009   1501.1797398659050     
  -2.1341041646343925E-009  -5.3858729571980165E-010   1501.3818978572854     
  -2.1885562826721686E-009  -2.7540205853721554E-010   1501.6214848657637     
  -2.4220720965649410E-009  -5.3230435902313433E-011   1501.8989400823491     
  -2.8788066892087263E-009  -1.3962081548147908E-011   1502.2147026971145     
  -3.6444741518577004E-009  -6.9755868359691727E-011   1502.5692119008472     
  -4.4144611334856332E-009   2.5114294184730864E-010   1502.9629068842487     
  -187.41203556536064      -0.19763303015457012        1499.4062866294114     
  -184.46226764588988      -0.24648632568151640        1499.5380246764746     
  -181.50599701279512      -0.27757341341325059        1499.7050570220711     
  -178.54487394074553      -0.29639520934814101        1499.9078585751738     
  -175.58054870476928      -0.30845263002417056        1500.1469042450046     
  -172.61467157982830      -0.31924659180383941        1500.4226689404682     
  -169.64889284079112      -0.33427801105973032        1500.7356275707189     
  -166.68486276243752      -0.35904780357581956        1501.0862550445249     
  -163.72423161993709      -0.39905688672601514        1501.4750262710313     
  -374.82156858806366      -0.37827137901923891        1494.9713603374016     
  -368.91951758064363      -0.46305623200431967        1495.1106131656215     
  -363.00637566975661      -0.51930953558763804        1495.2817891816446     
  -357.08493181703773      -0.55632782898182143        1495.4854704503241     
  -351.15797498458932      -0.58340765195893596        1495.7222390357606     
  -345.22829413380521      -0.60984554291908921        1495.9926770020888     
  -339.29867822655774      -0.64493804108889208        1496.2973664138681     
  -333.37191622438735      -0.69798168505475644        1496.6368893351166     
  -327.45079708903916      -0.77827301396882831        1497.0118278303746     
  -562.23145166985864      -0.54277082986325809        1487.5872898029259     
  -553.37609839643858      -0.65101429702821179        1487.7356815135820     
  -544.50677644927168      -0.72690051015368340        1487.9111073821534     
  -535.62690188847694      -0.78181633732754108        1488.1143280643726     
  -526.73989077468946      -0.82714864623335416        1488.3461042168917     
  -517.84915916827640      -0.87428430489683251        1488.6071964963489     
  -508.95812312939239      -0.93461018081069369        1488.8983655588067     
  -500.07019871851412       -1.0195131421936878        1489.2203720610148     
  -491.18880199580758       -1.1403800562078459        1489.5739766592196     
  -749.64453740854901      -0.69198716139240446        1477.2601895315506     
  -737.83635868295266      -0.81166509792336683        1477.4165740658777     
  -726.01283982743769      -0.90203848023278965        1477.5941826597291     
  -714.17751241212989      -0.97487921089538077        1477.7940259985892     
  -702.33390800837901       -1.0419591929704666        1478.0171147676679     
  -690.48555818692012       -1.1150503288152152        1478.2644596525031     
  -678.63599451845289       -1.2059245215339729        1478.5370713380591     
  -666.78874857413598       -1.3263536742018687        1478.8359605102687     
  -654.94735192458825       -1.4881096892360119        1479.1621378541195     
  -937.06367840238181      -0.82677615344920241        1463.9961740307040     
  -922.30464703030862      -0.94631321222215092        1464.1566351678744     
  -907.53020628013758       -1.0464155884691309        1464.3321860522451     
  -892.74349164508999       -1.1375349269944763        1464.5241588346350     
  -877.94763861837919       -1.2301228711178283        1464.7338856666995     
  -863.14578269330855       -1.3346310653885780        1464.9626986994092     
  -848.34105936291326       -1.4615111534018297        1465.2119300836928     
  -833.53660412069996       -1.6212147797931493        1465.4829119709107     
  -818.73555245961882       -1.8241935880419078        1465.7769765120931     
  -1124.4917272492737      -0.94799358535783540        1447.8013578063110     
  -1106.7853120278373       -1.0562632162409500        1447.9592091647285     
  -1089.0645162837968       -1.1617239781811008        1448.1262885959172     
  -1071.3315678445956       -1.2718019628788397        1448.3043211543907     
  -1053.5886945382010       -1.3939232620430175        1448.4950318933029     
  -1035.8381241914374       -1.5355139664272883        1448.7001458666286     
  -1018.0820846319298       -1.7040001675385952        1448.9213881279397     
  -1000.3228036874916       -1.9068079580881090        1449.1604837312218     
  -982.56250918505577       -2.1513634279646112        1449.4191577301322     
  -1311.9315365475311       -1.0564952366531770        1428.6818553642329     
  -1291.2827022652637       -1.1428196871561909        1428.8276404013077     
  -1270.6214103143850       -1.2496557920737814        1428.9776613285487     
  -1249.9484692682736       -1.3796987959652824        1429.1341075391317     
  -1229.2646877005798       -1.5356439443042404        1429.2991684263156     
  -1208.5708741849160       -1.7201864822234256        1429.4750333833808     
  -1187.8678372948491       -1.9360216551464760        1429.6638918031956     
  -1167.1563856036328       -2.1858447069683962        1429.8679330793370     
  -1146.4373276851470       -2.4723508843626973        1430.0893466047980     
  -1499.3859588949954       -1.1531368867114793        1406.6437812116576     
  -1475.8011663321477       -1.2072872017071745        1406.7652732237118     
  -1452.2065288477256       -1.3119031723447279        1406.8874752868644     
  -1428.6009241727897       -1.4632439029627449        1407.0131125706284     
  -1404.9832300388789       -1.6575684988183070        1407.1449102447907     
  -1381.3523241775267       -1.8911360645890340        1407.2855934786644     
  -1357.7070843204433       -2.1602057058960895        1407.4378874416498     
  -1334.0463881989022       -2.4610365269146541        1407.6045173033667     
  -1310.3691135442014       -2.7898876323841364        1407.7882082333026     
  -4.4144611334856332E-009   2.5114294184730864E-010   1502.9629068842487     
  -5.2113469378461691E-009   3.4242004996832514E-010   1503.3995464127340     
  -5.5958277584782892E-009   7.7341205475771246E-010   1503.8866694494700     
  -5.6521996627289364E-009   1.6522378252039412E-009   1504.4303854814552     
  -5.4743576490094038E-009   2.3376887662083225E-009   1505.0368039958719     
  -4.9244261620317318E-009   3.2046467673386258E-009   1505.7120344795051     
  -4.1362448428863684E-009   4.0084808888446072E-009   1506.4621864196909     
  -3.1883231305911232E-009   4.4687987188232101E-009   1507.2933693032139     
  -1.8670793550260651E-009   5.2589925411292235E-009   1508.2116926171625     
  -163.72423161993709      -0.39905688672601514        1501.4750262710313     
  -160.76022725626700      -0.45612049604456928        1501.9064228436766     
  -157.78454922796828      -0.52695957852549213        1502.3886224641403     
  -154.79655537976709      -0.60943361664875084        1502.9276442041635     
  -151.79560355641132      -0.70140209304376810        1503.5295071354865     
  -148.78105160287953      -0.80072449082291541        1504.2002303298966     
  -145.75225736394142      -0.90526029256455587        1504.9458328590488     
  -142.70857868425554       -1.0128689805520423        1505.7723337948764     
  -139.64937340860993       -1.1214100373404392        1506.6857522088408     
  -327.45079708903916      -0.77827301396882831        1497.0118278303746     
  -321.52176075067814      -0.88829682011073885        1497.4285159266988     
  -315.56873236513667       -1.0221553138992334        1497.8967314925501     
  -309.59072873270162       -1.1765711632059066        1498.4222223536483     
  -303.58676665289966       -1.3482670331681703        1499.0107363362267     
  -297.55586292614345       -1.5339655916389319        1499.6680212658200     
  -291.49703435210972       -1.7303895043714022        1500.3998249687938     
  -285.40929773107223       -1.9342614390034214        1501.2118952708124     
  -279.29166986306063       -2.1423040620125278        1502.1099799979759     
  -491.18880199580758       -1.1403800562078459        1489.5739766592196     
  -482.29392960423149       -1.2993277062490449        1489.9680213461766     
  -473.36261872344949       -1.4886079981671401        1490.4143715109592     
  -464.39384621927962       -1.7048104845108867        1490.9183229027478     
  -455.38658895711109       -1.9445247165917010        1491.4851712711768     
  -446.33982380282464       -2.2043402475529206        1492.1202123663631     
  -437.25252762185153       -2.4808466286328326        1492.8287419375852     
  -428.12367728001971       -2.7706334127289551        1493.6160557342873     
  -418.95224964290844       -3.0702901515876135        1494.4874495065435     
  -654.94735192458825       -1.4881096892360119        1479.1621378541195     
  -643.08606293267792       -1.6920118894770440        1479.5271347862624     
  -631.17627760883431       -1.9293384229392245        1479.9449174952010     
  -619.21723399452924       -2.1975494276263987        1480.4201488235865     
  -607.20817013148167       -2.4941050428178357        1480.9574916142562     
  -595.14832406123446       -2.8164654073400754        1481.5616087101455     
  -583.03693382571998       -3.1620906603314154        1482.2371629539057     
  -570.87323746674872       -3.5284409413217475        1482.9888171884693     
  -558.65647302580942       -3.9129763888098239        1483.8212342566828     
  -818.73555245961882       -1.8241935880419078        1465.7769765120931     
  -803.90748985204425       -2.0691481048854143        1466.1080519311465     
  -789.01977832715932       -2.3473673793008629        1466.4917444215550     
  -774.07221821302505       -2.6581858384189161        1466.9319030889642     
  -759.06460983774275       -3.0009379091896164        1467.4323770385031     
  -743.99675352957240       -3.3749580192247493        1467.9970153759646     
  -728.86844961674456       -3.7795805958133144        1468.6296672067549     
  -713.67949842746054       -4.2141400662545152        1469.3341816363652     
  -698.42970029000696       -4.6779708583782167        1470.1144077702575     
  -982.56250918505577       -2.1513634279646112        1449.4191577301322     
  -964.76753947793441       -2.4335350865787291        1449.7129684652355     
  -946.90319018442278       -2.7457156594612684        1450.0582272662875     
  -928.97012502955431       -3.0901175631249203        1450.4577886711247     
  -910.96900773836603       -3.4689532148345279        1450.9145072174515     
  -892.90050203615931       -3.8844350320391072        1451.4312374427820     
  -874.76527164767822       -4.3387754307189539        1452.0108338847144     
  -856.56398029826119       -4.8341868285683631        1452.6561510811446     
  -838.29729171287499       -5.3728816421105989        1453.3700435694877     
  -1146.4373276851470       -2.4723508843626973        1430.0893466047980     
  -1125.6755409263428       -2.7879715697068832        1430.3440800724684     
  -1104.8365824867885       -3.1274040550391646        1430.6477410053133     
  -1083.9222805991303       -3.4967424488602887        1431.0020085429724     
  -1062.9344634956717       -3.9020808589068565        1431.4085618244756     
  -1041.8749594089104       -4.3495133935892909        1431.8690799892158     
  -1020.7455965711231       -4.8451341604700815        1432.3852421765630     
  -999.54820321492423       -5.3950372681455860        1432.9587275258355     
  -978.28460757271216       -6.0053168248416569        1433.5912151763237     
  -1310.3691135442014       -2.7898876323841364        1407.7882082333026     
  -1286.6408233128629       -3.1352562886783062        1408.0035824373911     
  -1262.8300245401774       -3.4954533582291560        1408.2636606149110     
  -1238.9400110764284       -3.8814583417048425        1408.5687656766186     
  -1214.9740767717149       -4.3042507396544920        1408.9192205329007     
  -1190.9355154762559       -4.7748100528650639        1409.3153480942115     
  -1166.8276210401839       -5.3041157816193163        1409.7574712710773     
  -1142.6536873137734       -5.9031474269546038        1410.2459129737151     
  -1118.4170081470568       -6.5828844889674087        1410.7809961127089     
  -1.8670793550260651E-009   5.2589925411292235E-009   1508.2116926171625     
  -8.4435688162423895E-010   5.4387543410616271E-009   1509.2339507128841     
  -4.1118330159295282E-010   5.2574218069550570E-009   1510.3771987009409     
  -6.0892128151859640E-010   4.7597608627732634E-009   1511.6479372071715     
  -1.3236053307644123E-009   4.1324270862130472E-009   1513.0526668574876     
  -2.4907917166847305E-009   3.7695656762281367E-009   1514.5978882777729     
  -4.2185120452583463E-009   3.1575465578660458E-009   1516.2901020938382     
  -6.2885542529144008E-009   3.0494685934133612E-009   1518.1358089314015     
  -8.8135639772683045E-009   3.0734032007860366E-009   1520.1415094164975     
  -139.64937340860993       -1.1214100373404392        1506.6857522088408     
  -136.57363172293805       -1.2293784343157697        1507.7023540940152     
  -133.48132726585399       -1.3385473183872278        1508.8387428568828     
  -130.37329306184074       -1.4516934379281068        1510.1014436896442     
  -127.25036213549411       -1.5715935414456013        1511.4969817844826     
  -124.11336751146037       -1.7010243779662702        1513.0318823335069     
  -120.96314221449957       -1.8427626964626782        1514.7126705289936     
  -117.80051926906204       -1.9995852453077561        1516.5458715630516     
  -114.62633169973576       -2.1742687729732850        1518.5380106279183     
  -279.29166986306063       -2.1423040620125278        1502.1099799979759     
  -273.14201166691640       -2.3521056477749198        1503.1089748358659     
  -266.95978279354460       -2.5665835778364965        1504.2243428469474     
  -260.74639814213009       -2.7904541822209552        1505.4626829223466     
  -254.50327261081154       -3.0284337884306325        1506.8305939530781     
  -248.23182109832814       -3.2852387254613689        1508.3346748303109     
  -241.93345850341865       -3.5655853224316019        1509.9815244451750     
  -235.60959972438965       -3.8741899071828527        1511.7777416885776     
  -229.26165965991262       -4.2157688084076881        1513.7299254517991     
  -418.95224964290844       -3.0702901515876135        1494.4874495065435     
  -409.73452839203145       -3.3769982021298688        1495.4559288361766     
  -400.46864304657288       -3.6940917135324298        1496.5354499536140     
  -391.15633922827931       -4.0273894249774429        1497.7327345815604     
  -381.79936255939936       -4.3827100768313727        1499.0545044428256     
  -372.39945866155722       -4.7658724084285922        1500.5074812596049     
  -362.95837315700658       -5.1826951603669471        1502.0983867547441     
  -353.47785166740636       -5.6389970713924527        1503.8339426506975     
  -343.95963981476342       -6.1405968816560375        1505.7208706701263     
  -558.65647302580942       -3.9129763888098239        1483.8212342566828     
  -546.38057045791493       -4.3128726653463616        1484.7453319925078     
  -534.04118448676456       -4.7310546624536869        1485.7735154594520     
  -521.64014030684996       -5.1736063616815784        1486.9126783440909     
  -509.17926311304700       -5.6466117460782073        1488.1697143328895     
  -496.66037809962353       -6.1561547966718990        1489.5515171128652     
  -484.08531046138228       -6.7083194958773049        1491.0649803703893     
  -471.45588539297904       -7.3091898259278878        1492.7169977922192     
  -458.77392808896008       -7.9648497686714848        1494.5144630650468     
  -698.42970029000696       -4.6779708583782167        1470.1144077702575     
  -683.10952642442453       -5.1685456062027413        1470.9793002028314     
  -667.71068357711999       -5.6874553648709423        1471.9399906468698     
  -652.23482536454310       -6.2402121891354341        1473.0035938858289     
  -636.68360540357321       -6.8323281354451808        1474.1772247029876     
  -621.05867731082901       -7.4693152592049330        1475.4679978814404     
  -605.36169470272148       -8.1566856149858609        1476.8830282047154     
  -589.59431119628675       -8.8999512596506349        1478.4294304560124     
  -573.75818040808213       -9.7046242483666276        1480.1143194186402     
  -838.29729171287499       -5.3728816421105989        1453.3700435694877     
  -819.95078485082399       -5.9528335916555193        1454.1599493648237     
  -801.51041677967089       -6.5732767581692428        1455.0363267987125     
  -782.97741838780814       -7.2383141026178919        1456.0065608836126     
  -764.35302056288981       -7.9520485844800817        1457.0780366322044     
  -745.63845419343454       -8.7185831650234320        1458.2581390568257     
  -726.83495016724146       -9.5420208038704288        1459.5542531702349     
  -707.94373937254397       -10.426464461632975        1460.9737639847515     
  -688.96605269714757       -11.376017097888024        1462.5240565130978     
  -978.28460757271216       -6.0053168248416569        1433.5912151763237     
  -956.93373429675250       -6.6745531896938246        1434.2893953761816     
  -935.47366055727559       -7.3985017821280508        1435.0639751972237     
  -913.90494336309519       -8.1790192977561560        1435.9226590137005     
  -892.22813972312599       -9.0179624334645609        1436.8731512000422     
  -870.44380664608309       -9.9171878847814696        1437.9231561304775     
  -848.55250114085459       -10.878552347841207        1439.0803781794025     
  -826.55478021627800       -11.903912519105631        1440.3525217213632     
  -804.45120088120859       -12.995125094419734        1441.7472911303530     
  -1118.4170081470568       -6.5828844889674087        1410.7809961127089     
  -1094.0877633217176       -7.3425209683511525        1411.3697541347419     
  -1069.6336913721823       -8.1731133750285494        1412.0243871250068     
  -1045.0544242772471       -9.0734349714899736        1412.7529679525042     
  -1020.3495940159075       -10.042259021222492        1413.5635694858238     
  -995.51883256708243       -11.078358787252625        1414.4642645938563     
  -970.56177190980782       -12.180507532949321        1415.4631261451618     
  -945.47804402296345       -13.347478521411688        1416.5682270084471     
  -920.26728088563334       -14.578045016179317        1417.7876400527423     
  -8.8135639772683045E-009   3.0734032007860366E-009   1520.1415094164975     
  -1.1073501401855378E-008   3.7167933711266219E-009   1522.3024780883427     
  -1.2342829140601366E-008   5.3116993989734821E-009   1524.6202686169613     
  -1.2925571519217184E-008   7.0299953225020962E-009   1527.1108003235388     
  -1.2799389207225799E-008   8.7449752516630262E-009   1529.7899925299398     
  -1.1984658117386535E-008   1.0587904568761282E-008   1532.6737645574815     
  -1.0622373457583271E-008   1.1915753063371186E-008   1535.7780357277520     
  -8.6131099361664964E-009   1.3095589858725461E-008   1539.1187253624792     
  -6.2064943001904036E-009   1.3283000806849769E-008   1542.7117527829059     
  -114.62633169973576       -2.1742687729732850        1518.5380106279183     
  -111.42775025837115       -2.3646119515198691        1520.6848883187247     
  -108.19078605478865       -2.5645479794670720        1522.9884682759428     
  -104.91453265078673       -2.7710553962185323        1525.4645202599925     
  -101.59808360837484       -2.9811127416986132        1528.1288140314111     
  -98.240532488925723       -3.1916985539785969        1530.9971193504437     
  -94.840972854833737       -3.3997913741768713        1534.0852059778238     
  -91.398498267506824       -3.6023697405083546        1537.4088436739055     
  -87.912202288759843       -3.7964121922139178        1540.9838021990308     
  -229.26165965991262       -4.2157688084076881        1513.7299254517991     
  -222.86430560136986       -4.5854962231244087        1515.8352691583177     
  -216.39020327980759       -4.9718744809649280        1518.0967810224204     
  -209.83776525380733       -5.3696121099607410        1520.5297821213687     
  -203.20540408139792       -5.7734176372436394        1523.1495935324103     
  -196.49153232126019       -6.1779995916404076        1525.9715363327437     
  -189.69456253165814       -6.5780665006391246        1529.0109315999473     
  -182.81290727104772       -6.9683268925970125        1532.2831004109296     
  -175.84497909784284       -7.3434892953620832        1535.8033638432478     
  -343.95963981476342       -6.1405968816560375        1505.7208706701263     
  -334.36672472350381       -6.6797704173785490        1507.7583458295321     
  -324.65956776341613       -7.2403743228698971        1509.9507775116638     
  -314.83612592437601       -7.8155985643874999        1512.3127389883241     
  -304.89435619628534       -8.3986331078265692        1514.8588035320238     
  -294.83221556880085       -8.9826679192871950        1517.6035444142983     
  -284.64766103181506       -9.5608929648413721        1520.5615349075240     
  -274.33864957524554       -10.126498210704725        1523.7473482834471     
  -263.90313818858965       -10.672673622091864        1527.1755578142493     
  -458.77392808896008       -7.9648497686714848        1494.5144630650468     
  -445.99206630760744       -8.6645521381098547        1496.4588435546259     
  -433.06019558095761       -9.3884423273608775        1498.5560283986790     
  -419.97604276567387       -10.128943191752271        1500.8195439419785     
  -406.73733471714917       -10.878477582800130        1503.2629165291503     
  -393.34179829195000       -11.629468355844494        1505.8996725048828     
  -379.78716034615331       -12.374338364203268        1508.7433382140555     
  -366.07114773555099       -13.105510460593592        1511.8074400010462     
  -352.19148731659294       -13.815407499830727        1515.1055042108110     
  -573.75818040808213       -9.7046242483666276        1480.1143194186402     
  -557.79738903685984       -10.556958990353024        1481.9414875558946     
  -541.65340280833732       -11.434473317760620        1483.9181043387719     
  -525.32394387961244       -12.329574420889514        1486.0563500626317     
  -508.80673440800996       -13.234669491025073        1488.3684050229335     
  -492.09949655084023       -14.142165719120754        1490.8664495146293     
  -475.19995246514634       -15.044470295246043        1493.5626638331348     
  -458.10582430811343       -15.933990410119662        1496.4692282736603     
  -440.81483423715298       -16.803133255047968        1499.5983231316318     
  -688.96605269714757       -11.376017097888024        1462.5240565130978     
  -669.83975159448835       -12.374108579344721        1464.2110030556141     
  -650.50050552066841       -13.396862115313013        1466.0425759871505     
  -630.94625736934393       -14.437420684225344        1468.0293104313316     
  -611.17495003312911       -15.488927262085554        1470.1817415121177     
  -591.18452640558530       -16.544524827036639        1472.5104043529718     
  -570.97292937965244       -17.597356355753192        1475.0258340780651     
  -550.53810184855547       -18.640564825520698        1477.7385658110159     
  -529.87798670537154       -19.667293213559503        1480.6591346753530     
  -804.45120088120859       -12.995125094419734        1441.7472911303530     
  -782.17621266347828       -14.133118509539798        1443.2721152762406     
  -759.66281979406165       -15.294003544043306        1444.9350139989233     
  -736.90941133714557       -16.472410411432094        1446.7445781286742     
  -713.91437635656359       -17.662969324976814        1448.7093984957210     
  -690.67610391620565       -18.860310497411518        1450.8380659302813     
  -667.19298308018949       -20.059064142372449        1453.1391712625764     
  -643.46340291224419       -21.253860472691940        1455.6213053227191     
  -619.48575247676729       -22.439329702528795        1458.2930589409373     
  -920.26728088563334       -14.578045016179317        1417.7876400527423     
  -894.86383092708866       -15.851106386558286        1419.1295494398919     
  -869.20166170396692       -17.144292426365439        1420.6009890292487     
  -843.27983388583414       -18.454472034071330        1422.2083062353308     
  -817.09740814231486       -19.778514108618197        1423.9578484728643     
  -790.65344514303843       -21.113287548592439        1425.8559631561750     
  -763.94700555763848       -22.455661252899432        1427.9089976998698     
  -736.97715005568170       -23.802504120074843        1430.1232995186979     
  -709.74293930680653       -25.150685048997076        1432.5052160268958     
  -6.2064943001904036E-009   1.3283000806849769E-008   1542.7117527829059     
  -4.0184615955762909E-009   1.2389340324758633E-008   1546.4506469847972     
  -2.5569807095239196E-009   1.0489973656152476E-008   1550.2210204979751     
  -1.7153289811996337E-009   8.1060791263207518E-009   1554.0269179457396     
  -1.4237832658723726E-009   5.2808082935482042E-009   1557.8723839510483     
  -1.6687741655375289E-009   2.2532836200992851E-009   1561.7614631372551     
  -2.2591738732524103E-009  -5.2369804469384716E-010   1565.6982001272245     
  -3.0422448523936265E-009  -2.4705357905637071E-009   1569.6866395441734     
  -3.9823347095704579E-009  -3.5071003588753776E-009   1573.7308260112834     
  -87.912202288759843       -3.7964121922139178        1540.9838021990308     
  -84.397235201362207       -3.9814972592911211        1544.7048139679957     
  -80.865823736485979       -4.1474582996502320        1548.4589416756703     
  -77.312676129425071       -4.2766560976877912        1552.2504505023669     
  -73.732500615204614       -4.3514514367143526        1556.0836056288972     
  -70.120005429035757       -4.3542051009285032        1559.9626722354981     
  -66.469898805702414       -4.2672778727429765        1563.8919155031494     
  -62.776888980457372       -4.0730305365479644        1567.8756006120473     
  -59.035684188363199       -3.7538238756829827        1571.9179927429470     
  -175.84497909784284       -7.3434892953620832        1535.8033638432478     
  -168.82028849611493       -7.7032848591847127        1539.4699666475788     
  -161.76266671284128       -8.0285139444157494        1543.1742240917742     
  -154.66200745078407       -8.2854888930039152        1546.9210630286782     
  -147.50820441213179       -8.4405220459190957        1550.7154103108212     
  -140.29115129958515       -8.4599257454290822        1554.5621927911379     
  -133.00074181547259       -8.3100123325937716        1558.4663373222177     
  -125.62686966218939       -7.9570941488535638        1562.4327707568486     
  -118.15942854265464       -7.3674835370839062        1566.4664199476297     
  -263.90313818858965       -10.672673622091864        1527.1755578142493     
  -253.38314999653940       -11.199559820170506        1530.7500826221369     
  -242.81244106502922       -11.679740563857052        1534.3691460741886     
  -232.17656779611735       -12.065070526717456        1538.0387778100394     
  -221.46108659202173       -12.307404382321224        1541.7650074696364     
  -210.65155385478505       -12.358596804739477        1545.5538646924663     
  -199.73352598632493       -12.170502466809580        1549.4113791181146     
  -188.69255938904689       -11.694976043051071        1553.3435803864941     
  -177.51421046499098       -10.883872207080287        1557.3564981369543     
  -352.19148731659294       -13.815407499830727        1515.1055042108110     
  -338.19980981101037       -14.504519175065880        1518.5491394899504     
  -324.13705892616912       -15.137711797909930        1522.0459859500290     
  -309.98493099583277       -15.653973147555320        1525.6036171321293     
  -295.72512235438728       -15.992291005371939        1529.2296065777498     
  -281.33932933532185       -16.091653149775198        1532.9315278283598     
  -266.80924827290124       -15.891047361443555        1536.7169544251187     
  -252.11657550093494       -15.329461419772144        1540.5934599091622     
  -237.24300735346773       -14.345883104903841        1544.5686178224182     
  -440.81483423715298       -16.803133255047968        1499.5983231316318     
  -423.38425804750545       -17.652359955293690        1502.8711148499917     
  -405.85843242942616       -18.439001285931568        1506.2070220469593     
  -388.21567088060743       -19.090768905844243        1509.6156032803533     
  -370.43428689893773       -19.535374474928943        1513.1064171079279     
  -352.49259398264888       -19.700529653868955        1516.6890220874568     
  -334.36890562986997       -19.513946102956652        1520.3729767765922     
  -316.04153533844084       -18.903335481814139        1524.1678397333176     
  -297.48879660639710       -17.796409450508818        1528.0831695155132     
  -529.87798670537154       -19.667293213559503        1480.6591346753530     
  -509.05048481461131       -20.677279194594121        1483.7199863006524     
  -488.09847370816470       -21.620182668352925        1486.8545326924977     
  -466.99736128052240       -22.414029949462702        1490.0747585400034     
  -445.72255542564773       -22.976847351730001        1493.3926485324318     
  -424.24946403803528       -23.226661189728276        1496.8201873582686     
  -402.55349501203938       -23.081497778246984        1500.3693597068057     
  -380.61005624181661       -22.459383430912141        1504.0521502670176     
  -358.39455562169326       -21.278344462524586        1507.8805437277256     
  -619.48575247676729       -22.439329702528795        1458.2930589409373     
  -595.31248022044713       -23.613473924879600        1461.0997314403594     
  -570.97909489592496       -24.717829585792146        1463.9907962140610     
  -546.45857602612637       -25.662328427922034        1466.9811051968297     
  -521.72390313394567       -26.356902194721783        1470.0855103237684     
  -496.74805574234966       -26.711482629227532        1473.3188635296644     
  -471.50401337368828       -26.636001472515304        1476.6960167495245     
  -445.96475555140256       -26.040390469659712        1480.2318219182787     
  -420.10326179789291       -24.834581361624700        1483.9411309707898     
  -709.74293930680653       -25.150685048997076        1432.5052160268958     
  -682.28423437307151       -26.495141178339793        1435.0143278679557     
  -654.62220812557314       -27.768515677201606        1437.6180909391639     
  -626.72788894795940       -28.874236490864035        1440.3346655361795     
  -598.57230522373322       -29.715731564615766        1443.1822119545709     
  -570.12648533664299       -30.196428844067071        1446.1788904902730     
  -541.36145767009486       -30.219756274057573        1449.3428614385919     
  -512.24825060763146       -29.689141799655971        1452.6922850952390     
  -482.75789253278197       -28.508013366084796        1456.2453217559196     
  -3.9823347095704579E-009  -3.5071003588753776E-009   1573.7308260112834     
  -4.7996400581951606E-009  -3.6506480097922722E-009   1577.4687659864571     
  -4.7970221679048830E-009  -1.7440385113830132E-009   1580.5142663258055     
  -4.7304404915221529E-009  -1.2317173815756644E-010   1582.8350722502639     
  -4.2371426978241553E-009   2.2292208451811491E-009   1584.3989289800293     
  -3.5842844909337321E-009   4.6072469376121676E-009   1585.1735817360254     
  -2.9521076173365018E-009   6.2393706390858088E-009   1585.1267757386859     
  -2.2552143141883654E-009   7.4743576565552677E-009   1584.2262562088429     
  -1.7075625733384773E-009   7.5430145563868540E-009   1582.4397683669049     
  -59.035684188363199       -3.7538238756829827        1571.9179927429470     
  -55.293138407490112       -3.3086310131835575        1575.6566541081590     
  -51.597382911240317       -2.7406827231132009        1578.7049891367071     
  -47.945041878469048       -2.0387262683769301        1581.0310263338761     
  -44.332739488016216       -1.1915089116321838        1582.6027942047936     
  -40.757099918454138      -0.18777791498522056        1583.3883212546186     
  -37.214747348774438       0.98371945848124120        1583.3556359885627     
  -33.702305957614264        2.3342359464067375        1582.4727669120391     
  -30.216399923620099        3.8750242868472835        1580.7077425302775     
  -118.15942854265464       -7.3674835370839062        1566.4664199476297     
  -110.69202519989278       -6.5393330009587061        1570.2044458944786     
  -103.31922407176430       -5.4739873606783469        1573.2599772680926     
  -96.032355401882356       -4.1425474276786396        1575.6018924273817     
  -88.822749434002986       -2.5161140148628327        1577.1990697315678     
  -81.681736411601278      -0.56578793373249781        1578.0203875396005     
  -74.600646578209435        1.7373300040266955        1578.0347242106022     
  -67.570810177767314        4.4221389851076793        1577.2109581036309     
  -60.583557453913343        7.5175381975642352        1575.5179675777870     
  -177.51421046499098       -10.883872207080287        1557.3564981369543     
  -166.33855828975865       -9.7346753406291029        1561.0883324746044     
  -155.30472313422229       -8.2416738098532250        1564.1534602659954     
  -144.39682319324743       -6.3519282642848793        1566.5221762931185     
  -133.59897666155231       -4.0124993525791268        1568.1647753385384     
  -122.89530173423969       -1.1704477256115169        1569.0515521839272     
  -112.26991660574615        2.2271659687081922        1569.1528016119757     
  -101.70693947113655        6.2332810803073642        1568.4388184044055     
  -91.190488525093798        10.900836960081694        1566.8798973436283     
  -237.24300735346773       -14.345883104903841        1544.5686178224182     
  -222.37463558410570       -12.937227403055019        1548.2845049774444     
  -207.69307974589600       -11.085501964952542        1551.3596676763207     
  -193.17332787046169       -8.7073335626405353        1553.7663836935249     
  -178.79036799062584       -5.7193489722966007        1555.4769308034165     
  -164.51918813831801       -2.0381749671474552        1556.4635867807663     
  -150.33477634589923        2.4195616785005924        1556.6986293998873     
  -136.21212064566819        7.7372341902913320        1556.1543364353186     
  -122.12620906992778        13.998215793883652        1554.8029856615692     
  -297.48879660639710       -17.796409450508818        1528.0831695155132     
  -278.94215499063029       -16.189558561271141        1531.7691545323089     
  -260.62349355371515       -14.047231718524230        1534.8528290452787     
  -242.49675205166875       -11.249228108827140        1537.3090203906265     
  -224.52587024022228       -7.6753469182580858        1539.1125559044328     
  -206.67478787530686       -3.2053873331021805        1540.2382629228100     
  -188.90744471331183        2.2808514587199298        1540.6609687816831     
  -171.18778050969718        8.9035702722632877        1540.3555008173794     
  -153.47973502071750        16.782969920022730        1539.2966863657787     
  -358.39455562169326       -21.278344462524586        1507.8805437277256     
  -336.18301441673015       -19.534238187628631        1511.5184722681074     
  -314.23516420571161       -17.168622967056791        1514.6071739188328     
  -292.50197835503246       -14.018076688380447        1517.1245921469024     
  -270.93443023021098       -9.9191772373332441        1519.0486704194298     
  -249.48349319738657       -4.7085025005931698        1520.3573522029926     
  -228.10014062248905        1.7773696351699471        1521.0285809647924     
  -206.73534587145099        9.7018612835988449        1521.0403001714913     
  -185.34008231009443        19.228394558464885        1520.3704532902541     
  -420.10326179789291       -24.834581361624700        1483.9411309707898     
  -394.23911176942181       -23.013835652917237        1487.5086493138620     
  -368.66729134892466       -20.491435603403175        1490.5969318430432     
  -343.32388939839700       -17.054344086046953        1493.1876047247081     
  -318.14499477969008       -12.489523974130364        1495.2622941261016     
  -293.06669635555431       -6.5839381432763133        1496.8026262143535     
  -268.02508298785835       0.87545053369383652        1497.7902271561161     
  -242.95624353892291        10.101679182126887        1498.2067231187743     
  -217.79626687073326        21.307784929020613        1498.0337402689195     
  -482.75789253278197       -28.508013366084796        1456.2453217559196     
  -453.25234495661562       -26.670920331371974        1459.7158767991602     
  -424.05907463069224       -24.057429522037694        1462.7963323637689     
  -395.09736779984314       -20.398495087355755        1465.4725638863456     
  -366.28651070865823       -15.425071176228954        1467.7304468027428     
  -337.54578960191378       -8.8681119377637145        1469.5558565496976     
  -308.79449072425143      -0.45857152072268548        1470.9346685633318     
  -279.95190032042615        10.072595925562084        1471.8527582799745     
  -250.93730463492273        22.994436252777120        1472.2960011358775     
  -1.7075625733384773E-009   7.5430145563868540E-009   1582.4397683669049     
  -1.4396651336333907E-009   6.1622519542847105E-009   1578.6796185923088     
  -1.3829441773440403E-009   3.6381693994086145E-009   1571.8097182486115     
  -1.4163659100499190E-009   1.8495394900812058E-010   1561.7252200331743     
  -1.2402691565239049E-009  -2.9576488184509233E-009   1548.3212766431880     
  -1.0435783327143727E-009  -6.6007049464013897E-009   1531.4930407756935     
  -4.0247881637777957E-010  -9.2305829926333341E-009   1511.1356651278929     
   5.4476660759247756E-010  -1.1380702646512310E-008   1487.1443023970637     
   2.2356783078971679E-009  -1.1526570948092776E-008   1459.4141052803482     
  -30.216399923620099        3.8750242868472835        1580.7077425302775     
  -26.852608880037344        5.6029374270615087        1576.9822761933265     
  -23.686353981205922        7.5820232441643185        1570.1692781790955     
  -20.684021687444659        9.9243268702939496        1560.1635723838326     
  -17.811998459470342        12.741893436583037        1546.8599827042683     
  -15.036670757543856        16.146768075201493        1530.1533330367017     
  -12.324425042041540        20.250995918695526        1509.9384472775812     
  -9.6416477736884616        25.166622097631446        1486.1101493235649     
  -6.9547254126566411        31.005691744630806        1458.5632630709979     
  -60.583557453913343        7.5175381975642352        1575.5179675777870     
  -53.831271628826393        11.018458423060491        1571.9024359683085     
  -47.471591986361695        15.035643570993191        1565.2610193669457     
  -41.443732861429737        19.771712525167356        1555.4875552682199     
  -35.686908590239959        25.429284165051691        1542.4758811663864     
  -30.140333507567082        32.210977374179862        1526.1198345560040     
  -24.743221949555171        40.319411032538653        1506.3132529314244     
  -19.434788250972861        49.957204024060786        1482.9499737870299     
  -14.154246747904146        61.326975228377989        1455.9238346171205     
  -91.190488525093798        10.900836960081694        1566.8798973436283     
  -81.012723350640840        16.223542463200989        1563.4583783721589     
  -71.422047150801731        22.340961044831893        1557.1045339048676     
  -62.336943549898685        29.524813957056686        1547.7105574327409     
  -53.675896173618973        38.046822447930246        1535.1686424468476     
  -45.357388646325560        48.178707769432094        1519.3709824379873     
  -37.299904593054819        60.192191171216933        1500.2097708971201     
  -29.421927638728597        74.358993903982494        1477.5772013151752     
  -21.641941408255292        90.950837217642487        1451.3654671831448     
  -122.12620906992778        13.998215793883652        1554.8029856615692     
  -108.47369914846533        21.195169016044453        1551.6683838597992     
  -95.604052608784315        29.478075724672387        1545.7194138852667     
  -83.421463779563211        39.166288157440214        1536.8459676240650     
  -71.830126989692133        50.579158551362440        1524.9379369624719     
  -60.734236567769130        64.036039144559169        1509.8852137863878     
  -50.037986842774274        79.856282173598771        1491.5776899820519     
  -39.645572143199423        98.359239877315503        1469.9052574356006     
  -29.461186797804395        119.86426449257451        1444.7578080329008     
  -153.47973502071750        16.782969920022730        1539.2966863657787     
  -136.29093412485031        25.910317551591255        1536.5507328862766     
  -120.08394149430940        36.427087670821315        1531.1252514005853     
  -104.75510357663082        48.678792119237855        1522.9071745885988     
  -90.200766818369189        63.010942741434064        1511.7834351303038     
  -76.317277666783269        79.769051380226699        1497.6409657054112     
  -63.000982568902621        99.298629878806693        1480.3666989939093     
  -50.148227971412446        121.94519008123240        1459.8475676758023     
  -37.655360321567457        148.05424383028125        1435.9705044308953     
  -185.34008231009443        19.228394558464885        1520.3704532902541     
  -164.54116338270481        30.345967538701082        1518.1237059066743     
  -144.92804694200876        43.168096941264430        1513.3416385433798     
  -126.39567296781003        58.044982833852622        1505.9075670727955     
  -108.83898143993804        75.326825283192647        1495.7048073673227     
  -92.152912337840291        95.363824358188580        1482.6166752989300     
  -76.232405641416079        118.50618012561566        1466.5264867403478     
  -60.972401330190841        145.10409265365132        1447.3175575635105     
  -46.267839383859439        175.50776201010976        1424.8732036410413     
  -217.79626687073326        21.307784929020613        1498.0337402689195     
  -193.30112202469587        34.479098446883114        1496.4055833758414     
  -170.20270208547328        49.681203597976783        1492.3881674062220     
  -148.40098197978796        67.247517292992896        1485.8605338232783     
  -127.79593663409280        87.511456443679236        1476.7017240905302     
  -108.28754097545530        110.80643795993720        1464.7907796712009     
  -89.775769930566582        137.46587875279312        1450.0067420287421     
  -72.160598426258630        167.82319573286139        1432.2286526265252     
  -55.342001389324196        202.21180581072412        1411.3355529279547     
  -250.93730463492273        22.994436252777120        1472.2960011358775     
  -222.64754515396814        38.286689744362931        1471.4146457490053     
  -195.97424005920479        55.946507699148725        1468.2844300814274     
  -170.82884063865146        76.269052490055913        1462.7794635864391     
  -147.12279818082976        99.549486488721129        1454.7738557169735     
  -124.76756397402302        126.08297206803410        1444.1417159261696     
  -103.67458930645935        156.16467159993186        1430.7571536668431     
  -83.755325466473053        190.08974745650636        1414.4942783922943     
  -64.921223742400215        228.15336201076104        1395.2271995554149     
   2.2356783078971679E-009  -1.1526570948092776E-008   1459.4141052803482     
   3.6999516102591699E-009  -1.0960234015296027E-008   1426.7012233664443     
   4.5697892907087777E-009  -8.9713354987623748E-009   1387.6665957369578     
   4.5007642500551219E-009  -6.9210474549217063E-009   1342.0625593287830     
   3.2453985928572817E-009  -5.3695984058934572E-009   1289.6414510788418     
   6.8963956546882584E-010  -4.9499505923619396E-009   1230.1556079237500     
  -3.5505137061891493E-009  -6.4113878469094728E-009   1163.3573668001018     
  -9.3315899263332158E-009  -9.7780193029280848E-009   1088.9990646450415     
  -1.7061663651836619E-008  -1.6299333999307752E-008   1006.8330383952832     
  -6.9547254126566411        31.005691744630806        1458.5632630709979     
  -4.4524623384908448        37.754027935731237        1426.0180686648860     
  -2.4021200892174264        45.135929884209546        1387.1013421847092     
 -0.88777086480672196        52.871156924093512        1341.5676514285969     
   6.5131352697704870E-003   60.679468390154547        1289.1715641945971     
  0.19665971166127605        68.280623617717993        1229.6676482808630     
 -0.40140333528619720        75.394381941488646        1162.8104714852673     
  -1.8717482056397401        81.740502695350742        1088.3546016058883     
  -4.2984470986148438        87.038745214124020        1006.0546064410412     
  -14.154246747904146        61.326975228377989        1455.9238346171205     
  -9.2727037347736534        74.399861939930631        1423.8606452040158     
  -5.2956575940519635        88.699027825861094        1385.2978305878796     
  -2.3639107938451289        103.75513132618843        1339.9966511509022     
 -0.61826580162164646        119.09883088208380        1287.7183672747351     
 -0.19952508554666792        134.26078493343178        1228.2242393410406     
  -1.2484911132265637        148.77165192105366        1161.2755277323427     
  -3.9059663528040005        162.16209028567735        1086.6334928297792     
  -8.3127532717245813        173.96275846797081        1004.0593950168094     
  -21.641941408255292        90.950837217642487        1451.3654671831448     
  -14.499538328669104        109.92585775887402        1420.0670139524639     
  -8.7021156136042848        130.68284288570169        1382.0944345394767     
  -4.4198640682836086        152.65448991406319        1337.2201436325968     
  -1.8229744972476638        175.27349616215750        1285.2165559200319     
  -1.0816377054337778        197.97255894664002        1225.8560860896389     
  -2.3660444975698738        220.18437558496885        1158.9111488298754     
  -5.8463856791071294        241.34164339316786        1084.1541588281225     
  -11.692852054382044        260.87705968936876        1001.3575307734981     
  -29.461186797804395        119.86426449257451        1444.7578080329008     
  -20.171780263673710        144.32037114982688        1414.4752358790599     
  -12.642997252258901        171.08092413158380        1377.3295276331687     
  -7.0470749741971161        199.57179940221607        1333.1087140116038     
  -3.5562506406308927        229.21887292474565        1281.6008257316264     
  -2.3427614618992294        259.44802066441252        1222.5938935102042     
  -3.5788446490184924        289.68511858476262        1155.8759480643248     
  -7.4367374130457335        319.35604264955776        1081.2350201108115     
  -14.088676964329863        347.88666882285878        998.45914036683598     
  -37.655360321567457        148.05424383028125        1435.9705044308953     
  -26.328243683428177        177.57175786931268        1406.9233719529366     
  -17.139805613745565        209.88682063315707        1370.8414834615164     
  -10.236987797820504        244.50962650376030        1327.5329474247239     
  -5.7667319212544328        280.95036986278581        1276.8058723106114     
  -3.8759796696339492        318.71924509155997        1218.4683665877546     
  -4.7116727283900985        357.32644657179850        1152.3285387240280     
  -8.4207527830741640        396.28216868538715        1078.1944971884743     
  -15.150161519248172        435.09660581329831        995.87435044773065     
  -46.267839383859439        175.50776201010976        1424.8732036410413     
  -33.007742731652215        209.66837367396852        1397.2494831427741     
  -22.214043802374576        247.09408145835033        1362.4686756181288     
  -13.981046825161513        287.47053793324562        1320.3634290091934     
  -8.4030560286782361        330.48339566916172        1270.7663912582327     
  -5.5743756427336990        375.81830723407734        1213.5102103064830     
  -5.5893098958470659        423.16092519898024        1148.4275340967363     
  -8.5421630176526264        472.19690213256274        1075.3510105698929     
  -14.527239236881627        522.61189060520121        994.11328766993768     
  -55.342001389324196        202.21180581072412        1411.3355529279547     
  -40.249091551622243        240.59857432142115        1385.2916304175696     
  -27.887214921939233        282.69625567680373        1352.0494776962921     
  -18.270696341726634        328.45710040595253        1311.4707439027727     
  -11.413860652287866        377.83335903693359        1263.4170781747512     
  -7.3310326954277230        430.77728209751245        1207.7501296512087     
  -6.0365373123470647        487.24112011714561        1144.3315474697149     
  -7.5446993451876381        547.17712362257953        1073.0229807680387     
  -11.869843634608316        610.53754314367734        993.68607868535651     
  -64.921223742400215        228.15336201076104        1395.2271995554149     
  -48.091104287358760        270.35071556734533        1370.8878747459537     
  -34.180822076886955        316.68689235641756        1339.4222632892349     
  -23.097380633958608        367.47188063460493        1300.7254772423328     
  -14.747783481422999        423.01566865926145        1254.6926286624528     
  -9.0390341420234392        483.62824468803967        1201.2188296059376     
  -5.8781361385986202        549.61959697825591        1140.1991921298102     
  -5.1720929938451263        621.29971378766209        1071.5288282914696     
  -6.8279082304658232        698.97858337311447        995.10285014729277     
  -1499.3859588949954       -1.1531368867114793        1406.6437812116576     
  -1475.8011663321477       -1.2072872017071745        1406.7652732237118     
  -1452.2065288477256       -1.3119031723447279        1406.8874752868644     
  -1428.6009241727897       -1.4632439029627449        1407.0131125706284     
  -1404.9832300388789       -1.6575684988183070        1407.1449102447907     
  -1381.3523241775267       -1.8911360645890340        1407.2855934786644     
  -1357.7070843204433       -2.1602057058960895        1407.4378874416498     
  -1334.0463881989022       -2.4610365269146541        1407.6045173033667     
  -1310.3691135442014       -2.7898876323841364        1407.7882082333026     
  -1686.8541662317775       -1.2269273523111224        1381.6927622514024     
  -1660.3449585161898       -1.2538934431908046        1381.7768417403281     
  -1633.8263833348076       -1.3584690458225168        1381.8607848576271     
  -1607.2955103059430       -1.5308862236590812        1381.9477005573942     
  -1580.7494090496102       -1.7613770425688244        1382.0406977928840     
  -1554.1851491850198       -2.0401735668394281        1382.1428855176591     
  -1527.5998003319939       -2.3575078620404497        1382.2573726857838     
  -1500.9904321097258       -2.7036119922855164        1382.3872682506169     
  -1474.3541141378789       -3.0687180234812104        1382.5356811659194     
  -1874.3347741477307       -1.2667085451723779        1353.8248697128881     
  -1844.9140639436864       -1.2855853473400884        1353.8624259860369     
  -1815.4803544103929       -1.3972170938867521        1353.9019052354797     
  -1786.0296641036284       -1.5883323041149424        1353.9464247791682     
  -1756.5580115792711       -1.8456594973446272        1353.9991019331419     
  -1727.0614153928577       -2.1559271928024373        1354.0630540142035     
  -1697.5358941001941       -2.5058639095357194        1354.1413983393181     
  -1667.9774662569444       -2.8821981660208849        1354.2372522251628     
  -1638.3821504190000       -3.2716584822161394        1354.3537329885032     
  -2061.8298007171916       -1.2730858879014022        1323.0318845931895     
  -2029.5064274615233       -1.3017463670012148        1323.0183891940565     
  -1997.1633863279949       -1.4266305925150391        1323.0108986683429     
  -1964.7964018561602       -1.6334870315264425        1323.0121632748715     
  -1932.4011985867953       -1.9080641517022059        1323.0249332727315     
  -1899.9735010598895       -2.2361104204678668        1323.0519589204639     
  -1867.5090338157556       -2.6033743053134231        1323.0959904768772     
  -1835.0035213946021       -2.9956042734681887        1323.1597782006736     
  -1802.4526883369392       -3.3985487934138519        1323.2460723509328     
  -2249.3412640142419       -1.2466648020870252        1289.3055878889163     
  -2214.1199939182229       -1.3017599580649630        1289.2410945982315     
  -2178.8704233402541       -1.4451928181600806        1289.1878274033545     
  -2143.5887398532655       -1.6642552927417000        1289.1477940834620     
  -2108.2711310305076       -1.9462392926786833        1289.1230024187216     
  -2072.9137844448774       -2.2784367273117141        1289.1154601885191     
  -2037.5128876694775       -2.6481395070760527        1289.1271751726927     
  -2002.0646282772525       -3.0426395417223375        1289.1601551509125     
  -1966.5651938413114       -3.4492287420032426        1289.2164079029953     
  -2436.8711821130573       -1.1880507104777962        1252.6377605967250     
  -2398.7527081610506       -1.2850095733259650        1252.5269054326684     
  -2360.5964097001797       -1.4513870455497226        1252.4327536886574     
  -2322.3996943846773       -1.6785419745600620        1252.3561952438738     
  -2284.1599698687637       -1.9578332070911983        1252.2981199779256     
  -2245.8746438064550       -2.2806195905787945        1252.2594177705562     
  -2207.5411238518072       -2.6382599714061143        1252.2409785011355     
  -2169.1568176588162       -3.0221131964920005        1252.2436920493221     
  -2130.7191328814902       -3.4235381123930892        1252.2684482946590     
  -2624.4215730876622       -1.0978490354905261        1213.0201837132477     
  -2583.4025150378384       -1.2508786683250719        1212.8721849312503     
  -2542.3362896609160       -1.4436965516401870        1212.7457397720605     
  -2501.2222817408028       -1.6742519646625169        1212.6402447950006     
  -2460.0598760605812       -1.9404941840555239        1212.5550965577245     
  -2418.8484574038539       -2.2403724889039722        1212.4896916189080     
  -2377.5874105536809       -2.5718361558368770        1212.4434265366217     
  -2336.2761202938368       -2.9328344638176986        1212.4156978695601     
  -2294.9139714071439       -3.3213166899967064        1212.4059021757266     
  -2811.9944550119390      -0.97666519906294980        1170.4446382355345     
  -2768.0673593959673       -1.1987506964164822        1170.2732963269207     
  -2724.0850074754208       -1.4206046120068549        1170.1268479014659     
  -2680.0495182111254       -1.6492901487841891        1170.0028207754510     
  -2635.9630105643437       -1.8918705105076015        1169.8987427648690     
  -2591.8276034955247       -2.1554088987918476        1169.8121416856829     
  -2547.6454159659474       -2.4469685178196414        1169.7405453536353     
  -2503.4185669363360       -2.7736125703015659        1169.6814815852144     
  -2459.1491753678251       -3.1424042596433992        1169.6324781962633     
  -2999.5918459600130      -0.82510462316099620        1124.9029051594791     
  -2952.7451860836659       -1.1280091126732259        1124.7266028538372     
  -2905.8375073965890       -1.3805945023937056        1124.5761403244269     
  -2858.8744200859155       -1.6015614150430793        1124.4468012246148     
  -2811.8615343382280       -1.8096104729095259        1124.3338692063705     
  -2764.8044603404296       -2.0234422986833351        1124.2326279229972     
  -2717.7088082790024       -2.2617575144251987        1124.1383610265475     
  -2670.5801883410595       -2.5432567428323409        1124.0463521700058     
  -2623.4242107128321       -2.8866406057977656        1123.9518850059317     
  -1310.3691135442014       -2.7898876323841364        1407.7882082333026     
  -1286.6408233128629       -3.1352562886783062        1408.0035824373911     
  -1262.8300245401774       -3.4954533582291560        1408.2636606149110     
  -1238.9400110764284       -3.8814583417048425        1408.5687656766186     
  -1214.9740767717149       -4.3042507396544920        1408.9192205329007     
  -1190.9355154762559       -4.7748100528650639        1409.3153480942115     
  -1166.8276210401839       -5.3041157816193163        1409.7574712710773     
  -1142.6536873137734       -5.9031474269546038        1410.2459129737151     
  -1118.4170081470568       -6.5828844889674087        1410.7809961127089     
  -1474.3541141378789       -3.0687180234812104        1382.5356811659194     
  -1447.6598128216774       -3.4384529579040191        1382.7137879285817     
  -1420.8815397123890       -3.8152609511580522        1382.9300799478067     
  -1394.0239321481768       -4.2145997972535838        1383.1836385468027     
  -1367.0916274673871       -4.6519272906815559        1383.4735450482533     
  -1340.0892630078954       -5.1427012244877233        1383.7988807750146     
  -1313.0214761080631       -5.7023793930753754        1384.1587270501425     
  -1285.8929041059562       -6.3464195899696279        1384.5521651964543     
  -1258.7081843397725       -7.0902796093936331        1384.9782765367859     
  -1638.3821504190000       -3.2716584822161394        1354.3537329885032     
  -1608.7246172829346       -3.6593297855500850        1354.4968683569498     
  -1578.9858154795290       -4.0512234495174653        1354.6694410792870     
  -1549.1711804650186       -4.4654576617701309        1354.8697010037581     
  -1519.2861476953465       -4.9201506091532679        1355.0958979791476     
  -1489.3361526268304       -5.4334204793364620        1355.3462818534697     
  -1459.3266307159499       -6.0233854601657981        1355.6191024754694     
  -1429.2630174186681       -6.7081637387162800        1355.9126096934160     
  -1399.1507481911685       -7.5058735018992024        1356.2250533556878     
  -1802.4526883369392       -3.3985487934138519        1323.2460723509328     
  -1769.8380882813788       -3.7987422471732089        1323.3548085696543     
  -1737.1479173097848       -4.2048604937572236        1323.4826413184694     
  -1704.3878636264108       -4.6358642141545943        1323.6273990842064     
  -1671.5636154353012       -5.1107140887565947        1323.7869103539197     
  -1638.6808609413806       -5.6483708004089976        1323.9590036149120     
  -1605.7452883485935       -6.2677950287682052        1324.1415073541693     
  -1572.7625858614240       -6.9879474558347852        1324.3322500586264     
  -1539.7384416841264       -7.8277887623143556        1324.5290602154537     
  -1966.5651938413114       -3.4492287420032426        1289.2164079029953     
  -1931.0030774015081       -3.8575458175827180        1289.2895934138187     
  -1895.3729106710200       -4.2776917236074041        1289.3705779745640     
  -1859.6800892321942       -4.7276517340590090        1289.4571788241888     
  -1823.9300086675530       -5.2254111242991712        1289.5472132012653     
  -1788.1280645595461       -5.7889551696083572        1289.6384983448002     
  -1752.2796524906071       -6.4362691440607023        1289.7288514934971     
  -1716.3901680435911       -7.1853383239478035        1289.8160898862809     
  -1680.4650068006974       -8.0541479837551151        1289.8980307618822     
  -2130.7191328814902       -3.4235381123930892        1252.2684482946590     
  -2092.2224362283209       -3.8365959734024955        1252.3032077365494     
  -2053.6658610317591       -4.2712367803828784        1252.3341483572540     
  -2015.0539648825020       -4.7426525023055319        1252.3594862603368     
  -1976.3913053716594       -5.2660351093895770        1252.3774375494329     
  -1937.6824400894527       -5.8565765692510467        1252.3862183285794     
  -1898.9319266269615       -6.5294688521610169        1252.3840447009704     
  -1860.1443225747967       -7.2999039266104546        1252.3691327706265     
  -1821.3241855237395       -8.1830737620158516        1252.3396986411321     
  -2294.9139714071439       -3.3213166899967064        1212.4059021757266     
  -2253.4990163461571       -3.7367481887516760        1212.3976363848910     
  -2212.0318338597895       -4.1870153037881437        1212.3742497753976     
  -2170.5155981772841       -4.6826987988704332        1212.3347674289087     
  -2128.9534835272893       -5.2343794369585339        1212.2782144270184     
  -2087.3486641393229       -5.8526379823306343        1212.2036158514527     
  -2045.7043142418770       -6.5480551970166516        1212.1099967838329     
  -2004.0236080644029       -7.3312118459651856        1211.9963823058495     
  -1962.3097198357236       -8.2126886915522164        1211.8617974990077     
  -2459.1491753678251       -3.1424042596433992        1169.6324781962633     
  -2414.8356693400492       -3.5588579399350238        1169.5748642061305     
  -2370.4758946236393       -4.0265469350420062        1169.4917795385907     
  -2326.0710967161290       -4.5496229033890359        1169.3834683664918     
  -2281.6225211147948       -5.1322375024205940        1169.2501748624791     
  -2237.1314133169885       -5.7785423903337687        1169.0921431992231     
  -2192.5990188202836       -6.4926892252968855        1168.9096175495079     
  -2148.0265831218803       -7.2788296649092672        1168.7028420860167     
  -2103.4153517192503       -8.1411153672906948        1168.4720609814299     
  -2623.4242107128321       -2.8866406057977656        1123.9518850059317     
  -2576.2352467943142       -3.3037807014975442        1123.8368760472108     
  -2529.0031087910629       -3.7913513138894359        1123.6876349561030     
  -2481.7265680989144       -4.3452570954315206        1123.5060351094087     
  -2434.4043961137345       -4.9614026989881950        1123.2939498840612     
  -2387.0353642311034       -5.6356927770134462        1123.0532526570757     
  -2339.6182438468322       -6.3640319818608759        1122.7858168052335     
  -2292.1518063568760       -7.1423249668698645        1122.4935157054060     
  -2244.6348231567513       -7.9664763835402255        1122.1782227344838     
  -1118.4170081470568       -6.5828844889674087        1410.7809961127089     
  -1094.0877633217176       -7.3425209683511525        1411.3697541347419     
  -1069.6336913721823       -8.1731133750285494        1412.0243871250068     
  -1045.0544242772471       -9.0734349714899736        1412.7529679525042     
  -1020.3495940159075       -10.042259021222492        1413.5635694858238     
  -995.51883256708243       -11.078358787252625        1414.4642645938563     
  -970.56177190980782       -12.180507532949321        1415.4631261451618     
  -945.47804402296345       -13.347478521411688        1416.5682270084471     
  -920.26728088563334       -14.578045016179317        1417.7876400527423     
  -1258.7081843397725       -7.0902796093936331        1384.9782765367859     
  -1231.4263690668529       -7.9328137448678149        1385.4458747381657     
  -1204.0026494768404       -8.8600060644486689        1385.9697894354208     
  -1176.4358713062365       -9.8680090231927693        1386.5581259031565     
  -1148.7248802919928       -10.952975077487451        1387.2189894157557     
  -1120.8685221710480       -12.111056684157063        1387.9604852475006     
  -1092.8656426798573       -13.338406297643246        1388.7907186731413     
  -1064.7150875555101       -14.631176375243967        1389.7177949669313     
  -1036.4157025344498       -15.985519371506257        1390.7498194032962     
  -1399.1507481911685       -7.5058735018992024        1356.2250533556878     
  -1368.9363695816587       -8.4135046082508893        1356.5681779571498     
  -1338.5618633135516       -9.4128308335687052        1356.9598390072329     
  -1308.0258176076100       -10.499146246954069        1357.4074528760616     
  -1277.3268206846471       -11.667744917742937        1357.9184359338540     
  -1246.4634607652122       -12.913920914490120        1358.5002045510839     
  -1215.4343260697515       -14.232968305355485        1359.1601750977986     
  -1184.2380048186956       -15.620181158767139        1359.9057639441969     
  -1152.8730852329197       -17.070853543931321        1360.7443874605942     
  -1539.7384416841264       -7.8277887623143556        1324.5290602154537     
  -1506.6071347885104       -8.7814045349716139        1324.7471371984107     
  -1473.2983916305559       -9.8277053073687171        1325.0071321605610     
  -1439.8110716407764       -10.962889181598712        1325.3150512581058     
  -1406.1440342494288       -12.183154258510456        1325.6769006471395     
  -1372.2961388869519       -13.484698639387602        1326.0986864837255     
  -1338.2662449840284       -14.863720426608154        1326.5864149240488     
  -1304.0532119706029       -16.316417719847834        1327.1460921240268     
  -1269.6558992776509       -17.838988622665568        1327.7837242399812     
  -1680.4650068006974       -8.0541479837551151        1289.8980307618822     
  -1644.4280346101636       -9.0333245021456605        1289.9932258684282     
  -1608.1992931758998       -10.100747110686711        1290.1242652158885     
  -1571.7784418642991       -11.255280363801546        1290.2950234364903     
  -1535.1651400414994       -12.495788815525998        1290.5093751621541     
  -1498.3590470739694       -13.821137020625258        1290.7711950249804     
  -1461.3598223278500       -15.230189532978670        1291.0843576569698     
  -1424.1671251693999       -16.721810906559881        1291.4527376901319     
  -1386.7806149651005       -18.294865696525505        1291.8802097565788     
  -1821.3241855237395       -8.1830737620158516        1252.3396986411321     
  -1782.3884389690520       -9.1660754867126570        1252.3169173739930     
  -1743.2516266975481       -10.228073867659759        1252.3238344937006     
  -1703.9147367372786       -11.372362331594559        1252.3614717982052     
  -1664.3787571166304       -12.602234306468745        1252.4308510856854     
  -1624.6446758636021       -13.920983219044047        1252.5329941541061     
  -1584.7134810062882       -15.331902496201565        1252.6689228016210     
  -1544.5861605730345       -16.838285565763670        1252.8396588261130     
  -1504.2637025916865       -18.443425854001248        1253.0462240257023     
  -1962.3097198357236       -8.2126886915522164        1211.8617974990077     
  -1920.4777177876604       -9.1764684650964909        1211.7286851217636     
  -1878.4424509433165       -10.205803202233028        1211.6184363141281     
  -1836.2067647189087       -11.310177623326695        1211.5284987303671     
  -1793.7735045301899       -12.499076447619245        1211.4563200245038     
  -1751.1455157932462       -13.781984395555583        1211.3993478506541     
  -1708.3256439242691       -15.168386187849023        1211.3550298630532     
  -1665.3167343392722       -16.667766544438905        1211.3208137155420     
  -1622.1216324540085       -18.289610184361663        1211.2941470625617     
  -2103.4153517192503       -8.1411153672906948        1168.4720609814299     
  -2058.6852409886278       -9.0613144144535909        1168.2390025184229     
  -2013.7588246614400       -10.030052739294547        1168.0206669978697     
  -1968.6413342677884       -11.064768775221069        1167.8102066202018     
  -1923.3380013375354       -12.182900955200239        1167.6007735855017     
  -1877.8540574005474       -13.401887712231201        1167.3855200940181     
  -1832.1947339867265       -14.739167479256480        1167.1575983462164     
  -1786.3652626261892       -16.212178689951770        1166.9101605422286     
  -1740.3708748488007       -17.838359777117603        1166.6363588824315     
  -2244.6348231567513       -7.9664763835402255        1122.1782227344838     
  -2197.0003784942710       -8.8174243108505834        1121.8583429706403     
  -2149.1878065997862       -9.6969401030097515        1121.5431228651260     
  -2101.2052538430630       -10.632178325974678        1121.2206978544509     
  -2053.0608665941559       -11.650293546106241        1120.8792033750819     
  -2004.7627912228127       -12.778440329473824        1120.5067748635545     
  -1956.3191740987866       -14.043773242258681        1120.0915477562980     
  -1907.7381615920235       -15.473446850593405        1119.6216574897810     
  -1859.0279000723194       -17.094615720544994        1119.0852395006200     
  -920.26728088563334       -14.578045016179317        1417.7876400527423     
  -894.86383092708866       -15.851106386558286        1419.1295494398919     
  -869.20166170396692       -17.144292426365439        1420.6009890292487     
  -843.27983388583414       -18.454472034071330        1422.2083062353308     
  -817.09740814231486       -19.778514108618197        1423.9578484728643     
  -790.65344514303843       -21.113287548592439        1425.8559631561750     
  -763.94700555763848       -22.455661252899432        1427.9089976998698     
  -736.97715005568170       -23.802504120074843        1430.1232995186979     
  -709.74293930680653       -25.150685048997076        1432.5052160268958     
  -1036.4157025344498       -15.985519371506257        1390.7498194032962     
  -1007.9053876289227       -17.379705029368040        1391.8945543522987     
  -979.12257164651771       -18.793765742671212        1393.1572368980201     
  -950.06689351762941       -20.226497946113057        1394.5421843859647     
  -920.73799217282397       -21.676698074850492        1396.0537141616669     
  -891.13550654220171       -23.143162562825296        1397.6961435704848     
  -861.25907555652111       -24.624687845499579        1399.4737899582306     
  -831.10833814586226       -26.120070356805968        1401.3909706704544     
  -800.68293324072010       -27.628106531494012        1403.4520030524086     
  -1152.8730852329197       -17.070853543931321        1360.7443874605942     
  -1121.2833035560186       -18.564439119351050        1361.6823845572151     
  -1089.4132072625337       -20.083095646821164        1362.7231586254331     
  -1057.2626014186721       -21.626173346968244        1363.8697227568548     
  -1024.8312910912616       -23.193022442457504        1365.1250900435573     
  -992.11908134675468       -24.782993154805467        1366.4922735773955     
  -959.12577725192205       -26.395435706726744        1367.9742864503198     
  -925.85118387300918       -28.029700319163453        1369.5741417541797     
  -892.29510627696777       -29.685137215081681        1371.2948525808124     
  -1269.6558992776509       -17.838988622665568        1327.7837242399812     
  -1235.0240967073853       -19.413264057271022        1328.5037738840376     
  -1200.1080604947067       -21.022629721317685        1329.3083226666818     
  -1164.9073497175118       -22.665615874888829        1330.1998052416204     
  -1129.4215234539504       -24.340752778386047        1331.1806562624902     
  -1093.6501407823700       -26.046570692792045        1332.2533103828566     
  -1057.5927607807851       -27.781599878302302        1333.4202022562922     
  -1021.2489425275475       -29.544370595984958        1334.6837665364430     
  -984.61824510033875       -31.333413104974625        1336.0464378768486     
  -1386.7806149651005       -18.294865696525505        1291.8802097565788     
  -1349.1542850818150       -19.934135242590855        1292.3694561619686     
  -1311.2416232859352       -21.622715549886493        1292.9222974774939     
  -1273.0415305427784       -23.356943169033968        1293.5413157340017     
  -1234.5529078171858       -25.133154649947926        1294.2290929623139     
  -1195.7746560746489       -26.947686544060730        1294.9882111928955     
  -1156.7056762800280       -28.796875400947727        1295.8212524564067     
  -1117.3448693987993       -30.677057771980344        1296.7307987837746     
  -1077.6911363957279       -32.584570206634908        1297.7194322054586     
  -1504.2637025916865       -18.443425854001248        1253.0462240257023     
  -1463.7003866778139       -20.135008074663745        1253.2901652202804     
  -1422.8483875788236       -21.893700714594161        1253.5746515133073     
  -1381.7055360227528       -23.712272867163676        1253.9031381277173     
  -1340.2696627371315       -25.583493624077789        1254.2790802866652     
  -1298.5385984491893       -27.500132076150635        1254.7059332134650     
  -1256.5101738868434       -29.454957316537616        1255.1871521311070     
  -1214.1822197772381       -31.440738435595563        1255.7261922626644     
  -1171.5525668483069       -33.450244526487438        1256.3265088314674     
  -1622.1216324540085       -18.289610184361663        1211.2941470625617     
  -1578.6889194938774       -20.023837952090332        1211.2766348885725     
  -1534.9628453161727       -21.845932798871104        1211.2749532293521     
  -1490.9397582862812       -23.743722608623386        1211.2941563160703     
  -1446.6160067698113       -25.705035266959896        1211.3392983795638     
  -1401.9879391318168       -27.717698657501273        1211.4154336506172     
  -1357.0519037376635       -29.769540664953922        1211.5276163604335     
  -1311.8042489528418       -31.848389173958822        1211.6809007398447     
  -1266.2413231424130       -33.942072068232619        1211.8803410196645     
  -1740.3708748488007       -17.838359777117603        1166.6363588824315     
  -1694.1464015291556       -19.608580276104817        1166.3395989960784     
  -1647.6194884405074       -21.489759384428453        1166.0327710815261     
  -1600.7845894617262       -23.463410031317267        1165.7232541930709     
  -1553.6361584714145       -25.511045145591197        1165.4184273846886     
  -1506.1686493477312       -27.614177654598450        1165.1256697104961     
  -1458.3765159696584       -29.754320488015821        1164.8523602248406     
  -1410.2542122152204       -31.912986572828572        1164.6058779816494     
  -1361.7961919633451       -34.071688838651255        1164.3936020349163     
  -1859.0279000723194       -17.094615720544994        1119.0852395006200     
  -1810.0993507821017       -18.897190445367983        1118.4897913720238     
  -1760.8528088948547       -20.835528055403870        1117.8576735249449     
  -1711.2804216778597       -22.883452774908278        1117.1993156520125     
  -1661.3743363982214       -25.014788827236202        1116.5251474458319     
  -1611.1267003231692       -27.203360436640878        1115.8455985991309     
  -1560.5296607195551       -29.422991826297221        1115.1710988044870     
  -1509.5753648548016       -31.647507220617172        1114.5120777546142     
  -1458.2559599958465       -33.850730842762914        1113.8789651422446     
  -709.74293930680653       -25.150685048997076        1432.5052160268958     
  -682.28423437307151       -26.495141178339793        1435.0143278679557     
  -654.62220812557314       -27.768515677201606        1437.6180909391639     
  -626.72788894795940       -28.874236490864035        1440.3346655361795     
  -598.57230522373322       -29.715731564615766        1443.1822119545709     
  -570.12648533664299       -30.196428844067071        1446.1788904902730     
  -541.36145767009486       -30.219756274057573        1449.3428614385919     
  -512.24825060763146       -29.689141799655971        1452.6922850952390     
  -482.75789253278197       -28.508013366084796        1456.2453217559196     
  -800.68293324072010       -27.628106531494012        1403.4520030524086     
  -770.00253520893671       -29.138487522798897        1405.6321545601440     
  -739.06688534588193       -30.574460908707096        1407.9176034050774     
  -707.84572297333114       -31.835157761956850        1410.3290330656043     
  -676.30878741332549       -32.819709155907532        1412.8871270205875     
  -644.42581798774563       -33.427246163758610        1415.6125687483595     
  -612.16655401850187       -33.556899858165536        1418.5260417279208     
  -579.50073482752066       -33.107801312590169        1421.6482294376058     
  -546.39809973680690       -31.979081600024415        1424.9998153561905     
  -892.29510627696777       -29.685137215081681        1371.2948525808124     
  -858.45228041197788       -31.344152450240358        1373.1283648490505     
  -824.29710363750519       -32.921356784918913        1375.0787458773734     
  -789.79887313716654       -34.314407497638939        1377.1671908572239     
  -754.92688609402092       -35.420961865269817        1379.4148949800558     
  -719.65043969136264       -36.138677165417505        1381.8430534374090     
  -683.93883111255764       -36.365210676234142        1384.4728614204848     
  -647.76135754059715       -35.998219674363412        1387.3255141209033     
  -611.08731615913950       -34.935361438524751        1390.4222067299997     
  -984.61824510033875       -31.333413104974625        1336.0464378768486     
  -947.66962471147122       -33.122982379014957        1337.5170978651377     
  -910.35213283269002       -34.820984256390943        1339.1161352758629     
  -872.63547143142671       -36.326425295548006        1340.8632455429758     
  -834.48934247529110       -37.538312055232865        1342.7781241005832     
  -795.88344793211729       -38.355651094603161        1344.8804663828987     
  -756.78748976946463       -38.677448972383274        1347.1899678237455     
  -717.17116995499464       -38.402712247312792        1349.7263238573591     
  -677.00419045633396       -37.430447478374163        1352.5092299177047     
  -1077.6911363957279       -32.584570206634908        1297.7194322054586     
  -1037.6907228374005       -34.485823729035872        1298.8124927393078     
  -997.27124276310303       -36.285124272470682        1300.0443885203515     
  -956.40364984769690       -37.885650752956224        1301.4313037548818     
  -915.05889776661866       -39.190582088849453        1302.9894226494953     
  -873.20794019467837       -40.103097196107882        1304.7349294108035     
  -830.82173080716825       -40.526374992219900        1306.6840082453496     
  -787.87122327890211       -40.363594393355072        1308.8528433592946     
  -744.32737128499764       -39.517934316497673        1311.2576189594333     
  -1171.5525668483069       -33.450244526487438        1256.3265088314674     
  -1128.5517295187642       -35.443522917828886        1257.0286886022373     
  -1085.0937032601655       -37.325557781209227        1257.8781225304920     
  -1041.1515403780288       -39.006523468205728        1258.8854721248779     
  -996.69829317752738       -40.396594329433356        1260.0613988939970     
  -951.70701396424079       -41.405944716835336        1261.4165643471313     
  -906.15075504359459       -41.944748981928655        1262.9616299924214     
  -860.00256872101306       -41.923181475974303        1264.7072573390653     
  -813.23550730198531       -41.251416550698224        1266.6641078956638     
  -1266.2413231424130       -33.942072068232619        1211.8803410196645     
  -1220.2887994854595       -36.006926365358140        1212.1798245847176     
  -1173.8587841563758       -37.954065734557332        1212.6319542261256     
  -1126.9272750139776       -39.703483037960154        1213.2398572847994     
  -1079.4702699172476       -41.175171139123449        1214.0066611016798     
  -1031.4637667251361       -42.289122901122596        1214.9354930173781     
  -982.88376329610071       -42.965331185871207        1216.0294803728764     
  -933.70625748931877       -43.123788856825058        1217.2917505089008     
  -883.90724716361842       -42.684488776914492        1218.7254307664130     
  -1361.7961919633451       -34.071688838651255        1164.3936020349163     
  -1312.9380874667836       -36.186880489831537        1164.2800398174020     
  -1263.6057552831253       -38.182429080275256        1164.3205005271268     
  -1213.7789857475157       -39.990969060234704        1164.5085658669648     
  -1163.4375691953553       -41.545134881102399        1164.8378175395314     
  -1112.5612959619102       -42.777560993988743        1165.3018372474421     
  -1061.1299563823422       -43.620881849152795        1165.8942066938239     
  -1009.1233407923444       -44.007731899003716        1166.6085075811307     
  -956.52123952657553       -43.870745592452636        1167.4383216120732     
  -1458.2559599958465       -33.850730842762914        1113.8789651422446     
  -1406.5357481924593       -35.994231710577480        1113.3434734311525     
  -1354.3738864723116       -38.022428768326336        1112.9583783533194     
  -1301.7548045702836       -39.883421132221940        1112.7057045031329     
  -1248.6629322212282       -41.525307918220904        1112.5674764750067     
  -1195.0826991597485       -42.896188241683944        1112.5257188634987     
  -1140.9985351204905       -43.944161218540387        1112.5624562630535     
  -1086.3948698382526       -44.617325964449151        1112.6597132680213     
  -1031.2561330477172       -44.863781595016462        1112.7995144728009     
  -482.75789253278197       -28.508013366084796        1456.2453217559196     
  -453.25234495661562       -26.670920331371974        1459.7158767991602     
  -424.05907463069224       -24.057429522037694        1462.7963323637689     
  -395.09736779984314       -20.398495087355755        1465.4725638863456     
  -366.28651070865823       -15.425071176228954        1467.7304468027428     
  -337.54578960191378       -8.8681119377637145        1469.5558565496976     
  -308.79449072425143      -0.45857152072268548        1470.9346685633318     
  -279.95190032042615        10.072595925562084        1471.8527582799745     
  -250.93730463492273        22.994436252777120        1472.2960011358775     
  -546.39809973680690       -31.979081600024415        1424.9998153561905     
  -513.26113974403620       -30.165966485355739        1428.3324322870606     
  -480.44786565645842       -27.515414431616847        1431.3783840990129     
  -447.86129651041352       -23.704155559933113        1434.1293608684296     
  -415.40445134253952       -18.408919992440275        1436.5770526713809     
  -382.98034918899708       -11.306437849949404        1438.7131495841681     
  -350.49200908656167       -2.0734392546474822        1440.5293416830016     
  -317.84245007115373        9.6133456734074798        1442.0173190443406     
  -284.93469117932733        24.077186812643646        1443.1687717442956     
  -611.08731615913950       -34.935361438524751        1390.4222067299997     
  -574.35296097971423       -33.174160102270122        1393.5591631127875     
  -537.94150839884503       -30.535347749259842        1396.5185229324632     
  -501.74269917643426       -26.651393579117581        1399.3003550768940     
  -465.64627407311536       -21.154766793895590        1401.9047284347118     
  -429.54197384838460       -13.677936591969782        1404.3317118942089     
  -393.31953926272996       -3.8533721750066547        1406.5813743433009     
  -356.86871107616594        8.6864572566579170        1408.6537846705917     
  -320.07923004891376        24.309082502653979        1410.5490117643014     
  -677.00419045633396       -37.430447478374163        1352.5092299177047     
  -636.74326519476892       -35.760138142543639        1355.3851150624184     
  -596.78494105738571       -33.190710935827269        1358.1946193082088     
  -557.00866945993494       -29.320337244488400        1360.9487545271838     
  -517.29390181815506       -23.747188454323208        1363.6585325920219     
  -477.52008954850004       -16.069435953253702        1366.3349653748435     
  -437.56668406653949       -5.8852511266832437        1368.9890647482293     
  -397.31313678838052        7.2071946385419778        1371.6318425841778     
  -356.63889912980500        23.609729956158048        1374.2743107553561     
  -744.32737128499764       -39.517934316497673        1311.2576189594333     
  -700.64750892014933       -37.988537565476861        1313.7993339219693     
  -657.22310183116053       -35.554985451163844        1316.3845436709889     
  -613.92630102187150       -31.791114652866526        1319.0377672349205     
  -570.62925749652982       -26.270761851527737        1321.7835236424066     
  -527.20412225844086       -18.567763724844866        1324.6463319218358     
  -483.52304631165316       -8.2559569529411476        1327.6507111017243     
  -439.45818066018199        5.0908217843191608        1330.8211802105229     
  -394.88167630754248        21.898735808338358        1334.1822582766688     
  -813.23550730198531       -41.251416550698224        1266.6641078956638     
  -766.28114868623243       -39.923995329315687        1268.7908654774878     
  -719.50092891918950       -37.701652754445092        1271.0661664652353     
  -672.76268752428211       -34.143853904060848        1273.5306012155077     
  -625.93426402565956       -28.810063858653081        1276.2247600849134     
  -578.88349794702583       -21.259747697175129        1279.1892334301954     
  -531.47822881206332       -11.052370498742874        1282.4646116080810     
  -483.58629614450876        2.2526026577160962        1286.0914849750181     
  -435.07553946820036        19.095706692622997        1290.1104438879438     
  -883.90724716361842       -42.684488776914492        1218.7254307664130     
  -833.85964102422781       -41.631148394487894        1220.3487555151560     
  -783.86336052050797       -39.704194305347585        1222.2173581354607     
  -733.78492262857935       -36.458683096050038        1224.3904644843249     
  -683.49084432426491       -31.449671352774089        1226.9273004186707     
  -632.84764258329699       -24.232215661508604        1229.8870917953491     
  -581.72183438125933       -14.361372607654346        1233.3290644712281     
  -529.97993669411358       -1.3921987773947251        1237.3124443032054     
  -477.48846649738971        15.120249243994095        1241.8964571483009     
  -956.52123952657553       -43.870745592452636        1167.4383216120732     
  -903.59844246443629       -43.174633718582101        1168.4620498208913     
  -850.55533483442264       -41.636091563717855        1169.8159891261851     
  -797.26009999647169       -38.815730327437251        1171.5805650570994     
  -743.58092131023875       -34.274161208540022        1173.8362031428037     
  -689.38598213577438       -27.571995407527140        1176.6633289124059     
  -634.54346583282666       -18.269844123216075        1180.1423678951776     
  -578.92155576139737       -5.9283185557441698        1184.3537456204274     
  -522.38843528115228        9.8919700959717716        1189.3778876171648     
  -1031.2561330477172       -44.863781595016462        1112.7995144728009     
  -975.71300953825926       -44.619088262828598        1113.1197941809387     
  -919.82179006015156       -43.570825989937333        1113.8399298818742     
  -863.45531328931395       -41.295123696299243        1115.0641109492531     
  -806.48641790188094       -37.368110301944398        1116.8965267563110     
  -748.78794257380264       -31.365914726878088        1119.4413666768000     
  -690.23272598087169       -22.864665890659751        1122.8028200842932     
  -630.69360679951444       -11.440492714529199        1127.0850763522490     
  -570.04342370529992        3.3304758829374634        1132.3923248540270     
  -250.93730463492273        22.994436252777120        1472.2960011358775     
  -222.64754515396814        38.286689744362931        1471.4146457490053     
  -195.97424005920479        55.946507699148725        1468.2844300814274     
  -170.82884063865146        76.269052490055913        1462.7794635864391     
  -147.12279818082976        99.549486488721129        1454.7738557169735     
  -124.76756397402302        126.08297206803410        1444.1417159261696     
  -103.67458930645935        156.16467159993186        1430.7571536668431     
  -83.755325466473053        190.08974745650636        1414.4942783922943     
  -64.921223742400215        228.15336201076104        1395.2271995554149     
  -284.93469117932733        24.077186812643646        1443.1687717442956     
  -252.81968029979492        41.288792215725010        1443.1349764764973     
  -222.55915631470145        61.182899957920924        1440.9865776493261     
  -194.07232475054445        84.028824950387545        1436.5943169108452     
  -167.27839113432771        110.09588210344626        1429.8289359094922     
  -142.09656099198904        139.65338633046267        1420.5611762933518     
  -118.44603985062324        172.97065254133901        1408.6617797107817     
  -96.246033236886817        210.31699564699721        1394.0014878102641     
  -75.415746676671588        251.96173056109967        1376.4510422398150     
  -320.07923004891376        24.309082502653979        1410.5490117643014     
  -284.16857200737326        42.971917541177618        1411.4130374517511     
  -250.36976834044887        64.580524475246747        1410.3059042051077     
  -218.59589315242118        89.424656290602755        1407.0987718804759     
  -188.76002054710096        117.79406597471301        1401.6628003338010     
  -160.77522462853480        149.97850651414433        1393.8691494209208     
  -134.55457950049356        186.26773089575008        1383.5889789980001     
  -110.01115926746594        226.95149210509211        1370.6934489210357     
  -87.058038033183465        272.31954312948847        1355.0537190457233     
  -356.63889912980500        23.609729956158048        1374.2743107553561     
  -316.93865090358128        43.262736532085654        1376.0606767929849     
  -279.61614232605427        66.076361393316546        1376.0447163641991     
  -244.56443041720533        92.407081139812263        1374.1017935449870     
  -211.67657219799426        122.61137236837567        1370.1072724119260     
  -180.84562468869140        157.04571167815891        1363.9365170407732     
  -151.96464491010067        196.06657566660346        1355.4648915076555     
  -124.92668988280079        240.03044093171508        1344.5677598890243     
  -99.624816626945361        289.29378407273316        1331.1204862604473     
  -394.88167630754248        21.898735808338358        1334.1822582766688     
  -351.37434761531125        42.087919999977970        1336.8897426187955     
  -310.50834446007866        65.607390857210561        1338.0053207416738     
  -272.14282111809587        92.926634125446554        1337.4123469543142     
  -236.13693186541803        124.51513555115881        1334.9941755656380     
  -202.34983097860601        160.84238087977170        1330.6341608841365     
  -170.64067273336150        202.37785585800106        1324.2156572187268     
  -140.86861140628457        249.59104623141809        1315.6220188782320     
  -112.89280127346183        302.95143774566156        1304.7366001711516     
  -435.07553946820036        19.095706692622997        1290.1104438879438     
  -387.72009276936024        39.374138757050559        1293.7120830475571     
  -343.25644093233967        63.110593008136462        1295.9900239529875     
  -301.49594982826102        90.933849875579753        1296.8393971581809     
  -262.24998532819058        123.47268978904458        1296.1553332168257     
  -225.32991330313200        161.35589317886792        1293.8329626829820     
  -190.54709962413571        205.21224047447777        1289.7674161106522     
  -157.71291016228878        255.67051210561664        1283.8538240533542     
  -126.63871078828166        313.35948850356766        1275.9873170652934     
  -477.48846649738971        15.120249243994095        1241.8964571483009     
  -426.22031699229325        35.048063615472017        1246.3395461978300     
  -378.07049793153448        58.522947991000962        1249.8011326132928     
  -332.78870112081000        86.379263018375156        1252.1919092059220     
  -290.12461836479349        119.45136934863696        1253.4225687874239     
  -249.82794146836062        158.57362763219075        1253.4038041690078     
  -211.64836223667265        204.58039851851674        1252.0463081624130     
  -175.33557247434521        258.30604265864849        1249.2607735789145     
  -140.63926398678632        320.58492070149873        1244.9578932301838     
  -522.38843528115228        9.8919700959717716        1189.3778876171648     
  -467.11945091076797        29.036365387771582        1194.5839801882728     
  -415.16058164724996        51.781435947887388        1199.2409533378730     
  -366.18595956913407        79.213408181234456        1203.2788481477387     
  -319.86971675376111        112.41850849635087        1206.6277056991592     
  -275.88598527958538        152.48296329882947        1209.2175670738111     
  -233.90889722466480        200.49299899480138        1210.9784733532545     
  -193.61258466681744        257.53484199172959        1211.8404656190339     
  -154.67117968419569        324.69471869557538        1211.7335849526903     
  -570.04342370529992        3.3304758829374634        1132.3923248540270     
  -510.66192515181302        21.265714885099783        1138.2572331371139     
  -454.73675826852866        42.823037022519372        1144.1117927419023     
  -401.85260974584224        69.386819993514365        1149.9091790328605     
  -351.59416627367750        102.34144149873623        1155.6025673739755     
  -303.54611454248527        143.07127923674685        1161.1451331290705     
  -257.29314124234975        192.96071090678171        1166.4900516625728     
  -212.41993306355721        253.39411420809748        1171.5904983383602     
  -168.51117669610204        325.75586684074062        1176.3996485205207     
  -64.921223742400215        228.15336201076104        1395.2271995554149     
  -48.091104287358760        270.35071556734533        1370.8878747459537     
  -34.180822076886955        316.68689235641756        1339.4222632892349     
  -23.097380633958608        367.47188063460493        1300.7254772423328     
  -14.747783481422999        423.01566865926145        1254.6926286624528     
  -9.0390341420234392        483.62824468803967        1201.2188296059376     
  -5.8781361385986202        549.61959697825591        1140.1991921298102     
  -5.1720929938451263        621.29971378766209        1071.5288282914696     
  -6.8279082304658232        698.97858337311447        995.10285014729277     
  -75.415746676671588        251.96173056109967        1376.4510422398150     
  -56.810742294913396        297.94959259085226        1353.9803191164010     
  -41.212304354631286        348.57290991624166        1324.5919972900240     
  -28.428221591292299        404.47238675214481        1288.2060225077591     
  -18.266282740517397        466.28872731316375        1244.7423405166267     
  -10.534276537899473        534.66263581422743        1194.1208970642224     
  -5.0399917189347150        610.23481647021811        1136.2616378973378     
  -1.5912170195061037        693.64597349542839        1071.0845087626815     
   4.2588253866711057E-003   785.53681110499997        998.50945540851626     
  -87.058038033183465        272.31954312948847        1355.0537190457233     
  -66.461138532949732        322.48714908705028        1334.7227640709673     
  -48.879086727749211        377.92723100927196        1307.7881582971731     
  -34.064011560286303        439.46602575423464        1274.1729609819345     
  -21.768041972963857        507.92977018048947        1233.8002313840475     
  -11.743306908564364        584.14470114560254        1186.5930287604033     
  -3.7419353095847896        668.93705550727202        1132.4744123703128     
   2.4839438811259527        763.13307012386724        1071.3674414701911     
   7.1822017215519054        867.55898185358387        1003.1951753199060     
  -99.624816626945361        289.29378407273316        1331.1204862604473     
  -76.745364546456997        344.05246359316044        1313.2708169084347     
  -56.872651127211157        404.84241105615052        1289.1858904611663     
  -39.746700512728182        472.53021264955100        1258.7701595079009     
  -25.107536847333051        547.98245455953509        1221.9280766383702     
  -12.695184274535990        632.06572297442085        1178.5640944416978     
  -2.2496669380886374        725.64660408098257        1128.5826655071080     
   6.4889910174870806        829.59168406533013        1071.8882424244152     
   13.780765448970556        944.76754911536943        1008.3852777833378     
  -112.89280127346183        302.95143774566156        1304.7366001711516     
  -87.366491881104167        362.73461464467840        1289.7800849277855     
  -64.884479483633839        429.41100547748596        1268.9603379329349     
  -45.218238420696110        503.74236244534586        1242.1414849280043     
  -28.139243031548318        586.49043775089797        1209.1876516546254     
  -13.418967655618559        678.41698359585394        1169.9629638539695     
 -0.82888663222229297        780.28375218229326        1124.3315472673764     
   9.8595256990469693        892.85249571235704        1072.1575276363681     
   18.874794999102676        1016.8849663881655        1013.3050307025737     
  -126.63871078828166        313.35948850356766        1275.9873170652934     
  -98.027592081830647        378.62268077963756        1264.4061754280949     
  -72.606053727983380        451.72556969447436        1247.2866448634938     
  -50.220575255621924        533.17989015142382        1224.4308040851561     
  -30.717636193905662        623.49737705351788        1195.6407318073070     
  -13.943716072010119        723.18976530385999        1160.7185067438031     
  0.25470558080297678        832.76878980410515        1119.4662076087459     
   12.031149235592636        952.74618545865383        1071.6859131162371     
   21.539135362973354        1083.6336871692638        1017.1797019794482     
  -140.63926398678632        320.58492070149873        1244.9578932301838     
  -108.43173669439901        391.80574053267566        1237.3046957082645     
  -79.728855791147083        471.87865912705536        1224.3399554032280     
  -54.495660989527607        560.92021077546519        1205.7819838216521     
  -32.697192002643902        659.04692976749664        1181.3490924708788     
  -14.298488544268082        766.37535039118245        1150.7595928580581     
  0.73540967329751084        883.02200693779491        1113.7317964899798     
   12.439462936264135        1009.1034336962666        1069.9840148740748     
   20.848631531454259        1144.7361649551917        1019.2345595179788     
  -154.67117968419569        324.69471869557538        1211.7335849526903     
  -118.28199726435668        402.37287244045621        1208.6312530675800     
  -85.944367603789090        489.96282919652407        1200.2954137032125     
  -57.785445593981706        587.04073932613244        1186.3388909803900     
  -33.932386126188447        693.18275319095028        1166.3745090200764     
  -14.512344091868044        807.96502115345959        1140.0150919428702     
  0.34752561755601619        930.96369357513368        1106.8734638700498     
   10.520068110519162        1061.7549208180544        1066.5624489215347     
   15.878128495868566        1199.9148532444026        1018.6948712191328     
  -168.51117669610204        325.75586684074062        1176.3996485205207     
  -127.28144533672852        410.41315503969702        1178.5414548048352     
  -90.944071096932305        506.07063532360928        1175.3281639142456     
  -59.831879040786134        611.61889081197808        1166.2453924039105     
  -34.277694232333857        725.94850462519844        1150.7787568291649     
  -14.614341735489631        847.95005988325386        1128.4138737447909     
  -1.1746466139395011        976.51413970728561        1098.6363597060329     
   5.7085660681497075        1110.5313272171225        1060.9318312683063     
   5.7024712473089494        1248.8922055337789        1014.7859049861116     
  -2999.5918459600130      -0.82510462316099620        1124.9029051594791     
  -2952.7451860836659       -1.1280091126732259        1124.7266028538372     
  -2905.8375073965890       -1.3805945023937056        1124.5761403244269     
  -2858.8744200859155       -1.6015614150430793        1124.4468012246148     
  -2811.8615343382280       -1.8096104729095259        1124.3338692063705     
  -2764.8044603404296       -2.0234422986833351        1124.2326279229972     
  -2717.7088082790024       -2.2617575144251987        1124.1383610265475     
  -2670.5801883410595       -2.5432567428323409        1124.0463521700058     
  -2623.4242107128321       -2.8866406057977656        1123.9518850059317     
  -3187.2245430136436      -0.68154922338635515        1076.3980080398712     
  -3137.4367685035249       -1.0498764744061191        1076.2395344171930     
  -3087.5896772413307       -1.3233734976267897        1076.1031789672791     
  -3037.6920609632471       -1.5313460810567676        1075.9822187098491     
  -2987.7527114062309       -1.7031000135591512        1075.8699306649021     
  -2937.7804203069604       -1.8679410847643112        1075.7595918529451     
  -2887.7839794020683       -2.0551750828868762        1075.6444792935060     
  -2837.7721804280836       -2.2941077965933800        1075.5178700068120     
  -2787.7538151218073       -2.6140450154260861        1075.3730410128055     
  -3374.8921171430411      -0.58101308115215033        1024.9495253813679     
  -3322.1397012656312      -0.97462170212202182        1024.8280140730790     
  -3269.3399382953608       -1.2494089127349071        1024.7196164534739     
  -3216.5034251186808       -1.4406976674474663        1024.6164533936592     
  -3163.6407586225259       -1.5838109223786887        1024.5106457629536     
  -3110.7625356931467       -1.7140716318998557        1024.3943144315567     
  -3057.8793532175328       -1.8668027521837303        1024.2595802692156     
  -3005.0018080819355       -2.0773272380782828        1024.0985641463753     
  -2952.1404971728075       -2.3809680441206638        1023.9033869325925     
  -3562.5797472557083      -0.51904986926842867        970.57407060568562     
  -3506.8471610262472      -0.90019779239423769        970.50114477873581     
  -3451.0870350150685       -1.1583240842414853        970.42865107839361     
  -3395.3103948579655       -1.3301808663461543        970.34840470703477     
  -3339.5282661916049       -1.4525202597694715        970.25222086745782     
  -3283.7516746524575       -1.5620943865080790        970.13191476199245     
  -3227.9916458771395       -1.6956553680197430        969.97930159347970     
  -3172.2592055020873       -1.8899553263415783        969.78619656440821     
  -3116.5653791635841       -2.1817463824643255        969.54441487728036     
  -3750.2726122586482      -0.49121325917508329        913.28825713543404     
  -3691.5523244432088      -0.82455774234517776        913.26802949347154     
  -3632.8297118572036       -1.0497423500860350        913.23348113602287     
  -3574.1148524866344       -1.2003603691969147        913.17697208062532     
  -3515.4178243181168       -1.3100050878308593        913.09086234532299     
  -3456.7487053379514       -1.4122697942054856        912.96751194770945     
  -3398.1175735324759       -1.5407477760054462        912.79928090558121     
  -3339.5345068880451       -1.7290323211973373        912.57852923651171     
  -3281.0095833912214       -2.0107167179367025        912.29761695859008     
  -3937.9558910590554      -0.49305692308121252        853.10869839371458     
  -3876.2483681729477      -0.74565454934918307        853.13777117608481     
  -3814.5667132780736      -0.92328704609985834        853.13730492149853     
  -3752.9186803107295       -1.0518008679489412        853.10105494560173     
  -3691.3120232069150       -1.1570424681162876        853.02277656372951     
  -3629.7544959030065       -1.2648583012000927        852.89622509160790     
  -3568.2538523353728       -1.4010948219201964        852.71515584466181     
  -3506.8178464400780       -1.5915984833068251        852.47332413839592     
  -3445.4542321536396       -1.8622157408483417        852.16448528830585     
  -4125.6147625644080      -0.52013453379595376        790.05200780214238     
  -4060.9284688726939      -0.66144121066690786        790.11947278454136     
  -3996.2967837346509      -0.77858151074406123        790.14332072946718     
  -3931.7237606357176      -0.88506705431882438        790.11955273252136     
  -3867.2134530624353      -0.99440946150139098        790.04416988964533     
  -3802.7699145009797       -1.1201203535301829        789.91317329708102     
  -3738.3971984373229       -1.2757113502912034        789.72256405029987     
  -3674.0993583578002       -1.4746940727036417        789.46834324529777     
  -3609.8804477482554       -1.7305801404636441        789.14651197828823     
  -4313.2344056817255      -0.56799976313118350        724.13479878352211     
  -4245.5858031994712      -0.56987072275319406        724.22223727764174     
  -4178.0186676828707      -0.61524907956959396        724.25472685435318     
  -4110.5319757673142      -0.70072361937741334        724.23136487219972     
  -4043.1247040894973      -0.82288312971149935        724.15124869012755     
  -3975.7958292850394      -0.97831639682067362        724.01347566708569     
  -3908.5443279900837       -1.1636122076210995        723.81714316184241     
  -3841.3691768405824       -1.3753593484307203        723.56134853340859     
  -3774.2693524725510       -1.6101466060501934        723.24518914044029     
  -4500.7999993184148      -0.63220628313592897        655.37368476017252     
  -4430.2135478104701      -0.46889608330661758        655.45516761405270     
  -4359.7311095794948      -0.43291308988091259        655.47472159110657     
  -4289.3452080116740      -0.49933525631058728        655.43539079582456     
  -4219.0483664926032      -0.64324053421887584        655.34021933226677     
  -4148.8331084087386      -0.83970687761507179        655.19225130507027     
  -4078.6919571452577       -1.0638122387790645        654.99453081878141     
  -4008.6174360886025       -1.2906345709106972        654.75010197768358     
  -3938.6020686240950       -1.4952518266291008        654.46200888650219     
  -2623.4242107128321       -2.8866406057977656        1123.9518850059317     
  -2576.2352467943142       -3.3037807014975442        1123.8368760472108     
  -2529.0031087910629       -3.7913513138894359        1123.6876349561030     
  -2481.7265680989144       -4.3452570954315206        1123.5060351094087     
  -2434.4043961137345       -4.9614026989881950        1123.2939498840612     
  -2387.0353642311034       -5.6356927770134462        1123.0532526570757     
  -2339.6182438468322       -6.3640319818608759        1122.7858168052335     
  -2292.1518063568760       -7.1423249668698645        1122.4935157054060     
  -2244.6348231567513       -7.9664763835402255        1122.1782227344838     
  -2787.7538151218073       -2.6140450154260861        1075.3730410128055     
  -2737.7134872391844       -3.0308376210083452        1075.1961546000489     
  -2687.6276266738346       -3.5330902878536108        1074.9800284503960     
  -2637.4927643686433       -4.1092394919896833        1074.7279226733399     
  -2587.3054312666623       -4.7477217102905342        1074.4430973787789     
  -2537.0621583108332       -5.4369734195045112        1074.1288126764105     
  -2486.7594764438168       -6.1654310949838873        1073.7883286760061     
  -2436.3939166089567       -6.9215312144534664        1073.4249054873035     
  -2385.9620097489692       -7.6937102536969633        1073.0418032200337     
  -2952.1404971728075       -2.3809680441206638        1023.9033869325925     
  -2899.2656775289006       -2.7932143427875644        1023.6674822755551     
  -2846.3374103692040       -3.2955692400638554        1023.3920377669485     
  -2793.3509988514638       -3.8723765951689302        1023.0808051939568     
  -2740.3017461327249       -4.5079802655006915        1022.7375363431830     
  -2687.1849553712650       -5.1867241111045814        1022.3659830018112     
  -2633.9959297243417       -5.8929519900182186        1021.9698969565375     
  -2580.7299723495812       -6.6110077613511748        1021.5530299942670     
  -2527.3823864046781       -7.3252352832183760        1021.1191339019516     
  -3116.5653791635841       -2.1817463824643255        969.54441487728036     
  -3060.8639917346777       -2.5825630880724475        969.25629349867529     
  -3005.0982430240833       -3.0685231145047283        968.93185819936036     
  -2949.2632210716511       -3.6232532611113584        968.57445738727461     
  -2893.3540139166498       -4.2303803255889534        968.18743947103599     
  -2837.3657095989947       -4.8735311080778274        967.77415285864254     
  -2781.2933961587864       -5.5363324080882421        967.33794595879124     
  -2725.1321616353252       -6.2024110239581205        966.88216717941430     
  -2668.8770940687468       -6.8553937556670235        966.41016492906579     
  -3281.0095833912214       -2.0107167179367025        912.29761695859008     
  -3222.4806039277473       -2.3905360784426648        911.96802269520219     
  -3163.8759077857580       -2.8416868561844240        911.60768504092368     
  -3105.1913805541967       -3.3504543476591380        911.21865396971918     
  -3046.4229078228809       -3.9031238520932447        910.80297945555219     
  -2987.5663751809716       -4.4859806671408933        910.36271147256707     
  -2928.6176682178257       -5.0853100902091910        909.89989999460249     
  -2869.5726725230725       -5.6873974199487520        909.41659499580260     
  -2810.4272736857392       -6.2785279537193901        908.91484645008188     
  -3445.4542321536396       -1.8622157408483417        852.16448528830585     
  -3384.0876881794038       -2.2087855354766361        851.80810429015401     
  -3322.6361878005891       -2.6047954073897017        851.42771358512960     
  -3261.0974268241207       -3.0425647129743538        851.02316965726641     
  -3199.4691010560714       -3.5144128063243443        850.59432899046726     
  -3137.7489063033013       -4.0126590429242697        850.14104806881141     
  -3075.9345383722080       -4.5296227779709852        849.66318337607322     
  -3014.0236930691549       -5.0576233658312049        849.16059139646848     
  -2952.0140662007357       -5.5889801618843649        848.63312861391171     
  -3609.8804477482554       -1.7305801404636441        789.14651197828823     
  -3545.6574185606087       -2.0289636797260755        788.78197270899068     
  -3481.3448662158985       -2.3475837134117228        788.40013912554844     
  -3416.9433094057367       -2.6881692133142678        787.99777916625010     
  -3352.4532668210709       -3.0524491498772477        787.57166076917190     
  -3287.8752571527539       -3.4421524922038316        787.11855187281833     
  -3223.2097990921502       -3.8590082116347730        786.63522041518513     
  -3158.4574113303374       -4.3047452786570375        786.11843433451668     
  -3093.6186125582799       -4.7810926626466426        785.56496156917160     
  -3774.2693524725510       -1.6101466060501934        723.24518914044029     
  -3707.1619691425904       -1.8427227327074434        722.89506237699300     
  -3639.9677261788675       -2.0597867188705550        722.53315695555659     
  -3572.6909778243080       -2.2758527077075996        722.15225721264778     
  -3505.3360783222670       -2.5054348438879970        721.74514748520335     
  -3437.9073819159494       -2.7630472709411151        721.30461210996805     
  -3370.4092428484928       -3.0632041333647066        720.82343542364731     
  -3302.8460153632368       -3.4204195750310191        720.29440176291712     
  -3235.2220537033290       -3.8492077399578193        719.71029546479690     
  -3938.6020686240950       -1.4952518266291008        654.46200888650219     
  -3868.5735139968424       -1.6417149166002218        654.15280771965797     
  -3798.4705508359184       -1.7311393663994750        653.83496236854853     
  -3728.3023816042487       -1.7942000523464685        653.49637851279931     
  -3658.0782087644147       -1.8615718495441342        653.12496183212147     
  -3587.8072347794205       -1.9639296351165285        652.70861800584260     
  -3517.4986621119510       -2.1319482842989146        652.23525271361996     
  -3447.1616932247020       -2.3963026729059038        651.69277163495326     
  -3376.8055305806329       -2.7876676772127666        651.06908044955480     
  -2244.6348231567513       -7.9664763835402255        1122.1782227344838     
  -2197.0003784942710       -8.8174243108505834        1121.8583429706403     
  -2149.1878065997862       -9.6969401030097515        1121.5431228651260     
  -2101.2052538430630       -10.632178325974678        1121.2206978544509     
  -2053.0608665941559       -11.650293546106241        1120.8792033750819     
  -2004.7627912228127       -12.778440329473824        1120.5067748635545     
  -1956.3191740987866       -14.043773242258681        1120.0915477562980     
  -1907.7381615920235       -15.473446850593405        1119.6216574897810     
  -1859.0279000723194       -17.094615720544994        1119.0852395006200     
  -2385.9620097489692       -7.6937102536969633        1073.0418032200337     
  -2335.4195038239345       -8.4652724116044737        1072.6508860934102     
  -2284.7315128814312       -9.2507421787798876        1072.2509642793113     
  -2233.9086169963675       -10.085386471352876        1071.8257168165940     
  -2182.9613962436806       -11.004472205761886        1071.3588227441423     
  -2131.9004306982383       -12.043266298437061        1070.8339611007432     
  -2080.7363004345907       -13.237035664731934        1070.2348109253162     
  -2029.4795855279115       -14.621047221575054        1069.5450512566467     
  -1978.1408660527800       -16.230567884078710        1068.7483611334781     
  -2527.3823864046781       -7.3252352832183760        1021.1191339019516     
  -2473.9385712114072       -8.0252071862074672        1020.6710968100797     
  -2420.3947391757247       -8.7365397146298847        1020.1966821136273     
  -2366.7624130813006       -9.4976421470755668        1019.6769544959689     
  -2313.0531157123733       -10.346923764221515        1019.0929786404703     
  -2259.2783698529311       -11.322793846205968        1018.4258192304743     
  -2205.4496982865244       -12.463661671527575        1017.6565409494999     
  -2151.5786237969346       -13.807936519874488        1016.7662084807563     
  -2097.6766691685498       -15.394027671737149        1015.7358865076043     
  -2668.8770940687468       -6.8553937556670235        966.41016492906579     
  -2612.5463216521316       -7.4938509345756756        965.91487649022906     
  -2556.1685635504932       -8.1516561312033673        965.37386845346555     
  -2499.7547942608990       -8.8653910027685470        964.76743318884246     
  -2443.3159882806663       -9.6716372065068299        964.07586306671806     
  -2386.8631201064331       -10.606976398493316        963.27945045686465     
  -2330.4071642354315       -11.707990235697935        962.35848772953761     
  -2273.9590951649288       -13.011260375810934        961.29326725482713     
  -2217.5298873917504       -14.553368474972103        960.06408140302437     
  -2810.4272736857392       -6.2785279537193901        908.91484645008188     
  -2751.2314961409961       -6.8678259541085254        908.37812650309968     
  -2692.0440640735624       -7.4934148492800432        907.77611538398639     
  -2632.8739126977725       -8.1850786870538741        907.09017519177974     
  -2573.7299772279989       -8.9726015152958780        906.30166802543260     
  -2514.6211928783964       -9.8857673813412248        905.39195598391211     
  -2455.5564948636179       -10.954360334005287        904.34240116645628     
  -2396.5448183975686       -12.208164419348236        903.13436567197778     
  -2337.5950986947601       -13.676963686081876        901.74921159959069     
  -2952.0140662007357       -5.5889801618843649        848.63312861391171     
  -2889.9828356733024       -6.1437545441617658        848.05674821823629     
  -2828.0123188125922       -6.7591392885874484        847.39701499050307     
  -2766.1079205544834       -7.4531508482132267        846.63820280077539     
  -2704.2750458344376       -8.2438056745538688        845.76458551925180     
  -2642.5190995883158       -9.1491202204745150        844.76043701598087     
  -2580.8454867517203       -10.187110937903185        843.61003116121594     
  -2519.2596122602004       -11.375794279010279        842.29764182504834     
  -2457.7668810496948       -12.733186696564644        840.80754287763511     
  -3093.6186125582799       -4.7810926626466426        785.56496156917160     
  -3028.7890812440955       -5.3182590027951164        784.94664300501665     
  -2964.0644058355824       -5.9461528703054682        784.23015935841272     
  -2899.4449699937973       -6.6660531353370516        783.40453831245202     
  -2834.9311573803179       -7.4792386694831521        782.45880755087830     
  -2770.5233516558824       -8.3869883422349858        781.38199475713520     
  -2706.2219364817975       -9.3905810244074246        780.16312761469658     
  -2642.0272955187206       -10.491295585360263        778.79123380662304     
  -2577.9398124285681       -11.690410897574679        777.25534101697701     
  -3235.2220537033290       -3.8492077399578193        719.71029546479690     
  -3167.6389738484263       -4.3879616285244083        719.04371223288433     
  -3100.1914032099057       -5.0517790134485949        718.26914057266310     
  -3032.8732131786833       -5.8202311976194778        717.38220402313743     
  -2965.6782751450905       -6.6728894822956590        716.37852612307506     
  -2898.6004605004528       -7.5893251719128330        715.25373041151681     
  -2831.6336406345890       -8.5491095656566358        714.00344042753420     
  -2764.7716869387941       -9.5318139682181027        712.62327970989179     
  -2698.0084708037034       -10.517009681144373        711.10887179776694     
  -3376.8055305806329       -2.7876676772127666        651.06908044955480     
  -3306.5212544814831       -3.3494847200556706        650.34385727122640     
  -3236.3843890037624       -4.0733411397725376        649.50755071889569     
  -3166.3808022715898       -4.9121306836166241        648.56422222901392     
  -3096.4963624093607       -5.8187470992299950        647.51793323822767     
  -3026.7169375415688       -6.7460841350962255        646.37274518339120     
  -2957.0283957923907       -7.6470355384792583        645.13271950104433     
  -2887.4166052861965       -8.4744950573829101        643.80191762758182     
  -2817.8674341472242       -9.1813564388240820        642.38440100002572     
  -1859.0279000723194       -17.094615720544994        1119.0852395006200     
  -1810.0993507821017       -18.897190445367983        1118.4897913720238     
  -1760.8528088948547       -20.835528055403870        1117.8576735249449     
  -1711.2804216778597       -22.883452774908278        1117.1993156520125     
  -1661.3743363982214       -25.014788827236202        1116.5251474458319     
  -1611.1267003231692       -27.203360436640878        1115.8455985991309     
  -1560.5296607195551       -29.422991826297221        1115.1710988044870     
  -1509.5753648548016       -31.647507220617172        1114.5120777546142     
  -1458.2559599958465       -33.850730842762914        1113.8789651422446     
  -1978.1408660527800       -16.230567884078710        1068.7483611334781     
  -1926.5959218986163       -18.050300527165632        1067.8595015233236     
  -1874.7071826427100       -20.020446985011063        1066.9122989929392     
  -1822.4652028924540       -22.109522615208789        1065.9190309801554     
  -1769.8605372548811       -24.286042774655471        1064.8919749231450     
  -1716.8837403371342       -26.518522820783915        1063.8434082597732     
  -1663.5253667465076       -28.775478111043981        1062.7856084281912     
  -1609.7759710899684       -31.025424002092961        1061.7308528662452     
  -1555.6261079749179       -33.236875851654474        1060.6914190120058     
  -2097.6766691685498       -15.394027671737149        1015.7358865076043     
  -2043.5780437963354       -17.196674869581557        1014.5899896474725     
  -1989.1031432026014       -19.144571613489006        1013.3728851163269     
  -1934.2427693620377       -21.207057818946055        1012.0955664956331     
  -1878.9877242494499       -23.353473401597512        1010.7690273671213     
  -1823.3288098394878       -25.553158277286684        1009.4042613121297     
  -1767.2568281067815       -27.775452361447719        1008.0122619124892     
  -1710.7625810257791       -29.989695569228047        1006.6040227495557     
  -1653.8368705715013       -32.165227816639401        1005.1905374050720     
  -2217.5298873917504       -14.553368474972103        960.06408140302437     
  -2160.9128958818501       -16.296467294822264        958.70544560997507     
  -2103.8894188490808       -18.162520422980606        957.26939914739921     
  -2046.4523456631882       -20.127825759267694        955.76252013865030     
  -1988.5945656938936       -22.168681201960112        954.19138670710788     
  -1930.3089683107837       -24.261384650189370        952.56257697616149     
  -1871.5884428833278       -26.382234002208179        950.88266906920273     
  -1812.4258787815309       -28.507527157797313        949.15824110963877     
  -1752.8141653746438       -30.613562014590798        947.39587122094576     
  -2337.5950986947601       -13.676963686081876        901.74921159959069     
  -2278.4676575619997       -15.309831625008997        900.23005927619852     
  -2218.9147378569628       -17.028911896341697        898.63180833833928     
  -2158.9331563722562       -18.823593808934902        896.95348984942643     
  -2098.5197298997778       -20.683266669035902        895.19413487292991     
  -2037.6712752315284       -22.597319783341618        893.35277447211172     
  -1976.3846091596502       -24.555142459156627        891.42843971065577     
  -1914.6565484762725       -26.546124003165460        889.42016165194082     
  -1852.4839099733631       -28.559653722372673        887.32697135931107     
  -2457.7668810496948       -12.733186696564644        840.80754287763511     
  -2396.1095082431425       -14.196921681388744        839.18802051176658     
  -2334.0278285011564       -15.698364516273841        837.49007994134706     
  -2271.5244260657555       -17.246129341287201        835.70207356820674     
  -2208.6018851788749       -18.848830296348410        833.81235379382213     
  -2145.2627900826087       -20.515081521620687        831.80927302013731     
  -2081.5097250187382       -22.253497156398225        829.68118364873908     
  -2017.3452742294453       -24.072691341574568        827.41643808143067     
  -1952.7720219565304       -25.981278216195392        825.00338871996473     
  -2577.9398124285681       -11.690410897574679        777.25534101697701     
  -2513.7056273321009       -12.917891286524309        775.60351918204049     
  -2449.0774190560392       -14.125496764080935        773.87418120877885     
  -2384.0653793198594       -15.347199728571809        772.04186923510065     
  -2318.6796998429036       -16.616972577356819        770.08112539953015     
  -2252.9305723443686       -17.968787708449668        767.96649184019327     
  -2186.8281885437518       -19.436617519554716        765.67251069545728     
  -2120.3827401600947       -21.054434408053453        763.17372410333951     
  -2053.6044189132267       -22.856210773092698        760.44467420236242     
  -2698.0084708037034       -10.517009681144373        711.10887179776694     
  -2631.1231942355607       -11.432894262443710        709.50074515270035     
  -2563.9122377967060       -12.264927123285588        707.81407939270173     
  -2496.3952407114748       -13.078572344638019        706.00647479063423     
  -2428.5918422034915       -13.939294005450961        704.03553161960838     
  -2360.5216814975934       -14.912556188329177        701.85885015265626     
  -2292.2043978175766       -16.063822972655544        699.43403066280609     
  -2223.6596303878241       -17.458558439674448        696.71867342298094     
  -2154.9070184323805       -19.162226669632787        693.67037870639354     
  -2817.8674341472242       -9.1813564388240820        642.38440100002572     
  -2748.2293883602015       -9.7020844313096859        640.90388828906578     
  -2678.3810129976987       -10.071274075840734        639.33974174538935     
  -2608.3532348164144       -10.392014561223732        637.62948817479298     
  -2538.1769805726567       -10.767395074845922        635.71065438345431     
  -2467.8831770229854       -11.300504805658306        633.52076717759132     
  -2397.5027509236938       -12.094432941362584        630.99735336294293     
  -2327.0666290316467       -13.252268671334832        628.07793974560173     
  -2256.6057381031414       -14.877101182952856        624.70005313158038     
  -1458.2559599958465       -33.850730842762914        1113.8789651422446     
  -1406.5357481924593       -35.994231710577480        1113.3434734311525     
  -1354.3738864723116       -38.022428768326336        1112.9583783533194     
  -1301.7548045702836       -39.883421132221940        1112.7057045031329     
  -1248.6629322212282       -41.525307918220904        1112.5674764750067     
  -1195.0826991597485       -42.896188241683944        1112.5257188634987     
  -1140.9985351204905       -43.944161218540387        1112.5624562630535     
  -1086.3948698382526       -44.617325964449151        1112.6597132680213     
  -1031.2561330477172       -44.863781595016462        1112.7995144728009     
  -1555.6261079749179       -33.236875851654474        1060.6914190120058     
  -1501.0895063764358       -35.384104175380799        1059.7415813863556     
  -1446.1783166088278       -37.436117286156502        1058.9286342438993     
  -1390.8807252866993       -39.353537232294343        1058.2243846229162     
  -1335.1849190256423       -41.096986066043428        1057.6006395618952     
  -1279.0790844405988       -42.627085837190691        1057.0292060990284     
  -1222.5514081465660       -43.904458595792050        1056.4818912728163     
  -1165.5900767587025       -44.889726392311786        1055.9305021216742     
  -1108.1832768924328       -45.543511277919549        1055.3468456836542     
  -1653.8368705715013       -32.165227816639401        1005.1905374050720     
  -1596.5555995503341       -34.296175879640089        1003.8449924825113     
  -1538.9936904751321       -36.373398888946213        1002.6107655693295     
  -1481.1404748805633       -38.361335293317154        1001.4541367221713     
  -1422.9852843006613       -40.224423539256009        1000.3413859980708     
  -1364.5174502702855       -41.927102076408516        999.23879345385546     
  -1305.7263043237617       -43.433809352769174        998.11263914633696     
  -1246.6011779952578       -44.708983815695262        996.92920313263255     
  -1187.1314028194774       -45.717063913617608        995.65476546936065     
  -1752.8141653746438       -30.613562014590798        947.39587122094576     
  -1692.8929516684188       -32.718124008796053        945.66660510830184     
  -1632.7985367500160       -34.827832181250812        944.01406549522437     
  -1572.5187851122153       -36.902234841556492        942.40369603132729     
  -1512.0415612477202       -38.900880298304173        940.80094036704145     
  -1451.3547296489039       -40.783316859774459        939.17124215213983     
  -1390.4461548089510       -42.509092836413572        937.48004503661673     
  -1329.3037012199591       -44.037756535131848        935.69279267069157     
  -1267.9152333748748       -45.328856265968625        933.77492870435253     
  -1852.4839099733631       -28.559653722372673        887.32697135931107     
  -1790.0604866853585       -30.637625748947357        885.21931765250247     
  -1727.5713841119714       -32.792975766478321        883.14782718712513     
  -1665.0003877428780       -34.971655406878313        881.08179778133035     
  -1602.3312830678328       -37.119616302991858        878.99052725247509     
  -1539.5478555766781       -39.182810087581345        876.84331341842983     
  -1476.6338907592353       -41.107188393370507        874.60945409703061     
  -1413.5731741053401       -42.838702852901235        872.25824710589302     
  -1350.3494911046964       -44.323305098832122        869.75899026292166     
  -1952.7720219565304       -25.981278216195392        825.00338871996473     
  -1888.0171285560607       -28.042358287533943        822.51602850370773     
  -1823.2907612396002       -30.262388247681770        820.02134381131384     
  -1758.5700145332755       -32.565016517187019        817.49717720270189     
  -1693.8319829625375       -34.873891514226102        814.92137123793486     
  -1629.0537610535773       -37.112661659409582        812.27176847717533     
  -1564.2124433322037       -39.204975372011347        809.52621148054754     
  -1499.2851243238720       -41.074481070610545        806.66254280799922     
  -1434.2488985549242       -42.644827175929720        803.65860501977647     
  -2053.6044189132267       -22.856210773092698        760.44467420236242     
  -1986.7218012350195       -24.919998810165794        757.56963605086491     
  -1919.9351968116000       -27.229628229052651        754.64390853318241     
  -1853.2123972441043       -29.677737700381613        751.65856952615661     
  -1786.5211941331218       -32.156965892328913        748.60469690692264     
  -1719.8293790796624       -34.559951475409321        745.47336855265917     
  -1653.1047436844947       -36.779333118485965        742.25566234031635     
  -1586.3150795480547       -38.707749490314484        738.94265614671508     
  -1519.4281782716898       -40.237839261299314        735.52542784921627     
  -2154.9070184323805       -19.162226669632787        693.67037870639354     
  -2086.1334286766451       -21.258224502637404        690.39303868256798     
  -2017.4832195065078       -23.688254313931907        687.02481451846063     
  -1948.9122676364498       -26.305238485191353        683.57470998247607     
  -1880.3764497808390       -28.962099397606721        680.05172884331932     
  -1811.8316426551532       -31.511759435991280        676.46487486943170     
  -1743.2337229731727       -33.807140979659266        672.82315182958962     
  -1674.5385674501470       -35.701166412940779        669.13556349215753     
  -1605.7020528008532       -37.046758118183618        665.41111362586651     
  -2256.6057381031414       -14.877101182952856        624.70005313158038     
  -2186.2109348363047       -17.044712553607724        620.99913478771487     
  -2115.9133580028711       -19.631825105767462        617.17335493304017     
  -2045.6543574706632       -22.442938398949991        613.25433380237894     
  -1975.3752831071006       -25.282551990654838        609.27369163033904     
  -1905.0174847798248       -27.955165440139695        605.26304865188627     
  -1834.5223123557917       -30.265278303960031        601.25402510159176     
  -1763.8311157028213       -32.017390141219607        597.27824121395599     
  -1692.8852446886067       -33.016000511030143        593.36731722408672     
  -1031.2561330477172       -44.863781595016462        1112.7995144728009     
  -975.71300953825926       -44.619088262828598        1113.1197941809387     
  -919.82179006015156       -43.570825989937333        1113.8399298818742     
  -863.45531328931395       -41.295123696299243        1115.0641109492531     
  -806.48641790188094       -37.368110301944398        1116.8965267563110     
  -748.78794257380264       -31.365914726878088        1119.4413666768000     
  -690.23272598087169       -22.864665890659751        1122.8028200842932     
  -630.69360679951444       -11.440492714529199        1127.0850763522490     
  -570.04342370529992        3.3304758829374634        1132.3923248540270     
  -1108.1832768924328       -45.543511277919549        1055.3468456836542     
  -1050.2697617274330       -45.757476216815633        1054.9272867593190     
  -991.71690547040339       -45.185354263020940        1054.9677866772199     
  -932.40582627621984       -43.430872599091060        1055.5895472686702     
  -872.21764230021074       -40.097758409507463        1056.9137703650742     
  -811.03347169723611       -34.789738877440726        1059.0616577975077     
  -748.73443262198543       -27.110541185150339        1062.1544113973366     
  -685.20164322984215       -16.663892517075084        1066.3132329959094     
  -620.31622167550483       -3.0535200554404582        1071.6593244244377     
  -1187.1314028194774       -45.717063913617608        995.65476546936065     
  -1127.0382604118488       -46.293704340557895        994.54071011395706     
  -1065.9792493832654       -46.061949775204937        993.94233254831522     
  -1003.8480267615799       -44.667323643541181        993.98178011602681     
  -940.53824957411609       -41.755349369656358        994.78120016103344     
  -875.94357484875968       -36.971550380319627        996.46274002698726     
  -809.95765961295149       -29.961450100187506        999.14854705769005     
  -742.47416089402043       -20.370571954032670        1002.9607685970140     
  -673.38673571986658       -7.8444393675177935        1008.0215519886199     
  -1267.9152333748748       -45.328856265968625        933.77492870435253     
  -1205.7886749692748       -46.158823447855752        932.02543662173559     
  -1142.3803435662483       -46.132069057800152        930.83768808167576     
  -1077.6006944597673       -44.950110743140385        930.31870899484102     
  -1011.3601829434738       -42.314466148659847        930.57552527257349     
  -943.56926431129955       -37.926652921273728        931.71516282558230     
  -874.13839385678125       -31.488188705820164        933.84464756517445     
  -802.97802687415094       -22.700591149801710        937.07100540223723     
  -729.99861865690502       -11.265377898291547        941.50126224802364     
  -1350.3494911046964       -44.323305098832122        869.75899026292166     
  -1286.2911747773658       -45.283884351475024        867.44683865940453     
  -1220.6917097865462       -45.327168641562082        865.72797386370655     
  -1153.4826090851977       -44.224867812367506        864.67823340890959     
  -1084.5953856276649       -41.748691711746915        864.37345482798071     
  -1013.9615523671164       -37.670350183576943        864.88947565389674     
  -941.51262225768824       -31.761553074890685        866.30213341990111     
  -867.18010825251849       -23.794010229461037        868.68726565900567     
  -790.89552330558013       -13.539431494059414        872.12070990410791     
  -1434.2488985549242       -42.644827175929720        803.65860501977647     
  -1368.3159292139906       -43.599937865664344        800.87028860372754     
  -1300.6848698108397       -43.578705054520697        798.68731048121106     
  -1231.3125503526703       -42.437228766472288        797.13825286189456     
  -1160.1558008464672       -40.031609024857289        796.25169795570866     
  -1087.1714512993012       -36.217945853234824        796.05622797247247     
  -1012.3163317186551       -30.852339276486418        796.58042512194390     
  -935.54727211131467       -23.790889317432118        797.85287161392637     
  -856.82110248450022       -14.889696000061065        799.90214965844837     
  -1519.4281782716898       -40.237839261299314        735.52542784921627     
  -1451.6331076567378       -41.038034803176970        732.36115883155014     
  -1382.1313454066897       -40.818134828144252        729.78981852070081     
  -1310.9092979762436       -39.532827518348086        727.77666685772454     
  -1237.9533718193907       -37.136801053496242        726.28696378420887     
  -1163.2499733905347       -33.584743615419484        725.28596924167971     
  -1086.7855091436086       -28.831343383408012        724.73894317123870     
  -1008.5463855325952       -22.831288538106548        724.61114551412993     
  -928.51900901243425       -15.539267261942825        724.86783621207110     
  -1605.7020528008532       -37.046758118183618        665.41111362586651     
  -1536.0128794830346       -37.529225976753935        661.98482171949490     
  -1464.8026583411922       -36.976914492443882        659.10961856845358     
  -1392.0916316708528       -35.457297983450189        656.67137490004666     
  -1317.9000417662919       -33.037850764278289        654.55596144211290     
  -1242.2481309231066       -29.786047153466995        652.64924892202680     
  -1165.1561414355192       -25.769361464986957        650.83710806783279     
  -1086.6443155988384       -21.055268016691571        649.00540960685771     
  -1006.7328957080565       -15.711241125132005        647.04002426680518     
  -1692.8852446886067       -33.016000511030143        593.36731722408672     
  -1621.2254140708237       -33.004562200383248        589.80664964466871     
  -1548.4703303816314       -31.986500577905304        586.72083121137325     
  -1474.6783311507363       -30.156274075743966        583.90027649270269     
  -1399.9077539069140       -27.708341123213359        581.13540005731033     
  -1324.2169361799536       -24.837160152846138        578.21661647419046     
  -1247.6642154984902       -21.737189593750713        574.93434031176230     
  -1170.3079293922212       -18.602887878036711        571.07898613872521     
  -1092.2064153901758       -15.628713435523366        566.44096852390476     
  -570.04342370529992        3.3304758829374634        1132.3923248540270     
  -510.66192515181302        21.265714885099783        1138.2572331371139     
  -454.73675826852866        42.823037022519372        1144.1117927419023     
  -401.85260974584224        69.386819993514365        1149.9091790328605     
  -351.59416627367750        102.34144149873623        1155.6025673739755     
  -303.54611454248527        143.07127923674685        1161.1451331290705     
  -257.29314124234975        192.96071090678171        1166.4900516625728     
  -212.41993306355721        253.39411420809748        1171.5904983383602     
  -168.51117669610204        325.75586684074062        1176.3996485205207     
  -620.31622167550483       -3.0535200554404582        1071.6593244244377     
  -556.65799332368908        13.501103742316360        1077.9417770202278     
  -496.55113489308258        33.632668572616382        1084.8202823794877     
  -439.49329157010169        59.015690480704592        1092.2819427216639     
  -384.98210854117542        91.324685511923946        1100.3138602665083     
  -332.51523099258776        132.23416971178236        1108.9031372331635     
  -281.59030411122365        183.41865912427377        1118.0368758413549     
  -231.70497308299872        246.55266979611062        1127.7021783106813     
  -182.35688309424700        323.31071777278873        1137.8861468605528     
  -673.38673571986658       -7.8444393675177935        1008.0215519886199     
  -605.43359795082938        7.3528169194628106        1014.3373837409692     
  -541.04338817004259        25.988977091235597        1021.8592042722034     
  -479.64540348877449        49.966384110406096        1030.6258417905804     
  -420.66894101878614        81.187380938203063        1040.6761245042460     
  -363.54329787159611        121.55431053562836        1052.0488806214805     
  -307.69777115827696        172.96951586582230        1064.7829383506103     
  -252.56165799083655        237.33533988890795        1078.9171258999211     
  -197.56425548035804        316.55412556781926        1094.4902714776240     
  -729.99861865690502       -11.265377898291547        941.50126224802364     
  -658.00670303415268        2.5154652156599866        947.43185130871552     
  -589.45493861585771        19.519536423061055        955.16009073711575     
  -523.72296786724155        41.814694172848959        964.79433386342782     
  -460.19043325397581        71.468796913095360        976.44293401817697     
  -398.23697724175156        110.54970309139361        990.21424453159614     
  -337.24224229562492        161.12527115727070        1006.2166187337980     
  -276.58587088138609        225.26335955849657        1024.5584099554640     
  -215.64750546452018        305.03182674316230        1045.3479715269420     
  -790.89552330558013       -13.539431494059414        872.12070990410791     
  -715.39527257445525       -1.3163405685210705        877.21297773294475     
  -643.02720674661214        13.851920414087118        884.65447409120713     
  -573.14000707044340        34.136413959178384        894.64087656477773     
  -505.08235479436928        61.708202571928382        907.36786273931239     
  -438.20293116625214        98.738348759562086        923.03111020058498     
  -371.85041743516996        147.39791502529198        941.82629653440972     
  -305.37349484912528        209.85796387574646        963.94909932647317     
  -238.12084465635891        288.28955781644493        989.59519616251384     
  -856.82110248450022       -14.889696000061065        799.90214965844837     
  -778.61727057274902       -4.4479896342637630        803.66856102282622     
  -703.00161307919029        8.6137029076014073        810.27388665136596     
  -629.31054346370161        26.507336759416688        820.01892751857895     
  -556.88047518687483        51.444867052481015        833.20448459871454     
  -485.04782170841497        85.638248920985120        850.13135886653970     
  -413.14899648891935        131.29943749662388        871.10035129613163     
  -340.52041298822462        190.64038791293021        896.41226286226561     
  -266.49848466623689        265.87305530373567        926.36789453923666     
  -928.51900901243425       -15.539267261942825        724.86783621207110     
  -848.69066102976092       -7.1848711812914416        726.78639918786098     
  -770.61957812944911        3.4324577503849980        731.94986073466350     
  -693.64859941247312        18.503255863166089        740.78194434904572     
  -617.12056397946799        40.218059488320364        753.70637352744791     
  -540.37831093142700        70.767404955883563        771.14687176634766     
  -462.76467936898598        112.34182859692814        793.52716256236658     
  -383.62250839293512        167.13186674215461        821.27096941206560     
  -302.29463710403098        237.32805572246366        854.80201581163237     
  -1006.7328957080565       -15.711241125132005        647.04002426680518     
  -926.63340794640260       -9.8323744097446024        646.55429023744784     
  -847.12252241412466       -2.0642412134521919        649.61392865808693     
  -767.56819728165340        9.6999645622764774        656.78338468038362     
  -687.33839071939872        27.567049016238940        668.62710345635230     
  -605.80106089773631        53.643818247200301        685.70953013792871     
  -522.32416598718623        90.037078353399949        708.59510987687122     
  -436.27566415759702        138.85363543487384        737.84828782500870     
  -347.02351357993189        202.20029558903337        774.03350913437976     
  -1092.2064153901758       -15.628713435523366        566.44096852390476     
  -1013.4634753235855       -12.695888520230653        562.96003218089209     
  -933.75186644931466       -8.2488201384009585        563.19762273853223     
  -852.48335943671816      -0.32674385404425266        567.87670613671673     
  -769.06972495434616        13.031104770993096        577.72024831659792     
  -682.92273367101075        33.785490173977735        593.45121521853036     
  -593.45415625547912        63.897176792082718        615.79257278304556     
  -500.07576337673743        105.32692906231168        645.46728695079639     
  -402.19932570350863        160.03551142209716        683.19832366215905     
  -168.51117669610204        325.75586684074062        1176.3996485205207     
  -127.28144533672852        410.41315503969702        1178.5414548048352     
  -90.944071096932305        506.07063532360928        1175.3281639142456     
  -59.831879040786134        611.61889081197808        1166.2453924039105     
  -34.277694232333857        725.94850462519844        1150.7787568291649     
  -14.614341735489631        847.95005988325386        1128.4138737447909     
  -1.1746466139395011        976.51413970728561        1098.6363597060329     
   5.7085660681497075        1110.5313272171225        1060.9318312683063     
   5.7024712473089494        1248.8922055337789        1014.7859049861116     
  -182.35688309424700        323.31071777278873        1137.8861468605528     
  -135.99160415065575        413.98373966674296        1145.7072494969113     
  -95.712994590399234        516.66837764869092        1147.8723126108957     
  -62.006132099373161        629.74770609871155        1143.7509759994034     
  -35.356094363692989        751.60479939650020        1132.7128794589730     
  -16.247959069364413        880.62273192203520        1114.1276627864841     
  -5.1668039025360031        1015.1845780548500        1087.3649657784179     
  -2.5977065493673308        1153.6734121749728        1051.7944282319272     
  -9.0257446956457557        1294.4723086623094        1006.7856899428601     
  -197.56425548035804        316.55412556781926        1094.4902714776240     
  -146.06794654526777        410.81359277517583        1108.0472825314289     
  -102.14020950407786        517.95114338202984        1115.6390775918651     
  -66.267984570538346        636.34364334323845        1116.5635014910220     
  -38.938211957410374        764.36795861531652        1110.1183990616778     
  -20.637831878541931        900.40095515288613        1095.6016151359368     
  -11.853784546809379        1042.8194989124395        1072.3109945463282     
  -13.073010175975753        1190.0004558496635        1039.5443821252313     
  -24.782448978744355        1340.3206919203865        996.59962270489348     
  -215.64750546452018        305.03182674316230        1045.3479715269420     
  -158.85446846377360        400.49951558311272        1064.5872064237633     
  -111.27326241820057        509.60466854939421        1077.7192698430295     
  -73.242299973558715        631.21924348948005        1084.0143934473363     
  -45.099993775079383        764.21519825194639        1082.7428088979027     
  -27.184756468982414        907.46449068382560        1073.1747478575744     
  -19.835000700213300        1059.8390786338412        1054.5804419880519     
  -23.389139114962063        1220.2109199501929        1026.2301229519819     
  -38.185584358450853        1387.4519724799870        987.39402241073788     
  -238.12084465635891        288.28955781644493        989.59519616251384     
  -175.69516585013045        382.63830930720144        1014.3526736886649     
  -124.15969991283129        491.31468917703501        1033.2037003512216     
  -83.553941827961751        614.18704748144978        1045.4350764361393     
  -53.917386577990669        751.12373427836417        1050.3336022291717     
  -35.289529146135976        901.99309962388293        1047.1860780162826     
  -27.709864515580819        1066.6634935739221        1035.2793040831166     
  -31.217887669405286        1245.0032661852504        1013.9000807162224     
  -45.853093590238529        1436.8807675153439        982.33520820033698     
  -266.49848466623689        265.87305530373567        926.36789453923666     
  -197.93403464803697        356.82677516398604        956.36933684135829     
  -141.84706856832423        462.76694129086326        981.18318010238227     
  -97.827773652894678        585.05959626422248        1000.1569750262242     
  -65.466337127010007        725.07078266690269        1012.6382723161701     
  -44.352946216280827        884.16654308017746        1017.9746226759562     
  -34.077788146286139        1063.7129200854222        1015.5135768095441     
  -34.231050142356651        1265.0759562648716        1004.6026854202726     
  -44.402919430285181        1489.6216941993976        984.58949921203657     
  -302.29463710403098        237.32805572246366        854.80201581163237     
  -226.91507080116207        322.66171437095988        889.66284839705099     
  -165.38291496491448        423.64716091574439        920.74852008331447     
  -116.68865896797777        543.64943078067608        947.51151378564941     
  -79.822792183583033        686.03355938848574        969.40431241985857     
  -53.775803984969059        854.16458216194746        985.87939890154735     
  -37.538183745126162        1051.4075345235701        996.38925614568950     
  -30.100420837391653        1281.1274518971791        1000.3863670687695     
  -30.453004634596027        1546.6893697049675        997.32321458532465     
  -347.02351357993189        202.20029558903337        774.03350913437976     
  -263.98227025350218        279.73992814421632        813.25886087079459     
  -195.81478568245777        373.64108407936800        850.99053127983677     
  -140.76146129229767        489.76909197640077        886.83011728295548     
  -97.062698509046612        633.98928041497277        920.37921580154034     
  -62.958898758137479        812.16697797689267        951.23942375708941     
  -36.690463465646246        1030.1675132421983        979.01233807112260     
  -16.497794057392468        1293.8562147915175        1003.2995556647332     
 -0.62129195890224764        1609.0984112059891        1023.7026734597811     
  -402.19932570350863        160.03551142209716        683.19832366215905     
  -310.47962894887826        227.65821770034367        726.18302677766860     
  -234.19022730174845        312.43444680603523        771.00002467871286     
  -170.67104414564230        423.23112079386158        817.44421008631230     
  -117.26200286440078        568.91516171823923        865.31047572211503     
  -71.303026841728183        758.35349163314618        914.39371430723918     
  -30.134039460737370        1000.4130325946098        964.48881856356161     
   8.9050358943925403        1303.9607066568435        1015.3906812119011     
   48.474275840591474        1677.8634358749055        1066.8941949739360     
  -4500.7999993184148      -0.63220628313592897        655.37368476017252     
  -4430.2135478104701      -0.46889608330661758        655.45516761405270     
  -4359.7311095794948      -0.43291308988091259        655.47472159110657     
  -4289.3452080116740      -0.49933525631058728        655.43539079582456     
  -4219.0483664926032      -0.64324053421887584        655.34021933226677     
  -4148.8331084087386      -0.83970687761507179        655.19225130507027     
  -4078.6919571452577       -1.0638122387790645        654.99453081878141     
  -4008.6174360886025       -1.2906345709106972        654.75010197768358     
  -3938.6020686240950       -1.4952518266291008        654.46200888650219     
  -4688.2911776155825      -0.67815979971965135        583.76412972495768     
  -4614.8099955870039      -0.37332911734847585        583.80775891956262     
  -4541.4417210750444      -0.26871702493872363        583.79106017695415     
  -4468.1730381471161      -0.31993708022719147        583.72072834359733     
  -4394.9906308702675      -0.48260284003958986        583.60345826589833     
  -4321.8811833125510      -0.71232786493374078        583.44594479007287     
  -4248.8313795410777      -0.96472571153117315        583.25488276281806     
  -4175.8279036235344       -1.1954099389347448        583.03696703038202     
  -4102.8574396274153       -1.3599941054299052        582.79889243937612     
  -4875.7029576759724      -0.67588090594836103        509.27187603957765     
  -4799.3736968910689      -0.29805889576664413        509.25378014608486     
  -4723.1476133832912      -0.15665423709651805        509.18667106072814     
  -4647.0081561648540      -0.19649697138470401        509.07945188197567     
  -4570.9387742489134      -0.36241714161269556        508.94102570840317     
  -4494.9229166483783      -0.59924479074970805        508.78029563891863     
  -4418.9440323755134      -0.85180996083863647        508.60616477193287     
  -4342.9855704435276       -1.0649426942502487        508.42753620625683     
  -4267.0309798651506       -1.1834730349955862        508.25331304047654     
  -5063.0435928502920      -0.62784560754266749        431.86895467990939     
  -4983.8982145977898      -0.24115428051391063        431.77874499123396     
  -4904.8317803035879       -9.1622865638100848E-002   431.65751235403496     
  -4825.8271081888106      -0.12197876753225501        431.51492562911557     
  -4746.8670164758132      -0.27494939301800514        431.36065367783607     
  -4667.9343233858272      -0.49326214691063797        431.20436536104120     
  -4589.0118471404576      -0.71964443426804792        431.05572954007783     
  -4510.0824059615079      -0.89682366130068658        430.92441507569350     
  -4431.1288180707443      -0.96752723383383454        430.82009082900754     
  -5250.3213364887406      -0.53652990984232929        351.52739662161980     
  -5168.3771115826175      -0.20068413413741837        351.36816715290780     
  -5086.4772156360268       -6.8521050858862509E-002   351.19954216907735     
  -5004.6064403431110       -8.9346306211609772E-002   351.03051380421647     
  -4922.7495773979317      -0.21246554775780169        350.87007419212870     
  -4840.8914184946407      -0.38718442305048484        350.72721546634671     
  -4759.0167553275887      -0.56280857930141792        350.61092976061138     
  -4677.1103795907038      -0.68864366355160200        350.53020920874241     
  -4595.1570829783504      -0.71399532332861781        350.49404594434452     
  -5437.5444419416381      -0.40440981768847450        268.21923284133607     
  -5352.8039507209305      -0.17471731902105603        268.00756032862546     
  -5268.0669131807881       -8.2246932392990857E-002   267.80871861782333     
  -5183.3226987510252       -9.1563423251045606E-002   267.62958062594703     
  -5098.5606768623520      -0.16723156055559230        267.47701926918876     
  -5013.7702169446402      -0.27381611143664486        267.35790746414710     
  -4928.9406884284908      -0.37588184370883937        267.27911812744884     
  -4844.0614607439620      -0.43799352486439602        267.24752417576946     
  -4759.1219033213511      -0.42471592186848284        267.26999852558970     
  -5624.7211625590107      -0.23396133572123290        181.91649431393765     
  -5537.1722948884044      -0.16132269890681528        181.68243821620860     
  -5449.5838667374028      -0.12769864958568178        181.48099981264218     
  -5361.9524295370084      -0.12159395736443912        181.31549031301739     
  -5274.2745347161899      -0.13151338537772972        181.18922092695988     
  -5186.5467337057426      -0.14596170275376608        181.10550286430220     
  -5098.7655779353781      -0.15344367558441263        181.06764733445993     
  -5010.9276188345193      -0.14246406893016683        181.07896554700068     
  -4923.0294078341740      -0.10152765195698521        181.14276871211965     
  -5811.8597516919499       -2.7660470245791657E-002   92.591212016018815     
  -5721.4757069600455      -0.15856913494235414        92.378314513275370     
  -5631.0110701067943      -0.19977434580664521        92.212343865223687     
  -5540.4721788241359      -0.17240174354878945        92.091607084260986     
  -5449.8653708066631       -9.7576976221262157E-002   92.014411183624148     
  -5359.1969837469760        3.5743134710628510E-003   91.979063176281741     
  -5268.4733553390388       0.10992648005776573        91.983870075217013     
  -5177.7008232757980       0.20035387919733694        92.027138893002316     
  -5086.8857252502357       0.25373086790182242        92.107176643306957     
  -5998.9684626900589       0.21201677460635437       0.21541692301896953     
  -5905.7077498122399      -0.16452549177392939        8.0702917943934679E-002
  -5812.3315170876494      -0.29337215696045860       -1.2911127354917342E-003
  -5718.8584927371239      -0.23695062159231384       -3.8704841576282366E-002
  -5625.3074049806928       -5.7688286879510997E-002  -3.9677942877483864E-002
  -5531.6969820394752       0.18198744277060541       -1.2350090316928674E-002
  -5438.0459521321172       0.41964917242057709        3.5139043059534449E-002
  -5344.3730434801901       0.59286949668603484        9.4649783700252052E-002
  -5250.6969843038905       0.63922101596449465       0.15804245783501636     
  -3938.6020686240950       -1.4952518266291008        654.46200888650219     
  -3868.5735139968424       -1.6417149166002218        654.15280771965797     
  -3798.4705508359184       -1.7311393663994750        653.83496236854853     
  -3728.3023816042487       -1.7942000523464685        653.49637851279931     
  -3658.0782087644147       -1.8615718495441342        653.12496183212147     
  -3587.8072347794205       -1.9639296351165285        652.70861800584260     
  -3517.4986621119510       -2.1319482842989146        652.23525271361996     
  -3447.1616932247020       -2.3963026729059038        651.69277163495326     
  -3376.8055305806329       -2.7876676772127666        651.06908044955480     
  -4102.8574396274153       -1.3599941054299052        582.79889243937612     
  -4029.8711112919036       -1.4169297715991434        582.55267656440640     
  -3956.8378525981639       -1.3840359715495651        582.29507073335719     
  -3883.7710629770127       -1.3059774743892376        582.00987042186307     
  -3810.6841418589706       -1.2274190485566123        581.68087110575880     
  -3737.5904886755416       -1.1930254658266222        581.29186826057639     
  -3664.5035028568327       -1.2474614931995802        580.82665736244905     
  -3591.4365838341905       -1.4353919018014949        580.26903388692187     
  -3518.4031310381488       -1.8014814599737292        579.60279330968945     
  -4267.0309798651506       -1.1834730349955862        508.25331304047654     
  -4191.0649528310705       -1.1686969311022040        508.07975783633503     
  -4115.0934030092767       -1.0526485893021800        507.88527591274601     
  -4039.1316116276012      -0.88626543623263387        507.65198450432410     
  -3963.1948599150105      -0.72048490168072021        507.36200084537973     
  -3887.2984290997729      -0.60624441280447172        506.99744217063380     
  -3811.4576004097162      -0.59448139589039783        506.54042571454391     
  -3735.6876550736920      -0.73613328055512284        505.97306871131423     
  -3660.0038743196023       -1.0821374930508227        505.27748839565965     
  -4431.1288180707443      -0.96752723383383454        430.82009082900754     
  -4352.1739131361701      -0.90267875010681564        430.72091760564456     
  -4273.2618739149921      -0.74437877265950192        430.58719094095534     
  -4194.4075482622638      -0.54212015190273632        430.40178179043579     
  -4115.6257840335838      -0.34539573957204084        430.14756110983222     
  -4036.9314290839020      -0.20369838560009157        429.80739985494830     
  -3958.3393312689204      -0.16652094217943159        429.36416898167869     
  -3879.8643384435500      -0.28335625927411456        428.80073944552061     
  -3801.5212984630666      -0.60369718766969527        428.09998220223758     
  -4595.1570829783504      -0.71399532332861781        350.49404594434452     
  -4513.2168667292808      -0.62453758573224150        350.46302194333811     
  -4431.3679371613489      -0.46662807558345776        350.38242885227129     
  -4349.6223935859089      -0.28059783084904666        350.23832331045270     
  -4267.9923353147669      -0.10677789067221966        350.01676195758165     
  -4186.4898616596629        1.4500705573254891E-002   349.70380143283705     
  -4105.1270719321183        4.2906919886036121E-002   349.28549837600713     
  -4023.9160654439711       -6.1890287736559912E-002   348.74790942660206     
  -3942.8689415068930      -0.34022195565239599        348.07709122390702     
  -4759.1219033213511      -0.42471592186848284        267.26999852558970     
  -4674.2126881326321      -0.33993579483171743        267.29293691989028     
  -4589.4362645945121      -0.22679805240431961        267.25260268098583     
  -4504.7996683042629      -0.10875468543440547        267.14067009475281     
  -4420.3099348596725       -9.2576864747115906E-003   266.94881344688332     
  -4335.9740998585203        4.8240952395190106E-002   266.66870702334973     
  -4251.7991988979311        4.0289239280809852E-002   266.29202510966587     
  -4167.7922675755945       -5.6564816684613106E-002   265.81044199182554     
  -4083.9603414892927      -0.26577320859655629        265.21563195551516     
  -4923.0294078341740      -0.10152765195698521        181.14276871211965     
  -4835.1802518683708       -5.4535734367846089E-002   181.19752860582287     
  -4747.4915280604482       -3.2290256594478706E-002   181.17932546140429     
  -4659.9628931231719       -3.3646927676727501E-002   181.08788317348933     
  -4572.5940037693854       -5.7461457429553775E-002   180.92292563663204     
  -4485.3845167122217      -0.10258955584117757        180.68417674542127     
  -4398.3340886641372      -0.16788693140188116        180.37136039447401     
  -4311.4423763384975      -0.25220929533816161        179.98420047827804     
  -4224.7090364481410      -0.35441235690859685        179.52242089165398     
  -5086.8857252502357       0.25373086790182242        92.107176643306957     
  -4996.1384324585006       0.22600023956988480        92.163663072083551     
  -4905.5583994050457       0.10949375824770868        92.144210228047669     
  -4815.1355887478367       -6.2330768720130436E-002   92.059023577195660     
  -4724.8599631443149      -0.25601553314572811        91.918308585106132     
  -4634.7214852522247      -0.43810272711311882        91.732270718504495     
  -4544.7101177294062      -0.57513454371314765        91.511115442594402     
  -4454.8158232335190      -0.63365317538296040        91.265048223379495     
  -4365.0285644221030      -0.58020081336781004        91.004274527129724     
  -5250.6969843038905       0.63922101596449465       0.15804245783501636     
  -5157.1061044248345       0.49600977099339616       0.17820638870013750     
  -5063.6615504745196       0.19115243756914424       0.12887001480662241     
  -4970.3412758840841      -0.20186242088220752        3.3152335939664740E-002
  -4877.1232340856104      -0.60954624490273090       -8.5827648408169713E-002
  -4783.9853785109153      -0.95841047360204357      -0.20495093829623040     
  -4690.9056625917210       -1.1749665467120849      -0.30109853409167314     
  -4597.8620397605227       -1.1857259052831068      -0.35115143551742672     
  -4504.8324634492128      -0.91719998923599633      -0.33199064350359292     
  -3376.8055305806329       -2.7876676772127666        651.06908044955480     
  -3306.5212544814831       -3.3494847200556706        650.34385727122640     
  -3236.3843890037624       -4.0733411397725376        649.50755071889569     
  -3166.3808022715898       -4.9121306836166241        648.56422222901392     
  -3096.4963624093607       -5.8187470992299950        647.51793323822767     
  -3026.7169375415688       -6.7460841350962255        646.37274518339120     
  -2957.0283957923907       -7.6470355384792583        645.13271950104433     
  -2887.4166052861965       -8.4744950573829101        643.80191762758182     
  -2817.8674341472242       -9.1813564388240820        642.38440100002572     
  -3518.4031310381488       -1.8014814599737292        579.60279330968945     
  -3445.4646541031616       -2.3874311295248845        578.82251113959421     
  -3372.6597217362942       -3.1584721140213787        577.94101688577280     
  -3299.9673219784108       -4.0445645497018177        576.96948702491477     
  -3227.3664428699331       -4.9756685713155093        575.91909803381225     
  -3154.8360724515192       -5.8817443143900618        574.80102638874257     
  -3082.3551987633400       -6.6927519130173323        573.62644856661211     
  -3009.9028098464405       -7.3386515033412252        572.40654104411703     
  -2937.4578937412116       -7.7494032208425097        571.15248029765587     
  -3660.0038743196023       -1.0821374930508227        505.27748839565965     
  -3584.4257972936757       -1.6647717939843005        504.46913263872545     
  -3508.9466725345569       -2.4286785852839330        503.58457366097258     
  -3433.5423453602648       -3.2933422601677194        502.63761522176986     
  -3358.1886610884412       -4.1782472110237450        501.64206107995642     
  -3282.8614650369850       -5.0028778309449535        500.61171499474170     
  -3207.5366025237777       -5.6867185123112449        499.56038072523194     
  -3132.1899188667085       -6.1492536485375240        498.50186203038112     
  -3056.7972593832933       -6.3099676312476731        497.44996266938858     
  -3801.5212984630666      -0.60369718766969527        428.09998220223758     
  -3723.2852654793342       -1.1456811420950999        427.30066180958505     
  -3645.1056883767246       -1.8420946464223107        426.46092437715123     
  -3566.9590071118510       -2.6144042221624204        425.59271318917877     
  -3488.8216616410637       -3.3840763904179312        424.70797152957005     
  -3410.6700919201685       -4.0725776711465187        423.81864268195602     
  -3332.4807379056156       -4.6013745853026649        422.93666993075504     
  -3254.2300395532898       -4.8919336526128063        422.07399655989877     
  -3175.8944368195325       -4.8657213945509739        421.24256585304778     
  -3942.8689415068930      -0.34022195565239599        348.07709122390702     
  -3861.9236400858003      -0.79433360059692859        347.33403869320694     
  -3780.9972162413360       -1.3568543911876532        346.59277236731907     
  -3700.0704419291260       -1.9636908462491647        345.85888729748058     
  -3619.1240891044690       -2.5507494834203044        345.13797853516701     
  -3538.1389297234327       -3.0539368228758121        344.43564113145766     
  -3457.0957357411512       -3.4091593817061039        343.75747013782768     
  -3375.9752791132428       -3.5523236789049406        343.10906060553657     
  -3294.7583317956419       -3.4193362339701707        342.49600758587337     
  -4083.9603414892927      -0.26577320859655629        265.21563195551516     
  -4000.2215025398095      -0.57490359892403831        264.58620333072957     
  -3916.4817031068051      -0.93109191332837327        264.00282096406352     
  -3832.7297845066023       -1.2971425391356206        263.46024391658580     
  -3748.9545880552078       -1.6358598628619347        262.95323124949130     
  -3665.1449550685957       -1.9100482714704867        262.47654202374770     
  -3581.2897268627030       -2.0825121516379568        262.02493530033200     
  -3497.3777447535949       -2.1160558896706334        261.59317014066426     
  -3413.3978500574963       -1.9734838732942990        261.17600560556446     
  -4224.7090364481410      -0.35441235690859685        179.52242089165398     
  -4138.0594342669474      -0.45156556363394884        179.07409576296072     
  -4051.4195959514627      -0.52294130558630059        178.71377350024920     
  -3964.7901695399792      -0.57069971039231859        178.42088941652190     
  -3878.1718030695979      -0.59700090151045515        178.17487882515874     
  -3791.5651445779531      -0.60400500444598038        177.95517703954414     
  -3704.9708421024311      -0.59387214396770105        177.74121937270743     
  -3618.3895436811281      -0.56876244687532562        177.51244113832902     
  -3531.8218973511866      -0.53083603692925863        177.24827764955879     
  -4365.0285644221030      -0.58020081336781004        91.004274527129724     
  -4275.3180166931024      -0.38849392195493238        90.814656031207818     
  -4185.6713417537958       -9.0536662442900706E-002   90.748333308816754     
  -4096.1047317238927       0.25969723259390776        90.764930167288995     
  -4006.6343787241526       0.60823402754749623        90.824070414835461     
  -3917.2764748734394       0.90109999241576588        90.885377859621755     
  -3828.0472122927581        1.0843213907869540        90.908476309164200     
  -3738.9627831025632        1.1039244878256795        90.852989571726212     
  -3650.0393794224610       0.90593555157010996        90.678541455368389     
  -4504.8324634492128      -0.91719998923599633      -0.33199064350359292     
  -4411.8778312450404      -0.34986310347449034      -0.17517582318763403     
  -4319.0973874923493       0.40798792279110785       0.12920372235098934     
  -4226.5266057543959        1.2381078789203457       0.51647253911733715     
  -4134.2009595949712        2.0222515523216771       0.92195517152473982     
  -4042.1559225774326        2.6421737315881728        1.2809761647842959     
  -3950.4269682660606        2.9796292024141167        1.5288600639084804     
  -3859.0495702245917        2.9163727528766685        1.6009314141753404     
  -3768.0592020171571        2.3341591685939420        1.4325147603238158     
  -2817.8674341472242       -9.1813564388240820        642.38440100002572     
  -2748.2293883602015       -9.7020844313096859        640.90388828906578     
  -2678.3810129976987       -10.071274075840734        639.33974174538935     
  -2608.3532348164144       -10.392014561223732        637.62948817479298     
  -2538.1769805726567       -10.767395074845922        635.71065438345431     
  -2467.8831770229854       -11.300504805658306        633.52076717759132     
  -2397.5027509236938       -12.094432941362584        630.99735336294293     
  -2327.0666290316467       -13.252268671334832        628.07793974560173     
  -2256.6057381031414       -14.877101182952856        624.70005313158038     
  -2937.4578937412116       -7.7494032208425097        571.15248029765587     
  -2864.9780378636101       -7.8792967205280320        569.85989659732820     
  -2792.4613786950858       -7.8177852092020430        568.46479815339728     
  -2719.9477278743902       -7.6975741497589070        566.88892835335128     
  -2647.4768970400628       -7.6513690038426603        565.05403058428499     
  -2575.0886978309049       -7.8118752340149058        562.88184823322126     
  -2502.8229418854617       -8.3117983024686737        560.29412468794771     
  -2430.7194408425830       -9.2838436711300574        557.21260333531370     
  -2358.8180063406662       -10.860716802415936        553.55902756265903     
  -3056.7972593832933       -6.3099676312476731        497.44996266938858     
  -2981.4484408784433       -6.1560070483816389        496.36426871714798     
  -2906.2774174068904       -5.8216426537738926        495.14027818669405     
  -2831.3262401616921       -5.4470450910019963        493.69566274483253     
  -2756.6369603358289       -5.1723850034852603        491.94809405818773     
  -2682.2516291222082       -5.1378330342558911        489.81524379347059     
  -2608.2122977143408       -5.4835598278086763        487.21478361737877     
  -2534.5610173049949       -6.3497360274061521        484.06438519642785     
  -2461.3398390872130       -7.8765322760896197        480.28172019759666     
  -3175.8944368195325       -4.8657213945509739        421.24256585304778     
  -3097.6959817749112       -4.5488307277375952        420.36402046448779     
  -3019.8975301320461       -4.1033667103350808        419.30224862146451     
  -2942.5367273109332       -3.6548140751034452        417.98256196856960     
  -2865.6512187314779       -3.3286575548943347        416.33027215011282     
  -2789.2786498130336       -3.2503818814300303        414.27069081011740     
  -2713.4566659754619       -3.5454717873197978        411.72912959338828     
  -2638.2229126388429       -4.3394120059085708        408.63090014413166     
  -2563.6150352222162       -5.7576872679502458        404.90131410653129     
  -3294.7583317956419       -3.4193362339701707        342.49600758587337     
  -3213.7760449221205       -3.0743830680705742        341.80616765492027     
  -3133.3901178690767       -2.6834776780601715        340.88677623411331     
  -3053.6271449551214       -2.3352677925124681        339.68249664396393     
  -2974.5137204988459       -2.1184011398390794        338.13799220472737     
  -2896.0764388190805       -2.1215254499026059        336.19792623619577     
  -2818.3418942344078       -2.4332884509419728        333.80696205890331     
  -2741.3366810635052       -3.1423378719746324        330.90976299320994     
  -2665.0873936251032       -4.3373214422013007        327.45099235893531     
  -3413.3978500574963       -1.9734838732942990        261.17600560556446     
  -3329.7440146903755       -1.7492793818514656        260.63772610422808     
  -3246.8235816165547       -1.5824958566117857        259.82992780108225     
  -3164.6454487261758       -1.5027929312018387        258.72833739048752     
  -3083.2185139097451       -1.5398302399638624        257.30868156665582     
  -3002.5516750566248       -1.7232674148555134        255.54668702391623     
  -2922.6538300563479       -2.0827640876456144        253.41808045653300     
  -2843.5338767992166       -2.6479798925967089        250.89858855878515     
  -2765.2007131751052       -3.4485744620302512        247.96393802509897     
  -3531.8218973511866      -0.53083603692925863        177.24827764955879     
  -3445.6552754488453      -0.59013497863520570        176.80571162818069     
  -3360.2663223731211      -0.82094154564765631        176.06777009865920     
  -3275.6395942577519       -1.1717761837928720        175.05295482731216     
  -3191.7596472361893       -1.5911593377036297        173.77976758083724     
  -3108.6110374413374       -2.0276114506875729        172.26671012572618     
  -3026.1783210067670       -2.4296529678133538        170.53228422848551     
  -2944.4460540658597       -2.7458043335578850        168.59499165594906     
  -2863.3987927517342       -2.9245859918088399        166.47333417457725     
  -3650.0393794224610       0.90593555157010996        90.678541455368389     
  -3561.5652115669163       0.38643483163514247        90.257140042615958     
  -3473.7867411372963      -0.41933504478242867        89.536369903315901     
  -3386.6575371813906       -1.3566042372426637        88.589219573927565     
  -3300.1311687494454       -2.2706029129906256        87.488677591805029     
  -3214.1612048892680       -3.0065612319881438        86.307732494172868     
  -3128.7012146510051       -3.4097093605880673        85.119372817797085     
  -3043.7047670826296       -3.3252774594033099        83.996587099775041     
  -2959.1254312340775       -2.5984956944632813        83.012363877315281     
  -3768.0592020171571        2.3341591685939420        1.4325147603238158     
  -3677.5292074150225        1.1638147359790310       0.93902716359649774     
  -3587.4532389075175      -0.39819665274285398       0.17179399142126006     
  -3497.7472331301069       -2.0716637824500594      -0.72999775001516976     
  -3408.3271267210102       -3.5763754467500348       -1.6271610551167159     
  -3319.1088563166140       -4.6321204342914370       -2.3805089183772883     
  -3230.0083585538769       -4.9586875348318245       -2.8508543334188805     
  -3140.9415700699642       -4.2758655380682740       -2.8990102948022658     
  -3051.8244275018487       -2.3034432349481904       -2.3857897969539463     
  -2256.6057381031414       -14.877101182952856        624.70005313158038     
  -2186.2109348363047       -17.044712553607724        620.99913478771487     
  -2115.9133580028711       -19.631825105767462        617.17335493304017     
  -2045.6543574706632       -22.442938398949991        613.25433380237894     
  -1975.3752831071006       -25.282551990654838        609.27369163033904     
  -1905.0174847798248       -27.955165440139695        605.26304865188627     
  -1834.5223123557917       -30.265278303960031        601.25402510159176     
  -1763.8311157028213       -32.017390141219607        597.27824121395599     
  -1692.8852446886067       -33.016000511030143        593.36731722408672     
  -2358.8180063406662       -10.860716802415936        553.55902756265903     
  -2287.0551955315923       -13.088986661382933        549.51687736764131     
  -2215.2948269073740       -15.772760013976381        545.35254211189738     
  -2143.4676041160333       -18.681049020395903        541.11212922911807     
  -2071.5042308064208       -21.582865843471495        536.84174615232257     
  -1999.3354106267157       -24.247222643655732        532.58750031479110     
  -1926.8918472251889       -26.443131582317505        528.39549915016823     
  -1854.1042442509979       -27.939604822463025        524.31185009164835     
  -1780.9033053518524       -28.505654523857402        520.38266057251849     
  -2461.3398390872130       -7.8765322760896197        480.28172019759666     
  -2388.3072971726747       -10.062633706502083        476.11100497965299     
  -2315.1475119753009       -12.658679791810187        471.87777180521653     
  -2241.7909141419282       -15.432772688103910        467.62166619654170     
  -2168.1679343192973       -18.153014551419801        463.38233367591101     
  -2094.2090031543448       -20.587507538125237        459.19941976548381     
  -2019.8445512940768       -22.504353804503694        455.11256998767965     
  -1945.0050093850170       -23.671655506077855        451.16142986464524     
  -1869.6208080742817       -23.857514799845035        447.38564491881630     
  -2563.6150352222162       -5.7576872679502458        404.90131410653129     
  -2489.2364796002666       -7.7464256402076899        400.84809434630819     
  -2414.6259486083982       -10.035945059980236        396.83691230045304     
  -2339.7239731094937       -12.428015069327216        392.88000247086308     
  -2264.4710839662421       -14.724405210948134        388.98959935888115     
  -2188.8078120411633       -16.726885026618106        385.17793746570658     
  -2112.6746881970876       -18.237224058927609        381.45725129337654     
  -2036.0122432967844       -19.057191850585809        377.83977534318382     
  -1958.7610082029537       -18.988557943981164        374.33774411665939     
  -2665.0873936251032       -4.3373214422013007        327.45099235893531     
  -2589.1119826551994       -5.9211344149045999        323.79472218978316     
  -2512.8846722084290       -7.6509164388470481        320.31783188589498     
  -2436.3664665805900       -9.3966818332617095        316.98419581854245     
  -2359.5183700676007       -11.028444917801039        313.75768835908099     
  -2282.3013869655324       -12.416220012909662        310.60218387815166     
  -2204.6765215702676       -13.430021438196604        307.48155674717145     
  -2126.6047781777975       -13.939863513448245        304.35968133724134     
  -2048.0471610840950       -13.815760558748821        301.20043201950455     
  -2765.2007131751052       -3.4485744620302512        247.96393802509897     
  -2687.2030461790137       -4.3675319837381039        245.01746523242028     
  -2609.0782181774125       -5.2499545497805684        242.40839884900797     
  -2530.8180801168169       -6.0686786484759523        240.03130400588338     
  -2452.4144829439001       -6.7965407683981311        237.78074583417583     
  -2373.8592776058745       -7.4063774004381457        235.55128946481764     
  -2295.1443150486421       -7.8710250313146162        233.23750002867368     
  -2216.2614462195015       -8.1633201516247027        230.73394265712446     
  -2137.2025220649584       -8.2560992496928520        227.93518248093673     
  -2863.3987927517342       -2.9245859918088399        166.47333417457725     
  -2782.7789100123782       -2.8663902983129219        164.58290019656616     
  -2702.3611219166187       -2.5794200117690025        163.19648147775504     
  -2622.1784992795069       -2.1739111825444297        162.11838479910722     
  -2542.2641129156768       -1.7600998589435903        161.15291694210157     
  -2462.6510336400024       -1.4482220910865635        160.10438468778995     
  -2383.3723322680089       -1.3485139302757716        158.77709481762065     
  -2304.4610796136790       -1.5712114232076146        156.97535411269871     
  -2225.9503464924287       -2.2265506214600919        154.50346935445359     
  -2959.1254312340775       -2.5984956944632813        83.012363877315281     
  -2875.1088139958133       -1.1984813093712319        82.557603804660545     
  -2791.8879188281699       0.61432655315479678        82.769948060185541     
  -2709.5474096303737        2.5577148952586413        83.342495964743549     
  -2628.1719503037589        4.3494707129356129        83.968346840558127     
  -2547.8462047476214        5.7073810077938560        84.340600009846412     
  -2468.6548368638296        6.3492327745227612        84.152354793731718     
  -2390.6825105518346        5.9928130142300233        83.096710514288830     
  -2314.0138897124616        4.3559087245002956        80.866766493448139     
  -3051.8244275018487       -2.3034432349481904       -2.3857897969539463     
  -2963.4619979718423       0.85542302630926770      -0.99184722050999419     
  -2876.8131443138282        4.5849245247450199        1.2166668835952541     
  -2792.0244967307540        8.3962939173783298        3.8006952689137918     
  -2709.2426854276641        11.800763853941930        6.3211806877602248     
  -2628.6143406056590        14.309566997339289        8.3390658926801837     
  -2550.2860924711049        15.433935993249065        9.4152936364582889     
  -2474.4045712251059        14.685103504729454        9.1108066719615088     
  -2401.1164070726227        11.574302181600956        6.9865477515574277     
  -1692.8852446886067       -33.016000511030143        593.36731722408672     
  -1621.2254140708237       -33.004562200383248        589.80664964466871     
  -1548.4703303816314       -31.986500577905304        586.72083121137325     
  -1474.6783311507363       -30.156274075743966        583.90027649270269     
  -1399.9077539069140       -27.708341123213359        581.13540005731033     
  -1324.2169361799536       -24.837160152846138        578.21661647419046     
  -1247.6642154984902       -21.737189593750713        574.93434031176230     
  -1170.3079293922212       -18.602887878036711        571.07898613872521     
  -1092.2064153901758       -15.628713435523366        566.44096852390476     
  -1780.9033053518524       -28.505654523857402        520.38266057251849     
  -1707.2445904515937       -27.996731492625599        516.81116557210748     
  -1633.1878112483132       -26.615459115389172        513.57849281415145     
  -1558.8198990506698       -24.651608421523235        510.39758884786886     
  -1484.2277851682209       -22.394950442560457        506.98140022277903     
  -1409.4984009102748       -20.135256209618319        503.04287348792604     
  -1334.7186775858379       -18.162296752910379        498.29495519307255     
  -1259.9755465044593       -16.765843103693840        492.45059188753726     
  -1185.3559389751183       -16.235666292486030        485.22273012036180     
  -1869.6208080742817       -23.857514799845035        447.38564491881630     
  -1794.1463469643763       -23.069039666064896        443.88442523584746     
  -1719.1439137509055       -21.672965062000458        440.52223172324523     
  -1644.7057712213962       -19.976833612770747        436.98658613565044     
  -1570.9241821624353       -18.288187940438036        432.96501022764545     
  -1497.8914093612575       -16.914570669158252        428.14502575377708     
  -1425.6997156049586       -16.163524422167143        422.21415446878831     
  -1354.4413636802321       -16.342591822246163        414.85991812704782     
  -1284.2086163743973       -17.759315493606891        405.76983848327637     
  -1958.7610082029537       -18.988557943981164        374.33774411665939     
  -1881.8539419461940       -18.198464219559014        370.94410016569475     
  -1806.3132042914790       -17.151388339618393        367.45305649724304     
  -1732.2131272006932       -16.095103509926048        363.57875329602945     
  -1659.6280426370499       -15.277382941298242        359.03533074634618     
  -1588.6322825624532       -14.945999840361083        353.53692903230603     
  -1519.3001789396008       -15.348727416030499        346.79768833848448     
  -1451.7060637312343       -16.733338877232086        338.53174884938306     
  -1385.9242688997711       -19.347607432248196        328.45325074937404     
  -2048.0471610840950       -13.815760558748821        301.20043201950455     
  -1970.2906337354455       -13.361982656622217        297.90786189128153     
  -1894.6702492713930       -13.043098867646904        294.27197569482593     
  -1821.2191465272081       -12.969571975593340        290.08557526903468     
  -1749.9704643390933       -13.251864768232394        285.14146245274594     
  -1680.9573415428224       -14.000440031118160        279.23243908424735     
  -1614.2129169741540       -15.325760550154996        272.15130700261727     
  -1549.7703294690532       -17.338289112198538        263.69086804660742     
  -1487.6627178629494       -20.148488501878717        253.64392405474865     
  -2137.2025220649584       -8.2560992496928520        227.93518248093673     
  -2059.3796806701102       -8.5365724788978241        224.69338194227814     
  -1984.1896150921389       -9.3404665661918216        220.87999787428058     
  -1911.6010087388750       -10.563392870889743        216.41853699475561     
  -1841.5825450167094       -12.100962747226163        211.23250602091622     
  -1774.1029073326415       -13.848787552405611        205.24541167058342     
  -1709.1307790930573       -15.702478640999516        198.38076066126607     
  -1646.6348437049996       -17.557647369894312        190.56205971062212     
  -1586.5837845756992       -19.309905095840634        181.71281553632065     
  -2225.9503464924287       -2.2265506214600919        154.50346935445359     
  -2149.0443410874605       -3.6992111858941144        151.21833184856331     
  -2074.8458681559250       -6.0358613575987192        147.17813159436440     
  -2003.2358933737100       -8.8397200560684723        142.48912341281897     
  -1934.0953824167098       -11.714006200802146        137.25756212495551     
  -1867.3053009603595       -14.261938710409481        131.58970255174233     
  -1802.7466146801380       -16.086736502661779        125.59179951421326     
  -1740.3002892513991       -16.791618495407533        119.37010783343673     
  -1679.8472903503689       -15.979803609704959        113.03088233046535     
  -2314.0138897124616        4.3559087245002956        80.866766493448139     
  -2239.2078733253288        1.1731237207067124        77.400383139701404     
  -2166.6135748642341       -3.1216531620598289        73.067385413528825     
  -2096.0009799702016       -7.7617073942570869        68.208819463583978     
  -2027.1400742874616       -11.980324456366475        63.165731438909425     
  -1959.8008434561350       -15.010789815818271        58.279167488912947     
  -1893.7532731192564       -16.086388949093362        53.890173761780240     
  -1828.7673489192778       -14.440407331144229        50.339796407006588     
  -1764.6130564978753       -9.3061304341800906        47.969081573622752     
  -2401.1164070726227        11.574302181600956        6.9865477515574277     
  -2329.7935357220308        6.1034547385277165        3.1572073457953422     
  -2259.4673016182255      -0.59021189828001752       -1.5512321096384298     
  -2189.7734480669060       -7.2925087478404294       -6.5108899128912645     
  -2120.3477183750551       -12.789246833597190       -11.093885362765448     
  -2050.8258558487482       -15.866237175526180       -14.672337757715322     
  -1980.8436037952367       -15.309290798387337       -16.618366396353377     
  -1910.0367055200295       -9.9042187195182123       -16.304090576474366     
  -1838.0409043303086        1.5631680361190092       -13.101629597602784     
  -1092.2064153901758       -15.628713435523366        566.44096852390476     
  -1013.4634753235855       -12.695888520230653        562.96003218089209     
  -933.75186644931466       -8.2488201384009585        563.19762273853223     
  -852.48335943671816      -0.32674385404425266        567.87670613671673     
  -769.06972495434616        13.031104770993096        577.72024831659792     
  -682.92273367101075        33.785490173977735        593.45121521853036     
  -593.45415625547912        63.897176792082718        615.79257278304556     
  -500.07576337673743        105.32692906231168        645.46728695079639     
  -402.19932570350863        160.03551142209716        683.19832366215905     
  -1185.3559389751183       -16.235666292486030        485.22273012036180     
  -1109.5297381180483       -16.131024202321385        478.86679873299761     
  -1030.7641035046975       -14.668762886938055        476.36195125440474     
  -948.54188112111933       -10.125035632866400        478.50672126557521     
  -862.34591695326367      -0.77599572733038258        486.09964234724094     
  -771.65905698721303        15.102203543349219        499.93924808050525     
  -675.96414720919870        39.233408891811678        520.82407204623416     
  -574.74403360505698        73.341467031148937        549.55264782557015     
  -467.48156216076239        119.15022467531637        586.92350899932353     
  -1284.2086163743973       -17.759315493606891        405.76983848327637     
  -1212.1737944045681       -19.591209082391231        397.48576349260708     
  -1135.1742123047261       -19.899098957830859        393.21812380114045     
  -1052.7996235868011       -17.315496826209369        393.65731520024423     
  -964.63978176281887       -10.472914394569443        399.49373348137533     
  -870.28444034468771        1.9961366310769790        411.41777443599489     
  -769.32335284449096        21.459144543625030        430.11983385579998     
  -661.34627277444224        49.283597635824719        456.29030753166074     
  -545.94295364590516        86.836984203099178        490.61959125574725     
  -1385.9242688997711       -19.347607432248196        328.45325074937404     
  -1317.9026928594212       -22.028557762516016        319.32672429528452     
  -1243.3613415475070       -22.853572959777637        314.37297466945768     
  -1162.0327082108545       -20.930963846730037        313.99055444418974     
  -1073.6492860955691       -15.369041243746267        318.57801619118004     
  -977.94356844860499       -5.2761159743971575        328.53391248243958     
  -874.64804851652661        10.239501140042535        344.25679589032057     
  -763.49521954575323        32.069499277783166        366.14521898663816     
  -644.21757478298582        61.105567616324919        394.59773434352064     
  -1487.6627178629494       -20.148488501878717        253.64392405474865     
  -1423.2234821598095       -22.395184846558436        244.89947897672124     
  -1351.7046399325550       -22.445929504900903        240.43333815121099     
  -1273.0172563705453       -20.004273107292533        240.16850550087088     
  -1187.0723966642711       -14.773766288776358        244.02798494858393     
  -1093.7811260042306       -6.4579596844421303        251.93478041726820     
  -993.05450957918106        5.2395960765522318        263.81189582934269     
  -884.80361257927711        20.615350359738613        279.58233510752734     
  -768.93950019537976        39.965752530020268        299.16910217499935     
  -1586.5837845756992       -19.309905095840634        181.71281553632065     
  -1524.6432109821199       -19.643204937345502        174.71382537246669     
  -1456.5832561571319       -17.589913198688123        172.00604853715834     
  -1382.5293894432873       -13.568261021566173        172.85323487388908     
  -1302.6070801824210       -7.9964795453223019        176.51913422610900     
  -1216.9417977160240       -1.2927999085075612        182.26749643758566     
  -1125.6590113869224        6.1245467465066099        189.36207135171560     
  -1028.8841905366846        13.837329280643189        197.06660881199778     
  -926.74280450666026        21.427316556322410        204.64485866191333     
  -1679.8472903503689       -15.979803609704959        113.03088233046535     
  -1618.6689280030830       -12.724732637198372        109.27956131827396     
  -1554.3763389206558       -7.1992686538068256        109.69794011870394     
  -1487.3452288065391      -0.65576400352034625        112.70680906641807     
  -1417.9513033618528        5.6534289755491614        116.72695849557981     
  -1346.5702682906112        10.475957937354792        120.17917874077305     
  -1273.5778292948380        12.559470541680298        121.48426013644711     
  -1199.3496920775408        10.651614445438724        119.06299301706734     
  -1124.2615623408610        3.5000373074745994        111.33616771673448     
  -1764.6130564978753       -9.3061304341800906        47.969081573622752     
  -1701.8076818997333      -0.59188255043648041        49.106484649606188     
  -1641.4630369217875        9.8122595204140453        54.115847187142883     
  -1584.2408958364501        19.700381536922578        60.391294581924029     
  -1530.8030329161145        26.866569257862864        65.326952229016086     
  -1481.8112224320421        29.104908445711601        66.316945524377942     
  -1437.9272386574266        24.209484856542645        60.755399862864650     
  -1399.8128558626256        9.9743842552539945        46.036440639985592     
  -1368.1298483211442       -15.806307602339018        19.554193251513091     
  -1838.0409043303086        1.5631680361190092       -13.101629597602784     
  -1770.5665213487637        17.803230720517945       -5.2956067978413559     
  -1714.2224988588382        34.530926714866155        5.8666040338634504     
  -1669.9925119115624        48.467339182947285        16.568757924042959     
  -1638.8602355578741        56.333551288242234        22.994609899008925     
  -1621.8093448467055        54.850646201027075        21.327914985349466     
  -1619.8235148284480        40.739707085858640        7.7524282096503851     
  -1633.8864205528660        10.721817111564178       -21.548095401639472     
  -1664.9817370717578       -38.481940561973374       -70.389900822031990     
  -402.19932570350863        160.03551142209716        683.19832366215905     
  -310.47962894887826        227.65821770034367        726.18302677766860     
  -234.19022730174845        312.43444680603523        771.00002467871286     
  -170.67104414564230        423.23112079386158        817.44421008631230     
  -117.26200286440078        568.91516171823923        865.31047572211503     
  -71.303026841728183        758.35349163314618        914.39371430723918     
  -30.134039460737370        1000.4130325946098        964.48881856356161     
   8.9050358943925403        1303.9607066568435        1015.3906812119011     
   48.474275840591474        1677.8634358749055        1066.8941949739360     
  -467.48156216076239        119.15022467531637        586.92350899932353     
  -365.94360885953580        176.22352781228273        631.74248575589979     
  -279.88578602650000        250.82943462310610        682.35891828091758     
  -205.77404415949263        354.74811011516641        738.88660515097945     
  -140.07433375772143        499.75971929054077        801.43934494241557     
  -79.252605319866404        697.64442715491487        870.13093623165855     
  -19.774809344349137        960.18239871256549        945.07517759516554     
   41.893103670415428        1299.1537989684298        1026.3858676097993     
   109.28518322529033        1726.3387929266100        1114.1768048514132     
  -545.94295364590516        86.836984203099178        490.61959125574725     
  -435.42939325817622        133.58718685857880        533.90582413112486     
  -339.59200575036118        197.43403374997061        586.91337656568760     
  -254.22616914607465        292.39293146570640        650.28199130777796     
  -175.12726146846134        432.47928659459097        724.65141110431875     
  -98.090660740453075        631.70850572732945        810.66137870339981     
  -18.911744985837231        904.09599545061076        908.95163685318346     
   66.614107772513762        1263.6571623565399        1020.1619283008800     
   162.69151951100321        1724.4074130315719        1144.9319957945236     
  -644.21757478298582        61.105567616324919        394.59773434352064     
  -528.55906003636255        96.862571473154219        432.69086444968320     
  -425.32742958806779        148.64268125061975        484.15058023570225     
  -329.85088939494858        232.01854375888669        550.34960693712230     
  -237.45764541519841        362.56280580464818        632.66066978926438     
  -143.47590360579207        555.84811419817493        732.45649402736831     
  -43.233869924128669        827.44711574738528        851.10980488660402     
   67.940249672190873        1192.9324572608457        989.99332760247387     
   194.71824922585375        1667.8767855476569        1150.4797874098351     
  -768.93950019537976        39.965752530020268        299.16910217499935     
  -654.95468708649014        63.163058286362400        328.11542925775814     
  -549.11060065274489        100.84981419186244        373.55770999345003     
  -446.47167519606944        169.47790590618334        437.80869042109560     
  -342.10234501694197        285.49921909464194        523.18111657960651     
  -231.06704441716116        465.36563941839097        631.98773450790816     
  -108.43020769724575        725.52905254132725        766.54129024560280     
   30.743730841022398        1082.4413441251861        929.15452983136572     
   191.39033689688563        1552.5543998338296        1122.1401993036131     
  -926.74280450666026        21.427316556322410        204.64485866191333     
  -824.23835229950487        29.602023934458032        220.19734110165146     
  -722.96006205845003        50.449869639319473        254.62194654134302     
  -617.91199683778996        100.62397682404455        311.37848014012553     
  -504.09821969221548        196.77746863921848        393.92674705680241     
  -376.52279367638073        355.56346823692883        505.72655245058104     
  -230.18978184381456        593.63509876991270        650.23770148013455     
  -60.103247249880098        927.64548338909390        830.91999930439715     
   138.73274705151255        1374.2477452474866        1051.2332510828755     
  -1124.2615623408610        3.5000373074745994        111.33616771673448     
  -1046.0321335681635       -6.7071549535233999        108.95442252764899     
  -958.89435691915560       -6.1627153411088784        126.83047058228405     
  -857.99532461034596        21.309715423839975        169.77821447578953     
  -738.48212886021304        91.886496612147056        242.61155680313325     
  -595.50186188445105        221.74398750504801        350.14440015937879     
  -424.20161590198552        427.05854737324074        497.19064714024046     
  -219.72848312907013        724.00653549516380        688.56420033976315     
   22.770444216951148        1128.7643111476264        929.07896235416740     
  -1368.1298483211442       -15.806307602339018        19.554193251513091     
  -1329.9581087840886       -48.651101743866207       -5.5955039179940478     
  -1268.9320283482318       -72.593503682063329       -10.329537181095120     
  -1180.5451288034214       -72.611919382868564        11.727131808813068     
  -1060.2909319387904       -33.684754810098354        66.949541399956829     
  -903.66295954454426        59.209584068641391        161.71272993956978     
  -706.15473341033385        221.09269128793292        302.39173577510701     
  -463.25977532520187        466.98616088428281        495.36159725431770     
  -170.47160707912212        811.91158689156873        746.99735272413079     
  -1664.9817370717578       -38.481940561973374       -70.389900822031990     
  -1685.6383558397449       -99.116439806082838       -123.43461568886511     
  -1665.0916194600845       -152.44805831969245       -157.37089604675393     
  -1599.3848797059736       -185.28796868052603       -164.05552947940200     
  -1484.5614883479016       -184.44734345639841       -135.34530357055829     
  -1316.6647971577722       -136.73735522160268       -63.097005904254544     
  -1091.7381579070775       -28.969176546369624        60.832575935475887     
  -805.82492236696714        152.04601999760223        244.58665436502591     
  -454.96844230991110        419.49706183690159        496.30844180016061     
 </DataArray>
 <DataArray  type="Float64" Name="VM" NumberOfComponents="1" format="ascii">
   5999.0744854259938     
   5905.6254904034668     
   5812.1848365503201     
   5718.7400215056005     
   5625.2785614934810     
   5531.7879780656431     
   5438.2557892159066     
   5344.6695054048305     
   5251.0166311043386     
   5814.0581707210913     
   5723.6333128296546     
   5633.1758475096949     
   5542.6816072386391     
   5452.1464345395125     
   5361.5661807237166     
   5270.9367051595755     
   5180.2538751255943     
   5089.5135663305673     
   5633.4228561793743     
   5546.0264426557369     
   5458.5780650421957     
   5371.0806930604949     
   5283.5373423876299     
   5195.9510789123906     
   5108.3250236852064     
   5020.6623586493306     
   4932.9663332474702     
   5457.1526821085445     
   5372.8073755644864     
   5288.4081021950369     
   5203.9635262121683     
   5119.4824182455241     
   5034.9736607203631     
   4950.4462559308658     
   4865.9093371320987     
   4781.3721830126187     
   5285.2409596534062     
   5203.9853538563821     
   5122.6873117808691     
   5041.3595142915437     
   4960.0148143895749     
   4878.6662415736446     
   4797.3270110403646     
   4716.0105382938673     
   4634.7304598087667     
   5117.6913144256359     
   5039.5771883273683     
   4961.4423336934824     
   4883.3015509557981     
   4805.1698658820487     
   4727.0625328449942     
   4648.9950440976654     
   4570.9831457470691     
   4493.0428612063188     
   4954.5189398199791     
   4879.6081515845035     
   4804.7056828867690     
   4729.8263587510492     
   4654.9852551375634     
   4580.1977025174547     
   4505.4792951200316     
   4430.8459064959698     
   4356.3137121099053     
   4795.7519632417661     
   4724.1129421231999     
   4652.5163751690761     
   4580.9748452684507     
   4509.5011733903902     
   4438.1084242160186     
   4366.8099157564338     
   4295.6192333900999     
   4224.5502488060001     
   4641.4329252499392     
   4573.1367155985572     
   4504.9205855935106     
   4436.7924670910079     
   4368.7604739594090     
   4300.8329101844711     
   4233.0182797565958     
   4165.3252985261679     
   4097.7629082328203     
   5251.0166311043386     
   5157.3541363882941     
   5063.7571342542251     
   4970.2403480060675     
   4876.8184917242006     
   4783.5062583889239     
   4690.3183186413971     
   4597.2693317048224     
   4504.3739702160474     
   5089.5135663305673     
   4998.8009400190012     
   4908.2086361588463     
   4817.7437874886318     
   4727.4135661379723     
   4637.2251812711675     
   4547.1858789485941     
   4457.3029445221391     
   4367.5837079292387     
   4932.9663332474702     
   4845.3278541203563     
   4757.8356798139666     
   4670.4898926276010     
   4583.2905748627109     
   4496.2378089631338     
   4409.3316776750144     
   4322.5722642287965     
   4235.9596525449670     
   4781.3721830126187     
   4696.9151556750166     
   4612.6084013203026     
   4528.4459319053840     
   4444.4216727819330     
   4360.5294594158768     
   4276.7630351766766     
   4193.1160503451420     
   4109.5820625096867     
   4634.7304598087667     
   4553.5460019536340     
   4472.5001678019908     
   4391.5823116930469     
   4310.7816065725538     
   4230.0870340171832     
   4149.4873773875106     
   4068.9712185308458     
   3988.5269385177553     
   4493.0428612063188     
   4415.2068464320273     
   4337.4880586429090     
   4259.8730243309028     
   4182.3480207934917     
   4104.8990598120399     
   4027.5118760467681     
   3950.1719207666692     
   3872.8643616283407     
   4356.3137121099053     
   4281.8878828178658     
   4207.5533789726487     
   4133.2961218681294     
   4059.1017718895946     
   3984.9557100032321     
   3910.8430243631142     
   3836.7485026935219     
   3762.6566312051459     
   4224.5502488060001     
   4153.5835130612741     
   4082.6822004308424     
   4011.8342096367869     
   3941.0272438571419     
   3870.2487971866303     
   3799.4861454343545     
   3728.7263418085749     
   3657.9562181277306     
   4097.7629082328203     
   4030.2928331828334     
   3962.8659218614844     
   3895.4749515028243     
   3828.1126575448384     
   3760.7717333161308     
   3693.4448327518030     
   3626.1245765253061     
   3558.8035620499440     
   4504.3739702160474     
   4411.7029205929211     
   4319.3014017935811     
   4227.1458904433621     
   4135.2127646637100     
   4043.4782657002988     
   3951.9185125863896     
   3860.5095786436623     
   3769.2276402584794     
   4367.5837079292387     
   4278.0165106321774     
   4188.5762990590383     
   4099.2502492330223     
   4010.0253642358152     
   3920.8884333094029     
   3831.8260036421430     
   3742.8243669477911     
   3653.8695633400853     
   4235.9596525449670     
   4149.4421402972121     
   4062.9666747185174     
   3976.5312460747946     
   3890.1337356039430     
   3803.7718939540655     
   3717.4433200432836     
   3631.1454404151596     
   3544.8754891710664     
   4109.5820625096867     
   4026.1011208174305     
   3942.6229418460825     
   3859.1555536166320     
   3775.7070358173164     
   3692.2855240830004     
   3608.8992179398438     
   3525.5563930139992     
   3442.2654182228330     
   3988.5269385177553     
   3908.1082354810105     
   3827.6874450418723     
   3747.2809404087980     
   3666.9053535858629     
   3586.5776015837641     
   3506.3149249206945     
   3426.1349403638742     
   3346.0557102262419     
   3872.8643616283407     
   3795.5693050623277     
   3718.2914090801660     
   3641.0527863600673     
   3563.8760055031462     
   3486.7841298696389     
   3409.8007755729573     
   3332.9501915784767     
   3256.2573653689910     
   3762.6566312051459     
   3688.5784706212753     
   3614.5515370124499     
   3540.6001990840286     
   3466.7494098674915     
   3393.0247479000664     
   3319.4524788449421     
   3246.0596405766905     
   3172.8741552597039     
   3657.9562181277306     
   3587.2152250635613     
   3516.5663053070266     
   3446.0317932908906     
   3375.6346114816197     
   3305.3983057142377     
   3235.3470962122906     
   3165.5059465151685     
   3095.9006528769860     
   3558.8035620499440     
   3491.5412471949649     
   3424.4120346323093     
   3357.4312336340681     
   3290.6145736637841     
   3223.9782287632083     
   3157.5388495918469     
   3091.3136041567900     
   3025.3202284237336     
   3769.2276402584794     
   3678.1116123627498     
   3587.2541693264106     
   3496.7120898964822     
   3406.5415126155713     
   3316.7977845602295     
   3227.5356486956603     
   3138.8098377799893     
   3050.6761567735548     
   3653.8695633400853     
   3565.1875507371751     
   3477.0372592444050     
   3389.4543674864108     
   3302.4748908182164     
   3216.1350704370552     
   3130.4713506367902     
   3045.5204618155199     
   2961.3196303088457     
   3544.8754891710664     
   3458.9431915829759     
   3373.6673558279854     
   3289.0588956148777     
   3205.1289836760093     
   3121.8890268640371     
   3039.3506461704328     
   2957.5256627103995     
   2876.4260909220839     
   3442.2654182228330     
   3359.3406620413339     
   3277.0814093978197     
   3195.4730988672654     
   3114.5006687280579     
   3034.1485888994735     
   2954.4009072066283     
   2875.2413125051917     
   2796.6532176861456     
   3346.0557102262419     
   3266.3404459773606     
   3187.2156865081647     
   3108.6437159534057     
   3030.5852658446647     
   2952.9995390662052     
   2875.8442897739728     
   2799.0759691601602     
   2722.6499489588455     
   3256.2573653689910     
   3179.9006151270587     
   3104.0053657562330     
   3028.5160708564558     
   2953.3746634779122     
   2878.5205135299993     
   2803.8904745610748     
   2729.4190350707399     
   2655.0385926855201     
   3172.8741552597039     
   3099.9760235385515     
   3027.3841341282846     
   2955.0333009290180     
   2882.8552650588767     
   2810.7785679240455     
   2738.7285202679327     
   2666.6272824410785     
   2594.3940743068251     
   3095.9006528769860     
   3026.5174928039983     
   2957.2838021794846     
   2888.1355694351137     
   2819.0058201528132     
   2749.8244455070003     
   2680.5181073331755     
   2611.0102310499306     
   2541.2210999371114     
   3025.3202284237336     
   2959.4710220329871     
   2893.6339589760946     
   2827.7592966302168     
   2761.7952269903899     
   2695.6877487521788     
   2629.3805848143270     
   2562.8151516714006     
   2495.9305884788587     
   3050.6761567735548     
   2963.8902999943152     
   2879.1091159679763     
   2796.2398472823484     
   2715.1843755655073     
   2635.8378307942153     
   2558.0899627095191     
   2481.8298781015724     
   2406.9548497679702     
   2961.3196303088457     
   2878.0642172415355     
   2795.8730752628717     
   2714.6679119775863     
   2634.3670825961176     
   2554.8844196310160     
   2476.1292248120021     
   2398.0076905984638     
   2320.4260797569518     
   2876.4260909220839     
   2795.9171555947141     
   2715.8223500744448     
   2636.0901989679141     
   2556.6669840294312     
   2477.4959106848733     
   2398.5166206870858     
   2319.6651323546757     
   2240.8743110337891     
   2796.6532176861456     
   2718.3530889594063     
   2640.0577008678924     
   2561.7500546279689     
   2483.4117868652697     
   2405.0227142895938     
   2326.5604302488036     
   2247.9999650268278     
   2169.3135249412176     
   2722.6499489588455     
   2646.2680334201932     
   2569.6755790645402     
   2492.8925041648345     
   2415.9384113339552     
   2338.8324815164915     
   2261.5934205623985     
   2184.2394713928966     
   2106.7885087241748     
   2655.0385926855201     
   2580.5257520855525     
   2505.7383628298189     
   2430.7300733516627     
   2355.5555253232924     
   2280.2705146230887     
   2204.9323154634417     
   2129.6002071607254     
   2054.3362541852189     
   2594.3940743068251     
   2521.9289061570707     
   2449.2381320332811     
   2376.4001538052025     
   2303.4957130353878     
   2230.6082065705559     
   2157.8242547077120     
   2085.2345796068143     
   2012.9352662907952     
   2541.2210999371114     
   2471.1867491656694     
   2401.0553557686208     
   2330.9155146923404     
   2260.8590802881617     
   2190.9815190567974     
   2121.3825174366643     
   2052.1668981867092     
   1983.4459107449170     
   2495.9305884788587     
   2428.8814735930059     
   2361.9153997972385     
   2295.1116692226042     
   2228.5527773776239     
   2162.3246988351689     
   2096.5173456903099     
   2031.2252314358732     
   1966.5483790140711     
   2406.9548497679702     
   2332.8576608536355     
   2259.1738513884698     
   2186.1654027185082     
   2114.0694369467501     
   2043.0970048438812     
   1973.4434260782264     
   1905.3131915252341     
   1838.9630048322806     
   2320.4260797569518     
   2243.8031559487381     
   2168.7501562606717     
   2095.4639427183151     
   2024.1354554613592     
   1954.9465197768181     
   1888.0701871888514     
   1823.6755964778010     
   1761.9384840777666     
   2240.8743110337891     
   2163.1126755614678     
   2087.4583908912759     
   2014.0093325711709     
   1942.8651718798367     
   1874.1261018442699     
   1807.8920682183661     
   1744.2626707298359     
   1683.3379292669474     
   2169.3135249412176     
   2091.6497904745365     
   2016.1662472803705     
   1942.8453255582410     
   1871.6691205040572     
   1802.6205307081177     
   1735.6848150369137     
   1670.8516515658648     
   1608.1177934836655     
   2106.7885087241748     
   2030.3063850281526     
   1955.7661137274010     
   1883.0390011385502     
   1811.9875350527332     
   1742.4671358339851     
   1674.3291736565930     
   1607.4255648157757     
   1541.6153506985997     
   2054.3362541852189     
   1979.9639308426886     
   1907.1303125671900     
   1835.6224422790985     
   1765.2090447751232     
   1695.6406740054060     
   1626.6515310028919     
   1557.9633648027304     
   1489.2920145487867     
   2012.9352662907952     
   1941.4438468233750     
   1871.0548034691481     
   1801.5193487362098     
   1732.5657239768220     
   1663.8969549257979     
   1595.1899522390561     
   1526.0962162317019     
   1456.2444793577899     
   1983.4459107449170     
   1915.4508562239080     
   1848.1967890187600     
   1781.4648068548997     
   1715.0174533469788     
   1648.5954499178797     
   1581.9152468747991     
   1514.6675133089936     
   1446.5166951813128     
   1966.5483790140711     
   1902.5164811646505     
   1839.0153220010588     
   1775.9316924293582     
   1713.1478073897217     
   1650.5395958889703     
   1587.9755268687429     
   1525.3161100428872     
   1462.4142512757267     
   1838.9630048322806     
   1779.5585674079707     
   1731.7759964177158     
   1694.9890077324051     
   1668.2162369182752     
   1650.3321102793550     
   1640.6277391831927     
   1639.6984434088345     
   1650.5870262184269     
   1761.9384840777666     
   1703.6363479412310     
   1649.0570691723563     
   1597.6103392043258     
   1548.5509340665653     
   1500.9774768587019     
   1453.9965530291879     
   1407.0877203351924     
   1360.7171416640033     
   1683.3379292669474     
   1623.4161374349235     
   1562.3854113330949     
   1499.7764454724097     
   1435.0991935214065     
   1367.7707963931764     
   1297.0847956393500     
   1222.2340774873255     
   1142.4090751576043     
   1608.1177934836655     
   1544.8458368484266     
   1478.2020350142711     
   1407.9942518091341     
   1334.1326367023760     
   1256.5986108458383     
   1175.4207133244083     
   1090.6589308234622     
   1002.4008786498273     
   1541.6153506985997     
   1474.4899240638663     
   1403.8139323782987     
   1329.8684349411585     
   1253.1841768959953     
   1174.6270314804856     
   1095.5263875750686     
   1017.8613894499807     
   944.51199943696929     
   1489.2920145487867     
   1419.2356888485137     
   1347.0506910094794     
   1273.6584552139191     
   1200.3890594275736     
   1129.1790432138728     
   1062.8302970008986     
   1005.2986006178562     
   961.89270207543620     
   1456.2444793577899     
   1385.6355834029739     
   1315.4045010380528     
   1247.1388739316149     
   1182.9297231508804     
   1125.5798299453152     
   1078.8128435419339     
   1047.3795029184266     
   1036.8824233583259     
   1446.5166951813128     
   1378.8976872237795     
   1314.6603749758854     
   1255.8408510937777     
   1204.9275881996382     
   1164.9709370457495     
   1139.6316546910425     
   1133.0871914920485     
   1149.7277661205871     
   1462.4142512757267     
   1401.8468446876025     
   1347.5284512662956     
   1301.4996355979185     
   1266.0734321914531     
   1243.8451806062478     
   1237.6559327557591     
   1250.4899163710045     
   1285.3099569527915     
   1650.5870262184269     
   1652.2211039744134     
   1617.4756025731597     
   1541.6742523236369     
   1420.9416830569235     
   1258.6539345907404     
   1082.6848433352197     
   987.14850155693273     
   1145.7740620947059     
   1360.7171416640033     
   1306.3481552936091     
   1234.3671195401255     
   1146.1458115819266     
   1050.2773950157498     
   975.74128150011131     
   988.93094887347559     
   1176.9328501533259     
   1581.3551156207911     
   1142.4090751576043     
   1059.6346112889034     
   980.74710234334543     
   917.26094634412948     
   893.44088843938971     
   950.60250571410086     
   1133.6139371326108     
   1467.6215116103087     
   1959.2059751521833     
   1002.4008786498273     
   922.01131866432581     
   869.58995429084973     
   863.12621138790769     
   926.04881358810781     
   1081.3651474703681     
   1345.5355459209484     
   1729.5020047952162     
   2243.3066040208619     
   944.51199943696929     
   892.91845083933185     
   886.40110950929136     
   937.41994337437029     
   1057.0568638069371     
   1255.2741971842856     
   1542.5872522911427     
   1931.1474764805150     
   2434.6472836854296     
   961.89270207543620     
   949.53608666277626     
   984.59394250868945     
   1071.3635268009314     
   1214.3763013013706     
   1420.8380690825416     
   1701.6096314733231     
   2070.4868901257250     
   2542.7884976828764     
   1036.8824233583259     
   1058.6682047338616     
   1120.1570792994746     
   1221.9077342430564     
   1367.0427232248244     
   1562.7404556133176     
   1820.2814317051568     
   2153.8989179770797     
   2579.1686294245746     
   1149.7277661205871     
   1194.4676785490099     
   1268.1861582277472     
   1370.7834905411994     
   1505.4232549838734     
   1679.1850402316400     
   1902.8478604105969     
   2189.8707469996498     
   2554.9355148884188     
   1285.3099569527915     
   1341.9889969615128     
   1417.3752340923008     
   1511.6651725564273     
   1628.0090994919942     
   1772.7393022213066     
   1955.1462414545483     
   2186.7408886119056     
   2480.1273999000232     
   4641.4329252499392     
   4573.1367155985572     
   4504.9205855935106     
   4436.7924670910079     
   4368.7604739594090     
   4300.8329101844711     
   4233.0182797565958     
   4165.3252985261679     
   4097.7629082328203     
   4491.6205388844110     
   4426.7452206961643     
   4361.9840178546165     
   4297.3394650146165     
   4232.8142085127502     
   4168.4110145070945     
   4104.1327778456762     
   4039.9825317312248     
   3975.9634582691965     
   4346.3890863619317     
   4285.0111721221201     
   4223.7727861468193     
   4162.6721462278201     
   4101.7075295429731     
   4040.8772786860141     
   3980.1798086939839     
   3919.6136151748783     
   3859.1772836549999     
   4205.8219839251788     
   4148.0047969338984     
   4090.3456951287417     
   4032.8397729237627     
   3975.4821542427358     
   3918.2679958964009     
   3861.1924928511853     
   3804.2508855858314     
   3747.4384697560299     
   4070.0109392733693     
   4015.8051281240978     
   3961.7704950388506     
   3907.9002982261227     
   3854.1878196535699     
   3800.6263665683437     
   3747.2092758587419     
   3693.9299215425713     
   3640.7817257046854     
   3939.0566952047379     
   3888.5007883722392     
   3838.1246577313300     
   3787.9210854374046     
   3737.8828946879689     
   3688.0029510626809     
   3638.2741672879361     
   3588.6895117618201     
   3539.2420212051361     
   3813.0697439496007     
   3766.1907400563437     
   3719.4961120806674     
   3672.9795779697679     
   3626.6349332674531     
   3580.4560542029362     
   3534.4369041715945     
   3488.5715439215533     
   3442.8541457938873     
   3692.1709761125608     
   3648.9849635087112     
   3605.9839000436650     
   3563.1638819205700     
   3520.5211328108207     
   3478.0520100833146     
   3435.7530137232311     
   3393.6207981749239     
   3351.6521873581823     
   3576.4922178276611     
   3537.0050150382767     
   3497.6987046275390     
   3458.5732142403645     
   3419.6286548809949     
   3380.8653302150719     
   3342.2837473887785     
   3303.8846294857876     
   3265.6689297348839     
   4097.7629082328203     
   4030.2928331828334     
   3962.8659218614844     
   3895.4749515028243     
   3828.1126575448384     
   3760.7717333161308     
   3693.4448327518030     
   3626.1245765253061     
   3558.8035620499440     
   3975.9634582691965     
   3912.0268152378353     
   3848.1208689346877     
   3784.2445391313167     
   3720.3968984283497     
   3656.5771878655328     
   3592.7848350718523     
   3529.0194752767056     
   3465.2809755476328     
   3859.1772836549999     
   3798.8192425833104     
   3738.4915645650462     
   3678.1986058493776     
   3617.9450511422824     
   3557.7359417317457     
   3497.5767064894162     
   3437.4731960743043     
   3377.4317207035565     
   3747.4384697560299     
   3690.7059996316643     
   3634.0130280936883     
   3577.3684308941806     
   3520.7815555695142     
   3464.2622574962543     
   3407.8209392787535     
   3351.4685937899103     
   3295.2168512203671     
   3640.7817257046854     
   3587.7207980108424     
   3534.7155196342392     
   3481.7781720632606     
   3428.9216094693006     
   3376.1592978416120     
   3323.5053575960874     
   3270.9746099392873     
   3218.5826272798931     
   3539.2420212051361     
   3489.8944767191119     
   3440.6235612353321     
   3391.4436728368642     
   3342.3698346938290     
   3293.4177329989739     
   3244.6037580488105     
   3195.9450486663122     
   3147.4595401523134     
   3442.8541457938873     
   3397.2542358905066     
   3351.7549136691391     
   3306.3712575708332     
   3261.1189736411602     
   3216.0144292319483     
   3171.0746891133431     
   3126.3175540811558     
   3081.7616021327981     
   3351.6521873581823     
   3309.8228157645340     
   3268.1195351468691     
   3226.5565548758814     
   3185.1486680897078     
   3143.9112797467324     
   3102.8604361755865     
   3062.0128561235492     
   3021.3859632814779     
   3265.6689297348839     
   3227.6176380411666     
   3189.7185553292161     
   3151.9833966652113     
   3114.4243789679490     
   3077.0542435986845     
   3039.8862797394099     
   3002.9343485162431     
   2966.2129078153639     
   3558.8035620499440     
   3491.5412471949649     
   3424.4120346323093     
   3357.4312336340681     
   3290.6145736637841     
   3223.9782287632083     
   3157.5388495918469     
   3091.3136041567900     
   3025.3202284237336     
   3465.2809755476328     
   3401.6360805869690     
   3338.1555460896006     
   3274.8455625906895     
   3211.7124861520419     
   3148.7628527025977     
   3086.0033951069749     
   3023.4410633243792     
   2961.0830480743721     
   3377.4317207035565     
   3317.5152440855877     
   3257.7813319877901     
   3198.2285296583036     
   3138.8553384711608     
   3079.6602250517253     
   3020.6416327053648     
   2961.7979954541925     
   2903.1277550370246     
   3295.2168512203671     
   3239.1177711774399     
   3183.2105703424891     
   3127.4879851587280     
   3071.9425724185635     
   3016.5667174833575     
   2961.3526467656834     
   2906.2924450100645     
   2851.3780779909257     
   3218.5826272798931     
   3166.3669078936991     
   3114.3469970735441     
   3062.5119613352699     
   3010.8506422922451     
   2959.3516678210999     
   2908.0034701700033     
   2856.7943118349963     
   2805.7123201482750     
   3147.4595401523134     
   3099.1694135267412     
   3051.0764142049138     
   3003.1683141933986     
   2955.4327098788558     
   2907.8570391901640     
   2860.4286078511568     
   2813.1346257479086     
   2765.9622545695543     
   3081.7616021327981     
   3037.4151925703127     
   2993.2666029589427     
   2949.3048566321681     
   2905.5189361066932     
   2861.8978078896380     
   2818.4304571391635     
   2775.1059332230816     
   2731.9134073423961     
   3021.3859632814779     
   2980.9773108307209     
   2940.7676873929095     
   2900.7500226799630     
   2860.9174051577143     
   2821.2631140755266     
   2781.7806603012828     
   2742.4638368209526     
   2703.3067798448865     
   2966.2129078153639     
   2929.7124347962090     
   2893.4129747743336     
   2857.3140767043469     
   2821.4156828089863     
   2785.7181647574193     
   2750.2223658665262     
   2714.9296498179624     
   2679.8419564140863     
   3025.3202284237336     
   2959.4710220329871     
   2893.6339589760946     
   2827.7592966302168     
   2761.7952269903899     
   2695.6877487521788     
   2629.3805848143270     
   2562.8151516714006     
   2495.9305884788587     
   2961.0830480743721     
   2898.7984654614002     
   2836.4330607315678     
   2773.9586133766334     
   2711.3461368461599     
   2648.5658605581684     
   2585.5872392821975     
   2522.3789943467809     
   2458.9091920989704     
   2903.1277550370246     
   2844.4847571791288     
   2785.7187661727985     
   2726.8224154790605     
   2667.7887953206327     
   2608.6115478862066     
   2549.2849872263014     
   2489.8042481327775     
   2430.1654691940985     
   2851.3780779909257     
   2796.4682280434995     
   2741.4340818816031     
   2686.2873097415390     
   2631.0410729419532     
   2575.7102061465380     
   2520.3114256216950     
   2464.8635673500098     
   2409.3878594606604     
   2805.7123201482750     
   2754.6340555918650     
   2703.4615357046046     
   2652.2225603076640     
   2600.9471790812700     
   2549.6679184136055     
   2498.4200331224811     
   2447.2417855204617     
   2396.1747543912288     
   2765.9622545695543     
   2718.8128413787781     
   2671.6217428681239     
   2624.4290199654884     
   2577.2774172454515     
   2530.2125895954869     
   2483.2833483804779     
   2436.5419276038606     
   2390.0442701999109     
   2731.9134073423961     
   2688.7809023415907     
   2645.6740377774286     
   2602.6404936050508     
   2559.7307363613158     
   2516.9982103885709     
   2474.4995402459867     
   2432.2947430515387     
   2390.4474488736664     
   2703.3067798448865     
   2664.2623311531438     
   2625.3192042794190     
   2586.5275086198103     
   2547.9399481000401     
   2509.6119582431279     
   2471.6018458501776     
   2433.9709290645928     
   2396.7836750009906     
   2679.8419564140863     
   2644.9327423450059     
   2610.2041625973588     
   2575.7032557947659     
   2541.4792369090301     
   2507.5835791799286     
   2474.0700923048448     
   2440.9949946318225     
   2408.4169766839186     
   2495.9305884788587     
   2428.8814735930059     
   2361.9153997972385     
   2295.1116692226042     
   2228.5527773776239     
   2162.3246988351689     
   2096.5173456903099     
   2031.2252314358732     
   1966.5483790140711     
   2458.9091920989704     
   2395.4090975987228     
   2332.1702994619777     
   2269.2526396252852     
   2206.7183344656869     
   2144.6321525539588     
   2083.0616812637745     
   2022.0776972601602     
   1961.7546582841858     
   2430.1654691940985     
   2370.6350788395175     
   2311.5094152279662     
   2252.8314675185361     
   2194.6457396953706     
   2136.9983371147732     
   2079.9370969899433     
   2023.5117696159120     
   1967.7742580784454     
   2409.3878594606604     
   2354.1555704671650     
   2299.4418652962181     
   2245.2763791245629     
   2191.6895276545579     
   2138.7125244799959     
   2086.3774224007084     
   2034.7171824018085     
   1983.7657745115484     
   2396.1747543912288     
   2345.4747339514679     
   2295.3815181048176     
   2245.9156019218485     
   2197.0977504407811     
   2148.9489686082707     
   2101.4904882582341     
   2054.7437749642463     
   2008.7305579609254     
   2390.0442701999109     
   2344.0189256281101     
   2298.6658899006393     
   2254.0012922879750     
   2210.0412760112545     
   2166.8019375448689     
   2124.2992802820650     
   2082.5491850415979     
   2041.5674001570967     
   2390.4474488736664     
   2349.1540104948722     
   2308.5777469134464     
   2268.7356248970232     
   2229.6445964088903     
   2191.3215169172563     
   2153.7830743799650     
   2117.0457308600207     
   2081.1256789071190     
   2396.7836750009906     
   2360.2041630366821     
   2324.3673208555410     
   2289.2964772813357     
   2255.0150758925579     
   2221.5465753229801     
   2188.9143539919769     
   2157.1416205095370     
   2126.2513311591110     
   2408.4169766839186     
   2376.4705534248174     
   2345.2732890735765     
   2314.8606389427168     
   2285.2683706141393     
   2256.5324446298446     
   2228.6888926223774     
   2201.7736935445014     
   2175.8226488588271     
   1966.5483790140711     
   1902.5164811646505     
   1839.0153220010588     
   1775.9316924293582     
   1713.1478073897217     
   1650.5395958889703     
   1587.9755268687429     
   1525.3161100428872     
   1462.4142512757267     
   1961.7546582841858     
   1902.0437289344034     
   1842.8582976928865     
   1784.2276780619750     
   1726.1929078230264     
   1668.8076859483092     
   1612.1396925329047     
   1556.2723640546662     
   1501.3072045737865     
   1967.7742580784454     
   1912.6968475004635     
   1858.3101706149914     
   1804.7710966859056     
   1752.2592063460968     
   1700.9791872010937     
   1651.1632598260685     
   1603.0734864325605     
   1557.0037424872617     
   1983.7657745115484     
   1933.5745666453668     
   1884.3307383943861     
   1836.2914271290383     
   1789.7405980272902     
   1744.9913873373457     
   1702.3880335276940     
   1662.3070768236182     
   1625.1574220092232     
   2008.7305579609254     
   1963.6036793325163     
   1919.7049455328161     
   1877.3573699897140     
   1836.9088365606169     
   1798.7335026962323     
   1763.2325627478046     
   1730.8340473564449     
   1701.9912947445332     
   2041.5674001570967     
   2001.6027135212878     
   1963.1192152041540     
   1926.4693612223052     
   1892.0246278510124     
   1860.1759050437795     
   1831.3333613857017     
   1805.9255688705259     
   1784.3976749345204     
   2081.1256789071190     
   2046.3424063167092     
   2013.2303549774799     
   1982.1367671752546     
   1953.4206187463167     
   1927.4524707204673     
   1904.6141473681100     
   1885.2981532696319     
   1869.9067457080628     
   2126.2513311591110     
   2096.5966151453954     
   2068.7204137257945     
   2042.9340528038751     
   2019.5538189703168     
   1998.9008881816605     
   1981.3014958788006     
   1967.0873349862086     
   1956.5961550272750     
   2175.8226488588271     
   2151.1806860249958     
   2128.3353390972320     
   2107.5359513413814     
   2089.0316893847730     
   2073.0720453890331     
   2059.9079073903663     
   2049.7932025305504     
   2042.9870888390024     
   1462.4142512757267     
   1401.8468446876025     
   1347.5284512662956     
   1301.4996355979185     
   1266.0734321914531     
   1243.8451806062478     
   1237.6559327557591     
   1250.4899163710045     
   1285.3099569527915     
   1501.3072045737865     
   1450.4249352155598     
   1407.7879574076489     
   1375.0613275255046     
   1354.0046185959397     
   1346.4630502926184     
   1354.3555075639781     
   1379.6577606894944     
   1424.3813236383680     
   1557.0037424872617     
   1516.2074850876727     
   1484.5077403741379     
   1463.0786632501759     
   1453.0982647260089     
   1455.7679790530831     
   1472.3504128970499     
   1504.2183522592850     
   1552.9034453795384     
   1625.1574220092232     
   1593.8791752419684     
   1571.6145282118489     
   1559.0730804395212     
   1556.9522213542928     
   1565.9865667221961     
   1587.0177480112216     
   1621.0736219376197     
   1669.4421577798307     
   1701.9912947445332     
   1679.0944732409093     
   1664.4589636792700     
   1658.4229259149506     
   1661.3347425320433     
   1673.6181749375171     
   1695.8535234662825     
   1728.8643655363455     
   1773.7970897206771     
   1784.3976749345204     
   1768.4783517375854     
   1759.6409920914919     
   1757.9584328172916     
   1763.5460557191930     
   1776.6292963710532     
   1797.6227585764950     
   1827.2131221563848     
   1866.4363795992210     
   1869.9067457080628     
   1859.4882446894053     
   1854.7380513662381     
   1855.5568911892553     
   1861.9149139181131     
   1873.9130119580072     
   1891.8527489371145     
   1916.3099319269411     
   1948.2055314042082     
   1956.5961550272750     
   1950.2413498540445     
   1948.0502203313715     
   1949.8240259838674     
   1955.4491978346762     
   1964.9479975812701     
   1978.5357684493586     
   1996.6821234433307     
   2020.1723781385431     
   2042.9870888390024     
   2039.3567637289332     
   2038.3983721869274     
   2039.8668303283475     
   2043.6063131857557     
   2049.5883552521946     
   2057.9548551216576     
   2069.0649224156218     
   2083.5438092262029     
   1285.3099569527915     
   1341.9889969615128     
   1417.3752340923008     
   1511.6651725564273     
   1628.0090994919942     
   1772.7393022213066     
   1955.1462414545483     
   2186.7408886119056     
   2480.1273999000232     
   1424.3813236383680     
   1485.2465693790566     
   1556.8141159368265     
   1639.5216180692385     
   1736.1434238123029     
   1851.8319269065585     
   1993.9368328334820     
   2171.5229334485548     
   2394.5979399446278     
   1552.9034453795384     
   1613.4800241337462     
   1679.3528335011229     
   1750.9834024971537     
   1830.5761387264859     
   1922.0553907541689     
   2030.9380831117453     
   2164.0412910041473     
   2328.9992515404906     
   1669.4421577798307     
   1726.5741565257908     
   1785.5187664661378     
   1846.6299050213040     
   1911.4889539292294     
   1982.8641022555398     
   2064.6304583585506     
   2161.6136299432364     
   2279.3282802703975     
   1773.7970897206771     
   1825.1691998176361     
   1876.2560854888793     
   1927.2592550774511     
   1979.1903913685437     
   2033.8298503761985     
   2093.6823203025510     
   2161.9098460631690     
   2242.2224819439625     
   1866.4363795992210     
   1910.3124095081162     
   1952.7469126305582     
   1993.8143676144978     
   2034.0897103864409     
   2074.6113207623262     
   2116.8594508203391     
   2162.7404420572175     
   2214.5660174640466     
   1948.2055314042082     
   1983.2843194609643     
   2016.3237095994441     
   2047.3485407824217     
   2076.6863657798240     
   2104.9367736025215     
   2132.9620212706618     
   2161.8941795940846     
   2193.1535696521419     
   2020.1723781385431     
   2045.5096847888544     
   2068.4273266363211     
   2089.0126946661685     
   2107.5694626591062     
   2124.5964466594769     
   2140.7847601662543     
   2157.0304941561531     
   2174.4599041836059     
   2083.5438092262029     
   2098.5131369109786     
   2110.5902763268600     
   2120.0558423699285     
   2127.4245636611035     
   2133.4429278387302     
   2139.0965046992083     
   2145.6239015049364     
   2154.5333105095610     
   3576.4922178276611     
   3537.0050150382767     
   3497.6987046275390     
   3458.5732142403645     
   3419.6286548809949     
   3380.8653302150719     
   3342.2837473887785     
   3303.8846294857876     
   3265.6689297348839     
   3466.1779159927128     
   3430.3788252615836     
   3394.7550454963434     
   3359.3106082739068     
   3324.0497704695945     
   3288.9770239831050     
   3254.0971060160618     
   3219.4150099225062     
   3184.9359966474103     
   3361.3929371877480     
   3329.2514785264184     
   3297.2810344114100     
   3265.4888025221780     
   3233.8822201854446     
   3202.4689716663706     
   3171.2569955105751     
   3140.2544919140964     
   3109.4699300896550     
   3262.3230252347839     
   3233.7910774333809     
   3205.4258351310609     
   3177.2366974986621     
   3149.2332941117038     
   3121.4254883639228     
   3093.8233807466186     
   3066.4373119570073     
   3039.2778657891054     
   3169.1734251202256     
   3144.1810681506522     
   3119.3501383127364     
   3094.6912740125354     
   3070.2153174938107     
   3045.9333143085864     
   3021.8565126424965     
   2997.9963624633979     
   2974.3645144544830     
   3082.1679001010270     
   3060.6190722593774     
   3039.2248891074505     
   3017.9962975639878     
   2996.9444121873430     
   2976.0805117447380     
   2955.4160356806133     
   2934.9625804655711     
   2914.7318958015685     
   3001.5468591737931     
   2983.3149627674784     
   2965.2293935350535     
   2947.3005341775356     
   2929.5388972722130     
   2911.9551206414544     
   2894.5599626315106     
   2877.3642972970306     
   2860.3791094696339     
   2927.5644320383512     
   2912.4880736180166     
   2897.5487364200189     
   2882.7554450091957     
   2868.1173218688677     
   2853.6435833434075     
   2839.3435354515491     
   2825.2265695583510     
   2811.3021578912221     
   2860.4843589589964     
   2848.3634645286252     
   2836.3704753634229     
   2824.5123555878404     
   2812.7961468190210     
   2801.2289659264388     
   2789.8180026185173     
   2778.5705168455752     
   2767.4938360100946     
   3265.6689297348839     
   3227.6176380411666     
   3189.7185553292161     
   3151.9833966652113     
   3114.4243789679490     
   3077.0542435986845     
   3039.8862797394099     
   3002.9343485162431     
   2966.2129078153639     
   3184.9359966474103     
   3150.6453318717222     
   3116.5301883422758     
   3082.5991935334500     
   3048.8613865331508     
   3015.3262362737846     
   2982.0036603452772     
   2948.9040443592376     
   2916.0382618270896     
   3109.4699300896550     
   3078.8918635990617     
   3048.5069326687499     
   3018.3211863176552     
   2988.3410098159884     
   2958.5731395118246     
   2929.0246783673902     
   2899.7031121999821     
   2870.6163266240578     
   3039.2778657891054     
   3012.3367013475568     
   2985.6008568647644     
   2959.0743691076400     
   2932.7615510538271     
   2906.6670039997489     
   2880.7956306100759     
   2855.1526489349089     
   2829.7436074122279     
   2974.3645144544830     
   2950.9560823263851     
   2927.7599645803589     
   2904.7788062548925     
   2882.0154827022425     
   2859.4731093910455     
   2837.1550528270268     
   2815.0649426242808     
   2793.2066847662963     
   2914.7318958015685     
   2894.7231264090315     
   2874.9286962380529     
   2855.3505292796763     
   2835.9907454414752     
   2816.8516682231739     
   2797.9358335193183     
   2779.2459995894837     
   2760.7851582237595     
   2860.3791094696339     
   2843.6080479245002     
   2827.0485806473457     
   2810.7026254123475     
   2794.5722692362219     
   2778.6597739300987     
   2762.9675825985996     
   2747.4983271083438     
   2732.2548365441303     
   2811.3021578912221     
   2797.5784715449199     
   2784.0590314055980     
   2770.7464999753047     
   2757.6436856557489     
   2744.7535461011134     
   2732.0791921661412     
   2719.6238924547692     
   2707.3910784819514     
   2767.4938360100946     
   2756.5998537688643     
   2745.8982754403896     
   2735.3932853722008     
   2725.0891894960209     
   2714.9904163907272     
   2705.1015185173887     
   2695.4271736185115     
   2685.9721862803444     
   2966.2129078153639     
   2929.7124347962090     
   2893.4129747743336     
   2857.3140767043469     
   2821.4156828089863     
   2785.7181647574193     
   2750.2223658665262     
   2714.9296498179624     
   2679.8419564140863     
   2916.0382618270896     
   2883.3937878203392     
   2850.9549162052381     
   2818.7285443925880     
   2786.7221521892652     
   2754.9438360561517     
   2723.4023462151426     
   2692.1071267148795     
   2661.0683585455940     
   2870.6163266240578     
   2841.7520806544489     
   2813.1009387451104     
   2784.6757958385060     
   2756.4902224099774     
   2728.5584912678364     
   2700.8956047195793     
   2673.5173219422422     
   2646.4401863740891     
   2829.7436074122279     
   2804.5584397436742     
   2779.5945208534913     
   2754.8693241259998     
   2730.4010113111740     
   2706.2084490255556     
   2682.3112239118427     
   2658.7296561605531     
   2635.4848110730950     
   2793.2066847662963     
   2771.5732135816161     
   2750.1681469238870     
   2729.0121082669443     
   2708.1263623800769     
   2687.5328213276507     
   2667.2540481900737     
   2647.3132581885775     
   2627.7343168706889     
   2760.7851582237595     
   2742.5493573421500     
   2724.5471720882465     
   2706.8009851016682     
   2689.3337351977102     
   2672.1689147236143     
   2655.3305643582580     
   2638.8432650749264     
   2622.7321269879649     
   2732.2548365441303     
   2717.2360373886322     
   2702.4538517641095     
   2687.9310996666718     
   2673.6910546029835     
   2659.7574353748296     
   2646.1543954881590     
   2632.9065099780096     
   2620.0387594542349     
   2707.3910784819514     
   2695.3823423410695     
   2683.6114063932487     
   2672.1002912650051     
   2660.8713679927969     
   2649.9473476345315     
   2639.3512689303170     
   2629.1064838882266     
   2619.2366411688472     
   2685.9721862803444     
   2676.7409909734783     
   2667.7480026321919     
   2659.0132923512938     
   2650.5571906578239     
   2642.4002778935601     
   2634.5633731721159     
   2627.0675218354750     
   2619.9339813479696     
   2679.8419564140863     
   2644.9327423450059     
   2610.2041625973588     
   2575.7032557947659     
   2541.4792369090301     
   2507.5835791799286     
   2474.0700923048448     
   2440.9949946318225     
   2408.4169766839186     
   2661.0683585455940     
   2630.2739212934762     
   2599.7311614356095     
   2569.4812870126202     
   2539.5672026424659     
   2510.0335481780658     
   2480.9267306618835     
   2452.2949477957204     
   2424.1882009276073     
   2646.4401863740891     
   2619.6605707896133     
   2593.1865576987420     
   2567.0538105938076     
   2541.2992723706529     
   2515.9611745153243     
   2491.0790390288284     
   2466.6936718557226     
   2442.8471464994423     
   2635.4848110730950     
   2612.5775272834971     
   2590.0142223766857     
   2567.8256017208037     
   2546.0433101836079     
   2524.6999232486064     
   2503.8289315829425     
   2483.4647182937870     
   2463.6425280860190     
   2627.7343168706889     
   2608.5200525056439     
   2589.6744455105563     
   2571.2240923548457     
   2553.1962681506093     
   2535.6189080145978     
   2518.5205830543205     
   2501.9304705452018     
   2485.8783178777689     
   2622.7321269879649     
   2607.0006476743524     
   2591.6507732590903     
   2576.7060535922533     
   2562.1905273828297     
   2548.1286991915881     
   2534.5455121937698     
   2521.4663164851013     
   2508.9168327366915     
   2620.0387594542349     
   2607.5547240255137     
   2595.4554317816678     
   2583.7626085552783     
   2572.4983363915203     
   2561.6850292629119     
   2551.3454054650902     
   2541.5024565852636     
   2532.1794129784275     
   2619.2366411688472     
   2609.7451173382747     
   2600.6333989641457     
   2591.9227224907581     
   2583.6345888013625     
   2575.7907392358989     
   2568.4131289403949     
   2561.5238975182283     
   2555.1453369761898     
   2619.9339813479696     
   2613.1655106241610     
   2606.7652594828082     
   2600.7553826898315     
   2595.1582329471512     
   2589.9963379604201     
   2585.2923753314399     
   2581.0691452763876     
   2577.3495411997624     
   2408.4169766839186     
   2376.4705534248174     
   2345.2732890735765     
   2314.8606389427168     
   2285.2683706141393     
   2256.5324446298446     
   2228.6888926223774     
   2201.7736935445014     
   2175.8226488588271     
   2424.1882009276073     
   2396.7162559081053     
   2369.9866137138274     
   2344.0475903293514     
   2318.9478709668538     
   2294.7363713206209     
   2271.4620940622808     
   2249.1739812348383     
   2227.9207635016701     
   2442.8471464994423     
   2419.6285221451531     
   2397.1360019505792     
   2375.4265649625363     
   2354.5574116368466     
   2334.5858156090062     
   2315.5689747370293     
   2297.5638625520301     
   2280.6270815433618     
   2463.6425280860190     
   2444.4321983252753     
   2425.9208411813652     
   2408.1703080435118     
   2391.2424265736540     
   2375.1988571465822     
   2360.1009561660030     
   2346.0096478641558     
   2332.9853063804326     
   2485.8783178777689     
   2470.4144111350365     
   2455.6112614107174     
   2441.5322247261047     
   2428.2403719046301     
   2415.7983629217456     
   2404.2683366411475     
   2393.7118177449934     
   2384.1896427252241     
   2508.9168327366915     
   2496.9263438206726     
   2485.5482736414069     
   2474.8444956332282     
   2464.8763737416020     
   2455.7046641062916     
   2447.3894394565536     
   2439.9900379222017     
   2433.5650378720079     
   2532.1794129784275     
   2523.3826173431262     
   2515.1415912016387     
   2507.5140424050501     
   2500.5570117196389     
   2494.3268064478825     
   2488.8789616111708     
   2484.2682300554447     
   2480.5486026474400     
   2555.1453369761898     
   2549.2590115941211     
   2543.8659597123724     
   2539.0172526058163     
   2534.7632143075084     
   2531.1533872104396     
   2528.2365270666228     
   2526.0606282825738     
   2524.6729801964457     
   2577.3495411997624     
   2574.0891428618229     
   2571.2566509297462     
   2568.8941444242214     
   2567.0429497839250     
   2565.7436348248057     
   2565.0360309791577     
   2564.9592842717807     
   2565.5519352745937     
   2175.8226488588271     
   2151.1806860249958     
   2128.3353390972320     
   2107.5359513413814     
   2089.0316893847730     
   2073.0720453890331     
   2059.9079073903663     
   2049.7932025305504     
   2042.9870888390024     
   2227.9207635016701     
   2207.9973614664132     
   2189.7882289001755     
   2173.4735232964003     
   2159.2304156858572     
   2147.2343303140497     
   2137.6609209117828     
   2130.6887773184371     
   2126.5028234075057     
   2280.6270815433618     
   2264.9710316941710     
   2250.8534691631853     
   2238.3951271211390     
   2227.7129652393123     
   2218.9219937649250     
   2212.1378713041963     
   2207.4802578452727     
   2205.0768769263796     
   2332.9853063804326     
   2321.1373290527308     
   2310.5852561512252     
   2301.4007261865786     
   2293.6519857095955     
   2287.4060524905285     
   2282.7316111625605     
   2279.7026190202150     
   2278.4025803942336     
   2384.1896427252241     
   2375.6976987966550     
   2368.2152785042585     
   2361.7748984587752     
   2356.4066048599584     
   2352.1402298805619     
   2349.0082979712133     
   2347.0495635028674     
   2346.3131499059086     
   2433.5650378720079     
   2427.9944762269615     
   2423.1227877580523     
   2418.9524996313298     
   2415.4847163100776     
   2412.7212638782121     
   2410.6673822225152     
   2409.3349539504925     
   2408.7462538671425     
   2480.5486026474400     
   2477.4885660534023     
   2474.8089214394849     
   2472.4903118203251     
   2470.5128903330792     
   2468.8582009840084     
   2467.5114974258613     
   2466.4644963162523     
   2465.7185608379045     
   2524.6729801964457     
   2523.7401958506048     
   2522.8752967477817     
   2522.0441164304480     
   2521.2127010754366     
   2520.3488290928062     
   2519.4238580502797     
   2518.4149011172085     
   2517.3073364682782     
   2565.5519352745937     
   2566.3927392288920     
   2567.0065090173011     
   2567.3504130640904     
   2567.3822735801150     
   2567.0616775285157     
   2566.3513089636826     
   2565.2185077056479     
   2563.6370612389146     
   2042.9870888390024     
   2039.3567637289332     
   2038.3983721869274     
   2039.8668303283475     
   2043.6063131857557     
   2049.5883552521946     
   2057.9548551216576     
   2069.0649224156218     
   2083.5438092262029     
   2126.5028234075057     
   2124.5469635217510     
   2123.9288663242255     
   2124.3854918648776     
   2125.7387171550404     
   2127.9223240042916     
   2131.0125527136083     
   2135.2620346099147     
   2141.1365187751226     
   2205.0768769263796     
   2204.0683100713345     
   2203.2922298604813     
   2202.4780298109790     
   2201.4316056868479     
   2200.0543192162900     
   2198.3646531572635     
   2196.5227642032601     
   2194.8579427799154     
   2278.4025803942336     
   2277.7656155508057     
   2276.4537059384693     
   2274.1948523100250     
   2270.7833922294499     
   2266.0932923016603     
   2260.0935425245343     
   2252.8660053067615     
   2244.6259986187815     
   2346.3131499059086     
   2345.6015203802513     
   2343.4730890365981     
   2339.6584682635821     
   2333.9442234110838     
   2326.1822724063636     
   2316.3009842487854     
   2304.3183568655913     
   2290.3576537632948     
   2408.7462538671425     
   2407.6258772619731     
   2404.4800839646000     
   2399.0451291108857     
   2391.1035712837138     
   2380.4911243048500     
   2367.1049320340376     
   2350.9136270110962     
   2331.9695719747156     
   2465.7185608379045     
   2463.9541226218762     
   2459.6570708832683     
   2452.5720494582047     
   2442.4816100007961     
   2429.2115326755952     
   2412.6373882262469     
   2392.6926723732422     
   2369.3789028361466     
   2517.3073364682782     
   2514.7518476812925     
   2509.2269109951885     
   2500.4884071438737     
   2488.3231669877810     
   2472.5535249423774     
   2453.0430140305812     
   2429.7035124050367     
   2402.5042238485653     
   2563.6370612389146     
   2560.2237044260883     
   2553.4442409725216     
   2543.0689515464564     
   2528.8934597794546     
   2510.7430798944829     
   2488.4782964013871     
   2462.0016828039375     
   2431.2666518674250     
   2083.5438092262029     
   2098.5131369109786     
   2110.5902763268600     
   2120.0558423699285     
   2127.4245636611035     
   2133.4429278387302     
   2139.0965046992083     
   2145.6239015049364     
   2154.5333105095610     
   2141.1365187751226     
   2146.1259385323247     
   2147.4838286543754     
   2145.7116047724780     
   2141.6030367208268     
   2136.2693602429481     
   2131.1678912776888     
   2128.1284787082536     
   2129.3691764426471     
   2194.8579427799154     
   2191.0093762521910     
   2182.5841299230856     
   2170.2303000271031     
   2154.9287646907746     
   2138.0450311699874     
   2121.3850584349861     
   2107.2468179016018     
   2098.4533904989262     
   2244.6259986187815     
   2232.9910305082230     
   2215.6934724266339     
   2193.4611654355094     
   2167.3751859513736     
   2138.9446398461373     
   2110.1908873871221     
   2083.7321084943264     
   2062.8497298363759     
   2290.3576537632948     
   2271.8930779838279     
   2246.6078729193969     
   2215.2484747406934     
   2178.9150002504334     
   2139.1524813057063     
   2098.0596922593818     
   2058.4083606964582     
   2023.7537036731403     
   2331.9695719747156     
   2307.5326858092185     
   2275.1169459968592     
   2235.4312922445142     
   2189.5201122708941     
   2138.8624104481323     
   2085.4968273402155     
   2032.1698917709653     
   1982.4930306725455     
   2369.3789028361466     
   2339.7227353146632     
   2301.0042363960301     
   2253.8435890626351     
   2199.1616967700243     
   2138.2777591691311     
   2073.0385402905454     
   2005.9828655576468     
   1940.5362317547906     
   2402.5042238485653     
   2368.2728456288141     
   2324.0479552393454     
   2270.3146864098139     
   2207.8103810911230     
   2137.6111759617261     
   2061.2518139369008     
   1980.8879535604956     
   1899.5073397629521     
   2431.2666518674250     
   2392.9906860509004     
   2344.0220845504232     
   2284.6700005379130     
   2215.4365424846933     
   2137.0843561283250     
   2050.7339139694473     
   1958.0029607789663     
   1861.2037204849944     
   2860.4843589589964     
   2848.3634645286252     
   2836.3704753634229     
   2824.5123555878404     
   2812.7961468190210     
   2801.2289659264388     
   2789.8180026185173     
   2778.5705168455752     
   2767.4938360100946     
   2800.5668988382522     
   2791.1613887087187     
   2781.8741812486419     
   2772.7101217012491     
   2763.6741226756167     
   2754.7711634344514     
   2746.0062891023549     
   2737.3846097910728     
   2728.9112996429326     
   2748.0543748923919     
   2741.0879957036550     
   2734.2287616479889     
   2727.4799071974212     
   2720.8447274238169     
   2714.3265778703585     
   2707.9288745383014     
   2701.6550939839426     
   2695.5087735288093     
   2703.1775139148294     
   2698.3398461397501     
   2693.5977372005582     
   2688.9532804391247     
   2684.4086226488271     
   2679.9659639623569     
   2675.6275580299216     
   2671.3957124949584     
   2667.2727897669733     
   2666.1473458180712     
   2663.0965951177477     
   2660.1304989843456     
   2657.2504177518485     
   2654.4577554346915     
   2651.7539594159271     
   2649.1405205275169     
   2646.6189735289449     
   2644.1908979798891     
   2637.1475444762518     
   2635.5146837899815     
   2633.9572407562014     
   2632.4761703707923     
   2631.0724585876014     
   2629.7471218778710     
   2628.5012071631527     
   2627.3357921310212     
   2626.2519859279973     
   2616.3271339352864     
   2615.7213596212778     
   2615.1841757235857     
   2614.7163667844520     
   2614.3187343077238     
   2613.9920963894474     
   2613.7372875996280     
   2613.5551591235330     
   2613.4465791565453     
   2603.7941371136262     
   2603.8094753374999     
   2603.8893787807792     
   2604.0345989755601     
   2604.2458925560591     
   2604.5240211090827     
   2604.8697511152413     
   2605.2838539808240     
   2605.7671061580741     
   2599.6107289928314     
   2599.8335010876235     
   2600.1195807407780     
   2600.4697286530049     
   2600.8847055245228     
   2601.3652720564737     
   2601.9121889483781     
   2602.5262169009939     
   2603.2081166149301     
   2767.4938360100946     
   2756.5998537688643     
   2745.8982754403896     
   2735.3932853722008     
   2725.0891894960209     
   2714.9904163907272     
   2705.1015185173887     
   2695.4271736185115     
   2685.9721862803444     
   2728.9112996429326     
   2720.6005599919176     
   2712.4670063968174     
   2704.5165530842291     
   2696.7552088191646     
   2689.1890760793922     
   2681.8243501194697     
   2674.6673179171330     
   2667.7243569951970     
   2695.5087735288093     
   2689.5050854170495     
   2683.6616498756575     
   2677.9857739121740     
   2672.4848324330242     
   2667.1662663666007     
   2662.0375805995350     
   2657.1063417179080     
   2652.3801755474674     
   2667.2727897669733     
   2663.2736603240846     
   2659.4171750231985     
   2655.7117430263334     
   2652.1658178369930     
   2648.7878951012931     
   2645.5865102478183     
   2642.5702359701227     
   2639.7476795435732     
   2644.1908979798891     
   2641.8698048336314     
   2639.6742866455393     
   2637.6135999689645     
   2635.6970268535192     
   2633.9338728663915     
   2632.3334650229654     
   2630.9051496285588     
   2629.6582900300587     
   2626.2519859279973     
   2625.2612401109600     
   2624.3808278896449     
   2623.6206250100850     
   2622.9905193215209     
   2622.5004093472412     
   2622.1602028276016     
   2621.9798152374378     
   2621.9691682736875     
   2613.4465791565453     
   2613.4207288314283     
   2613.4930579662055     
   2613.6738544499558     
   2613.9734102744419     
   2614.4020207617309     
   2614.9699837961080     
   2615.6875990626468     
   2616.5651672867839     
   2605.7671061580741     
   2606.3268102098173     
   2606.9767575315632     
   2607.7274623465923     
   2608.5894395139617     
   2609.5732043014382     
   2610.6892721655886     
   2611.9481585392405     
   2613.3603786246408     
   2603.2081166149301     
   2603.9643984628597     
   2604.8081203120237     
   2605.7498641043121     
   2606.8002117819319     
   2607.9697452864038     
   2609.2690465602022     
   2610.7086975448456     
   2612.2992801823798     
   2685.9721862803444     
   2676.7409909734783     
   2667.7480026321919     
   2659.0132923512938     
   2650.5571906578239     
   2642.4002778935601     
   2634.5633731721159     
   2627.0675218354750     
   2619.9339813479696     
   2667.7243569951970     
   2661.0031614848758     
   2654.5188721470640     
   2648.2892484916160     
   2642.3322378172084     
   2636.6659676860081     
   2631.3087374624638     
   2626.2790088814222     
   2621.5953956121748     
   2652.3801755474674     
   2647.8703084220615     
   2643.5933392408124     
   2639.5650987248378     
   2635.8015511920462     
   2632.3187891215466     
   2629.1330271716947     
   2626.2605956343377     
   2623.7179333062518     
   2639.7476795435732     
   2637.1338534623396     
   2634.7474902908771     
   2632.6028729687278     
   2630.7143767982643     
   2629.0964658236276     
   2627.7636889404671     
   2626.7306757284032     
   2626.0121319977279     
   2629.6582900300587     
   2628.6117935952143     
   2627.7870174906079     
   2627.1970577981983     
   2626.8550711050725     
   2626.7742723095257     
   2626.9679323337241     
   2627.4493757392843     
   2628.2319782393911     
   2621.9691682736875     
   2622.1509148739769     
   2622.5492314517046     
   2623.1763561385765     
   2624.0445627647600     
   2625.1661596971085     
   2626.5534886742666     
   2628.2189236362228     
   2630.1748695434881     
   2616.5651672867839     
   2617.6285838066328     
   2618.9046487471219     
   2620.4050333732621     
   2622.1414259165804     
   2624.1255310894430     
   2626.3690696230251     
   2628.8837778244160     
   2631.6814071566314     
   2613.3603786246408     
   2614.9541359639006     
   2616.7581931093514     
   2618.7839070094633     
   2621.0426392113482     
   2623.5457557476102     
   2626.3046270338887     
   2629.3306277790616     
   2632.6351369077152     
   2612.2992801823798     
   2614.0698831426180     
   2616.0500467435832     
   2618.2510303995091     
   2620.6840935247546     
   2623.3604955336327     
   2626.2914958403280     
   2629.4883538588651     
   2632.9623290038162     
   2619.9339813479696     
   2613.1655106241610     
   2606.7652594828082     
   2600.7553826898315     
   2595.1582329471512     
   2589.9963379604201     
   2585.2923753314399     
   2581.0691452763876     
   2577.3495411997624     
   2621.5953956121748     
   2617.2596317030857     
   2613.2766413929776     
   2609.6700499367194     
   2606.4636259362646     
   2603.6812605710888     
   2601.3469451400838     
   2599.4847469364540     
   2598.1187835067353     
   2623.7179333062518     
   2621.5055456610808     
   2619.6294054289115     
   2618.1143120667675     
   2616.9851625907418     
   2616.2669342385129     
   2615.9846659406167     
   2616.1634386339219     
   2616.8283544619558     
   2626.0121319977279     
   2625.6070631429297     
   2625.5217492293973     
   2625.7819159968171     
   2626.4133504877336     
   2627.4418877494813     
   2628.8933967803150     
   2630.7937657534544     
   2633.1688865542123     
   2628.2319782393911     
   2629.3130067562433     
   2630.6983912798505     
   2632.4145701009220     
   2634.4880159730064     
   2636.9452269021995     
   2639.8127165211831     
   2643.1170040678953     
   2646.8846040025173     
   2630.1748695434881     
   2632.4167453537375     
   2634.9496489784251     
   2637.8005418264734     
   2640.9964016427211     
   2644.5642169841881     
   2648.5309815107084     
   2652.9236881024754     
   2657.7693228224166     
   2631.6814071566314     
   2634.7556379518783     
   2638.1105140438758     
   2641.7733490913974     
   2645.7714624882178     
   2650.1321767752165     
   2654.8828149951041     
   2660.0506979941724     
   2665.6631416799560     
   2632.6351369077152     
   2636.2105075670502     
   2640.0598451785149     
   2644.2106613549818     
   2648.6904687174392     
   2653.5267802195895     
   2658.7471084622580     
   2664.3789650035819     
   2670.4498596658091     
   2632.9623290038162     
   2636.7052365370173     
   2640.7197674938866     
   2645.0334949475400     
   2649.6739919722691     
   2654.6688316414170     
   2660.0455870287969     
   2665.8318312084630     
   2672.0551372536302     
   2577.3495411997624     
   2574.0891428618229     
   2571.2566509297462     
   2568.8941444242214     
   2567.0429497839250     
   2565.7436348248057     
   2565.0360309791577     
   2564.9592842717807     
   2565.5519352745937     
   2598.1187835067353     
   2597.1781658443601     
   2596.5981375871693     
   2596.4115274681512     
   2596.6504798497067     
   2597.3464686169668     
   2598.5303360321363     
   2600.2323566634336     
   2602.4823263468875     
   2616.8283544619558     
   2617.8825718829003     
   2619.2296536037129     
   2620.8948833275981     
   2622.9029796961054     
   2625.2781199033302     
   2628.0439838331322     
   2631.2238186496925     
   2634.8405236598305     
   2633.1688865542123     
   2635.8977347304053     
   2638.8550963540861     
   2642.0602449449952     
   2645.5320273532730     
   2649.2888891317625     
   2653.3489156013179     
   2657.7298884685597     
   2662.4493577846247     
   2646.8846040025173     
   2650.9731296066202     
   2655.2324267233985     
   2659.6771229520095     
   2664.3215549312299     
   2669.1797900653751     
   2674.2656592133098     
   2679.5928002036840     
   2685.1747120013288     
   2657.7693228224166     
   2662.9078311864600     
   2668.1687242016933     
   2673.5631924525010     
   2679.1022542485211     
   2684.7967707939060     
   2690.6574680597751     
   2696.6949652671610     
   2702.9198098561437     
   2665.6631416799560     
   2671.5468354918598     
   2677.5161925256284     
   2683.5800456203042     
   2689.7471475713096     
   2696.0261791279690     
   2702.4257602298726     
   2708.9544644265193     
   2715.6208364243007     
   2670.4498596658091     
   2676.7782136619521     
   2683.1690922077710     
   2689.6299528375366     
   2696.1682322337124     
   2702.7913485313566     
   2709.5067044988759     
   2716.3216915868502     
   2723.2436948212649     
   2672.0551372536302     
   2678.5310919754306     
   2685.0615704637671     
   2691.6535782116916     
   2698.3141207116651     
   2705.0502034568340     
   2711.8688319394969     
   2718.7770116525630     
   2725.7817480888798     
   2565.5519352745937     
   2566.3927392288920     
   2567.0065090173011     
   2567.3504130640904     
   2567.3822735801150     
   2567.0616775285157     
   2566.3513089636826     
   2565.2185077056479     
   2563.6370612389146     
   2602.4823263468875     
   2604.7892630919387     
   2606.6105555400304     
   2607.8985119559698     
   2608.6062813487401     
   2608.6885995264315     
   2608.1026720487666     
   2606.8091993585804     
   2604.7735511144360     
   2634.8405236598305     
   2638.3513417671825     
   2641.1641730208116     
   2643.2280800088502     
   2644.4929567387999     
   2644.9100031805046     
   2644.4322800576610     
   2643.0153482835417     
   2640.6179987388523     
   2662.4493577846247     
   2666.9280278315096     
   2670.5393672441851     
   2673.2303288597268     
   2674.9485682234713     
   2675.6427245470754     
   2675.2627454076578     
   2673.7602583090752     
   2671.0889930761041     
   2685.1747120013288     
   2690.4080850789524     
   2694.6442023345694     
   2697.8286922912594     
   2699.9077000738384     
   2700.8280377427882     
   2700.5373561304732     
   2698.9843401027338     
   2696.1189296320044     
   2702.9198098561437     
   2708.7145241617500     
   2713.4177070893111     
   2716.9741952657091     
   2719.3291468206603     
   2720.4281102144905     
   2720.2171021090353     
   2718.6426952655329     
   2715.6521176725546     
   2715.6208364243007     
   2721.8004410770141     
   2726.8260169486384     
   2730.6419621889236     
   2733.1928289407210     
   2734.4233472734636     
   2734.2784520193245     
   2732.7033128961934     
   2729.6433683769669     
   2723.2436948212649     
   2729.6459492982426     
   2734.8595425349949     
   2738.8286648358380     
   2741.4975472008009     
   2742.8104657143190     
   2742.7117464382659     
   2741.1457708924718     
   2738.0569822079947     
   2725.7817480888798     
   2732.2560500415234     
   2737.5310113637429     
   2741.5507651394119     
   2744.2594444511237     
   2745.6011823827325     
   2745.5201120172414     
   2743.9603664383453     
   2740.8660787290046     
   2563.6370612389146     
   2560.2237044260883     
   2553.4442409725216     
   2543.0689515464564     
   2528.8934597794546     
   2510.7430798944829     
   2488.4782964013871     
   2462.0016828039375     
   2431.2666518674250     
   2604.7735511144360     
   2600.5591687886008     
   2592.5972274163382     
   2580.6722487827687     
   2564.5891699917292     
   2544.1775291047225     
   2519.2967902999694     
   2489.8431154292589     
   2455.7579861261561     
   2640.6179987388523     
   2635.7326481215937     
   2626.7342150074810     
   2613.4181683430279     
   2595.5957238834571     
   2573.0975671501383     
   2545.7786460251691     
   2513.5243212871546     
   2476.2582643515684     
   2671.0889930761041     
   2665.6598374372834     
   2655.7776639784543     
   2641.2461823445933     
   2621.8805573213272     
   2597.5104565328902     
   2567.9840232074671     
   2533.1730244680007     
   2492.9795205600694     
   2696.1189296320044     
   2690.2674992365037     
   2679.6590892820996     
   2664.1034200091312     
   2643.4178747636483     
   2617.4297542096056     
   2585.9792515221061     
   2548.9233447293850     
   2506.1408816149960     
   2715.6521176725546     
   2709.4919968105328     
   2698.3178932627197     
   2681.9436990070685     
   2660.1878020387494     
   2632.8745294471064     
   2599.8360748026962     
   2560.9150419859520     
   2515.9677937277102     
   2729.6433683769669     
   2723.2781999820872     
   2711.7004932037912     
   2694.7267989528309     
   2672.1757480457741     
   2643.8687722087316     
   2609.6310777484609     
   2569.2929407070947     
   2522.6914227323259     
   2738.0569822079947     
   2731.5787023801822     
   2719.7596966194628     
   2702.4179384034915     
   2679.3719413342328     
   2650.4409597345739     
   2615.4452622587105     
   2574.2064982643910     
   2526.5481856330371     
   2740.8660787290046     
   2734.3533082753356     
   2722.4542918371171     
   2704.9874285591422     
   2681.7711175859085     
   2652.6237580616553     
   2617.3637491308996     
   2575.8094899382891     
   2527.7793796282376     
   2431.2666518674250     
   2392.9906860509004     
   2344.0220845504232     
   2284.6700005379130     
   2215.4365424846933     
   2137.0843561283250     
   2050.7339139694473     
   1958.0029607789663     
   1861.2037204849944     
   2455.7579861261561     
   2413.7709587395375     
   2360.6549623646129     
   2296.5377334996106     
   2221.6815705605613     
   2136.5303602246981     
   2041.7800248166570     
   1938.4847086858874     
   1828.2177219756388     
   2476.2582643515684     
   2430.8207198631580     
   2374.0262390394596     
   2305.8474955745482     
   2226.3442276687329     
   2135.6934512424150     
   2034.2367093780276     
   1922.5545125438587     
   1801.5854193156556     
   2492.9795205600694     
   2444.4222592897181     
   2384.4418189581784     
   2312.8821792037156     
   2229.6381405190618     
   2134.6727643462145     
   2028.0461479085259     
   1909.9627173897688     
   1780.8502276601039     
   2506.1408816149960     
   2454.8659938494002     
   2392.2168352074082     
   2317.9347471162982     
   2231.7865327815907     
   2133.5730768176363     
   2023.1447392742366     
   1900.4278624182027     
   1765.4707171387802     
   2515.9677937277102     
   2462.4497512249118     
   2397.6751296534881     
   2321.3079886471578     
   2233.0222631254751     
   2132.5050691668534     
   2019.4635119524032     
   1893.6371526086114     
   1754.8204105516936     
   2522.6914227323259     
   2467.4781906267035     
   2401.1487916137044     
   2323.3142401500390     
   2233.5877705467560     
   2131.5855912647980     
   2016.9290659740946     
   1889.2491214796078     
   1748.1945140309335     
   2526.5481856330371     
   2470.2623111508133     
   2402.9777037511531     
   2324.2750213581980     
   2233.7348921678590     
   2130.9379225758230     
   2015.4650369834133     
   1886.8983087022327     
   1744.8226169730790     
   2527.7793796282376     
   2471.1190060913550     
   2403.5090477825524     
   2324.5205396933729     
   2233.7245168154068     
   2130.6920141397145     
   2014.9940666573189     
   1886.2017093601962     
   1743.8859772395767     
   2599.6107289928314     
   2599.8335010876235     
   2600.1195807407780     
   2600.4697286530049     
   2600.8847055245228     
   2601.3652720564737     
   2601.9121889483781     
   2602.5262169009939     
   2603.2081166149301     
   2603.7941371153925     
   2603.8094753391356     
   2603.8893787817069     
   2604.0345989756047     
   2604.2458925554779     
   2604.5240211080245     
   2604.8697511141813     
   2605.2838539795207     
   2605.7671061571427     
   2616.3271339386438     
   2615.7213596239048     
   2615.1841757248576     
   2614.7163667844802     
   2614.3187343070013     
   2613.9920963876853     
   2613.7372875975348     
   2613.5551591213448     
   2613.4465791549042     
   2637.1475444815396     
   2635.5146837933644     
   2633.9572407583814     
   2632.4761703712079     
   2631.0724585866956     
   2629.7471218758524     
   2628.5012071603010     
   2627.3357921283018     
   2626.2519859259896     
   2666.1473458234814     
   2663.0965951215690     
   2660.1304989865953     
   2657.2504177525821     
   2654.4577554340026     
   2651.7539594141008     
   2649.1405205246838     
   2646.6189735259459     
   2644.1908979774221     
   2703.1775139205829     
   2698.3398461438387     
   2693.5977372033926     
   2688.9532804399319     
   2684.4086226483405     
   2679.9659639606903     
   2675.6275580271699     
   2671.3957124919830     
   2667.2727897643508     
   2748.0543748981872     
   2741.0879957079096     
   2734.2287616504341     
   2727.4799071987964     
   2720.8447274237410     
   2714.3265778691584     
   2707.9288745360491     
   2701.6550939813524     
   2695.5087735264487     
   2800.5668988424350     
   2791.1613887120161     
   2781.8741812511953     
   2772.7101217025574     
   2763.6741226759686     
   2754.7711634341422     
   2746.0062891006851     
   2737.3846097891446     
   2728.9112996404633     
   2860.4843589615753     
   2848.3634645307980     
   2836.3704753651173     
   2824.5123555890259     
   2812.7961468197068     
   2801.2289659265457     
   2789.8180026178711     
   2778.5705168442100     
   2767.4938360079650     
   2603.2081166149301     
   2603.9643984628597     
   2604.8081203120237     
   2605.7498641043121     
   2606.8002117819319     
   2607.9697452864038     
   2609.2690465602022     
   2610.7086975448456     
   2612.2992801823798     
   2605.7671061571427     
   2606.3268102093530     
   2606.9767575317969     
   2607.7274623475155     
   2608.5894395153750     
   2609.5732043032481     
   2610.6892721676372     
   2611.9481585412927     
   2613.3603786259946     
   2613.4465791549042     
   2613.4207288305288     
   2613.4930579665852     
   2613.6738544514051     
   2613.9734102770444     
   2614.4020207647600     
   2614.9699837998669     
   2615.6875990659660     
   2616.5651672892300     
   2626.2519859259896     
   2625.2612401098313     
   2624.3808278901620     
   2623.6206250120413     
   2622.9905193244540     
   2622.5004093512152     
   2622.1602028323023     
   2621.9798152415228     
   2621.9691682767980     
   2644.1908979774221     
   2641.8698048322872     
   2639.6742866457007     
   2637.6135999705739     
   2635.6970268565374     
   2633.9338728705234     
   2632.3334650275774     
   2630.9051496331117     
   2629.6582900336175     
   2667.2727897643508     
   2663.2736603223839     
   2659.4171750226610     
   2655.7117430273656     
   2652.1658178394291     
   2648.7878951046255     
   2645.5865102518565     
   2642.5702359745146     
   2639.7476795472408     
   2695.5087735264487     
   2689.5050854152455     
   2683.6616498743992     
   2677.9857739120266     
   2672.4848324341151     
   2667.1662663688153     
   2662.0375806026022     
   2657.1063417215664     
   2652.3801755511090     
   2728.9112996404633     
   2720.6005599895661     
   2712.4670063946960     
   2704.5165530828608     
   2696.7552088187058     
   2689.1890760798460     
   2681.8243501208108     
   2674.6673179195650     
   2667.7243569984339     
   2767.4938360079650     
   2756.5998537662695     
   2745.8982754373296     
   2735.3932853692745     
   2725.0891894934766     
   2714.9904163889514     
   2705.1015185166707     
   2695.4271736191172     
   2685.9721862826468     
   2612.2992801823798     
   2614.0698831426180     
   2616.0500467435832     
   2618.2510303995091     
   2620.6840935247546     
   2623.3604955336327     
   2626.2914958403280     
   2629.4883538588651     
   2632.9623290038162     
   2613.3603786259946     
   2614.9541359644713     
   2616.7581931089330     
   2618.7839070080313     
   2621.0426392093273     
   2623.5457557451186     
   2626.3046270312720     
   2629.3306277769257     
   2632.6351369066406     
   2616.5651672892300     
   2617.6285838075892     
   2618.9046487464884     
   2620.4050333711184     
   2622.1414259131298     
   2624.1255310853730     
   2626.3690696188901     
   2628.8837778212037     
   2631.6814071554772     
   2621.9691682767980     
   2622.1509148753398     
   2622.5492314511357     
   2623.1763561360881     
   2624.0445627610329     
   2625.1661596924519     
   2626.5534886698092     
   2628.2189236328932     
   2630.1748695428432     
   2629.6582900336175     
   2628.6117935971383     
   2627.7870174906971     
   2627.1970577965653     
   2626.8550711018497     
   2626.7742723056167     
   2626.9679323299638     
   2627.4493757368855     
   2628.2319782398995     
   2639.7476795472408     
   2637.1338534647352     
   2634.7474902917324     
   2632.6028729682657     
   2630.7143767968951     
   2629.0964658214839     
   2627.7636889385462     
   2626.7306757279671     
   2626.0121319999689     
   2652.3801755511090     
   2647.8703084252083     
   2643.5933392432507     
   2639.5650987265140     
   2635.8015511932936     
   2632.3187891224129     
   2629.1330271730508     
   2626.2605956366674     
   2623.7179333109216     
   2667.7243569984339     
   2661.0031614886425     
   2654.5188721511959     
   2648.2892484959079     
   2642.3322378218750     
   2636.6659676908475     
   2631.3087374675265     
   2626.2790088874735     
   2621.5953956193857     
   2685.9721862826468     
   2676.7409909776793     
   2667.7480026379253     
   2659.0132923584852     
   2650.5571906661212     
   2642.4002779029556     
   2634.5633731820590     
   2627.0675218457695     
   2619.9339813583920     
   2632.9623290038162     
   2636.7052365370173     
   2640.7197674938866     
   2645.0334949475400     
   2649.6739919722691     
   2654.6688316414170     
   2660.0455870287969     
   2665.8318312084630     
   2672.0551372536302     
   2632.6351369066406     
   2636.2105075676577     
   2640.0598451808296     
   2644.2106613588194     
   2648.6904687229194     
   2653.5267802258845     
   2658.7471084689632     
   2664.3789650102372     
   2670.4498596714984     
   2631.6814071554772     
   2634.7556379535463     
   2638.1105140485711     
   2641.7733490989835     
   2645.7714624980426     
   2650.1321767865866     
   2654.8828150075169     
   2660.0506980058326     
   2665.6631416898890     
   2630.1748695428432     
   2632.4167453567470     
   2634.9496489851167     
   2637.8005418365692     
   2640.9964016559188     
   2644.5642169991479     
   2648.5309815266137     
   2652.9236881175530     
   2657.7693228348630     
   2628.2319782398995     
   2629.3130067604966     
   2630.6983912880492     
   2632.4145701129319     
   2634.4880159880595     
   2636.9452269192957     
   2639.8127165390197     
   2643.1170040844650     
   2646.8846040160302     
   2626.0121319999689     
   2625.6070631487505     
   2625.5217492386423     
   2625.7819160093827     
   2626.4133505033656     
   2627.4418877667626     
   2628.8933967981980     
   2630.7937657699345     
   2633.1688865676338     
   2623.7179333109216     
   2621.5055456683076     
   2619.6294054388495     
   2618.1143120792281     
   2616.9851626054483     
   2616.2669342542113     
   2615.9846659566615     
   2616.1634386488913     
   2616.8283544737965     
   2621.5953956193857     
   2617.2596317118278     
   2613.2766414032531     
   2609.6700499481876     
   2606.4636259486169     
   2603.6812605841146     
   2601.3469451528040     
   2599.4847469481078     
   2598.1187835161249     
   2619.9339813583920     
   2613.1655106345802     
   2606.7652594928145     
   2600.7553826993299     
   2595.1582329562452     
   2589.9963379690607     
   2585.2923753393075     
   2581.0691452835435     
   2577.3495412060111     
   2672.0551372536302     
   2678.5310919754306     
   2685.0615704637671     
   2691.6535782116916     
   2698.3141207116651     
   2705.0502034568340     
   2711.8688319394969     
   2718.7770116525630     
   2725.7817480888798     
   2670.4498596714984     
   2676.7782136660321     
   2683.1690922103894     
   2689.6299528381737     
   2696.1682322329093     
   2702.7913485288614     
   2709.5067044957900     
   2716.3216915832654     
   2723.2436948182772     
   2665.6631416898890     
   2671.5468354986647     
   2677.5161925292932     
   2683.5800456210222     
   2689.7471475691505     
   2696.0261791237522     
   2702.4257602241892     
   2708.9544644204811     
   2715.6208364190475     
   2657.7693228348630     
   2662.9078311949816     
   2668.1687242060962     
   2673.5631924526278     
   2679.1022542454511     
   2684.7967707879657     
   2690.6574680521112     
   2696.6949652594521     
   2702.9198098496704     
   2646.8846040160302     
   2650.9731296154819     
   2655.2324267277477     
   2659.6771229519100     
   2664.3215549273787     
   2669.1797900586344     
   2674.2656592048320     
   2679.5928001950151     
   2685.1747119945089     
   2633.1688865676338     
   2635.8977347392179     
   2638.8550963582161     
   2642.0602449449939     
   2645.5320273496686     
   2649.2888891252596     
   2653.3489155931243     
   2657.7298884602083     
   2662.4493577782914     
   2616.8283544737965     
   2617.8825718909261     
   2619.2296536076815     
   2620.8948833277600     
   2622.9029796933569     
   2625.2781198979997     
   2628.0439838264465     
   2631.2238186429936     
   2634.8405236545509     
   2598.1187835161249     
   2597.1781658510554     
   2596.5981375910587     
   2596.4115274694309     
   2596.6504798487517     
   2597.3464686142697     
   2598.5303360282628     
   2600.2323566593218     
   2602.4823263434150     
   2577.3495412060111     
   2574.0891428669679     
   2571.2566509339040     
   2568.8941444272955     
   2567.0429497859004     
   2565.7436348259143     
   2565.0360309792945     
   2564.9592842710281     
   2565.5519352731631     
   2725.7817480888798     
   2732.2560500415234     
   2737.5310113637429     
   2741.5507651394119     
   2744.2594444511237     
   2745.6011823827325     
   2745.5201120172414     
   2743.9603664383453     
   2740.8660787290046     
   2723.2436948182772     
   2729.6459492959038     
   2734.8595425331382     
   2738.8286648347062     
   2741.4975472001215     
   2742.8104657135209     
   2742.7117464373746     
   2741.1457708909047     
   2738.0569822059274     
   2715.6208364190475     
   2721.8004410731473     
   2726.8260169461732     
   2730.6419621873938     
   2733.1928289398884     
   2734.4233472727346     
   2734.2784520180721     
   2732.7033128939820     
   2729.6433683730461     
   2702.9198098496704     
   2708.7145241574176     
   2713.4177070867736     
   2716.9741952644395     
   2719.3291468202992     
   2720.4281102139421     
   2720.2171021079594     
   2718.6426952625784     
   2715.6521176671977     
   2685.1747119945089     
   2690.4080850745613     
   2694.6442023322620     
   2697.8286922903958     
   2699.9077000735260     
   2700.8280377423798     
   2700.5373561289507     
   2698.9843400990744     
   2696.1189296249977     
   2662.4493577782914     
   2666.9280278278361     
   2670.5393672422697     
   2673.2303288591384     
   2674.9485682231825     
   2675.6427245464888     
   2675.2627454054432     
   2673.7602583044031     
   2671.0889930677245     
   2634.8405236545509     
   2638.3513417641670     
   2641.1641730191473     
   2643.2280800079061     
   2644.4929567380582     
   2644.9100031787993     
   2644.4322800544260     
   2643.0153482774854     
   2640.6179987291239     
   2602.4823263434150     
   2604.7892630891729     
   2606.6105555382774     
   2607.8985119539489     
   2608.6062813461667     
   2608.6885995227813     
   2608.1026720432883     
   2606.8091993506650     
   2604.7735511031474     
   2565.5519352731631     
   2566.3927392268456     
   2567.0065090142293     
   2567.3504130599231     
   2567.3822735745216     
   2567.0616775215117     
   2566.3513089549610     
   2565.2185076950709     
   2563.6370612262926     
   2740.8660787290046     
   2734.3533082753356     
   2722.4542918371171     
   2704.9874285591422     
   2681.7711175859085     
   2652.6237580616553     
   2617.3637491308996     
   2575.8094899382891     
   2527.7793796282376     
   2738.0569822059274     
   2731.5787023775169     
   2719.7596966166402     
   2702.4179384006575     
   2679.3719413323865     
   2650.4409597333183     
   2615.4452622585400     
   2574.2064982656389     
   2526.5481856357683     
   2729.6433683730461     
   2723.2781999767867     
   2711.7004931977863     
   2694.7267989472853     
   2672.1757480408078     
   2643.8687722055615     
   2609.6310777474000     
   2569.2929407085790     
   2522.6914227368375     
   2715.6521176671977     
   2709.4919968027925     
   2698.3178932538772     
   2681.9436989984711     
   2660.1878020313093     
   2632.8745294418509     
   2599.8360748005143     
   2560.9150419874300     
   2515.9677937334272     
   2696.1189296249977     
   2690.2674992264356     
   2679.6590892707750     
   2664.1034199976375     
   2643.4178747536257     
   2617.4297542022709     
   2585.9792515183035     
   2548.9233447302354     
   2506.1408816210983     
   2671.0889930677245     
   2665.6598374254145     
   2655.7776639649587     
   2641.2461823310337     
   2621.8805573092295     
   2597.5104565235306     
   2567.9840232020401     
   2533.1730244678711     
   2492.9795205661494     
   2640.6179987291239     
   2635.7326481081932     
   2626.7342149923238     
   2613.4181683278657     
   2595.5957238699971     
   2573.0975671393039     
   2545.7786460187685     
   2513.5243212858627     
   2476.2582643563669     
   2604.7735511031474     
   2600.5591687744918     
   2592.5972274006772     
   2580.6722487672496     
   2564.5891699777853     
   2544.1775290934602     
   2519.2967902925884     
   2489.8431154268119     
   2455.7579861298409     
   2563.6370612262926     
   2560.2237044118501     
   2553.4442409575831     
   2543.0689515319582     
   2528.8934597660095     
   2510.7430798836426     
   2488.4782963937255     
   2462.0016828003481     
   2431.2666518688243     
   2527.7793796282376     
   2471.1190060913550     
   2403.5090477825524     
   2324.5205396933729     
   2233.7245168154068     
   2130.6920141397145     
   2014.9940666573189     
   1886.2017093601962     
   1743.8859772395767     
   2526.5481856357683     
   2470.2623111544149     
   2402.9777037549102     
   2324.2750213611189     
   2233.7348921697890     
   2130.9379225765069     
   2015.4650369819663     
   1886.8983086991248     
   1744.8226169675404     
   2522.6914227368375     
   2467.4781906333637     
   2401.1487916206597     
   2323.3142401561854     
   2233.5877705508587     
   2131.5855912654397     
   2016.9290659715318     
   1889.2491214727779     
   1748.1945140215144     
   2515.9677937334272     
   2462.4497512337703     
   2397.6751296627604     
   2321.3079886552077     
   2233.0222631311394     
   2132.5050691685187     
   2019.4635119494374     
   1893.6371525986365     
   1754.8204105363768     
   2506.1408816210983     
   2454.8659938594619     
   2392.2168352190756     
   2317.9347471265164     
   2231.7865327882846     
   2133.5730768191297     
   2023.1447392699915     
   1900.4278624069561     
   1765.4707171195889     
   2492.9795205661494     
   2444.4222593003428     
   2384.4418189705161     
   2312.8821792148588     
   2229.6381405263610     
   2134.6727643480913     
   2028.0461479035762     
   1909.9627173776948     
   1780.8502276378911     
   2476.2582643563669     
   2430.8207198731807     
   2374.0262390513876     
   2305.8474955851702     
   2226.3442276764868     
   2135.6934512444168     
   2034.2367093732357     
   1922.5545125296514     
   1801.5854192933639     
   2455.7579861298409     
   2413.7709587481968     
   2360.6549623750443     
   2296.5377335095923     
   2221.6815705669505     
   2136.5303602263039     
   2041.7800248118622     
   1938.4847086730827     
   1828.2177219536088     
   2431.2666518688243     
   2392.9906860563201     
   2344.0220845577596     
   2284.6700005450371     
   2215.4365424898047     
   2137.0843561295405     
   2050.7339139641931     
   1958.0029607675256     
   1861.2037204672729     
   2860.4843589615753     
   2848.3634645307980     
   2836.3704753651173     
   2824.5123555890259     
   2812.7961468197068     
   2801.2289659265457     
   2789.8180026178711     
   2778.5705168442100     
   2767.4938360079650     
   2927.5644320393794     
   2912.4880736187752     
   2897.5487364206747     
   2882.7554450101734     
   2868.1173218695481     
   2853.6435833434675     
   2839.3435354516282     
   2825.2265695576343     
   2811.3021578893449     
   3001.5468591735148     
   2983.3149627670186     
   2965.2293935346183     
   2947.3005341774870     
   2929.5388972725482     
   2911.9551206415549     
   2894.5599626315229     
   2877.3642972964117     
   2860.3791094680028     
   3082.1679000990916     
   3060.6190722579954     
   3039.2248891064996     
   3017.9962975630933     
   2996.9444121869706     
   2976.0805117444461     
   2955.4160356801913     
   2934.9625804649027     
   2914.7318958000815     
   3169.1734251178718     
   3144.1810681478764     
   3119.3501383103257     
   3094.6912740104458     
   3070.2153174923069     
   3045.9333143073973     
   3021.8565126415624     
   2997.9963624623379     
   2974.3645144528459     
   3262.3230252316616     
   3233.7910774296720     
   3205.4258351272742     
   3177.2366974951060     
   3149.2332941087680     
   3121.4254883615267     
   3093.8233807447268     
   3066.4373119553484     
   3039.2778657873928     
   3361.3929371846507     
   3329.2514785223466     
   3297.2810344066702     
   3265.4888025173941     
   3233.8822201810776     
   3202.4689716625576     
   3171.2569955073081     
   3140.2544919117972     
   3109.4699300878497     
   3466.1779159892480     
   3430.3788252566833     
   3394.7550454906414     
   3359.3106082678000     
   3324.0497704636514     
   3288.9770239778054     
   3254.0971060115062     
   3219.4150099191061     
   3184.9359966453967     
   3576.4922178241136     
   3537.0050150330458     
   3497.6987046209965     
   3458.5732142332463     
   3419.6286548737703     
   3380.8653302082848     
   3342.2837473828490     
   3303.8846294813998     
   3265.6689297325465     
   2767.4938360079650     
   2756.5998537662695     
   2745.8982754373296     
   2735.3932853692745     
   2725.0891894934766     
   2714.9904163889514     
   2705.1015185166707     
   2695.4271736191172     
   2685.9721862826468     
   2811.3021578893449     
   2797.5784715420627     
   2784.0590314018541     
   2770.7464999711237     
   2757.6436856514683     
   2744.7535460972967     
   2732.0791921631640     
   2719.6238924536992     
   2707.3910784834325     
   2860.3791094680028     
   2843.6080479215461     
   2827.0485806432598     
   2810.7026254074526     
   2794.5722692311356     
   2778.6597739250428     
   2762.9675825947129     
   2747.4983271062706     
   2732.2548365450534     
   2914.7318958000815     
   2894.7231264061879     
   2874.9286962340689     
   2855.3505292746895     
   2835.9907454360823     
   2816.8516682177506     
   2797.9358335149441     
   2779.2459995870622     
   2760.7851582243320     
   2974.3645144528459     
   2950.9560823238912     
   2927.7599645767191     
   2904.7788062505956     
   2882.0154826974217     
   2859.4731093862842     
   2837.1550528228472     
   2815.0649426219015     
   2793.2066847666792     
   3039.2778657873928     
   3012.3367013455336     
   2985.6008568621091     
   2959.0743691045318     
   2932.7615510503301     
   2906.6670039963178     
   2880.7956306069473     
   2855.1526489331727     
   2829.7436074126767     
   3109.4699300878497     
   3078.8918635975915     
   3048.5069326673338     
   3018.3211863161841     
   2988.3410098142635     
   2958.5731395102384     
   2929.0246783661914     
   2899.7031121994132     
   2870.6163266247304     
   3184.9359966453967     
   3150.6453318708750     
   3116.5301883423003     
   3082.5991935340448     
   3048.8613865340931     
   3015.3262362748883     
   2982.0036603464068     
   2948.9040443603976     
   2916.0382618282870     
   3265.6689297325465     
   3227.6176380407996     
   3189.7185553305517     
   3151.9833966678952     
   3114.4243789714528     
   3077.0542436026753     
   3039.8862797433394     
   3002.9343485195727     
   2966.2129078176658     
   2685.9721862826468     
   2676.7409909776793     
   2667.7480026379253     
   2659.0132923584852     
   2650.5571906661212     
   2642.4002779029556     
   2634.5633731820590     
   2627.0675218457695     
   2619.9339813583920     
   2707.3910784834325     
   2695.3823423454714     
   2683.6114064002877     
   2672.1002912744702     
   2660.8713680046963     
   2649.9473476478447     
   2639.3512689446625     
   2629.1064839025257     
   2619.2366411820562     
   2732.2548365450534     
   2717.2360373930110     
   2702.4538517720739     
   2687.9310996780682     
   2673.6910546169329     
   2659.7574353908785     
   2646.1543955050802     
   2632.9065099946069     
   2620.0387594688291     
   2760.7851582243320     
   2742.5493573464732     
   2724.5471720965102     
   2706.8009851135266     
   2689.3337352125372     
   2672.1689147406332     
   2655.3305643760973     
   2638.8432650922755     
   2622.7321270029634     
   2793.2066847666792     
   2771.5732135856792     
   2750.1681469314221     
   2729.0121082779001     
   2708.1263623941336     
   2687.5328213437510     
   2667.2540482070494     
   2647.3132582051667     
   2627.7343168849111     
   2829.7436074126767     
   2804.5584397468756     
   2779.5945208598191     
   2754.8693241351489     
   2730.4010113227623     
   2706.2084490390012     
   2682.3112239262873     
   2658.7296561750086     
   2635.4848110857474     
   2870.6163266247304     
   2841.7520806569223     
   2813.1009387494018     
   2784.6757958446078     
   2756.4902224179327     
   2728.5584912775157     
   2700.8956047301640     
   2673.5173219530357     
   2646.4401863844960     
   2916.0382618282870     
   2883.3937878219213     
   2850.9549162073131     
   2818.7285443954420     
   2786.7221521930505     
   2754.9438360605927     
   2723.4023462205791     
   2692.1071267210486     
   2661.0683585525799     
   2966.2129078176658     
   2929.7124347972544     
   2893.4129747742581     
   2857.3140767033256     
   2821.4156828075666     
   2785.7181647560328     
   2750.2223658657513     
   2714.9296498186104     
   2679.8419564170017     
   2619.9339813583920     
   2613.1655106345802     
   2606.7652594928145     
   2600.7553826993299     
   2595.1582329562452     
   2589.9963379690607     
   2585.2923753393075     
   2581.0691452835435     
   2577.3495412060111     
   2619.2366411820562     
   2609.7451173496938     
   2600.6333989737141     
   2591.9227224982869     
   2583.6345888072588     
   2575.7907392402121     
   2568.4131289437141     
   2561.5238975216607     
   2555.1453369801511     
   2620.0387594688291     
   2607.5547240372875     
   2595.4554317904726     
   2583.7626085612519     
   2572.4983363950068     
   2561.6850292650010     
   2551.3454054664803     
   2541.5024565874464     
   2532.1794129830178     
   2622.7321270029634     
   2607.0006476859894     
   2591.6507732671348     
   2576.7060535972801     
   2562.1905273855382     
   2548.1286991930615     
   2534.5455121952641     
   2521.4663164885774     
   2508.9168327441826     
   2627.7343168849111     
   2608.5200525166947     
   2589.6744455184412     
   2571.2240923600475     
   2553.1962681542868     
   2535.6189080177282     
   2518.5205830584273     
   2501.9304705524514     
   2485.8783178903759     
   2635.4848110857474     
   2612.5775272936753     
   2590.0142223850576     
   2567.8256017276212     
   2546.0433101898770     
   2524.6999232555290     
   2503.8289315919787     
   2483.4647183068373     
   2463.6425281052884     
   2646.4401863844960     
   2619.6605707990730     
   2593.1865577076674     
   2567.0538106030294     
   2541.2992723811626     
   2515.9611745280131     
   2491.0790390448528     
   2466.6936718766210     
   2442.8471465267066     
   2661.0683585525799     
   2630.2739213016907     
   2599.7311614457112     
   2569.4812870253681     
   2539.5672026585648     
   2510.0335481980378     
   2480.9267306865981     
   2452.2949478258720     
   2424.1882009636734     
   2679.8419564170017     
   2644.9327423513150     
   2610.2041626081450     
   2575.7032558108745     
   2541.4792369310280     
   2507.5835792081666     
   2474.0700923393165     
   2440.9949946718857     
   2408.4169767296103     
   2577.3495412060111     
   2574.0891428669679     
   2571.2566509339040     
   2568.8941444272955     
   2567.0429497859004     
   2565.7436348259143     
   2565.0360309792945     
   2564.9592842710281     
   2565.5519352731631     
   2555.1453369801511     
   2549.2590115990129     
   2543.8659597182955     
   2539.0172526122528     
   2534.7632143142168     
   2531.1533872166060     
   2528.2365270714108     
   2526.0606282853664     
   2524.6729801964302     
   2532.1794129830178     
   2523.3826173507541     
   2515.1415912117523     
   2507.5140424167876     
   2500.5570117320235     
   2494.3268064596000     
   2488.8789616205822     
   2484.2682300608640     
   2480.5486026467352     
   2508.9168327441826     
   2496.9263438329049     
   2485.5482736573358     
   2474.8444956513995     
   2464.8763737602421     
   2455.7046641233555     
   2447.3894394695167     
   2439.9900379286833     
   2433.5650378689493     
   2485.8783178903759     
   2470.4144111535484     
   2455.6112614333883     
   2441.5322247509621     
   2428.2403719291597     
   2415.7983629433056     
   2404.2683366565911     
   2393.7118177512198     
   2384.1896427184129     
   2463.6425281052884     
   2444.4321983509071     
   2425.9208412110197     
   2408.1703080746042     
   2391.2424266029934     
   2375.1988571712809     
   2360.1009561822743     
   2346.0096478684432     
   2332.9853063686401     
   2442.8471465267066     
   2419.6285221783755     
   2397.1360019866888     
   2375.4265649984982     
   2354.5574116695179     
   2334.5858156348841     
   2315.5689747523325     
   2297.5638625528750     
   2280.6270815259254     
   2424.1882009636734     
   2396.7162559490530     
   2369.9866137558247     
   2344.0475903693291     
   2318.9478710010494     
   2294.7363713455779     
   2271.4620940746513     
   2249.1739812309315     
   2227.9207634780214     
   2408.4169767296103     
   2376.4705534732248     
   2345.2732891209148     
   2314.8606389851843     
   2285.2683706480420     
   2256.5324446520399     
   2228.6888926301690     
   2201.7736935349280     
   2175.8226488293267     
   2565.5519352731631     
   2566.3927392268456     
   2567.0065090142293     
   2567.3504130599231     
   2567.3822735745216     
   2567.0616775215117     
   2566.3513089549610     
   2565.2185076950709     
   2563.6370612262926     
   2524.6729801964302     
   2523.7401958471874     
   2522.8752967411156     
   2522.0441164213826     
   2521.2127010641507     
   2520.3488290800374     
   2519.4238580363531     
   2518.4149011026698     
   2517.3073364539764     
   2480.5486026467352     
   2477.4885660460154     
   2474.8089214267184     
   2472.4903118031275     
   2470.5128903129862     
   2468.8582009625929     
   2467.5114974044095     
   2466.4644962963043     
   2465.7185608214118     
   2433.5650378689493     
   2427.9944762137466     
   2423.1227877367487     
   2418.9524996039645     
   2415.4847162791298     
   2412.7212638463848     
   2410.6673821923473     
   2409.3349539242286     
   2408.7462538482055     
   2384.1896427184129     
   2375.6976987763055     
   2368.2152784734039     
   2361.7748984205346     
   2356.4066048175355     
   2352.1402298377320     
   2349.0082979313520     
   2347.0495634702279     
   2346.3131498841253     
   2332.9853063686401     
   2321.1373290245438     
   2310.5852561105098     
   2301.4007261375368     
   2293.6519856561436     
   2287.4060524371953     
   2282.7316111140181     
   2279.7026189810745     
   2278.4025803695663     
   2280.6270815259254     
   2264.9710316585097     
   2250.8534691134087     
   2238.3951270621938     
   2227.7129651763053     
   2218.9219937027101     
   2212.1378712480691     
   2207.4802578004046     
   2205.0768768984694     
   2227.9207634780214     
   2207.9973614236324     
   2189.7882288432934     
   2173.4735232303810     
   2159.2304156158721     
   2147.2343302453673     
   2137.6609208499281     
   2130.6887772690225     
   2126.5028233760140     
   2175.8226488293267     
   2151.1806859769081     
   2128.3353390357024     
   2107.5359512713599     
   2089.0316893114623     
   2073.0720453175145     
   2059.9079073256285     
   2049.7932024781198     
   2042.9870888038106     
   2563.6370612262926     
   2560.2237044118501     
   2553.4442409575831     
   2543.0689515319582     
   2528.8934597660095     
   2510.7430798836426     
   2488.4782963937255     
   2462.0016828003481     
   2431.2666518688243     
   2517.3073364539764     
   2514.7518476674650     
   2509.2269109825133     
   2500.4884071321776     
   2488.3231669776369     
   2472.5535249340132     
   2453.0430140245426     
   2429.7035124016320     
   2402.5042238480196     
   2465.7185608214118     
   2463.9541226094907     
   2459.6570708738809     
   2452.5720494513757     
   2442.4816099959253     
   2429.2115326720800     
   2412.6373882241360     
   2392.6926723716929     
   2369.3789028347333     
   2408.7462538482055     
   2407.6258772507836     
   2404.4800839594227     
   2399.0451291099544     
   2391.1035712856774     
   2380.4911243083025     
   2367.1049320373982     
   2350.9136270128306     
   2331.9695719728811     
   2346.3131498841253     
   2345.6015203701022     
   2343.4730890353608     
   2339.6584682687021     
   2333.9442234197727     
   2326.1822724165131     
   2316.3009842574852     
   2304.3183568708982     
   2290.3576537621784     
   2278.4025803695663     
   2277.7656155410914     
   2276.4537059403324     
   2274.1948523203987     
   2270.7833922444584     
   2266.0932923180280     
   2260.0935425392800     
   2252.8660053159683     
   2244.6259986191817     
   2205.0768768984694     
   2204.0683100607830     
   2203.2922298641056     
   2202.4780298244173     
   2201.4316057063866     
   2200.0543192378896     
   2198.3646531767686     
   2196.5227642164282     
   2194.8579427828727     
   2126.5028233760140     
   2124.5469635095988     
   2123.9288663270609     
   2124.3854918790253     
   2125.7387171761566     
   2127.9223240282640     
   2131.0125527358737     
   2135.2620346262238     
   2141.1365187811984     
   2042.9870888038106     
   2039.3567637123131     
   2038.3983721855020     
   2039.8668303388820     
   2043.6063132043525     
   2049.5883552750774     
   2057.9548551445009     
   2069.0649224340445     
   2083.5438092363870     
   2431.2666518688243     
   2392.9906860563201     
   2344.0220845577596     
   2284.6700005450371     
   2215.4365424898047     
   2137.0843561295405     
   2050.7339139641931     
   1958.0029607675256     
   1861.2037204672729     
   2402.5042238480196     
   2368.2728456304103     
   2324.0479552421607     
   2270.3146864128225     
   2207.8103810927091     
   2137.6111759612722     
   2061.2518139329809     
   1980.8879535528370     
   1899.5073397530402     
   2369.3789028347333     
   2339.7227353128169     
   2301.0042363945990     
   2253.8435890606643     
   2199.1616967684608     
   2138.2777591666054     
   2073.0385402878906     
   2005.9828655551908     
   1940.5362317562613     
   2331.9695719728811     
   2307.5326858043627     
   2275.1169459906760     
   2235.4312922378790     
   2189.5201122649269     
   2138.8624104442192     
   2085.4968273384925     
   2032.1698917737658     
   1982.4930306838917     
   2290.3576537621784     
   2271.8930779769016     
   2246.6078729094229     
   2215.2484747298640     
   2178.9150002414649     
   2139.1524813004867     
   2098.0596922600198     
   2058.4083607053894     
   2023.7537036941289     
   2244.6259986191817     
   2232.9910305007102     
   2215.6934724148518     
   2193.4611654225587     
   2167.3751859408835     
   2138.9446398409709     
   2110.1908873896145     
   2083.7321085092485     
   2062.8497298653187     
   2194.8579427828727     
   2191.0093762453134     
   2182.5841299111726     
   2170.2303000138736     
   2154.9287646805146     
   2138.0450311662212     
   2121.3850584409693     
   2107.2468179194270     
   2098.4533905323219     
   2141.1365187811984     
   2146.1259385285871     
   2147.4838286451973     
   2145.7116047625304     
   2141.6030367139392     
   2136.2693602428176     
   2131.1678912876914     
   2128.1284787294267     
   2129.3691764749597     
   2083.5438092363870     
   2098.5131369128471     
   2110.5902763240338     
   2120.0558423663751     
   2127.4245636607761     
   2133.4429278444063     
   2139.0965047129057     
   2145.6239015260749     
   2154.5333105347322     
   3576.4922178241136     
   3537.0050150330458     
   3497.6987046209965     
   3458.5732142332463     
   3419.6286548737703     
   3380.8653302082848     
   3342.2837473828490     
   3303.8846294813998     
   3265.6689297325465     
   3692.1709761091010     
   3648.9849635032579     
   3605.9839000368102     
   3563.1638819125701     
   3520.5211328024066     
   3478.0520100752628     
   3435.7530137162703     
   3393.6207981697125     
   3351.6521873554043     
   3813.0697439466508     
   3766.1907400514565     
   3719.4961120737498     
   3672.9795779616134     
   3626.6349332586033     
   3580.4560541943119     
   3534.4369041636560     
   3488.5715439156115     
   3442.8541457905417     
   3939.0566952017221     
   3888.5007883671319     
   3838.1246577248899     
   3787.9210854295270     
   3737.8828946795265     
   3688.0029510540444     
   3638.2741672799762     
   3588.6895117552976     
   3539.2420212011230     
   4070.0109392702552     
   4015.8051281196158     
   3961.7704950332195     
   3907.9002982191992     
   3854.1878196458874     
   3800.6263665604965     
   3747.2092758511853     
   3693.9299215360065     
   3640.7817256999474     
   4205.8219839220519     
   4148.0047969301950     
   4090.3456951242342     
   4032.8397729184453     
   3975.4821542367372     
   3918.2679958899816     
   3861.1924928444946     
   3804.2508855796341     
   3747.4384697506980     
   4346.3890863583247     
   4285.0111721187232     
   4223.7727861439225     
   4162.6721462246651     
   4101.7075295393443     
   4040.8772786818413     
   3980.1798086890590     
   3919.6136151693495     
   3859.1772836490604     
   4491.6205388798508     
   4426.7452206936032     
   4361.9840178536742     
   4297.3394650143073     
   4232.8142085122909     
   4168.4110145060895     
   4104.1327778432878     
   4039.9825317271539     
   3975.9634582628942     
   4641.4329252440029     
   4573.1367155970847     
   4504.9205855950577     
   4436.7924670940592     
   4368.7604739628969     
   4300.8329101874633     
   4233.0182797577445     
   4165.3252985242270     
   4097.7629082266121     
   3265.6689297325465     
   3227.6176380407996     
   3189.7185553305517     
   3151.9833966678952     
   3114.4243789714528     
   3077.0542436026753     
   3039.8862797433394     
   3002.9343485195727     
   2966.2129078176658     
   3351.6521873554043     
   3309.8228157645462     
   3268.1195351492092     
   3226.5565548801756     
   3185.1486680955636     
   3143.9112797531880     
   3102.8604361821258     
   3062.0128561291594     
   3021.3859632851568     
   3442.8541457905417     
   3397.2542358902988     
   3351.7549136716111     
   3306.3712575758736     
   3261.1189736480060     
   3216.0144292399295     
   3171.0746891216318     
   3126.3175540884099     
   3081.7616021378903     
   3539.2420212011230     
   3489.8944767181365     
   3440.6235612373312     
   3391.4436728413552     
   3342.3698347008658     
   3293.4177330072685     
   3244.6037580577963     
   3195.9450486748583     
   3147.4595401589731     
   3640.7817256999474     
   3587.7207980085768     
   3534.7155196347280     
   3481.7781720664348     
   3428.9216094749190     
   3376.1592978490671     
   3323.5053576048795     
   3270.9746099485146     
   3218.5826272883410     
   3747.4384697506980     
   3690.7059996276712     
   3634.0130280918283     
   3577.3684308948405     
   3520.7815555725633     
   3464.2622575017999     
   3407.8209392864655     
   3351.4685937993668     
   3295.2168512308504     
   3859.1772836490604     
   3798.8192425774278     
   3738.4915645602218     
   3678.1986058465072     
   3617.9450511417258     
   3557.7359417342500     
   3497.5767064952929     
   3437.4731960834024     
   3377.4317207162098     
   3975.9634582628942     
   3912.0268152297963     
   3848.1208689262958     
   3784.2445391238975     
   3720.3968984231556     
   3656.5771878638607     
   3592.7848350746162     
   3529.0194752848297     
   3465.2809755621679     
   4097.7629082266121     
   4030.2928331728435     
   3962.8659218493649     
   3895.4749514904515     
   3828.1126575343342     
   3760.7717333093997     
   3693.4448327506316     
   3626.1245765316203     
   3558.8035620659762     
   2966.2129078176658     
   2929.7124347972544     
   2893.4129747742581     
   2857.3140767033256     
   2821.4156828075666     
   2785.7181647560328     
   2750.2223658657513     
   2714.9296498186104     
   2679.8419564170017     
   3021.3859632851568     
   2980.9773108317895     
   2940.7676873912819     
   2900.7500226760362     
   2860.9174051521682     
   2821.2631140689346     
   2781.7806602948954     
   2742.4638368160704     
   2703.3067798434622     
   3081.7616021378903     
   3037.4151925722094     
   2993.2666029571737     
   2949.3048566271855     
   2905.5189360990485     
   2861.8978078800351     
   2818.4304571291577     
   2775.1059332142509     
   2731.9134073371811     
   3147.4595401589731     
   3099.1694135302091     
   3051.0764142047383     
   3003.1683141893955     
   2955.4327098714643     
   2907.8570391799817     
   2860.4286078394553     
   2813.1346257364071     
   2765.9622545607635     
   3218.5826272883410     
   3166.3669079000374     
   3114.3469970766073     
   3062.5119613345887     
   3010.8506422875566     
   2959.3516678127362     
   2908.0034701586101     
   2856.7943118220060     
   2805.7123201357040     
   3295.2168512308504     
   3239.1177711874648     
   3183.2105703505458     
   3127.4879851635988     
   3071.9425724192993     
   3016.5667174795108     
   2961.3526467572792     
   2906.2924449973225     
   2851.3780779747422     
   3377.4317207162098     
   3317.5152441003065     
   3257.7813320023238     
   3198.2285296706691     
   3138.8553384794604     
   3079.6602250546548     
   3020.6416327017910     
   2961.7979954428479     
   2903.1277550174982     
   3465.2809755621679     
   3401.6360806067191     
   3338.1555461117105     
   3274.8455626123045     
   3211.7124861703178     
   3148.7628527144720     
   3086.0033951101454     
   3023.4410633159132     
   2961.0830480522491     
   3558.8035620659762     
   3491.5412472199891     
   3424.4120346625969     
   3357.4312336656512     
   3290.6145736930330     
   3223.9782287860030     
   3157.5388496036858     
   3091.3136041530452     
   3025.3202284002505     
   2679.8419564170017     
   2644.9327423513150     
   2610.2041626081450     
   2575.7032558108745     
   2541.4792369310280     
   2507.5835792081666     
   2474.0700923393165     
   2440.9949946718857     
   2408.4169767296103     
   2703.3067798434622     
   2664.2623311569268     
   2625.3192042900851     
   2586.5275086382408     
   2547.9399481267196     
   2509.6119582778474     
   2471.6018458922308     
   2433.9709291127465     
   2396.7836750537836     
   2731.9134073371811     
   2688.7809023425134     
   2645.6740377862197     
   2602.6404936228264     
   2559.7307363888663     
   2516.9982104253713     
   2474.4995402913696     
   2432.2947431034945     
   2390.4474489297681     
   2765.9622545607635     
   2718.8128413752092     
   2671.6217428722516     
   2624.4290199788907     
   2577.2774172690069     
   2530.2125896293151     
   2483.2833484235994     
   2436.5419276548118     
   2390.0442702562991     
   2805.7123201357040     
   2754.6340555822353     
   2703.4615357010443     
   2652.2225603124562     
   2600.9471790960442     
   2549.6679184388695     
   2498.4200331584070     
   2447.2417855664025     
   2396.1747544452801     
   2851.3780779747422     
   2796.4682280264215     
   2741.4340818673468     
   2686.2873097335278     
   2631.0410729425857     
   2575.7102061578826     
   2520.3114256454242     
   2464.8635673867384     
   2409.3878595105775     
   2903.1277550174982     
   2844.4847571535443     
   2785.7187661456128     
   2726.8224154544318     
   2667.7887953027825     
   2608.6115478789293     
   2549.2849872331844     
   2489.8042481568077     
   2430.1654692378070     
   2961.0830480522491     
   2898.7984654268585     
   2836.4330606897088     
   2773.9586133329235     
   2711.3461368065346     
   2648.5658605283011     
   2585.5872392682304     
   2522.3789943545498     
   2458.9091921347767     
   3025.3202284002505     
   2959.4710219900198     
   2893.6339589194490     
   2827.7592965662780     
   2761.7952269268335     
   2695.6877486971721     
   2629.3805847766102     
   2562.8151516601552     
   2495.9305885043432     
   2408.4169767296103     
   2376.4705534732248     
   2345.2732891209148     
   2314.8606389851843     
   2285.2683706480420     
   2256.5324446520399     
   2228.6888926301690     
   2201.7736935349280     
   2175.8226488293267     
   2396.7836750537836     
   2360.2041630904118     
   2324.3673209057752     
   2289.2964773244521     
   2255.0150759251310     
   2221.5465753421408     
   2188.9143539955380     
   2157.1416204958441     
   2126.2513311266230     
   2390.4474489297681     
   2349.1540105511031     
   2308.5777469655054     
   2268.7356249407640     
   2229.6445964415684     
   2191.3215169361783     
   2153.7830743833010     
   2117.0457308469690     
   2081.1256788771802     
   2390.0442702562991     
   2344.0189256855724     
   2298.6658899549066     
   2254.0012923347331     
   2210.0412760477566     
   2166.8019375683380     
   2124.2992802906879     
   2082.5491850349631     
   2041.5674001349596     
   2396.1747544452801     
   2345.4747340101953     
   2295.3815181629716     
   2245.9156019757538     
   2197.0977504866014     
   2148.9489686428424     
   2101.4904882793562     
   2054.7437749701958     
   2008.7305579511756     
   2409.3878595105775     
   2354.1555705271403     
   2299.4418653615553     
   2245.2763791902280     
   2191.6895277159888     
   2138.7125245330180     
   2086.3774224415715     
   2034.7171824270765     
   1983.7657745186891     
   2430.1654692378070     
   2370.6350789016496     
   2311.5094153031591     
   2252.8314676007326     
   2194.6457397789491     
   2136.9983371936182     
   2079.9370970579575     
   2023.5117696667319     
   1967.7742581064467     
   2458.9091921347767     
   2395.4090976628531     
   2332.1702995487703     
   2269.2526397278020     
   2206.7183345766630     
   2144.6321526648117     
   2083.0616813653855     
   2022.0776973424418     
   1961.7546583368687     
   2495.9305885043432     
   2428.8814736580493     
   2361.9153998961547     
   2295.1116693474050     
   2228.5527775190767     
   2162.3246989821819     
   2096.5173458300746     
   2031.2252315538876     
   1966.5483790945809     
   2175.8226488293267     
   2151.1806859769081     
   2128.3353390357024     
   2107.5359512713599     
   2089.0316893114623     
   2073.0720453175145     
   2059.9079073256285     
   2049.7932024781198     
   2042.9870888038106     
   2126.2513311266230     
   2096.5966150963291     
   2068.7204136647506     
   2042.9340527353140     
   2019.5538188990390     
   1998.9008881116733     
   1981.3014958146191     
   1967.0873349320198     
   1956.5961549876429     
   2081.1256788771802     
   2046.3424062721410     
   2013.2303549224212     
   1982.1367671132539     
   1953.4206186809615     
   1927.4524706551870     
   1904.6141473060934     
   1885.2981532141412     
   1869.9067456624250     
   2041.5674001349596     
   2001.6027134855533     
   1963.1192151578923     
   1926.4693611684108     
   1892.0246277923068     
   1860.1759049824739     
   1831.3333613245013     
   1805.9255688116248     
   1784.3976748806990     
   2008.7305579511756     
   1963.6036793079547     
   1919.7049454956057     
   1877.3573699426056     
   1836.9088365054185     
   1798.7335026351043     
   1763.2325626829197     
   1730.8340472903412     
   1701.9912946793152     
   1983.7657745186891     
   1933.5745666337673     
   1884.3307383657034     
   1836.2914270850831     
   1789.7405979704065     
   1744.9913872701488     
   1702.3880334530679     
   1662.3070767445995     
   1625.1574219293088     
   1967.7742581064467     
   1912.6968475028855     
   1858.3101705928889     
   1804.7710966409807     
   1752.2592062812450     
   1700.9791871202765     
   1651.1632597337202     
   1603.0734863333346     
   1557.0037423879053     
   1961.7546583368687     
   1902.0437289515266     
   1842.8582976754819     
   1784.2276780117600     
   1726.1929077443322     
   1668.8076858459324     
   1612.1396924143141     
   1556.2723639285221     
   1501.3072044504790     
   1966.5483790945809     
   1902.5164811982095     
   1839.0153219878000     
   1775.9316923712672     
   1713.1478072920409     
   1650.5395957594751     
   1587.9755267177238     
   1525.3161098835064     
   1462.4142511242947     
   2042.9870888038106     
   2039.3567637123131     
   2038.3983721855020     
   2039.8668303388820     
   2043.6063132043525     
   2049.5883552750774     
   2057.9548551445009     
   2069.0649224340445     
   2083.5438092363870     
   1956.5961549876429     
   1950.2413498300280     
   1948.0502203213020     
   1949.8240259851966     
   1955.4491978455121     
   1964.9479975981303     
   1978.5357684687347     
   1996.6821234622200     
   2020.1723781534290     
   1869.9067456624250     
   1859.4882446550678     
   1854.7380513433013     
   1855.5568911774481     
   1861.9149139164135     
   1873.9130119646720     
   1891.8527489507596     
   1916.3099319446903     
   1948.2055314242505     
   1784.3976748806990     
   1768.4783516908146     
   1759.6409920536821     
   1757.9584327901591     
   1763.5460557037750     
   1776.6292963671885     
   1797.6227585836484     
   1827.2131221735888     
   1866.4363796256937     
   1701.9912946793152     
   1679.0944731800689     
   1664.4589636263870     
   1658.4229258733747     
   1661.3347425039794     
   1673.6181749245522     
   1695.8535234692022     
   1728.8643655550479     
   1773.7970897547702     
   1625.1574219293088     
   1593.8791751656956     
   1571.6145281447625     
   1559.0730803861190     
   1556.9522213179011     
   1565.9865667052145     
   1587.0177480144173     
   1621.0736219614309     
   1669.4421578231295     
   1557.0037423879053     
   1516.2074849947585     
   1484.5077402946226     
   1463.0786631890771     
   1453.0982646870875     
   1455.7679790383577     
   1472.3504129069297     
   1504.2183522931523     
   1552.9034454340620     
   1501.3072044504790     
   1450.4249351051369     
   1407.7879573178725     
   1375.0613274614850     
   1354.0046185612498     
   1346.4630502882944     
   1354.3555075886588     
   1379.6577607394415     
   1424.3813237067197     
   1462.4142511242947     
   1401.8468445581270     
   1347.5284511675516     
   1301.4996355350042     
   1266.0734321673290     
   1243.8451806201854     
   1237.6559328033948     
   1250.4899164440919     
   1285.3099570373777     
   2083.5438092363870     
   2098.5131369128471     
   2110.5902763240338     
   2120.0558423663751     
   2127.4245636607761     
   2133.4429278444063     
   2139.0965047129057     
   2145.6239015260749     
   2154.5333105347322     
   2020.1723781534290     
   2045.5096847990799     
   2068.4273266437399     
   2089.0126946734699     
   2107.5694626685236     
   2124.5964466725886     
   2140.7847601824801     
   2157.0304941740110     
   2174.4599041958836     
   1948.2055314242505     
   1983.2843194817544     
   2016.3237096201317     
   2047.3485408026381     
   2076.6863658000912     
   2104.9367736219588     
   2132.9620212878149     
   2161.8941796051427     
   2193.1535696472802     
   1866.4363796256937     
   1910.3124095405512     
   1952.7469126649623     
   1993.8143676482464     
   2034.0897104164601     
   2074.6113207869389     
   2116.8594508351675     
   2162.7404420578687     
   2214.5660174416130     
   1773.7970897547702     
   1825.1691998620156     
   1876.2560855365475     
   1927.2592551223702     
   1979.1903914064935     
   2033.8298504025893     
   2093.6823203136410     
   2161.9098460535724     
   2242.2224819067737     
   1669.4421578231295     
   1726.5741565816900     
   1785.5187665250228     
   1846.6299050747416     
   1911.4889539705616     
   1982.8641022794909     
   2064.6304583615633     
   2161.6136299225609     
   2279.3282802238873     
   1552.9034454340620     
   1613.4800242000756     
   1679.3528335671333     
   1750.9834025528394     
   1830.5761387650352     
   1922.0553907707231     
   2030.9380831038281     
   2164.0412909736124     
   2328.9992514910659     
   1424.3813237067197     
   1485.2465694533598     
   1556.8141160038508     
   1639.5216181201249     
   1736.1434238403849     
   1851.8319269089363     
   1993.9368328117882     
   2171.5229334101109     
   2394.5979399054468     
   1285.3099570373777     
   1341.9889970403724     
   1417.3752341538802     
   1511.6651725927657     
   1628.0090995000505     
   1772.7393022021540     
   1955.1462414159744     
   2186.7408885708301     
   2480.1273998845340     
   4641.4329252440029     
   4573.1367155970847     
   4504.9205855950577     
   4436.7924670940592     
   4368.7604739628969     
   4300.8329101874633     
   4233.0182797577445     
   4165.3252985242270     
   4097.7629082266121     
   4795.7519632340654     
   4724.1129421221522     
   4652.5163751726095     
   4580.9748452750455     
   4509.5011733984811     
   4438.1084242233446     
   4366.8099157614861     
   4295.6192333909830     
   4224.5502488007378     
   4954.5189398111761     
   4879.6081515838659     
   4804.7056828926034     
   4729.8263587610081     
   4654.9852551496506     
   4580.1977025291972     
   4505.4792951290156     
   4430.8459064999597     
   4356.3137121060363     
   5117.6913144171649     
   5039.5771883280986     
   4961.4423337012240     
   4883.3015509681481     
   4805.1698658967671     
   4727.0625328595252     
   4648.9950441097471     
   4570.9831457537803     
   4493.0428612048217     
   5285.2409596485450     
   5203.9853538595644     
   5122.6873117900614     
   5041.3595143048442     
   4960.0148144051400     
   4878.6662415892151     
   4797.3270110537696     
   4716.0105383027221     
   4634.7304598105302     
   5457.1526821117304     
   5372.8073755723026     
   5288.4081022056744     
   5203.9635262249321     
   5119.4824182593193     
   5034.9736607337627     
   4950.4462559430485     
   4865.9093371417885     
   4781.3721830187833     
   5633.4228561959790     
   5546.0264426699559     
   5458.5780650541146     
   5371.0806930700792     
   5283.5373423959390     
   5195.9510789199176     
   5108.3250236928088     
   5020.6623586582300     
   4932.9663332584933     
   5814.0581707578367     
   5723.6333128530878     
   5633.1758475220395     
   5542.6816072429237     
   5452.1464345385684     
   5361.5661807212446     
   5270.9367051591971     
   5180.2538751316342     
   5089.5135663471374     
   5999.0744854901423     
   5905.6254904394391     
   5812.1848365626247     
   5718.7400215009484     
   5625.2785614789072     
   5531.7879780473859     
   5438.2557892024161     
   5344.6695054048087     
   5251.0166311272105     
   4097.7629082266121     
   4030.2928331728435     
   3962.8659218493649     
   3895.4749514904515     
   3828.1126575343342     
   3760.7717333093997     
   3693.4448327506316     
   3626.1245765316203     
   3558.8035620659762     
   4224.5502488007378     
   4153.5835130497599     
   4082.6822004153996     
   4011.8342096198653     
   3941.0272438414167     
   3870.2487971745986     
   3799.4861454290331     
   3728.7263418127682     
   3657.9562181445535     
   4356.3137121060363     
   4281.8878828061443     
   4207.5533789556248     
   4133.2961218487071     
   4059.1017718704402     
   3984.9557099876279     
   3910.8430243546809     
   3836.7485026956042     
   3762.6566312217778     
   4493.0428612048217     
   4415.2068464221375     
   4337.4880586271975     
   4259.8730243120690     
   4182.3480207743360     
   4104.8990597959601     
   4027.5118760372120     
   3950.1719207672995     
   3872.8643616432705     
   4634.7304598105302     
   4553.5460019483717     
   4472.5001677916034     
   4391.5823116795218     
   4310.7816065583702     
   4230.0870340048577     
   4149.4873773800900     
   4068.9712185310004     
   3988.5269385292099     
   4781.3721830187833     
   4696.9151556774859     
   4612.6084013197378     
   4528.4459319027892     
   4444.4216727785215     
   4360.5294594128991     
   4276.7630351749240     
   4193.1160503463962     
   4109.5820625155657     
   4932.9663332584933     
   4845.3278541337904     
   4757.8356798288778     
   4670.4898926428832     
   4583.2905748770308     
   4496.2378089753565     
   4409.3316776841866     
   4322.5722642332621     
   4235.9596525434754     
   5089.5135663471374     
   4998.8009400475476     
   4908.2086361954280     
   4817.7437875290052     
   4727.4135661781256     
   4637.2251813065977     
   4547.1858789740008     
   4457.3029445324437     
   4367.5837079187213     
   5251.0166311272105     
   5157.3541364358516     
   5063.7571343187574     
   4970.2403480797720     
   4876.8184917987464     
   4783.5062584551088     
   4690.3183186895867     
   4597.2693317239145     
   4504.3739701947588     
   3558.8035620659762     
   3491.5412472199891     
   3424.4120346625969     
   3357.4312336656512     
   3290.6145736930330     
   3223.9782287860030     
   3157.5388496036858     
   3091.3136041530452     
   3025.3202284002505     
   3657.9562181445535     
   3587.2152250926583     
   3516.5663053444805     
   3446.0317933320771     
   3375.6346115216602     
   3305.3983057474611     
   3235.3470962330875     
   3165.5059465174390     
   3095.9006528537830     
   3762.6566312217778     
   3688.5784706523959     
   3614.5515370538610     
   3540.6001991307548     
   3466.7494099140035     
   3393.0247479403693     
   3319.4524788723434     
   3246.0596405838633     
   3172.8741552387564     
   3872.8643616432705     
   3795.5693050916916     
   3718.2914091201460     
   3641.0527864062205     
   3563.8760055500916     
   3486.7841299113920     
   3409.8007756030224     
   3332.9501915897526     
   3256.2573653532449     
   3988.5269385292099     
   3908.1082355039721     
   3827.6874450736491     
   3747.2809404460190     
   3666.9053536245638     
   3586.5776016193458     
   3506.3149249479948     
   3426.1349403770873     
   3346.0557102187922     
   4109.5820625155657     
   4026.1011208285126     
   3942.6229418612957     
   3859.1555536350252     
   3775.7070358375308     
   3692.2855241030984     
   3608.8992179571728     
   3525.5563930261856     
   3442.2654182264537     
   4235.9596525434754     
   4149.4421402902262     
   4062.9666747083015     
   3976.5312460633377     
   3890.1337355937530     
   3803.7718939473748     
   3717.4433200424555     
   3631.1454404220299     
   3544.8754891880631     
   4367.5837079187213     
   4278.0165106009654     
   4188.5762990134881     
   4099.2502491799132     
   4010.0253641826439     
   3920.8884332643202     
   3831.8260036132942     
   3742.8243669444387     
   3653.8695633716588     
   4504.3739701947588     
   4411.7029205313838     
   4319.3014017025534     
   4227.1458903358889     
   4135.2127645538976     
   4043.4782656034231     
   3951.9185125189379     
   3860.5095786234519     
   3769.2276403044443     
   3025.3202284002505     
   2959.4710219900198     
   2893.6339589194490     
   2827.7592965662780     
   2761.7952269268335     
   2695.6877486971721     
   2629.3805847766102     
   2562.8151516601552     
   2495.9305885043432     
   3095.9006528537830     
   3026.5174927545454     
   2957.2838021103680     
   2888.1355693538521     
   2819.0058200682643     
   2749.8244454289265     
   2680.5181072731025     
   2611.0102310204347     
   2541.2210999516478     
   3172.8741552387564     
   3099.9760234879518     
   3027.3841340543436     
   2955.0333008394418     
   2882.8552649630087     
   2810.7785678327823     
   2738.7285201940977     
   2666.6272823983659     
   2594.3940743112744     
   3256.2573653532449     
   3179.9006150824180     
   3104.0053656878999     
   3028.5160707715590     
   2953.3746633851183     
   2878.5205134395792     
   2803.8904744851784     
   2729.4190350229442     
   2655.0385926813651     
   3346.0557102187922     
   3266.3404459471562     
   3187.2156864586273     
   3108.6437158895037     
   3030.5852657729392     
   2952.9995389942037     
   2875.8442897111818     
   2799.0759691175772     
   2722.6499489485573     
   3442.2654182264537     
   3359.3406620346409     
   3277.0814093813383     
   3195.4730988425367     
   3114.5006686975621     
   3034.1485888663365     
   2954.4009071753017     
   2875.2413124805689     
   2796.6532176748037     
   3544.8754891880631     
   3458.9431916090252     
   3373.6673558598018     
   3289.0588956488136     
   3205.1289837084969     
   3121.8890268918399     
   3039.3506461905099     
   2957.5256627195436     
   2876.4260909174550     
   3653.8695633716588     
   3565.1875508049329     
   3477.0372593388884     
   3389.4543675983755     
   3302.4748909362570     
   3216.1350705495174     
   3130.4713507306219     
   3045.5204618767348     
   2961.3196303224681     
   3769.2276403044443     
   3678.1116124792798     
   3587.2541694974075     
   3496.7120901051107     
   3406.5415128414966     
   3316.7977847813168     
   3227.5356488869811     
   3138.8098379139174     
   3050.6761568207812     
   2495.9305885043432     
   2428.8814736580493     
   2361.9153998961547     
   2295.1116693474050     
   2228.5527775190767     
   2162.3246989821819     
   2096.5173458300746     
   2031.2252315538876     
   1966.5483790945809     
   2541.2210999516478     
   2471.1867492294796     
   2401.0553558757747     
   2330.9155148348723     
   2260.8590804547866     
   2190.9815192341744     
   2121.3825176087826     
   2052.1668983352101     
   1983.4459108490530     
   2594.3940743112744     
   2521.9289062151511     
   2449.2381321394955     
   2376.4001539511873     
   2303.4957132095756     
   2230.6082067587231     
   2157.8242548925250     
   2085.2345797679418     
   2012.9352664048340     
   2655.0385926813651     
   2580.5257521319199     
   2505.7383629218134     
   2430.7300734821383     
   2355.5555254817104     
   2280.2705147961610     
   2204.9323156348032     
   2129.6002073110221     
   2054.3362542917407     
   2722.6499489485573     
   2646.2680334483944     
   2569.6755791280607     
   2492.8925042585297     
   2415.9384114501436     
   2338.8324816449554     
   2261.5934206901602     
   2184.2394715048276     
   2106.7885088019830     
   2796.6532176748037     
   2718.3530889649296     
   2640.0577008895016     
   2561.7500546636124     
   2483.4117869119987     
   2405.0227143421776     
   2326.5604303004452     
   2247.9999650693871     
   2169.3135249646675     
   2876.4260909174550     
   2795.9171555760290     
   2715.8223500437766     
   2636.0901989273734     
   2556.6669839814394     
   2477.4959106312585     
   2398.5166206294139     
   2319.6651322946104     
   2240.8743109727948     
   2961.3196303224681     
   2878.0642172015168     
   2795.8730751740909     
   2714.6679118466909     
   2634.3670824315204     
   2554.8844194434014     
   2476.1292246123171     
   2398.0076904011921     
   2320.4260795774435     
   3050.6761568207812     
   2963.8902999411434     
   2879.1091158209169     
   2796.2398470533285     
   2715.1843752681789     
   2635.8378304482853     
   2558.0899623371802     
   2481.8298777314094     
   2406.9548494314236     
   1966.5483790945809     
   1902.5164811982095     
   1839.0153219878000     
   1775.9316923712672     
   1713.1478072920409     
   1650.5395957594751     
   1587.9755267177238     
   1525.3161098835064     
   1462.4142511242947     
   1983.4459108490530     
   1915.4508562710216     
   1848.1967890080628     
   1781.4648067891176     
   1715.0174532324511     
   1648.5954497640837     
   1581.9152466957455     
   1514.6675131223226     
   1446.5166950080118     
   2012.9352664048340     
   1941.4438468760202     
   1871.0548034596343     
   1801.5193486676674     
   1732.5657238562612     
   1663.8969547643019     
   1595.1899520518957     
   1526.0962160384206     
   1456.2444791818016     
   2054.3362542917407     
   1979.9639308918349     
   1907.1303125579650     
   1835.6224422153750     
   1765.2090446634791     
   1695.6406738569431     
   1626.6515308326716     
   1557.9633646291340     
   1489.2920143936556     
   2106.7885088019830     
   2030.3063850610247     
   1955.7661137153814     
   1883.0390010851634     
   1811.9875349643735     
   1742.4671357197683     
   1674.3291735288592     
   1607.4255646889640     
   1541.6153505892532     
   2169.3135249646675     
   2091.6497904732946     
   2016.1662472567180     
   1942.8453255155393     
   1871.6691204473270     
   1802.6205306437987     
   1735.6848149727405     
   1670.8516515104698     
   1608.1177934458076     
   2240.8743109727948     
   2163.1126755023856     
   2087.4583908395134     
   2014.0093325306625     
   1942.8651718546496     
   1874.1261018371968     
   1807.8920682320154     
   1744.2626707661152     
   1683.3379293261346     
   2320.4260795774435     
   2243.8031558012649     
   2168.7501561546942     
   2095.4639426606609     
   2024.1354554555942     
   1954.9465198234686     
   1888.0701872860891     
   1823.6755966212133     
   1761.9384842604056     
   2406.9548494314236     
   2332.8576605789676     
   2259.1738511920712     
   2186.1654026123506     
   2114.0694369359881     
   2043.0970049293039     
   1973.4434262551522     
   1905.3131917868650     
   1838.9630051664321     
   1462.4142511242947     
   1401.8468445581270     
   1347.5284511675516     
   1301.4996355350042     
   1266.0734321673290     
   1243.8451806201854     
   1237.6559328033948     
   1250.4899164440919     
   1285.3099570373777     
   1446.5166950080118     
   1378.8976870811375     
   1314.6603748727309     
   1255.8408510359639     
   1204.9275881888689     
   1164.9709370799137     
   1139.6316547629140     
   1133.0871915872901     
   1149.7277662175968     
   1456.2444791818016     
   1385.6355832620657     
   1315.4045009399301     
   1247.1388738813293     
   1182.9297231501123     
   1125.5798299916119     
   1078.8128436268883     
   1047.3795030245519     
   1036.8824234572196     
   1489.2920143936556     
   1419.2356887267356     
   1347.0506909262886     
   1273.6584551737706     
   1200.3890594319323     
   1129.1790432607550     
   1062.8302970828861     
   1005.2986007178557     
   961.89270216362013     
   1541.6153505892532     
   1474.4899239817416     
   1403.8139323253517     
   1329.8684349200016     
   1253.1841769072234     
   1174.6270315222278     
   1095.5263876411207     
   1017.8613895266936     
   944.51199950025136     
   1608.1177934458076     
   1544.8458368307392     
   1478.2020350145935     
   1407.9942518258833     
   1334.1326367337040     
   1256.5986108889510     
   1175.4207133725081     
   1090.6589308670409     
   1002.4008786749922     
   1683.3379293261346     
   1623.4161375112981     
   1562.3854114178682     
   1499.7764455571198     
   1435.0991935988218     
   1367.7707964559263     
   1297.0847956798755     
   1222.2340774993138     
   1142.4090751369959     
   1761.9384842604056     
   1703.6363481478986     
   1649.0570693821314     
   1597.6103393980629     
   1548.5509342270425     
   1500.9774769712365     
   1453.9965530827672     
   1407.0877203251282     
   1360.7171415933233     
   1838.9630051664321     
   1779.5585677871966     
   1731.7759968030989     
   1694.9890080863065     
   1668.2162372069272     
   1650.3321104775678     
   1640.6277392751115     
   1639.6984433906684     
   1650.5870260917306     
   1285.3099570373777     
   1341.9889970403724     
   1417.3752341538802     
   1511.6651725927657     
   1628.0090995000505     
   1772.7393022021540     
   1955.1462414159744     
   2186.7408885708301     
   2480.1273998845340     
   1149.7277662175968     
   1194.4676786252787     
   1268.1861582723577     
   1370.7834905523878     
   1505.4232549641256     
   1679.1850401880540     
   1902.8478603587737     
   2189.8707469648994     
   2554.9355149100516     
   1036.8824234572196     
   1058.6682047980269     
   1120.1570793206124     
   1221.9077342251919     
   1367.0427231774415     
   1562.7404555519777     
   1820.2814316503818     
   2153.8989179607042     
   2579.1686294887709     
   961.89270216362013     
   949.53608670977474     
   984.59394250648938     
   1071.3635267569816     
   1214.3763012325178     
   1420.8380690120593     
   1701.6096314257688     
   2070.4868901337709     
   2542.7884977834510     
   944.51199950025136     
   892.91845086493061     
   886.40110948995004     
   937.41994331574222     
   1057.0568637301285     
   1255.2741971163093     
   1542.5872522597890     
   1931.1474765126109     
   2434.6472838063023     
   1002.4008786749922     
   922.01131866132653     
   869.58995425716193     
   863.12621132727702     
   926.04881351781478     
   1081.3651474192343     
   1345.5355459132436     
   1729.5020048449187     
   2243.3066041318434     
   1142.4090751369959     
   1059.6346112427289     
   980.74710228083723     
   917.26094627366058     
   893.44088837512436     
   950.60250568381036     
   1133.6139371541242     
   1467.6215116733640     
   1959.2059752197138     
   1360.7171415933233     
   1306.3481551822990     
   1234.3671194129147     
   1146.1458114563011     
   1050.2773949150337     
   975.74128145978364     
   988.93094891878616     
   1176.9328502366120     
   1581.3551156217470     
   1650.5870260917306     
   1652.2211037682912     
   1617.4756023316841     
   1541.6742520808605     
   1420.9416828519852     
   1258.6539344764385     
   1082.6848433713901     
   987.14850171898854     
   1145.7740620958086     
 </DataArray>
 </PointData>
 </Piece>
 </UnstructuredGrid>
 </VTKFile>
