 <VTKFile type="UnstructuredGrid"  version="0.1"   >
 <UnstructuredGrid>
 <Piece  NumberOfPoints="           800 "  NumberOfCells="          512 ">
 <Points>
 <DataArray  type="Float64" NumberOfComponents="3"  format="ascii" >
  -10.000000000000000        0.0000000000000000        0.0000000000000000     
  -9.3750000000000000        0.0000000000000000        0.0000000000000000     
  -8.7500000000000000        0.0000000000000000        0.0000000000000000     
  -8.1250000000000000        0.0000000000000000        0.0000000000000000     
  -7.5000000000000000        0.0000000000000000        0.0000000000000000     
  -10.000000000000000       0.15625000000000000        0.0000000000000000     
  -9.3750000000000000       0.15580024719238281        0.0000000000000000     
  -8.7500000000000000       0.15445098876953126        0.0000000000000000     
  -8.1250000000000000       0.15220222473144532        0.0000000000000000     
  -7.5000000000000000       0.14905395507812499        0.0000000000000000     
  -10.000000000000000       0.31250000000000000        0.0000000000000000     
  -9.3750000000000000       0.31162872314453127        0.0000000000000000     
  -8.7500000000000000       0.30901489257812498        0.0000000000000000     
  -8.1250000000000000       0.30465850830078123        0.0000000000000000     
  -7.5000000000000000       0.29855957031250002        0.0000000000000000     
  -10.000000000000000       0.46875000000000000        0.0000000000000000     
  -9.3750000000000000       0.46748542785644531        0.0000000000000000     
  -8.7500000000000000       0.46369171142578125        0.0000000000000000     
  -8.1250000000000000       0.45736885070800781        0.0000000000000000     
  -7.5000000000000000       0.44851684570312500        0.0000000000000000     
  -10.000000000000000       0.62500000000000000        0.0000000000000000     
  -9.3750000000000000       0.62337036132812496        0.0000000000000000     
  -8.7500000000000000       0.61848144531250004        0.0000000000000000     
  -8.1250000000000000       0.61033325195312504        0.0000000000000000     
  -7.5000000000000000       0.59892578124999996        0.0000000000000000     
  -7.5000000000000000        0.0000000000000000        0.0000000000000000     
  -6.8750000000000000        0.0000000000000000        0.0000000000000000     
  -6.2500000000000000        0.0000000000000000        0.0000000000000000     
  -5.6250000000000000        0.0000000000000000        0.0000000000000000     
  -5.0000000000000000        0.0000000000000000        0.0000000000000000     
  -7.5000000000000000       0.14905395507812499        0.0000000000000000     
  -6.8750000000000000       0.14500617980957031        0.0000000000000000     
  -6.2500000000000000       0.14005889892578127        0.0000000000000000     
  -5.6250000000000000       0.13421211242675782        0.0000000000000000     
  -5.0000000000000000       0.12746582031250001        0.0000000000000000     
  -7.5000000000000000       0.29855957031250002        0.0000000000000000     
  -6.8750000000000000       0.29071807861328125        0.0000000000000000     
  -6.2500000000000000       0.28113403320312502        0.0000000000000000     
  -5.6250000000000000       0.26980743408203128        0.0000000000000000     
  -5.0000000000000000       0.25673828124999998        0.0000000000000000     
  -7.5000000000000000       0.44851684570312500        0.0000000000000000     
  -6.8750000000000000       0.43713569641113287        0.0000000000000000     
  -6.2500000000000000       0.42322540283203131        0.0000000000000000     
  -5.6250000000000000       0.40678596496582037        0.0000000000000000     
  -5.0000000000000000       0.38781738281250000        0.0000000000000000     
  -7.5000000000000000       0.59892578124999996        0.0000000000000000     
  -6.8750000000000000       0.58425903320312500        0.0000000000000000     
  -6.2500000000000000       0.56633300781250007        0.0000000000000000     
  -5.6250000000000000       0.54514770507812504        0.0000000000000000     
  -5.0000000000000000       0.52070312500000004        0.0000000000000000     
  -5.0000000000000000        0.0000000000000000        0.0000000000000000     
  -4.3750000000000000        0.0000000000000000        0.0000000000000000     
  -3.7500000000000000        0.0000000000000000        0.0000000000000000     
  -3.1250000000000000        0.0000000000000000        0.0000000000000000     
  -2.5000000000000000        0.0000000000000000        0.0000000000000000     
  -5.0000000000000000       0.12746582031250001        0.0000000000000000     
  -4.3750000000000000       0.11982002258300783        0.0000000000000000     
  -3.7500000000000000       0.11127471923828126        0.0000000000000000     
  -3.1250000000000000       0.10182991027832032        0.0000000000000000     
  -2.5000000000000000        9.1485595703125006E-002   0.0000000000000000     
  -5.0000000000000000       0.25673828124999998        0.0000000000000000     
  -4.3750000000000000       0.24192657470703127        0.0000000000000000     
  -3.7500000000000000       0.22537231445312500        0.0000000000000000     
  -3.1250000000000000       0.20707550048828124        0.0000000000000000     
  -2.5000000000000000       0.18703613281250001        0.0000000000000000     
  -5.0000000000000000       0.38781738281250000        0.0000000000000000     
  -4.3750000000000000       0.36631965637207037        0.0000000000000000     
  -3.7500000000000000       0.34229278564453131        0.0000000000000000     
  -3.1250000000000000       0.31573677062988281        0.0000000000000000     
  -2.5000000000000000       0.28665161132812500        0.0000000000000000     
  -5.0000000000000000       0.52070312500000004        0.0000000000000000     
  -4.3750000000000000       0.49299926757812507        0.0000000000000000     
  -3.7500000000000000       0.46203613281250011        0.0000000000000000     
  -3.1250000000000000       0.42781372070312496        0.0000000000000000     
  -2.5000000000000000       0.39033203124999999        0.0000000000000000     
  -2.5000000000000000        0.0000000000000000        0.0000000000000000     
  -1.8750000000000000        0.0000000000000000        0.0000000000000000     
  -1.2500000000000000        0.0000000000000000        0.0000000000000000     
 -0.62500000000000000        0.0000000000000000        0.0000000000000000     
   0.0000000000000000        0.0000000000000000        0.0000000000000000     
  -2.5000000000000000        9.1485595703125006E-002   0.0000000000000000     
  -1.8750000000000000        8.0241775512695318E-002   0.0000000000000000     
  -1.2500000000000000        6.8098449707031258E-002   0.0000000000000000     
 -0.62500000000000000        5.5055618286132806E-002   0.0000000000000000     
   0.0000000000000000        4.1113281249999994E-002   0.0000000000000000     
  -2.5000000000000000       0.18703613281250001        0.0000000000000000     
  -1.8750000000000000       0.16525421142578126        0.0000000000000000     
  -1.2500000000000000       0.14172973632812499        0.0000000000000000     
 -0.62500000000000000       0.11646270751953125        0.0000000000000000     
   0.0000000000000000        8.9453124999999994E-002   0.0000000000000000     
  -2.5000000000000000       0.28665161132812500        0.0000000000000000     
  -1.8750000000000000       0.25503730773925781        0.0000000000000000     
  -1.2500000000000000       0.22089385986328128        0.0000000000000000     
 -0.62500000000000000       0.18422126770019528        0.0000000000000000     
   0.0000000000000000       0.14501953125000000        0.0000000000000000     
  -2.5000000000000000       0.39033203124999999        0.0000000000000000     
  -1.8750000000000000       0.34959106445312499        0.0000000000000000     
  -1.2500000000000000       0.30559082031250001        0.0000000000000000     
 -0.62500000000000000       0.25833129882812494        0.0000000000000000     
   0.0000000000000000       0.20781249999999998        0.0000000000000000     
  -10.000000000000000       0.62500000000000000        0.0000000000000000     
  -9.3750000000000000       0.62337036132812496        0.0000000000000000     
  -8.7500000000000000       0.61848144531250004        0.0000000000000000     
  -8.1250000000000000       0.61033325195312504        0.0000000000000000     
  -7.5000000000000000       0.59892578124999996        0.0000000000000000     
  -10.000000000000000       0.78125000000000000        0.0000000000000000     
  -9.3750000000000000       0.77928352355957031        0.0000000000000000     
  -8.7500000000000000       0.77338409423828125        0.0000000000000000     
  -8.1250000000000000       0.76355171203613281        0.0000000000000000     
  -7.5000000000000000       0.74978637695312511        0.0000000000000000     
  -10.000000000000000       0.93750000000000000        0.0000000000000000     
  -9.3750000000000000       0.93522491455078127        0.0000000000000000     
  -8.7500000000000000       0.92839965820312498        0.0000000000000000     
  -8.1250000000000000       0.91702423095703123        0.0000000000000000     
  -7.5000000000000000       0.90109863281250002        0.0000000000000000     
  -10.000000000000000        1.0937500000000000        0.0000000000000000     
  -9.3750000000000000        1.0911945343017579        0.0000000000000000     
  -8.7500000000000000        1.0835281372070313        0.0000000000000000     
  -8.1250000000000000        1.0707508087158204        0.0000000000000000     
  -7.5000000000000000        1.0528625488281251        0.0000000000000000     
  -10.000000000000000        1.2500000000000000        0.0000000000000000     
  -9.3750000000000000        1.2471923828125000        0.0000000000000000     
  -8.7500000000000000        1.2387695312500000        0.0000000000000000     
  -8.1250000000000000        1.2247314453125000        0.0000000000000000     
  -7.5000000000000000        1.2050781250000000        0.0000000000000000     
  -7.5000000000000000       0.59892578124999996        0.0000000000000000     
  -6.8750000000000000       0.58425903320312500        0.0000000000000000     
  -6.2500000000000000       0.56633300781250007        0.0000000000000000     
  -5.6250000000000000       0.54514770507812504        0.0000000000000000     
  -5.0000000000000000       0.52070312500000004        0.0000000000000000     
  -7.5000000000000000       0.74978637695312511        0.0000000000000000     
  -6.8750000000000000       0.73208808898925781        0.0000000000000000     
  -6.2500000000000000       0.71045684814453125        0.0000000000000000     
  -5.6250000000000000       0.68489265441894542        0.0000000000000000     
  -5.0000000000000000       0.65539550781250011        0.0000000000000000     
  -7.5000000000000000       0.90109863281250002        0.0000000000000000     
  -6.8750000000000000       0.88062286376953125        0.0000000000000000     
  -6.2500000000000000       0.85559692382812502        0.0000000000000000     
  -5.6250000000000000       0.82602081298828134        0.0000000000000000     
  -5.0000000000000000       0.79189453124999998        0.0000000000000000     
  -7.5000000000000000        1.0528625488281251        0.0000000000000000     
  -6.8750000000000000        1.0298633575439453        0.0000000000000000     
  -6.2500000000000000        1.0017532348632812        0.0000000000000000     
  -5.6250000000000000       0.96853218078613279        0.0000000000000000     
  -5.0000000000000000       0.93020019531249998        0.0000000000000000     
  -7.5000000000000000        1.2050781250000000        0.0000000000000000     
  -6.8750000000000000        1.1798095703125000        0.0000000000000000     
  -6.2500000000000000        1.1489257812500000        0.0000000000000000     
  -5.6250000000000000        1.1124267578125000        0.0000000000000000     
  -5.0000000000000000        1.0703125000000002        0.0000000000000000     
  -5.0000000000000000       0.52070312500000004        0.0000000000000000     
  -4.3750000000000000       0.49299926757812507        0.0000000000000000     
  -3.7500000000000000       0.46203613281250011        0.0000000000000000     
  -3.1250000000000000       0.42781372070312496        0.0000000000000000     
  -2.5000000000000000       0.39033203124999999        0.0000000000000000     
  -5.0000000000000000       0.65539550781250011        0.0000000000000000     
  -4.3750000000000000       0.62196540832519531        0.0000000000000000     
  -3.7500000000000000       0.58460235595703125        0.0000000000000000     
  -3.1250000000000000       0.54330635070800781        0.0000000000000000     
  -2.5000000000000000       0.49807739257812506        0.0000000000000000     
  -5.0000000000000000       0.79189453124999998        0.0000000000000000     
  -4.3750000000000000       0.75321807861328127        0.0000000000000000     
  -3.7500000000000000       0.70999145507812500        0.0000000000000000     
  -3.1250000000000000       0.66221466064453138        0.0000000000000000     
  -2.5000000000000000       0.60988769531249998        0.0000000000000000     
  -5.0000000000000000       0.93020019531249998        0.0000000000000000     
  -4.3750000000000000       0.88675727844238283        0.0000000000000000     
  -3.7500000000000000       0.83820343017578136        0.0000000000000000     
  -3.1250000000000000       0.78453865051269522        0.0000000000000000     
  -2.5000000000000000       0.72576293945312498        0.0000000000000000     
  -5.0000000000000000        1.0703125000000002        0.0000000000000000     
  -4.3750000000000000        1.0225830078125000        0.0000000000000000     
  -3.7500000000000000       0.96923828125000011        0.0000000000000000     
  -3.1250000000000000       0.91027832031250011        0.0000000000000000     
  -2.5000000000000000       0.84570312500000000        0.0000000000000000     
  -2.5000000000000000       0.39033203124999999        0.0000000000000000     
  -1.8750000000000000       0.34959106445312499        0.0000000000000000     
  -1.2500000000000000       0.30559082031250001        0.0000000000000000     
 -0.62500000000000000       0.25833129882812494        0.0000000000000000     
   0.0000000000000000       0.20781249999999998        0.0000000000000000     
  -2.5000000000000000       0.49807739257812506        0.0000000000000000     
  -1.8750000000000000       0.44891548156738287        0.0000000000000000     
  -1.2500000000000000       0.39582061767578119        0.0000000000000000     
 -0.62500000000000000       0.33879280090332026        0.0000000000000000     
   0.0000000000000000       0.27783203125000000        0.0000000000000000     
  -2.5000000000000000       0.60988769531249998        0.0000000000000000     
  -1.8750000000000000       0.55301055908203134        0.0000000000000000     
  -1.2500000000000000       0.49158325195312491        0.0000000000000000     
 -0.62500000000000000       0.42560577392578119        0.0000000000000000     
   0.0000000000000000       0.35507812500000002        0.0000000000000000     
  -2.5000000000000000       0.72576293945312498        0.0000000000000000     
  -1.8750000000000000       0.66187629699707029        0.0000000000000000     
  -1.2500000000000000       0.59287872314453116        0.0000000000000000     
 -0.62500000000000000       0.51877021789550781        0.0000000000000000     
   0.0000000000000000       0.43955078124999991        0.0000000000000000     
  -2.5000000000000000       0.84570312500000000        0.0000000000000000     
  -1.8750000000000000       0.77551269531250000        0.0000000000000000     
  -1.2500000000000000       0.69970703124999989        0.0000000000000000     
 -0.62500000000000000       0.61828613281250000        0.0000000000000000     
   0.0000000000000000       0.53125000000000000        0.0000000000000000     
  -10.000000000000000        1.2500000000000000        0.0000000000000000     
  -9.3750000000000000        1.2471923828125000        0.0000000000000000     
  -8.7500000000000000        1.2387695312500000        0.0000000000000000     
  -8.1250000000000000        1.2247314453125000        0.0000000000000000     
  -7.5000000000000000        1.2050781250000000        0.0000000000000000     
  -10.000000000000000        1.4062500000000000        0.0000000000000000     
  -9.3750000000000000        1.4032184600830078        0.0000000000000000     
  -8.7500000000000000        1.3941238403320313        0.0000000000000000     
  -8.1250000000000000        1.3789661407470704        0.0000000000000000     
  -7.5000000000000000        1.3577453613281250        0.0000000000000000     
  -10.000000000000000        1.5625000000000000        0.0000000000000000     
  -9.3750000000000000        1.5592727661132812        0.0000000000000000     
  -8.7500000000000000        1.5495910644531250        0.0000000000000000     
  -8.1250000000000000        1.5334548950195312        0.0000000000000000     
  -7.5000000000000000        1.5108642578125000        0.0000000000000000     
  -10.000000000000000        1.7187500000000000        0.0000000000000000     
  -9.3750000000000000        1.7153553009033204        0.0000000000000000     
  -8.7500000000000000        1.7051712036132811        0.0000000000000000     
  -8.1250000000000000        1.6881977081298827        0.0000000000000000     
  -7.5000000000000000        1.6644348144531251        0.0000000000000000     
  -10.000000000000000        1.8750000000000000        0.0000000000000000     
  -9.3750000000000000        1.8714660644531249        0.0000000000000000     
  -8.7500000000000000        1.8608642578125001        0.0000000000000000     
  -8.1250000000000000        1.8431945800781251        0.0000000000000000     
  -7.5000000000000000        1.8184570312499999        0.0000000000000000     
  -7.5000000000000000        1.2050781250000000        0.0000000000000000     
  -6.8750000000000000        1.1798095703125000        0.0000000000000000     
  -6.2500000000000000        1.1489257812500000        0.0000000000000000     
  -5.6250000000000000        1.1124267578125000        0.0000000000000000     
  -5.0000000000000000        1.0703125000000002        0.0000000000000000     
  -7.5000000000000000        1.3577453613281250        0.0000000000000000     
  -6.8750000000000000        1.3304615020751953        0.0000000000000000     
  -6.2500000000000000        1.2971145629882814        0.0000000000000000     
  -5.6250000000000000        1.2577045440673831        0.0000000000000000     
  -5.0000000000000000        1.2122314453125000        0.0000000000000000     
  -7.5000000000000000        1.5108642578125000        0.0000000000000000     
  -6.8750000000000000        1.4818191528320312        0.0000000000000000     
  -6.2500000000000000        1.4463195800781252        0.0000000000000000     
  -5.6250000000000000        1.4043655395507812        0.0000000000000000     
  -5.0000000000000000        1.3559570312500000        0.0000000000000000     
  -7.5000000000000000        1.6644348144531251        0.0000000000000000     
  -6.8750000000000000        1.6338825225830078        0.0000000000000000     
  -6.2500000000000000        1.5965408325195312        0.0000000000000000     
  -5.6250000000000000        1.5524097442626954        0.0000000000000000     
  -5.0000000000000000        1.5014892578125003        0.0000000000000000     
  -7.5000000000000000        1.8184570312499999        0.0000000000000000     
  -6.8750000000000000        1.7866516113281250        0.0000000000000000     
  -6.2500000000000000        1.7477783203125001        0.0000000000000000     
  -5.6250000000000000        1.7018371582031251        0.0000000000000000     
  -5.0000000000000000        1.6488281250000001        0.0000000000000000     
  -5.0000000000000000        1.0703125000000002        0.0000000000000000     
  -4.3750000000000000        1.0225830078125000        0.0000000000000000     
  -3.7500000000000000       0.96923828125000011        0.0000000000000000     
  -3.1250000000000000       0.91027832031250011        0.0000000000000000     
  -2.5000000000000000       0.84570312500000000        0.0000000000000000     
  -5.0000000000000000        1.2122314453125000        0.0000000000000000     
  -4.3750000000000000        1.1606952667236330        0.0000000000000000     
  -3.7500000000000000        1.1030960083007812        0.0000000000000000     
  -3.1250000000000000        1.0394336700439453        0.0000000000000000     
  -2.5000000000000000       0.96970825195312504        0.0000000000000000     
  -5.0000000000000000        1.3559570312500000        0.0000000000000000     
  -4.3750000000000000        1.3010940551757812        0.0000000000000000     
  -3.7500000000000000        1.2397766113281252        0.0000000000000000     
  -3.1250000000000000        1.1720046997070312        0.0000000000000000     
  -2.5000000000000000        1.0977783203124998        0.0000000000000000     
  -5.0000000000000000        1.5014892578125003        0.0000000000000000     
  -4.3750000000000000        1.4437793731689454        0.0000000000000000     
  -3.7500000000000000        1.3792800903320308        0.0000000000000000     
  -3.1250000000000000        1.3079914093017579        0.0000000000000000     
  -2.5000000000000000        1.2299133300781253        0.0000000000000000     
  -5.0000000000000000        1.6488281250000001        0.0000000000000000     
  -4.3750000000000000        1.5887512207031251        0.0000000000000000     
  -3.7500000000000000        1.5216064453125000        0.0000000000000000     
  -3.1250000000000000        1.4473937988281249        0.0000000000000000     
  -2.5000000000000000        1.3661132812499999        0.0000000000000000     
  -2.5000000000000000       0.84570312500000000        0.0000000000000000     
  -1.8750000000000000       0.77551269531250000        0.0000000000000000     
  -1.2500000000000000       0.69970703124999989        0.0000000000000000     
 -0.62500000000000000       0.61828613281250000        0.0000000000000000     
   0.0000000000000000       0.53125000000000000        0.0000000000000000     
  -2.5000000000000000       0.96970825195312504        0.0000000000000000     
  -1.8750000000000000       0.89391975402832036        0.0000000000000000     
  -1.2500000000000000       0.81206817626953121        0.0000000000000000     
 -0.62500000000000000       0.72415351867675770        0.0000000000000000     
   0.0000000000000000       0.63017578125000007        0.0000000000000000     
  -2.5000000000000000        1.0977783203124998        0.0000000000000000     
  -1.8750000000000000        1.0170974731445312        0.0000000000000000     
  -1.2500000000000000       0.92996215820312511        0.0000000000000000     
 -0.62500000000000000       0.83637237548828114        0.0000000000000000     
   0.0000000000000000       0.73632812500000011        0.0000000000000000     
  -2.5000000000000000        1.2299133300781253        0.0000000000000000     
  -1.8750000000000000        1.1450458526611329        0.0000000000000000     
  -1.2500000000000000        1.0533889770507812        0.0000000000000000     
 -0.62500000000000000       0.95494270324707031        0.0000000000000000     
   0.0000000000000000       0.84970703125000002        0.0000000000000000     
  -2.5000000000000000        1.3661132812499999        0.0000000000000000     
  -1.8750000000000000        1.2777648925781251        0.0000000000000000     
  -1.2500000000000000        1.1823486328125001        0.0000000000000000     
 -0.62500000000000000        1.0798645019531250        0.0000000000000000     
   0.0000000000000000       0.97031250000000002        0.0000000000000000     
  -10.000000000000000        1.8750000000000000        0.0000000000000000     
  -9.3750000000000000        1.8714660644531249        0.0000000000000000     
  -8.7500000000000000        1.8608642578125001        0.0000000000000000     
  -8.1250000000000000        1.8431945800781251        0.0000000000000000     
  -7.5000000000000000        1.8184570312499999        0.0000000000000000     
  -10.000000000000000        2.0312500000000000        0.0000000000000000     
  -9.3750000000000000        2.0276050567626953        0.0000000000000000     
  -8.7500000000000000        2.0166702270507812        0.0000000000000000     
  -8.1250000000000000        1.9984455108642578        0.0000000000000000     
  -7.5000000000000000        1.9729309082031250        0.0000000000000000     
  -10.000000000000000        2.1875000000000000        0.0000000000000000     
  -9.3750000000000000        2.1837722778320314        0.0000000000000000     
  -8.7500000000000000        2.1725891113281248        0.0000000000000000     
  -8.1250000000000000        2.1539505004882811        0.0000000000000000     
  -7.5000000000000000        2.1278564453125002        0.0000000000000000     
  -10.000000000000000        2.3437500000000000        0.0000000000000000     
  -9.3750000000000000        2.3399677276611328        0.0000000000000000     
  -8.7500000000000000        2.3286209106445312        0.0000000000000000     
  -8.1250000000000000        2.3097095489501953        0.0000000000000000     
  -7.5000000000000000        2.2832336425781250        0.0000000000000000     
  -10.000000000000000        2.5000000000000000        0.0000000000000000     
  -9.3750000000000000        2.4961914062499999        0.0000000000000000     
  -8.7500000000000000        2.4847656250000001        0.0000000000000000     
  -8.1250000000000000        2.4657226562500001        0.0000000000000000     
  -7.5000000000000000        2.4390624999999999        0.0000000000000000     
  -7.5000000000000000        1.8184570312499999        0.0000000000000000     
  -6.8750000000000000        1.7866516113281250        0.0000000000000000     
  -6.2500000000000000        1.7477783203125001        0.0000000000000000     
  -5.6250000000000000        1.7018371582031251        0.0000000000000000     
  -5.0000000000000000        1.6488281250000001        0.0000000000000000     
  -7.5000000000000000        1.9729309082031250        0.0000000000000000     
  -6.8750000000000000        1.9401264190673828        0.0000000000000000     
  -6.2500000000000000        1.9000320434570312        0.0000000000000000     
  -5.6250000000000000        1.8526477813720703        0.0000000000000000     
  -5.0000000000000000        1.7979736328125002        0.0000000000000000     
  -7.5000000000000000        2.1278564453125002        0.0000000000000000     
  -6.8750000000000000        2.0943069458007812        0.0000000000000000     
  -6.2500000000000000        2.0533020019531252        0.0000000000000000     
  -5.6250000000000000        2.0048416137695311        0.0000000000000000     
  -5.0000000000000000        1.9489257812500000        0.0000000000000000     
  -7.5000000000000000        2.2832336425781250        0.0000000000000000     
  -6.8750000000000000        2.2491931915283203        0.0000000000000000     
  -6.2500000000000000        2.2075881958007812        0.0000000000000000     
  -5.6250000000000000        2.1584186553955074        0.0000000000000000     
  -5.0000000000000000        2.1016845703125000        0.0000000000000000     
  -7.5000000000000000        2.4390624999999999        0.0000000000000000     
  -6.8750000000000000        2.4047851562500000        0.0000000000000000     
  -6.2500000000000000        2.3628906250000004        0.0000000000000000     
  -5.6250000000000000        2.3133789062500001        0.0000000000000000     
  -5.0000000000000000        2.2562500000000001        0.0000000000000000     
  -5.0000000000000000        1.6488281250000001        0.0000000000000000     
  -4.3750000000000000        1.5887512207031251        0.0000000000000000     
  -3.7500000000000000        1.5216064453125000        0.0000000000000000     
  -3.1250000000000000        1.4473937988281249        0.0000000000000000     
  -2.5000000000000000        1.3661132812499999        0.0000000000000000     
  -5.0000000000000000        1.7979736328125002        0.0000000000000000     
  -4.3750000000000000        1.7360095977783203        0.0000000000000000     
  -3.7500000000000000        1.6667556762695310        0.0000000000000000     
  -3.1250000000000000        1.5902118682861328        0.0000000000000000     
  -2.5000000000000000        1.5063781738281252        0.0000000000000000     
  -5.0000000000000000        1.9489257812500000        0.0000000000000000     
  -4.3750000000000000        1.8855545043945314        0.0000000000000000     
  -3.7500000000000000        1.8147277832031248        0.0000000000000000     
  -3.1250000000000000        1.7364456176757814        0.0000000000000000     
  -2.5000000000000000        1.6507080078125000        0.0000000000000000     
  -5.0000000000000000        2.1016845703125000        0.0000000000000000     
  -4.3750000000000000        2.0373859405517578        0.0000000000000000     
  -3.7500000000000000        1.9655227661132815        0.0000000000000000     
  -3.1250000000000000        1.8860950469970703        0.0000000000000000     
  -2.5000000000000000        1.7991027832031248        0.0000000000000000     
  -5.0000000000000000        2.2562500000000001        0.0000000000000000     
  -4.3750000000000000        2.1915039062499999        0.0000000000000000     
  -3.7500000000000000        2.1191406250000000        0.0000000000000000     
  -3.1250000000000000        2.0391601562499999        0.0000000000000000     
  -2.5000000000000000        1.9515625000000001        0.0000000000000000     
  -2.5000000000000000        1.3661132812499999        0.0000000000000000     
  -1.8750000000000000        1.2777648925781251        0.0000000000000000     
  -1.2500000000000000        1.1823486328125001        0.0000000000000000     
 -0.62500000000000000        1.0798645019531250        0.0000000000000000     
   0.0000000000000000       0.97031250000000002        0.0000000000000000     
  -2.5000000000000000        1.5063781738281252        0.0000000000000000     
  -1.8750000000000000        1.4152545928955080        0.0000000000000000     
  -1.2500000000000000        1.3168411254882810        0.0000000000000000     
 -0.62500000000000000        1.2111377716064453        0.0000000000000000     
   0.0000000000000000        1.0981445312500000        0.0000000000000000     
  -2.5000000000000000        1.6507080078125000        0.0000000000000000     
  -1.8750000000000000        1.5575149536132813        0.0000000000000000     
  -1.2500000000000000        1.4568664550781250        0.0000000000000000     
 -0.62500000000000000        1.3487625122070312        0.0000000000000000     
   0.0000000000000000        1.2332031250000002        0.0000000000000000     
  -2.5000000000000000        1.7991027832031248        0.0000000000000000     
  -1.8750000000000000        1.7045459747314451        0.0000000000000000     
  -1.2500000000000000        1.6024246215820315        0.0000000000000000     
 -0.62500000000000000        1.4927387237548828        0.0000000000000000     
   0.0000000000000000        1.3754882812500000        0.0000000000000000     
  -2.5000000000000000        1.9515625000000001        0.0000000000000000     
  -1.8750000000000000        1.8563476562500001        0.0000000000000000     
  -1.2500000000000000        1.7535156249999999        0.0000000000000000     
 -0.62500000000000000        1.6430664062500000        0.0000000000000000     
   0.0000000000000000        1.5249999999999999        0.0000000000000000     
  -10.000000000000000        2.5000000000000000        0.0000000000000000     
  -9.3750000000000000        2.4961914062499999        0.0000000000000000     
  -8.7500000000000000        2.4847656250000001        0.0000000000000000     
  -8.1250000000000000        2.4657226562500001        0.0000000000000000     
  -7.5000000000000000        2.4390624999999999        0.0000000000000000     
  -10.000000000000000        2.6562500000000000        0.0000000000000000     
  -9.3750000000000000        2.6524448394775391        0.0000000000000000     
  -8.7500000000000000        2.6410293579101562        0.0000000000000000     
  -8.1250000000000000        2.6220035552978516        0.0000000000000000     
  -7.5000000000000000        2.5953674316406250        0.0000000000000000     
  -10.000000000000000        2.8125000000000000        0.0000000000000000     
  -9.3750000000000000        2.8087295532226562        0.0000000000000000     
  -8.7500000000000000        2.7974182128906251        0.0000000000000000     
  -8.1250000000000000        2.7785659790039063        0.0000000000000000     
  -7.5000000000000000        2.7521728515625004        0.0000000000000000     
  -10.000000000000000        2.9687500000000000        0.0000000000000000     
  -9.3750000000000000        2.9650455474853517        0.0000000000000000     
  -8.7500000000000000        2.9539321899414062        0.0000000000000000     
  -8.1250000000000000        2.9354099273681640        0.0000000000000000     
  -7.5000000000000000        2.9094787597656251        0.0000000000000000     
  -10.000000000000000        3.1250000000000000        0.0000000000000000     
  -9.3750000000000000        3.1213928222656246        0.0000000000000000     
  -8.7500000000000000        3.1105712890625004        0.0000000000000000     
  -8.1250000000000000        3.0925354003906249        0.0000000000000000     
  -7.5000000000000000        3.0672851562500001        0.0000000000000000     
  -7.5000000000000000        2.4390624999999999        0.0000000000000000     
  -6.8750000000000000        2.4047851562500000        0.0000000000000000     
  -6.2500000000000000        2.3628906250000004        0.0000000000000000     
  -5.6250000000000000        2.3133789062500001        0.0000000000000000     
  -5.0000000000000000        2.2562500000000001        0.0000000000000000     
  -7.5000000000000000        2.5953674316406250        0.0000000000000000     
  -6.8750000000000000        2.5611209869384766        0.0000000000000000     
  -6.2500000000000000        2.5192642211914062        0.0000000000000000     
  -5.6250000000000000        2.4697971343994141        0.0000000000000000     
  -5.0000000000000000        2.4127197265625000        0.0000000000000000     
  -7.5000000000000000        2.7521728515625004        0.0000000000000000     
  -6.8750000000000000        2.7182388305664062        0.0000000000000000     
  -6.2500000000000000        2.6767639160156249        0.0000000000000000     
  -5.6250000000000000        2.6277481079101559        0.0000000000000000     
  -5.0000000000000000        2.5711914062500001        0.0000000000000000     
  -7.5000000000000000        2.9094787597656251        0.0000000000000000     
  -6.8750000000000000        2.8761386871337891        0.0000000000000000     
  -6.2500000000000000        2.8353897094726559        0.0000000000000000     
  -5.6250000000000000        2.7872318267822265        0.0000000000000000     
  -5.0000000000000000        2.7316650390624999        0.0000000000000000     
  -7.5000000000000000        3.0672851562500001        0.0000000000000000     
  -6.8750000000000000        3.0348205566406250        0.0000000000000000     
  -6.2500000000000000        2.9951416015624996        0.0000000000000000     
  -5.6250000000000000        2.9482482910156249        0.0000000000000000     
  -5.0000000000000000        2.8941406249999999        0.0000000000000000     
  -5.0000000000000000        2.2562500000000001        0.0000000000000000     
  -4.3750000000000000        2.1915039062499999        0.0000000000000000     
  -3.7500000000000000        2.1191406250000000        0.0000000000000000     
  -3.1250000000000000        2.0391601562499999        0.0000000000000000     
  -2.5000000000000000        1.9515625000000001        0.0000000000000000     
  -5.0000000000000000        2.4127197265625000        0.0000000000000000     
  -4.3750000000000000        2.3480319976806641        0.0000000000000000     
  -3.7500000000000000        2.2757339477539062        0.0000000000000000     
  -3.1250000000000000        2.1958255767822266        0.0000000000000000     
  -2.5000000000000000        2.1083068847656250        0.0000000000000000     
  -5.0000000000000000        2.5711914062500001        0.0000000000000000     
  -4.3750000000000000        2.5070938110351562        0.0000000000000000     
  -3.7500000000000000        2.4354553222656250        0.0000000000000000     
  -3.1250000000000000        2.3562759399414062        0.0000000000000000     
  -2.5000000000000000        2.2695556640625001        0.0000000000000000     
  -5.0000000000000000        2.7316650390624999        0.0000000000000000     
  -4.3750000000000000        2.6686893463134767        0.0000000000000000     
  -3.7500000000000000        2.5983047485351562        0.0000000000000000     
  -3.1250000000000000        2.5205112457275387        0.0000000000000000     
  -2.5000000000000000        2.4353088378906249        0.0000000000000000     
  -5.0000000000000000        2.8941406249999999        0.0000000000000000     
  -4.3750000000000000        2.8328186035156251        0.0000000000000000     
  -3.7500000000000000        2.7642822265625000        0.0000000000000000     
  -3.1250000000000000        2.6885314941406251        0.0000000000000000     
  -2.5000000000000000        2.6055664062499995        0.0000000000000000     
  -2.5000000000000000        1.9515625000000001        0.0000000000000000     
  -1.8750000000000000        1.8563476562500001        0.0000000000000000     
  -1.2500000000000000        1.7535156249999999        0.0000000000000000     
 -0.62500000000000000        1.6430664062500000        0.0000000000000000     
   0.0000000000000000        1.5249999999999999        0.0000000000000000     
  -2.5000000000000000        2.1083068847656250        0.0000000000000000     
  -1.8750000000000000        2.0131778717041016        0.0000000000000000     
  -1.2500000000000000        1.9104385375976562        0.0000000000000000     
 -0.62500000000000000        1.8000888824462891        0.0000000000000000     
   0.0000000000000000        1.6821289062500000        0.0000000000000000     
  -2.5000000000000000        2.2695556640625001        0.0000000000000000     
  -1.8750000000000000        2.1752944946289059        0.0000000000000000     
  -1.2500000000000000        2.0734924316406249        0.0000000000000000     
 -0.62500000000000000        1.9641494750976562        0.0000000000000000     
   0.0000000000000000        1.8472656250000001        0.0000000000000000     
  -2.5000000000000000        2.4353088378906249        0.0000000000000000     
  -1.8750000000000000        2.3426975250244140        0.0000000000000000     
  -1.2500000000000000        2.2426773071289063        0.0000000000000000     
 -0.62500000000000000        2.1352481842041016        0.0000000000000000     
   0.0000000000000000        2.0204101562500001        0.0000000000000000     
  -2.5000000000000000        2.6055664062499995        0.0000000000000000     
  -1.8750000000000000        2.5153869628906245        0.0000000000000000     
  -1.2500000000000000        2.4179931640624996        0.0000000000000000     
 -0.62500000000000000        2.3133850097656254        0.0000000000000000     
   0.0000000000000000        2.2015625000000001        0.0000000000000000     
  -10.000000000000000        3.1250000000000000        0.0000000000000000     
  -9.3750000000000000        3.1213928222656246        0.0000000000000000     
  -8.7500000000000000        3.1105712890625004        0.0000000000000000     
  -8.1250000000000000        3.0925354003906249        0.0000000000000000     
  -7.5000000000000000        3.0672851562500001        0.0000000000000000     
  -10.000000000000000        3.2812500000000000        0.0000000000000000     
  -9.3750000000000000        3.2777713775634765        0.0000000000000000     
  -8.7500000000000000        3.2673355102539063        0.0000000000000000     
  -8.1250000000000000        3.2499423980712892        0.0000000000000000     
  -7.5000000000000000        3.2255920410156249        0.0000000000000000     
  -10.000000000000000        3.4375000000000000        0.0000000000000000     
  -9.3750000000000000        3.4341812133789062        0.0000000000000000     
  -8.7500000000000000        3.4242248535156250        0.0000000000000000     
  -8.1250000000000000        3.4076309204101562        0.0000000000000000     
  -7.5000000000000000        3.3843994140625000        0.0000000000000000     
  -10.000000000000000        3.5937500000000000        0.0000000000000000     
  -9.3750000000000000        3.5906223297119140        0.0000000000000000     
  -8.7500000000000000        3.5812393188476563        0.0000000000000000     
  -8.1250000000000000        3.5656009674072267        0.0000000000000000     
  -7.5000000000000000        3.5437072753906249        0.0000000000000000     
  -10.000000000000000        3.7500000000000000        0.0000000000000000     
  -9.3750000000000000        3.7470947265625001        0.0000000000000000     
  -8.7500000000000000        3.7383789062499999        0.0000000000000000     
  -8.1250000000000000        3.7238525390624999        0.0000000000000000     
  -7.5000000000000000        3.7035156249999996        0.0000000000000000     
  -7.5000000000000000        3.0672851562500001        0.0000000000000000     
  -6.8750000000000000        3.0348205566406250        0.0000000000000000     
  -6.2500000000000000        2.9951416015624996        0.0000000000000000     
  -5.6250000000000000        2.9482482910156249        0.0000000000000000     
  -5.0000000000000000        2.8941406249999999        0.0000000000000000     
  -7.5000000000000000        3.2255920410156249        0.0000000000000000     
  -6.8750000000000000        3.1942844390869141        0.0000000000000000     
  -6.2500000000000000        3.1560195922851562        0.0000000000000000     
  -5.6250000000000000        3.1107975006103517        0.0000000000000000     
  -5.0000000000000000        3.0586181640625001        0.0000000000000000     
  -7.5000000000000000        3.3843994140625000        0.0000000000000000     
  -6.8750000000000000        3.3545303344726562        0.0000000000000000     
  -6.2500000000000000        3.3180236816406250        0.0000000000000000     
  -5.6250000000000000        3.2748794555664062        0.0000000000000000     
  -5.0000000000000000        3.2250976562499996        0.0000000000000000     
  -7.5000000000000000        3.5437072753906249        0.0000000000000000     
  -6.8750000000000000        3.5155582427978516        0.0000000000000000     
  -6.2500000000000000        3.4811538696289062        0.0000000000000000     
  -5.6250000000000000        3.4404941558837887        0.0000000000000000     
  -5.0000000000000000        3.3935791015624996        0.0000000000000000     
  -7.5000000000000000        3.7035156249999996        0.0000000000000000     
  -6.8750000000000000        3.6773681640625000        0.0000000000000000     
  -6.2500000000000000        3.6454101562500001        0.0000000000000000     
  -5.6250000000000000        3.6076416015624999        0.0000000000000000     
  -5.0000000000000000        3.5640625000000004        0.0000000000000000     
  -5.0000000000000000        2.8941406249999999        0.0000000000000000     
  -4.3750000000000000        2.8328186035156251        0.0000000000000000     
  -3.7500000000000000        2.7642822265625000        0.0000000000000000     
  -3.1250000000000000        2.6885314941406251        0.0000000000000000     
  -2.5000000000000000        2.6055664062499995        0.0000000000000000     
  -5.0000000000000000        3.0586181640625001        0.0000000000000000     
  -4.3750000000000000        2.9994815826416015        0.0000000000000000     
  -3.7500000000000000        2.9333877563476558        0.0000000000000000     
  -3.1250000000000000        2.8603366851806640        0.0000000000000000     
  -2.5000000000000000        2.7803283691406251        0.0000000000000000     
  -5.0000000000000000        3.2250976562499996        0.0000000000000000     
  -4.3750000000000000        3.1686782836914067        0.0000000000000000     
  -3.7500000000000000        3.1056213378906250        0.0000000000000000     
  -3.1250000000000000        3.0359268188476558        0.0000000000000000     
  -2.5000000000000000        2.9595947265624996        0.0000000000000000     
  -5.0000000000000000        3.3935791015624996        0.0000000000000000     
  -4.3750000000000000        3.3404087066650390        0.0000000000000000     
  -3.7500000000000000        3.2809829711914067        0.0000000000000000     
  -3.1250000000000000        3.2153018951416015        0.0000000000000000     
  -2.5000000000000000        3.1433654785156251        0.0000000000000000     
  -5.0000000000000000        3.5640625000000004        0.0000000000000000     
  -4.3750000000000000        3.5146728515624996        0.0000000000000000     
  -3.7500000000000000        3.4594726562499996        0.0000000000000000     
  -3.1250000000000000        3.3984619140624996        0.0000000000000000     
  -2.5000000000000000        3.3316406249999999        0.0000000000000000     
  -2.5000000000000000        2.6055664062499995        0.0000000000000000     
  -1.8750000000000000        2.5153869628906245        0.0000000000000000     
  -1.2500000000000000        2.4179931640624996        0.0000000000000000     
 -0.62500000000000000        2.3133850097656254        0.0000000000000000     
   0.0000000000000000        2.2015625000000001        0.0000000000000000     
  -2.5000000000000000        2.7803283691406251        0.0000000000000000     
  -1.8750000000000000        2.6933628082275392        0.0000000000000000     
  -1.2500000000000000        2.5994400024414062        0.0000000000000000     
 -0.62500000000000000        2.4985599517822261        0.0000000000000000     
   0.0000000000000000        2.3907226562499999        0.0000000000000000     
  -2.5000000000000000        2.9595947265624996        0.0000000000000000     
  -1.8750000000000000        2.8766250610351562        0.0000000000000000     
  -1.2500000000000000        2.7870178222656250        0.0000000000000000     
 -0.62500000000000000        2.6907730102539054        0.0000000000000000     
   0.0000000000000000        2.5878906250000000        0.0000000000000000     
  -2.5000000000000000        3.1433654785156251        0.0000000000000000     
  -1.8750000000000000        3.0651737213134758        0.0000000000000000     
  -1.2500000000000000        2.9807266235351562        0.0000000000000000     
 -0.62500000000000000        2.8900241851806645        0.0000000000000000     
   0.0000000000000000        2.7930664062499999        0.0000000000000000     
  -2.5000000000000000        3.3316406249999999        0.0000000000000000     
  -1.8750000000000000        3.2590087890624999        0.0000000000000000     
  -1.2500000000000000        3.1805664062500001        0.0000000000000000     
 -0.62500000000000000        3.0963134765625000        0.0000000000000000     
   0.0000000000000000        3.0062499999999996        0.0000000000000000     
  -10.000000000000000        3.7500000000000000        0.0000000000000000     
  -9.3750000000000000        3.7470947265625001        0.0000000000000000     
  -8.7500000000000000        3.7383789062499999        0.0000000000000000     
  -8.1250000000000000        3.7238525390624999        0.0000000000000000     
  -7.5000000000000000        3.7035156249999996        0.0000000000000000     
  -10.000000000000000        3.9062500000000000        0.0000000000000000     
  -9.3750000000000000        3.9035984039306637        0.0000000000000000     
  -8.7500000000000000        3.8956436157226566        0.0000000000000000     
  -8.1250000000000000        3.8823856353759769        0.0000000000000000     
  -7.5000000000000000        3.8638244628906246        0.0000000000000000     
  -10.000000000000000        4.0625000000000000        0.0000000000000000     
  -9.3750000000000000        4.0601333618164066        0.0000000000000000     
  -8.7500000000000000        4.0530334472656246        0.0000000000000000     
  -8.1250000000000000        4.0412002563476559        0.0000000000000000     
  -7.5000000000000000        4.0246337890625004        0.0000000000000000     
  -10.000000000000000        4.2187500000000000        0.0000000000000000     
  -9.3750000000000000        4.2166996002197266        0.0000000000000000     
  -8.7500000000000000        4.2105484008789062        0.0000000000000000     
  -8.1250000000000000        4.2002964019775391        0.0000000000000000     
  -7.5000000000000000        4.1859436035156250        0.0000000000000000     
  -10.000000000000000        4.3750000000000000        0.0000000000000000     
  -9.3750000000000000        4.3732971191406254        0.0000000000000000     
  -8.7500000000000000        4.3681884765624996        0.0000000000000000     
  -8.1250000000000000        4.3596740722656246        0.0000000000000000     
  -7.5000000000000000        4.3477539062500004        0.0000000000000000     
  -7.5000000000000000        3.7035156249999996        0.0000000000000000     
  -6.8750000000000000        3.6773681640625000        0.0000000000000000     
  -6.2500000000000000        3.6454101562500001        0.0000000000000000     
  -5.6250000000000000        3.6076416015624999        0.0000000000000000     
  -5.0000000000000000        3.5640625000000004        0.0000000000000000     
  -7.5000000000000000        3.8638244628906246        0.0000000000000000     
  -6.8750000000000000        3.8399600982666016        0.0000000000000000     
  -6.2500000000000000        3.8107925415039068        0.0000000000000000     
  -5.6250000000000000        3.7763217926025394        0.0000000000000000     
  -5.0000000000000000        3.7365478515624999        0.0000000000000000     
  -7.5000000000000000        4.0246337890625004        0.0000000000000000     
  -6.8750000000000000        4.0033340454101562        0.0000000000000000     
  -6.2500000000000000        3.9773010253906245        0.0000000000000000     
  -5.6250000000000000        3.9465347290039068        0.0000000000000000     
  -5.0000000000000000        3.9110351562499996        0.0000000000000000     
  -7.5000000000000000        4.1859436035156250        0.0000000000000000     
  -6.8750000000000000        4.1674900054931641        0.0000000000000000     
  -6.2500000000000000        4.1449356079101571        0.0000000000000000     
  -5.6250000000000000        4.1182804107666025        0.0000000000000000     
  -5.0000000000000000        4.0875244140625000        0.0000000000000000     
  -7.5000000000000000        4.3477539062500004        0.0000000000000000     
  -6.8750000000000000        4.3324279785156250        0.0000000000000000     
  -6.2500000000000000        4.3136962890625004        0.0000000000000000     
  -5.6250000000000000        4.2915588378906246        0.0000000000000000     
  -5.0000000000000000        4.2660156250000005        0.0000000000000000     
  -5.0000000000000000        3.5640625000000004        0.0000000000000000     
  -4.3750000000000000        3.5146728515624996        0.0000000000000000     
  -3.7500000000000000        3.4594726562499996        0.0000000000000000     
  -3.1250000000000000        3.3984619140624996        0.0000000000000000     
  -2.5000000000000000        3.3316406249999999        0.0000000000000000     
  -5.0000000000000000        3.7365478515624999        0.0000000000000000     
  -4.3750000000000000        3.6914707183837887        0.0000000000000000     
  -3.7500000000000000        3.6410903930664067        0.0000000000000000     
  -3.1250000000000000        3.5854068756103512        0.0000000000000000     
  -2.5000000000000000        3.5244201660156249        0.0000000000000000     
  -5.0000000000000000        3.9110351562499996        0.0000000000000000     
  -4.3750000000000000        3.8708023071289057        0.0000000000000000     
  -3.7500000000000000        3.8258361816406250        0.0000000000000000     
  -3.1250000000000000        3.7761367797851562        0.0000000000000000     
  -2.5000000000000000        3.7217041015624996        0.0000000000000000     
  -5.0000000000000000        4.0875244140625000        0.0000000000000000     
  -4.3750000000000000        4.0526676177978516        0.0000000000000000     
  -3.7500000000000000        4.0137100219726562        0.0000000000000000     
  -3.1250000000000000        3.9706516265869141        0.0000000000000000     
  -2.5000000000000000        3.9234924316406250        0.0000000000000000     
  -5.0000000000000000        4.2660156250000005        0.0000000000000000     
  -4.3750000000000000        4.2370666503906245        0.0000000000000000     
  -3.7500000000000000        4.2047119140625000        0.0000000000000000     
  -3.1250000000000000        4.1689514160156254        0.0000000000000000     
  -2.5000000000000000        4.1297851562499996        0.0000000000000000     
  -2.5000000000000000        3.3316406249999999        0.0000000000000000     
  -1.8750000000000000        3.2590087890624999        0.0000000000000000     
  -1.2500000000000000        3.1805664062500001        0.0000000000000000     
 -0.62500000000000000        3.0963134765625000        0.0000000000000000     
   0.0000000000000000        3.0062499999999996        0.0000000000000000     
  -2.5000000000000000        3.5244201660156249        0.0000000000000000     
  -1.8750000000000000        3.4581302642822265        0.0000000000000000     
  -1.2500000000000000        3.3865371704101568        0.0000000000000000     
 -0.62500000000000000        3.3096408843994141        0.0000000000000000     
   0.0000000000000000        3.2274414062499996        0.0000000000000000     
  -2.5000000000000000        3.7217041015624996        0.0000000000000000     
  -1.8750000000000000        3.6625381469726563        0.0000000000000000     
  -1.2500000000000000        3.5986389160156249        0.0000000000000000     
 -0.62500000000000000        3.5300064086914062        0.0000000000000000     
   0.0000000000000000        3.4566406249999995        0.0000000000000000     
  -2.5000000000000000        3.9234924316406250        0.0000000000000000     
  -1.8750000000000000        3.8722324371337895        0.0000000000000000     
  -1.2500000000000000        3.8168716430664062        0.0000000000000000     
 -0.62500000000000000        3.7574100494384770        0.0000000000000000     
   0.0000000000000000        3.6938476562500000        0.0000000000000000     
  -2.5000000000000000        4.1297851562499996        0.0000000000000000     
  -1.8750000000000000        4.0872131347656246        0.0000000000000000     
  -1.2500000000000000        4.0412353515625004        0.0000000000000000     
 -0.62500000000000000        3.9918518066406254        0.0000000000000000     
   0.0000000000000000        3.9390624999999999        0.0000000000000000     
  -10.000000000000000        4.3750000000000000        0.0000000000000000     
  -9.3750000000000000        4.3732971191406254        0.0000000000000000     
  -8.7500000000000000        4.3681884765624996        0.0000000000000000     
  -8.1250000000000000        4.3596740722656246        0.0000000000000000     
  -7.5000000000000000        4.3477539062500004        0.0000000000000000     
  -10.000000000000000        4.5312500000000000        0.0000000000000000     
  -9.3750000000000000        4.5299259185791012        0.0000000000000000     
  -8.7500000000000000        4.5259536743164066        0.0000000000000000     
  -8.1250000000000000        4.5193332672119144        0.0000000000000000     
  -7.5000000000000000        4.5100646972656246        0.0000000000000000     
  -10.000000000000000        4.6875000000000000        0.0000000000000000     
  -9.3750000000000000        4.6865859985351559        0.0000000000000000     
  -8.7500000000000000        4.6838439941406254        0.0000000000000000     
  -8.1250000000000000        4.6792739868164066        0.0000000000000000     
  -7.5000000000000000        4.6728759765624996        0.0000000000000000     
  -10.000000000000000        4.8437500000000000        0.0000000000000000     
  -9.3750000000000000        4.8432773590087894        0.0000000000000000     
  -8.7500000000000000        4.8418594360351559        0.0000000000000000     
  -8.1250000000000000        4.8394962310791012        0.0000000000000000     
  -7.5000000000000000        4.8361877441406254        0.0000000000000000     
  -10.000000000000000        5.0000000000000000        0.0000000000000000     
  -9.3750000000000000        5.0000000000000000        0.0000000000000000     
  -8.7500000000000000        5.0000000000000000        0.0000000000000000     
  -8.1250000000000000        5.0000000000000000        0.0000000000000000     
  -7.5000000000000000        5.0000000000000000        0.0000000000000000     
  -7.5000000000000000        4.3477539062500004        0.0000000000000000     
  -6.8750000000000000        4.3324279785156250        0.0000000000000000     
  -6.2500000000000000        4.3136962890625004        0.0000000000000000     
  -5.6250000000000000        4.2915588378906246        0.0000000000000000     
  -5.0000000000000000        4.2660156250000005        0.0000000000000000     
  -7.5000000000000000        4.5100646972656246        0.0000000000000000     
  -6.8750000000000000        4.4981479644775391        0.0000000000000000     
  -6.2500000000000000        4.4835830688476568        0.0000000000000000     
  -5.6250000000000000        4.4663700103759769        0.0000000000000000     
  -5.0000000000000000        4.4465087890624995        0.0000000000000000     
  -7.5000000000000000        4.6728759765624996        0.0000000000000000     
  -6.8750000000000000        4.6646499633789062        0.0000000000000000     
  -6.2500000000000000        4.6545959472656255        0.0000000000000000     
  -5.6250000000000000        4.6427139282226566        0.0000000000000000     
  -5.0000000000000000        4.6290039062499995        0.0000000000000000     
  -7.5000000000000000        4.8361877441406254        0.0000000000000000     
  -6.8750000000000000        4.8319339752197266        0.0000000000000000     
  -6.2500000000000000        4.8267349243164057        0.0000000000000000     
  -5.6250000000000000        4.8205905914306637        0.0000000000000000     
  -5.0000000000000000        4.8135009765625005        0.0000000000000000     
  -7.5000000000000000        5.0000000000000000        0.0000000000000000     
  -6.8750000000000000        5.0000000000000000        0.0000000000000000     
  -6.2500000000000000        5.0000000000000000        0.0000000000000000     
  -5.6250000000000000        5.0000000000000000        0.0000000000000000     
  -5.0000000000000000        5.0000000000000000        0.0000000000000000     
  -5.0000000000000000        4.2660156250000005        0.0000000000000000     
  -4.3750000000000000        4.2370666503906245        0.0000000000000000     
  -3.7500000000000000        4.2047119140625000        0.0000000000000000     
  -3.1250000000000000        4.1689514160156254        0.0000000000000000     
  -2.5000000000000000        4.1297851562499996        0.0000000000000000     
  -5.0000000000000000        4.4465087890624995        0.0000000000000000     
  -4.3750000000000000        4.4239994049072271        0.0000000000000000     
  -3.7500000000000000        4.3988418579101562        0.0000000000000000     
  -3.1250000000000000        4.3710361480712887        0.0000000000000000     
  -2.5000000000000000        4.3405822753906254        0.0000000000000000     
  -5.0000000000000000        4.6290039062499995        0.0000000000000000     
  -4.3750000000000000        4.6134658813476559        0.0000000000000000     
  -3.7500000000000000        4.5960998535156259        0.0000000000000000     
  -3.1250000000000000        4.5769058227539059        0.0000000000000000     
  -2.5000000000000000        4.5558837890624995        0.0000000000000000     
  -5.0000000000000000        4.8135009765625005        0.0000000000000000     
  -4.3750000000000000        4.8054660797119144        0.0000000000000000     
  -3.7500000000000000        4.7964859008789054        0.0000000000000000     
  -3.1250000000000000        4.7865604400634769        0.0000000000000000     
  -2.5000000000000000        4.7756896972656255        0.0000000000000000     
  -5.0000000000000000        5.0000000000000000        0.0000000000000000     
  -4.3750000000000000        5.0000000000000000        0.0000000000000000     
  -3.7500000000000000        5.0000000000000000        0.0000000000000000     
  -3.1250000000000000        5.0000000000000000        0.0000000000000000     
  -2.5000000000000000        5.0000000000000000        0.0000000000000000     
  -2.5000000000000000        4.1297851562499996        0.0000000000000000     
  -1.8750000000000000        4.0872131347656246        0.0000000000000000     
  -1.2500000000000000        4.0412353515625004        0.0000000000000000     
 -0.62500000000000000        3.9918518066406254        0.0000000000000000     
   0.0000000000000000        3.9390624999999999        0.0000000000000000     
  -2.5000000000000000        4.3405822753906254        0.0000000000000000     
  -1.8750000000000000        4.3074802398681644        0.0000000000000000     
  -1.2500000000000000        4.2717300415039068        0.0000000000000000     
 -0.62500000000000000        4.2333316802978516        0.0000000000000000     
   0.0000000000000000        4.1922851562499996        0.0000000000000000     
  -2.5000000000000000        4.5558837890624995        0.0000000000000000     
  -1.8750000000000000        4.5330337524414057        0.0000000000000000     
  -1.2500000000000000        4.5083557128906255        0.0000000000000000     
 -0.62500000000000000        4.4818496704101562        0.0000000000000000     
   0.0000000000000000        4.4535156249999996        0.0000000000000000     
  -2.5000000000000000        4.7756896972656255        0.0000000000000000     
  -1.8750000000000000        4.7638736724853521        0.0000000000000000     
  -1.2500000000000000        4.7511123657226557        0.0000000000000000     
 -0.62500000000000000        4.7374057769775391        0.0000000000000000     
   0.0000000000000000        4.7227539062500004        0.0000000000000000     
  -2.5000000000000000        5.0000000000000000        0.0000000000000000     
  -1.8750000000000000        5.0000000000000000        0.0000000000000000     
  -1.2500000000000000        5.0000000000000000        0.0000000000000000     
 -0.62500000000000000        5.0000000000000000        0.0000000000000000     
   0.0000000000000000        5.0000000000000000        0.0000000000000000     
 </DataArray>
 </Points>
 <Cells>
 <DataArray  type="Int32"  Name="connectivity"  format="ascii">
           0           1           6           5
           1           2           7           6
           2           3           8           7
           3           4           9           8
           5           6          11          10
           6           7          12          11
           7           8          13          12
           8           9          14          13
          10          11          16          15
          11          12          17          16
          12          13          18          17
          13          14          19          18
          15          16          21          20
          16          17          22          21
          17          18          23          22
          18          19          24          23
          25          26          31          30
          26          27          32          31
          27          28          33          32
          28          29          34          33
          30          31          36          35
          31          32          37          36
          32          33          38          37
          33          34          39          38
          35          36          41          40
          36          37          42          41
          37          38          43          42
          38          39          44          43
          40          41          46          45
          41          42          47          46
          42          43          48          47
          43          44          49          48
          50          51          56          55
          51          52          57          56
          52          53          58          57
          53          54          59          58
          55          56          61          60
          56          57          62          61
          57          58          63          62
          58          59          64          63
          60          61          66          65
          61          62          67          66
          62          63          68          67
          63          64          69          68
          65          66          71          70
          66          67          72          71
          67          68          73          72
          68          69          74          73
          75          76          81          80
          76          77          82          81
          77          78          83          82
          78          79          84          83
          80          81          86          85
          81          82          87          86
          82          83          88          87
          83          84          89          88
          85          86          91          90
          86          87          92          91
          87          88          93          92
          88          89          94          93
          90          91          96          95
          91          92          97          96
          92          93          98          97
          93          94          99          98
         100         101         106         105
         101         102         107         106
         102         103         108         107
         103         104         109         108
         105         106         111         110
         106         107         112         111
         107         108         113         112
         108         109         114         113
         110         111         116         115
         111         112         117         116
         112         113         118         117
         113         114         119         118
         115         116         121         120
         116         117         122         121
         117         118         123         122
         118         119         124         123
         125         126         131         130
         126         127         132         131
         127         128         133         132
         128         129         134         133
         130         131         136         135
         131         132         137         136
         132         133         138         137
         133         134         139         138
         135         136         141         140
         136         137         142         141
         137         138         143         142
         138         139         144         143
         140         141         146         145
         141         142         147         146
         142         143         148         147
         143         144         149         148
         150         151         156         155
         151         152         157         156
         152         153         158         157
         153         154         159         158
         155         156         161         160
         156         157         162         161
         157         158         163         162
         158         159         164         163
         160         161         166         165
         161         162         167         166
         162         163         168         167
         163         164         169         168
         165         166         171         170
         166         167         172         171
         167         168         173         172
         168         169         174         173
         175         176         181         180
         176         177         182         181
         177         178         183         182
         178         179         184         183
         180         181         186         185
         181         182         187         186
         182         183         188         187
         183         184         189         188
         185         186         191         190
         186         187         192         191
         187         188         193         192
         188         189         194         193
         190         191         196         195
         191         192         197         196
         192         193         198         197
         193         194         199         198
         200         201         206         205
         201         202         207         206
         202         203         208         207
         203         204         209         208
         205         206         211         210
         206         207         212         211
         207         208         213         212
         208         209         214         213
         210         211         216         215
         211         212         217         216
         212         213         218         217
         213         214         219         218
         215         216         221         220
         216         217         222         221
         217         218         223         222
         218         219         224         223
         225         226         231         230
         226         227         232         231
         227         228         233         232
         228         229         234         233
         230         231         236         235
         231         232         237         236
         232         233         238         237
         233         234         239         238
         235         236         241         240
         236         237         242         241
         237         238         243         242
         238         239         244         243
         240         241         246         245
         241         242         247         246
         242         243         248         247
         243         244         249         248
         250         251         256         255
         251         252         257         256
         252         253         258         257
         253         254         259         258
         255         256         261         260
         256         257         262         261
         257         258         263         262
         258         259         264         263
         260         261         266         265
         261         262         267         266
         262         263         268         267
         263         264         269         268
         265         266         271         270
         266         267         272         271
         267         268         273         272
         268         269         274         273
         275         276         281         280
         276         277         282         281
         277         278         283         282
         278         279         284         283
         280         281         286         285
         281         282         287         286
         282         283         288         287
         283         284         289         288
         285         286         291         290
         286         287         292         291
         287         288         293         292
         288         289         294         293
         290         291         296         295
         291         292         297         296
         292         293         298         297
         293         294         299         298
         300         301         306         305
         301         302         307         306
         302         303         308         307
         303         304         309         308
         305         306         311         310
         306         307         312         311
         307         308         313         312
         308         309         314         313
         310         311         316         315
         311         312         317         316
         312         313         318         317
         313         314         319         318
         315         316         321         320
         316         317         322         321
         317         318         323         322
         318         319         324         323
         325         326         331         330
         326         327         332         331
         327         328         333         332
         328         329         334         333
         330         331         336         335
         331         332         337         336
         332         333         338         337
         333         334         339         338
         335         336         341         340
         336         337         342         341
         337         338         343         342
         338         339         344         343
         340         341         346         345
         341         342         347         346
         342         343         348         347
         343         344         349         348
         350         351         356         355
         351         352         357         356
         352         353         358         357
         353         354         359         358
         355         356         361         360
         356         357         362         361
         357         358         363         362
         358         359         364         363
         360         361         366         365
         361         362         367         366
         362         363         368         367
         363         364         369         368
         365         366         371         370
         366         367         372         371
         367         368         373         372
         368         369         374         373
         375         376         381         380
         376         377         382         381
         377         378         383         382
         378         379         384         383
         380         381         386         385
         381         382         387         386
         382         383         388         387
         383         384         389         388
         385         386         391         390
         386         387         392         391
         387         388         393         392
         388         389         394         393
         390         391         396         395
         391         392         397         396
         392         393         398         397
         393         394         399         398
         400         401         406         405
         401         402         407         406
         402         403         408         407
         403         404         409         408
         405         406         411         410
         406         407         412         411
         407         408         413         412
         408         409         414         413
         410         411         416         415
         411         412         417         416
         412         413         418         417
         413         414         419         418
         415         416         421         420
         416         417         422         421
         417         418         423         422
         418         419         424         423
         425         426         431         430
         426         427         432         431
         427         428         433         432
         428         429         434         433
         430         431         436         435
         431         432         437         436
         432         433         438         437
         433         434         439         438
         435         436         441         440
         436         437         442         441
         437         438         443         442
         438         439         444         443
         440         441         446         445
         441         442         447         446
         442         443         448         447
         443         444         449         448
         450         451         456         455
         451         452         457         456
         452         453         458         457
         453         454         459         458
         455         456         461         460
         456         457         462         461
         457         458         463         462
         458         459         464         463
         460         461         466         465
         461         462         467         466
         462         463         468         467
         463         464         469         468
         465         466         471         470
         466         467         472         471
         467         468         473         472
         468         469         474         473
         475         476         481         480
         476         477         482         481
         477         478         483         482
         478         479         484         483
         480         481         486         485
         481         482         487         486
         482         483         488         487
         483         484         489         488
         485         486         491         490
         486         487         492         491
         487         488         493         492
         488         489         494         493
         490         491         496         495
         491         492         497         496
         492         493         498         497
         493         494         499         498
         500         501         506         505
         501         502         507         506
         502         503         508         507
         503         504         509         508
         505         506         511         510
         506         507         512         511
         507         508         513         512
         508         509         514         513
         510         511         516         515
         511         512         517         516
         512         513         518         517
         513         514         519         518
         515         516         521         520
         516         517         522         521
         517         518         523         522
         518         519         524         523
         525         526         531         530
         526         527         532         531
         527         528         533         532
         528         529         534         533
         530         531         536         535
         531         532         537         536
         532         533         538         537
         533         534         539         538
         535         536         541         540
         536         537         542         541
         537         538         543         542
         538         539         544         543
         540         541         546         545
         541         542         547         546
         542         543         548         547
         543         544         549         548
         550         551         556         555
         551         552         557         556
         552         553         558         557
         553         554         559         558
         555         556         561         560
         556         557         562         561
         557         558         563         562
         558         559         564         563
         560         561         566         565
         561         562         567         566
         562         563         568         567
         563         564         569         568
         565         566         571         570
         566         567         572         571
         567         568         573         572
         568         569         574         573
         575         576         581         580
         576         577         582         581
         577         578         583         582
         578         579         584         583
         580         581         586         585
         581         582         587         586
         582         583         588         587
         583         584         589         588
         585         586         591         590
         586         587         592         591
         587         588         593         592
         588         589         594         593
         590         591         596         595
         591         592         597         596
         592         593         598         597
         593         594         599         598
         600         601         606         605
         601         602         607         606
         602         603         608         607
         603         604         609         608
         605         606         611         610
         606         607         612         611
         607         608         613         612
         608         609         614         613
         610         611         616         615
         611         612         617         616
         612         613         618         617
         613         614         619         618
         615         616         621         620
         616         617         622         621
         617         618         623         622
         618         619         624         623
         625         626         631         630
         626         627         632         631
         627         628         633         632
         628         629         634         633
         630         631         636         635
         631         632         637         636
         632         633         638         637
         633         634         639         638
         635         636         641         640
         636         637         642         641
         637         638         643         642
         638         639         644         643
         640         641         646         645
         641         642         647         646
         642         643         648         647
         643         644         649         648
         650         651         656         655
         651         652         657         656
         652         653         658         657
         653         654         659         658
         655         656         661         660
         656         657         662         661
         657         658         663         662
         658         659         664         663
         660         661         666         665
         661         662         667         666
         662         663         668         667
         663         664         669         668
         665         666         671         670
         666         667         672         671
         667         668         673         672
         668         669         674         673
         675         676         681         680
         676         677         682         681
         677         678         683         682
         678         679         684         683
         680         681         686         685
         681         682         687         686
         682         683         688         687
         683         684         689         688
         685         686         691         690
         686         687         692         691
         687         688         693         692
         688         689         694         693
         690         691         696         695
         691         692         697         696
         692         693         698         697
         693         694         699         698
         700         701         706         705
         701         702         707         706
         702         703         708         707
         703         704         709         708
         705         706         711         710
         706         707         712         711
         707         708         713         712
         708         709         714         713
         710         711         716         715
         711         712         717         716
         712         713         718         717
         713         714         719         718
         715         716         721         720
         716         717         722         721
         717         718         723         722
         718         719         724         723
         725         726         731         730
         726         727         732         731
         727         728         733         732
         728         729         734         733
         730         731         736         735
         731         732         737         736
         732         733         738         737
         733         734         739         738
         735         736         741         740
         736         737         742         741
         737         738         743         742
         738         739         744         743
         740         741         746         745
         741         742         747         746
         742         743         748         747
         743         744         749         748
         750         751         756         755
         751         752         757         756
         752         753         758         757
         753         754         759         758
         755         756         761         760
         756         757         762         761
         757         758         763         762
         758         759         764         763
         760         761         766         765
         761         762         767         766
         762         763         768         767
         763         764         769         768
         765         766         771         770
         766         767         772         771
         767         768         773         772
         768         769         774         773
         775         776         781         780
         776         777         782         781
         777         778         783         782
         778         779         784         783
         780         781         786         785
         781         782         787         786
         782         783         788         787
         783         784         789         788
         785         786         791         790
         786         787         792         791
         787         788         793         792
         788         789         794         793
         790         791         796         795
         791         792         797         796
         792         793         798         797
         793         794         799         798
 </DataArray>
 <DataArray  type="Int32"  Name="offsets"  format="ascii"> 
           4
           8
          12
          16
          20
          24
          28
          32
          36
          40
          44
          48
          52
          56
          60
          64
          68
          72
          76
          80
          84
          88
          92
          96
         100
         104
         108
         112
         116
         120
         124
         128
         132
         136
         140
         144
         148
         152
         156
         160
         164
         168
         172
         176
         180
         184
         188
         192
         196
         200
         204
         208
         212
         216
         220
         224
         228
         232
         236
         240
         244
         248
         252
         256
         260
         264
         268
         272
         276
         280
         284
         288
         292
         296
         300
         304
         308
         312
         316
         320
         324
         328
         332
         336
         340
         344
         348
         352
         356
         360
         364
         368
         372
         376
         380
         384
         388
         392
         396
         400
         404
         408
         412
         416
         420
         424
         428
         432
         436
         440
         444
         448
         452
         456
         460
         464
         468
         472
         476
         480
         484
         488
         492
         496
         500
         504
         508
         512
         516
         520
         524
         528
         532
         536
         540
         544
         548
         552
         556
         560
         564
         568
         572
         576
         580
         584
         588
         592
         596
         600
         604
         608
         612
         616
         620
         624
         628
         632
         636
         640
         644
         648
         652
         656
         660
         664
         668
         672
         676
         680
         684
         688
         692
         696
         700
         704
         708
         712
         716
         720
         724
         728
         732
         736
         740
         744
         748
         752
         756
         760
         764
         768
         772
         776
         780
         784
         788
         792
         796
         800
         804
         808
         812
         816
         820
         824
         828
         832
         836
         840
         844
         848
         852
         856
         860
         864
         868
         872
         876
         880
         884
         888
         892
         896
         900
         904
         908
         912
         916
         920
         924
         928
         932
         936
         940
         944
         948
         952
         956
         960
         964
         968
         972
         976
         980
         984
         988
         992
         996
        1000
        1004
        1008
        1012
        1016
        1020
        1024
        1028
        1032
        1036
        1040
        1044
        1048
        1052
        1056
        1060
        1064
        1068
        1072
        1076
        1080
        1084
        1088
        1092
        1096
        1100
        1104
        1108
        1112
        1116
        1120
        1124
        1128
        1132
        1136
        1140
        1144
        1148
        1152
        1156
        1160
        1164
        1168
        1172
        1176
        1180
        1184
        1188
        1192
        1196
        1200
        1204
        1208
        1212
        1216
        1220
        1224
        1228
        1232
        1236
        1240
        1244
        1248
        1252
        1256
        1260
        1264
        1268
        1272
        1276
        1280
        1284
        1288
        1292
        1296
        1300
        1304
        1308
        1312
        1316
        1320
        1324
        1328
        1332
        1336
        1340
        1344
        1348
        1352
        1356
        1360
        1364
        1368
        1372
        1376
        1380
        1384
        1388
        1392
        1396
        1400
        1404
        1408
        1412
        1416
        1420
        1424
        1428
        1432
        1436
        1440
        1444
        1448
        1452
        1456
        1460
        1464
        1468
        1472
        1476
        1480
        1484
        1488
        1492
        1496
        1500
        1504
        1508
        1512
        1516
        1520
        1524
        1528
        1532
        1536
        1540
        1544
        1548
        1552
        1556
        1560
        1564
        1568
        1572
        1576
        1580
        1584
        1588
        1592
        1596
        1600
        1604
        1608
        1612
        1616
        1620
        1624
        1628
        1632
        1636
        1640
        1644
        1648
        1652
        1656
        1660
        1664
        1668
        1672
        1676
        1680
        1684
        1688
        1692
        1696
        1700
        1704
        1708
        1712
        1716
        1720
        1724
        1728
        1732
        1736
        1740
        1744
        1748
        1752
        1756
        1760
        1764
        1768
        1772
        1776
        1780
        1784
        1788
        1792
        1796
        1800
        1804
        1808
        1812
        1816
        1820
        1824
        1828
        1832
        1836
        1840
        1844
        1848
        1852
        1856
        1860
        1864
        1868
        1872
        1876
        1880
        1884
        1888
        1892
        1896
        1900
        1904
        1908
        1912
        1916
        1920
        1924
        1928
        1932
        1936
        1940
        1944
        1948
        1952
        1956
        1960
        1964
        1968
        1972
        1976
        1980
        1984
        1988
        1992
        1996
        2000
        2004
        2008
        2012
        2016
        2020
        2024
        2028
        2032
        2036
        2040
        2044
        2048
 </DataArray>
 <DataArray  type="UInt8"  Name="types"  format="ascii">
 9
 9
 9
 9
 9
 9
 9
 9
 9
 9
 9
 9
 9
 9
 9
 9
 9
 9
 9
 9
 9
 9
 9
 9
 9
 9
 9
 9
 9
 9
 9
 9
 9
 9
 9
 9
 9
 9
 9
 9
 9
 9
 9
 9
 9
 9
 9
 9
 9
 9
 9
 9
 9
 9
 9
 9
 9
 9
 9
 9
 9
 9
 9
 9
 9
 9
 9
 9
 9
 9
 9
 9
 9
 9
 9
 9
 9
 9
 9
 9
 9
 9
 9
 9
 9
 9
 9
 9
 9
 9
 9
 9
 9
 9
 9
 9
 9
 9
 9
 9
 9
 9
 9
 9
 9
 9
 9
 9
 9
 9
 9
 9
 9
 9
 9
 9
 9
 9
 9
 9
 9
 9
 9
 9
 9
 9
 9
 9
 9
 9
 9
 9
 9
 9
 9
 9
 9
 9
 9
 9
 9
 9
 9
 9
 9
 9
 9
 9
 9
 9
 9
 9
 9
 9
 9
 9
 9
 9
 9
 9
 9
 9
 9
 9
 9
 9
 9
 9
 9
 9
 9
 9
 9
 9
 9
 9
 9
 9
 9
 9
 9
 9
 9
 9
 9
 9
 9
 9
 9
 9
 9
 9
 9
 9
 9
 9
 9
 9
 9
 9
 9
 9
 9
 9
 9
 9
 9
 9
 9
 9
 9
 9
 9
 9
 9
 9
 9
 9
 9
 9
 9
 9
 9
 9
 9
 9
 9
 9
 9
 9
 9
 9
 9
 9
 9
 9
 9
 9
 9
 9
 9
 9
 9
 9
 9
 9
 9
 9
 9
 9
 9
 9
 9
 9
 9
 9
 9
 9
 9
 9
 9
 9
 9
 9
 9
 9
 9
 9
 9
 9
 9
 9
 9
 9
 9
 9
 9
 9
 9
 9
 9
 9
 9
 9
 9
 9
 9
 9
 9
 9
 9
 9
 9
 9
 9
 9
 9
 9
 9
 9
 9
 9
 9
 9
 9
 9
 9
 9
 9
 9
 9
 9
 9
 9
 9
 9
 9
 9
 9
 9
 9
 9
 9
 9
 9
 9
 9
 9
 9
 9
 9
 9
 9
 9
 9
 9
 9
 9
 9
 9
 9
 9
 9
 9
 9
 9
 9
 9
 9
 9
 9
 9
 9
 9
 9
 9
 9
 9
 9
 9
 9
 9
 9
 9
 9
 9
 9
 9
 9
 9
 9
 9
 9
 9
 9
 9
 9
 9
 9
 9
 9
 9
 9
 9
 9
 9
 9
 9
 9
 9
 9
 9
 9
 9
 9
 9
 9
 9
 9
 9
 9
 9
 9
 9
 9
 9
 9
 9
 9
 9
 9
 9
 9
 9
 9
 9
 9
 9
 9
 9
 9
 9
 9
 9
 9
 9
 9
 9
 9
 9
 9
 9
 9
 9
 9
 9
 9
 9
 9
 9
 9
 9
 9
 9
 9
 9
 9
 9
 9
 9
 9
 9
 9
 9
 9
 9
 9
 9
 9
 9
 9
 9
 9
 9
 9
 9
 9
 9
 9
 9
 9
 9
 9
 9
 9
 9
 9
 9
 9
 9
 9
 9
 9
 9
 9
 9
 9
 9
 9
 9
 9
 9
 9
 9
 9
 9
 9
 9
 9
 9
 9
 9
 9
 9
 9
 9
 9
 9
 9
 9
 9
 9
 </DataArray>
 </Cells> 
 <PointData>
 <DataArray  type="Float64" Name="disp" NumberOfComponents="3" format="ascii">
   0.0000000000000000        0.0000000000000000        0.0000000000000000     
   2.5120648246101746E-007   1.1175857473474848E-007   0.0000000000000000     
   4.9201289196715988E-007   2.6405671107583023E-007   0.0000000000000000     
   7.2241922851842708E-007   4.5689440902324519E-007   0.0000000000000000     
   9.4242549211481924E-007   6.9027166857699346E-007   0.0000000000000000     
   0.0000000000000000        0.0000000000000000        0.0000000000000000     
   2.2925301227903651E-007   1.0146714369032286E-007   0.0000000000000000     
   4.5203637149368879E-007   2.4739914960945136E-007   0.0000000000000000     
   6.6835007764395679E-007   4.3779601775738559E-007   0.0000000000000000     
   8.7819413072984054E-007   6.7265774813412552E-007   0.0000000000000000     
   0.0000000000000000        0.0000000000000000        0.0000000000000000     
   2.0875474289662875E-007   9.2105606836791635E-008   0.0000000000000000     
   4.1423808861262477E-007   2.3218330739513802E-007   0.0000000000000000     
   6.1645003714798806E-007   4.2023310167503907E-007   0.0000000000000000     
   8.1539058850271851E-007   6.5625498967649489E-007   0.0000000000000000     
   0.0000000000000000        0.0000000000000000        0.0000000000000000     
   1.8971167431379424E-007   8.3673964174154805E-008   0.0000000000000000     
   3.7861804332396795E-007   2.1840918443289004E-007   0.0000000000000000     
   5.6671910703052100E-007   4.0420566077620566E-007   0.0000000000000000     
   7.5401486543345347E-007   6.4106339320410167E-007   0.0000000000000000     
   0.0000000000000000        0.0000000000000000        0.0000000000000000     
   1.7212380653053292E-007   7.6172215702412383E-008   0.0000000000000000     
   3.4517623562771814E-007   2.0607678072270749E-007   0.0000000000000000     
   5.1915728729155552E-007   3.8971369506088533E-007   0.0000000000000000     
   6.9406696152204521E-007   6.2708295871694585E-007   0.0000000000000000     
   9.4242549211481924E-007   6.9027166857699346E-007   0.0000000000000000     
   1.1539545810244430E-006   9.7042861305032814E-007   0.0000000000000000     
   1.3589293935154052E-006   1.3036053657565020E-006   0.0000000000000000     
   1.5573499295877056E-006   1.6898019266955156E-006   0.0000000000000000     
   1.7492161892413446E-006   2.1290182958673688E-006   0.0000000000000000     
   8.7819413072984054E-007   6.7265774813412552E-007   0.0000000000000000     
   1.0818031534820410E-006   9.5585115392016913E-007   0.0000000000000000     
   1.2794117686312588E-006   1.2912430482960144E-006   0.0000000000000000     
   1.4710199761774949E-006   1.6788334312616611E-006   0.0000000000000000     
   1.6566277761207483E-006   2.1186223028171095E-006   0.0000000000000000     
   8.1539058850271851E-007   6.5625498967649489E-007   0.0000000000000000     
   1.0101009701729567E-006   9.4202934079988187E-007   0.0000000000000000     
   1.1996224096548431E-006   1.2793365244455767E-006   0.0000000000000000     
   1.3839549069483776E-006   1.6681765406135790E-006   0.0000000000000000     
   1.5630984620535601E-006   2.1085493893038889E-006   0.0000000000000000     
   7.5401486543345347E-007   6.4106339320410167E-007   0.0000000000000000     
   9.3884803109719044E-007   9.2896317368946666E-007   0.0000000000000000     
   1.1195613165861575E-006   1.2678857942051892E-006   0.0000000000000000     
   1.2961547219003534E-006   1.6578312547512694E-006   0.0000000000000000     
   1.4686282470397799E-006   2.0987995553277076E-006   0.0000000000000000     
   6.9406696152204521E-007   6.2708295871694585E-007   0.0000000000000000     
   8.6804433625474229E-007   9.1665265258892330E-007   0.0000000000000000     
   1.0392284894252015E-006   1.2568908575748524E-006   0.0000000000000000     
   1.2076194210334232E-006   1.6477975736747326E-006   0.0000000000000000     
   1.3732171310794075E-006   2.0893728008885641E-006   0.0000000000000000     
   1.7492161892413446E-006   2.1290182958673688E-006   0.0000000000000000     
   1.9337249451129971E-006   2.6160016160900972E-006   0.0000000000000000     
   2.1100729698393394E-006   3.1454990301817359E-006   0.0000000000000000     
   2.2782602634203712E-006   3.7175105381422862E-006   0.0000000000000000     
   2.4382868258560928E-006   4.3320361399717468E-006   0.0000000000000000     
   1.6566277761207483E-006   2.1186223028171095E-006   0.0000000000000000     
   1.8366343981879252E-006   2.6059400279121617E-006   0.0000000000000000     
   2.0114390721059318E-006   3.1361169714966181E-006   0.0000000000000000     
   2.1810417978747676E-006   3.7091531335704794E-006   0.0000000000000000     
   2.3454425754944330E-006   4.3250485141337462E-006   0.0000000000000000     
   1.5630984620535601E-006   2.1085493893038889E-006   0.0000000000000000     
   1.7383813318963382E-006   2.5962508236521172E-006   0.0000000000000000     
   1.9111317734026589E-006   3.1270765967938718E-006   0.0000000000000000     
   2.0813497865725225E-006   3.7010267087291528E-006   0.0000000000000000     
   2.2490353714059288E-006   4.3181011594579609E-006   0.0000000000000000     
   1.4686282470397799E-006   2.0987995553277076E-006   0.0000000000000000     
   1.6389657462382358E-006   2.5869340033099628E-006   0.0000000000000000     
   1.8091510737295207E-006   3.1183779060734960E-006   0.0000000000000000     
   1.9791842295136360E-006   3.6931312636183064E-006   0.0000000000000000     
   2.1490652135905800E-006   4.3111940759443936E-006   0.0000000000000000     
   1.3732171310794075E-006   2.0893728008885641E-006   0.0000000000000000     
   1.5383876412136176E-006   2.5779895668856998E-006   0.0000000000000000     
   1.7054969730865176E-006   3.1100208993354915E-006   0.0000000000000000     
   1.8745451266981072E-006   3.6854667982379398E-006   0.0000000000000000     
   2.0455321020483871E-006   4.3043272635930441E-006   0.0000000000000000     
   2.4382868258560928E-006   4.3320361399717468E-006   0.0000000000000000     
   2.5904412048213795E-006   4.9852829893891832E-006   0.0000000000000000     
   2.7350119479911064E-006   5.6734582401136584E-006   0.0000000000000000     
   2.8719990553652743E-006   6.3965618921451731E-006   0.0000000000000000     
   3.0014025269438834E-006   7.1545939454837283E-006   0.0000000000000000     
   2.3454425754944330E-006   4.3250485141337462E-006   0.0000000000000000     
   2.5045814406535356E-006   4.9797219205671240E-006   0.0000000000000000     
   2.6583984290406825E-006   5.6690921602513231E-006   0.0000000000000000     
   2.8068935406558737E-006   6.3931592331863437E-006   0.0000000000000000     
   2.9500667754991097E-006   7.1519231393721832E-006   0.0000000000000000     
   2.2490353714059288E-006   4.3181011594579609E-006   0.0000000000000000     
   2.4139103643487436E-006   4.9740127648896441E-006   0.0000000000000000     
   2.5756966018468301E-006   5.6644743409335491E-006   0.0000000000000000     
   2.7343940839001900E-006   6.3894858875896761E-006   0.0000000000000000     
   2.8900028105088230E-006   7.1490474048580233E-006   0.0000000000000000     
   2.1490652135905800E-006   4.3111940759443936E-006   0.0000000000000000     
   2.3184279759070025E-006   4.9681555223567427E-006   0.0000000000000000     
   2.4869064664095508E-006   5.6596047821603346E-006   0.0000000000000000     
   2.6545006850982241E-006   6.3855418553551711E-006   0.0000000000000000     
   2.8212106319730235E-006   7.1459667419412495E-006   0.0000000000000000     
   2.0455321020483871E-006   4.3043272635930441E-006   0.0000000000000000     
   2.2181342753283137E-006   4.9621501929684198E-006   0.0000000000000000     
   2.3920280227288426E-006   5.6544834839316796E-006   0.0000000000000000     
   2.5672133442499750E-006   6.3813271364828278E-006   0.0000000000000000     
   2.7436902398917109E-006   7.1426811506218601E-006   0.0000000000000000     
   0.0000000000000000        0.0000000000000000        0.0000000000000000     
   1.7212380653053292E-007   7.6172215702412383E-008   0.0000000000000000     
   3.4517623562771814E-007   2.0607678072270749E-007   0.0000000000000000     
   5.1915728729155552E-007   3.8971369506088533E-007   0.0000000000000000     
   6.9406696152204521E-007   6.2708295871694585E-007   0.0000000000000000     
   0.0000000000000000        0.0000000000000000        0.0000000000000000     
   1.5554777909381470E-007   6.9486331444257386E-008   0.0000000000000000     
   3.1326518336369667E-007   1.9502803839876241E-007   0.0000000000000000     
   4.7315221280964597E-007   3.7662512086351503E-007   0.0000000000000000     
   6.3520886743166244E-007   6.1427757883851526E-007   0.0000000000000000     
   0.0000000000000000        0.0000000000000000        0.0000000000000000     
   1.3954023155060946E-007   6.3502281422382861E-008   0.0000000000000000     
   2.8223740437172483E-007   1.8510489959522683E-007   0.0000000000000000     
   4.2809151846334615E-007   3.6480785451853186E-007   0.0000000000000000     
   5.7710257382547349E-007   6.0261114619229781E-007   0.0000000000000000     
   0.0000000000000000        0.0000000000000000        0.0000000000000000     
   1.2410116390091710E-007   5.8220065636788807E-008   0.0000000000000000     
   2.5209289865180255E-007   1.7630736431210071E-007   0.0000000000000000     
   3.8397520425265648E-007   3.5426189602593561E-007   0.0000000000000000     
   5.1974808070347865E-007   5.9208366077829372E-007   0.0000000000000000     
   0.0000000000000000        0.0000000000000000        0.0000000000000000     
   1.0923057614473774E-007   5.3639684087475231E-008   0.0000000000000000     
   2.2283166620392990E-007   1.6863543254938409E-007   0.0000000000000000     
   3.4080327017757652E-007   3.4498724538572650E-007   0.0000000000000000     
   4.6314538806567752E-007   5.8269512259650255E-007   0.0000000000000000     
   6.9406696152204521E-007   6.2708295871694585E-007   0.0000000000000000     
   8.6804433625474229E-007   9.1665265258892330E-007   0.0000000000000000     
   1.0392284894252015E-006   1.2568908575748524E-006   0.0000000000000000     
   1.2076194210334232E-006   1.6477975736747326E-006   0.0000000000000000     
   1.3732171310794075E-006   2.0893728008885641E-006   0.0000000000000000     
   6.3520886743166244E-007   6.1427757883851526E-007   0.0000000000000000     
   7.9767470872588103E-007   9.0516793928271216E-007   0.0000000000000000     
   9.5878929818843663E-007   1.2464787291550543E-006   0.0000000000000000     
   1.1185526358193292E-006   1.6382099484555425E-006   0.0000000000000000     
   1.2769647216185588E-006   2.0803615971841758E-006   0.0000000000000000     
   5.7710257382547349E-007   6.0261114619229781E-007   0.0000000000000000     
   7.2772397159087606E-007   8.9457919555529267E-007   0.0000000000000000     
   8.7840911289232290E-007   1.2367764235462845E-006   0.0000000000000000     
   1.0291579977298144E-006   1.6292028301652728E-006   0.0000000000000000     
   1.1799706261033500E-006   2.0718584154122578E-006   0.0000000000000000     
   5.1974808070347865E-007   5.9208366077829372E-007   0.0000000000000000     
   6.5819212484972717E-007   8.8488642140666557E-007   0.0000000000000000     
   7.9808793353686038E-007   1.2277839407485424E-006   0.0000000000000000     
   9.3943550676487859E-007   1.6207762188039238E-006   0.0000000000000000     
   1.0822348445337811E-006   2.0638632555728099E-006   0.0000000000000000     
   4.6314538806567752E-007   5.8269512259650255E-007   0.0000000000000000     
   5.8907916850243446E-007   8.7608961683683042E-007   0.0000000000000000     
   7.1782576012204928E-007   1.2195012807618281E-006   0.0000000000000000     
   8.4938516292452178E-007   1.6129301143714955E-006   0.0000000000000000     
   9.8375737690985185E-007   2.0563761176658327E-006   0.0000000000000000     
   1.3732171310794075E-006   2.0893728008885641E-006   0.0000000000000000     
   1.5383876412136176E-006   2.5779895668856998E-006   0.0000000000000000     
   1.7054969730865176E-006   3.1100208993354915E-006   0.0000000000000000     
   1.8745451266981072E-006   3.6854667982379398E-006   0.0000000000000000     
   2.0455321020483871E-006   4.3043272635930441E-006   0.0000000000000000     
   1.2769647216185588E-006   2.0803615971841758E-006   0.0000000000000000     
   1.4366089448964759E-006   2.5694580513031858E-006   0.0000000000000000     
   1.6000686949634310E-006   3.1020236867748046E-006   0.0000000000000000     
   1.7673439718194243E-006   3.6780585035990322E-006   0.0000000000000000     
   1.9384347754644557E-006   4.2975625017758673E-006   0.0000000000000000     
   1.1799706261033500E-006   2.0718584154122578E-006   0.0000000000000000     
   1.3335915853608025E-006   2.5613799934862802E-006   0.0000000000000000     
   1.4927654628500433E-006   3.0944043785863818E-006   0.0000000000000000     
   1.6574922585710729E-006   3.6709315707125625E-006   0.0000000000000000     
   1.8277719725238916E-006   4.2909615698648214E-006   0.0000000000000000     
   1.0822348445337811E-006   2.0638632555728099E-006   0.0000000000000000     
   1.2293355626065972E-006   2.5537553934349826E-006   0.0000000000000000     
   1.3835872767463546E-006   3.0871629747702227E-006   0.0000000000000000     
   1.5449899869530541E-006   3.6640859995785306E-006   0.0000000000000000     
   1.7135436932266954E-006   4.2845244678599080E-006   0.0000000000000000     
   9.8375737690985185E-007   2.0563761176658327E-006   0.0000000000000000     
   1.1238408766338595E-006   2.5465842511492926E-006   0.0000000000000000     
   1.2725341366523647E-006   3.0802994753263274E-006   0.0000000000000000     
   1.4298371569653672E-006   3.6575217901969383E-006   0.0000000000000000     
   1.5957499375728670E-006   4.2782511957611229E-006   0.0000000000000000     
   2.0455321020483871E-006   4.3043272635930441E-006   0.0000000000000000     
   2.2181342753283137E-006   4.9621501929684198E-006   0.0000000000000000     
   2.3920280227288426E-006   5.6544834839316796E-006   0.0000000000000000     
   2.5672133442499750E-006   6.3813271364828278E-006   0.0000000000000000     
   2.7436902398917109E-006   7.1426811506218601E-006   0.0000000000000000     
   1.9384347754644557E-006   4.2975625017758673E-006   0.0000000000000000     
   2.1131289611597958E-006   4.9560949370095702E-006   0.0000000000000000     
   2.2912143841667158E-006   5.6492150650043944E-006   0.0000000000000000     
   2.4726910444852158E-006   6.3769228857603431E-006   0.0000000000000000     
   2.6575589421152957E-006   7.1392183992774165E-006   0.0000000000000000     
   1.8277719725238916E-006   4.2909615698648214E-006   0.0000000000000000     
   2.0035117319485696E-006   4.9500879147650870E-006   0.0000000000000000     
   2.1846186640851782E-006   5.6439041441352873E-006   0.0000000000000000     
   2.3710927689337179E-006   6.3724102579754165E-006   0.0000000000000000     
   2.5629340464941875E-006   7.1356062562854812E-006   0.0000000000000000     
   1.7135436932266954E-006   4.2845244678599080E-006   0.0000000000000000     
   1.8892825876946353E-006   4.9441291262349744E-006   0.0000000000000000     
   2.0722408624842301E-006   5.6385507213243534E-006   0.0000000000000000     
   2.2624185175954810E-006   6.3677892531280469E-006   0.0000000000000000     
   2.4598155530283867E-006   7.1318447216460540E-006   0.0000000000000000     
   1.5957499375728670E-006   4.2782511957611229E-006   0.0000000000000000     
   1.7704415283979925E-006   4.9382185714192281E-006   0.0000000000000000     
   1.9540809793638724E-006   5.6331547965715986E-006   0.0000000000000000     
   2.1466682904705057E-006   6.3630598712182329E-006   0.0000000000000000     
   2.3482034617178939E-006   7.1279337953591334E-006   0.0000000000000000     
   0.0000000000000000        0.0000000000000000        0.0000000000000000     
   1.0923057614473774E-007   5.3639684087475231E-008   0.0000000000000000     
   2.2283166620392990E-007   1.6863543254938409E-007   0.0000000000000000     
   3.4080327017757652E-007   3.4498724538572650E-007   0.0000000000000000     
   4.6314538806567752E-007   5.8269512259650255E-007   0.0000000000000000     
   0.0000000000000000        0.0000000000000000        0.0000000000000000     
   9.4770105962849606E-008   4.9690971851458964E-008   0.0000000000000000     
   1.9420893979510200E-007   1.6198890472245450E-007   0.0000000000000000     
   2.9831650149675719E-007   3.3689379861298669E-007   0.0000000000000000     
   4.0709279106781514E-007   5.7440565352305547E-007   0.0000000000000000     
   0.0000000000000000        0.0000000000000000        0.0000000000000000     
   8.0561391036030973E-008   4.6303764005756820E-008   0.0000000000000000     
   1.6597995219231403E-007   1.5626758124668958E-007   0.0000000000000000     
   2.5625568346884915E-007   3.2989145172279833E-007   0.0000000000000000     
   3.5138858486563636E-007   5.6717537543408287E-007   0.0000000000000000     
   0.0000000000000000        0.0000000000000000        0.0000000000000000     
   6.6604431364281839E-008   4.3478060550368836E-008   0.0000000000000000     
   1.3814470339556595E-007   1.5147146212208929E-007   0.0000000000000000     
   2.1462081609385230E-007   3.2398020471516142E-007   0.0000000000000000     
   2.9603276945914090E-007   5.6100428832958507E-007   0.0000000000000000     
   0.0000000000000000        0.0000000000000000        0.0000000000000000     
   5.2899226947602217E-008   4.1213861485294987E-008   0.0000000000000000     
   1.1070319340485779E-007   1.4760054734865363E-007   0.0000000000000000     
   1.7341189937176670E-007   3.1916005759007592E-007   0.0000000000000000     
   2.4102534484832899E-007   5.5589239220956186E-007   0.0000000000000000     
   4.6314538806567752E-007   5.8269512259650255E-007   0.0000000000000000     
   5.8907916850243446E-007   8.7608961683683042E-007   0.0000000000000000     
   7.1782576012204928E-007   1.2195012807618281E-006   0.0000000000000000     
   8.4938516292452178E-007   1.6129301143714955E-006   0.0000000000000000     
   9.8375737690985185E-007   2.0563761176658327E-006   0.0000000000000000     
   4.0709279106781514E-007   5.7440565352305547E-007   0.0000000000000000     
   5.2026468495095333E-007   8.6820916013860507E-007   0.0000000000000000     
   6.3755905958884902E-007   1.2119890091455796E-006   0.0000000000000000     
   7.5897591498150232E-007   1.6057452005439796E-006   0.0000000000000000     
   8.8451525112891313E-007   2.0494777343338042E-006   0.0000000000000000     
   3.5138858486563636E-007   5.6717537543408287E-007   0.0000000000000000     
   4.5162825659723875E-007   8.6126542960480744E-007   0.0000000000000000     
   5.5722429887821941E-007   1.2053076914592356E-006   0.0000000000000000     
   6.6817671170857845E-007   1.5993021609973674E-006   0.0000000000000000     
   7.8448549508831575E-007   2.0432488382192025E-006   0.0000000000000000     
   2.9603276945914090E-007   5.6100428832958507E-007   0.0000000000000000     
   3.8316988344129062E-007   8.5525842523543752E-007   0.0000000000000000     
   4.7682147799016030E-007   1.1994573277027951E-006   0.0000000000000000     
   5.7698755310574994E-007   1.5936009957316592E-006   0.0000000000000000     
   6.8366810878805939E-007   2.0376894293220285E-006   0.0000000000000000     
   2.4102534484832899E-007   5.5589239220956186E-007   0.0000000000000000     
   3.1488956548310920E-007   8.5018814703049522E-007   0.0000000000000000     
   3.9635059692467185E-007   1.1944379178762596E-006   0.0000000000000000     
   4.8540843917301691E-007   1.5886417047468546E-006   0.0000000000000000     
   5.8206309222814457E-007   2.0327995076422808E-006   0.0000000000000000     
   9.8375737690985185E-007   2.0563761176658327E-006   0.0000000000000000     
   1.1238408766338595E-006   2.5465842511492926E-006   0.0000000000000000     
   1.2725341366523647E-006   3.0802994753263274E-006   0.0000000000000000     
   1.4298371569653672E-006   3.6575217901969383E-006   0.0000000000000000     
   1.5957499375728670E-006   4.2782511957611229E-006   0.0000000000000000     
   8.8451525112891313E-007   2.0494777343338042E-006   0.0000000000000000     
   1.0170818962611790E-006   2.5399397768779474E-006   0.0000000000000000     
   1.1595806786083980E-006   3.0738844945393018E-006   0.0000000000000000     
   1.3120115981705696E-006   3.6513118873178687E-006   0.0000000000000000     
   1.4743746549476937E-006   4.2722219552136468E-006   0.0000000000000000     
   7.8448549508831575E-007   2.0432488382192025E-006   0.0000000000000000     
   9.0903299030714466E-007   2.5338951808696842E-006   0.0000000000000000     
   1.0447015386547791E-006   3.0679886466937532E-006   0.0000000000000000     
   1.1914911401312187E-006   3.6455292356914088E-006   0.0000000000000000     
   1.3494017947364633E-006   4.2665169478626526E-006   0.0000000000000000     
   6.8366810878805939E-007   2.0376894293220285E-006   0.0000000000000000     
   7.9969415877175642E-007   2.5284504631245020E-006   0.0000000000000000     
   9.2789671679150781E-007   3.0626119317896794E-006   0.0000000000000000     
   1.0682757828473140E-006   3.6401738353175607E-006   0.0000000000000000     
   1.2208313569391749E-006   4.2611361737081445E-006   0.0000000000000000     
   5.8206309222814457E-007   2.0327995076422808E-006   0.0000000000000000     
   6.8906540165501382E-007   2.5236056236424017E-006   0.0000000000000000     
   8.0916621301858450E-007   3.0577543498270820E-006   0.0000000000000000     
   9.4236552631885619E-007   3.6352456861963218E-006   0.0000000000000000     
   1.0886633415558293E-006   4.2560796327501201E-006   0.0000000000000000     
   1.5957499375728670E-006   4.2782511957611229E-006   0.0000000000000000     
   1.7704415283979925E-006   4.9382185714192281E-006   0.0000000000000000     
   1.9540809793638724E-006   5.6331547965715986E-006   0.0000000000000000     
   2.1466682904705057E-006   6.3630598712182329E-006   0.0000000000000000     
   2.3482034617178939E-006   7.1279337953591334E-006   0.0000000000000000     
   1.4743746549476937E-006   4.2722219552136468E-006   0.0000000000000000     
   1.6469949881122741E-006   4.9324425671997409E-006   0.0000000000000000     
   1.8301977368368136E-006   5.6278015922492559E-006   0.0000000000000000     
   2.0239829011213118E-006   6.3582990303621911E-006   0.0000000000000000     
   2.2283504809657697E-006   7.1239348815385498E-006   0.0000000000000000     
   1.3494017947364633E-006   4.2665169478626526E-006   0.0000000000000000     
   1.5189494008911117E-006   4.9268874304583995E-006   0.0000000000000000     
   1.7006498570157637E-006   5.6225763307295601E-006   0.0000000000000000     
   1.8945031631104183E-006   6.3535836486761360E-006   0.0000000000000000     
   2.1005093191750763E-006   7.1199093842981297E-006   0.0000000000000000     
   1.2208313569391749E-006   4.2611361737081445E-006   0.0000000000000000     
   1.3863047667345062E-006   4.9215531611952041E-006   0.0000000000000000     
   1.5654373399007229E-006   5.6174790120125129E-006   0.0000000000000000     
   1.7582290764378252E-006   6.3489137261600692E-006   0.0000000000000000     
   1.9646799763458141E-006   7.1158573036378740E-006   0.0000000000000000     
   1.0886633415558293E-006   4.2560796327501201E-006   0.0000000000000000     
   1.2490610856424565E-006   4.9164397594101579E-006   0.0000000000000000     
   1.4245601854916914E-006   5.6125096360981142E-006   0.0000000000000000     
   1.6151606411035329E-006   6.3442892628139891E-006   0.0000000000000000     
   1.8208624524779828E-006   7.1117786395577826E-006   0.0000000000000000     
   0.0000000000000000        0.0000000000000000        0.0000000000000000     
   5.2899226947602217E-008   4.1213861485294987E-008   0.0000000000000000     
   1.1070319340485779E-007   1.4760054734865363E-007   0.0000000000000000     
   1.7341189937176670E-007   3.1916005759007592E-007   0.0000000000000000     
   2.4102534484832899E-007   5.5589239220956186E-007   0.0000000000000000     
   0.0000000000000000        0.0000000000000000        0.0000000000000000     
   3.9358100543180318E-008   3.9476693792922400E-008   0.0000000000000000     
   8.3511463952226920E-008   1.4460689184797688E-007   0.0000000000000000     
   1.3246009022713979E-007   3.1539059416516344E-007   0.0000000000000000     
   1.8620397936791895E-007   5.5182780074448203E-007   0.0000000000000000     
   0.0000000000000000        0.0000000000000000        0.0000000000000000     
   2.5893374908204382E-008   3.8232084455638175E-008   0.0000000000000000     
   5.6425556769710694E-008   1.4244255054165323E-007   0.0000000000000000     
   9.1596545584518935E-008   3.1263139825804520E-007   0.0000000000000000     
   1.3140634135262908E-007   5.4879862760481407E-007   0.0000000000000000     
   0.0000000000000000        0.0000000000000000        0.0000000000000000     
   1.2505050042674401E-008   3.7480033473442299E-008   0.0000000000000000     
   2.9445471857309126E-008   1.4110752342968270E-007   0.0000000000000000     
   5.0821265443904183E-008   3.1088246986872122E-007   0.0000000000000000     
   7.6632430802459551E-008   5.4680487279055786E-007   0.0000000000000000     
   0.0000000000000000        0.0000000000000000        0.0000000000000000     
  -8.0687405340962584E-010   3.7220540846334812E-008   0.0000000000000000     
   2.5712092150222046E-009   1.4060181051206535E-007   0.0000000000000000     
   1.0134249805295488E-008   3.1014380899719166E-007   0.0000000000000000     
   2.1882247717410231E-008   5.4584653630171363E-007   0.0000000000000000     
   2.4102534484832899E-007   5.5589239220956186E-007   0.0000000000000000     
   3.1488956548310920E-007   8.5018814703049522E-007   0.0000000000000000     
   3.9635059692467185E-007   1.1944379178762596E-006   0.0000000000000000     
   4.8540843917301691E-007   1.5886417047468546E-006   0.0000000000000000     
   5.8206309222814457E-007   2.0327995076422808E-006   0.0000000000000000     
   1.8620397936791895E-007   5.5182780074448203E-007   0.0000000000000000     
   2.4664567223411374E-007   8.4607688530438875E-007   0.0000000000000000     
   3.1568770968527363E-007   1.1902962215633392E-006   0.0000000000000000     
   3.9333009172139853E-007   1.5844858095213339E-006   0.0000000000000000     
   4.7957281834248835E-007   2.0286456491783723E-006   0.0000000000000000     
   1.3140634135262908E-007   5.4879862760481407E-007   0.0000000000000000     
   1.7829657320572367E-007   8.4294693037152580E-007   0.0000000000000000     
   2.3470887027548510E-007   1.1870789983477465E-006   0.0000000000000000     
   3.0064323256191345E-007   1.5811948315334762E-006   0.0000000000000000     
   3.7609966006500853E-007   2.0252944299287144E-006   0.0000000000000000     
   7.6632430802459551E-008   5.4680487279055786E-007   0.0000000000000000     
   1.0984226839793905E-007   8.4079828223190648E-007   0.0000000000000000     
   1.5341407869530647E-007   1.1847862482294811E-006   0.0000000000000000     
   2.0734786169456181E-007   1.5787687707832817E-006   0.0000000000000000     
   2.7164361739570505E-007   2.0227458498933080E-006   0.0000000000000000     
   2.1882247717410231E-008   5.4584653630171363E-007   0.0000000000000000     
   4.1282757810759812E-008   8.3963094088553100E-007   0.0000000000000000     
   7.1803334944737607E-008   1.1834179712085432E-006   0.0000000000000000     
   1.1344397911934363E-007   1.5772076272707504E-006   0.0000000000000000     
   1.6620469033457784E-007   2.0209999090721526E-006   0.0000000000000000     
   5.8206309222814457E-007   2.0327995076422808E-006   0.0000000000000000     
   6.8906540165501382E-007   2.5236056236424017E-006   0.0000000000000000     
   8.0916621301858450E-007   3.0577543498270820E-006   0.0000000000000000     
   9.4236552631885619E-007   3.6352456861963218E-006   0.0000000000000000     
   1.0886633415558293E-006   4.2560796327501201E-006   0.0000000000000000     
   4.7957281834248835E-007   2.0286456491783723E-006   0.0000000000000000     
   5.7706312487133645E-007   2.5194302334931361E-006   0.0000000000000000     
   6.8844824663073593E-007   3.0534940554243070E-006   0.0000000000000000     
   8.1372818362068679E-007   3.6308371149718858E-006   0.0000000000000000     
   9.5290293584118913E-007   4.2514594121358713E-006   0.0000000000000000     
   3.7609966006500853E-007   2.0252944299287144E-006   0.0000000000000000     
   4.6360373433514297E-007   2.5159938637464575E-006   0.0000000000000000     
   5.6568103692268926E-007   3.0499092031997018E-006   0.0000000000000000     
   6.8233156782764729E-007   3.6270404482884451E-006   0.0000000000000000     
   8.1355532705001748E-007   4.2473875990126909E-006   0.0000000000000000     
   2.7164361739570505E-007   2.0227458498933080E-006   0.0000000000000000     
   3.4868723004643349E-007   2.5132965144023669E-006   0.0000000000000000     
   4.4086458389444460E-007   3.0469997931532649E-006   0.0000000000000000     
   5.4817567893973802E-007   3.6238556861460019E-006   0.0000000000000000     
   6.7062051518231417E-007   4.2438641933805788E-006   0.0000000000000000     
   1.6620469033457784E-007   2.0209999090721526E-006   0.0000000000000000     
   2.3231361200520795E-007   2.5113381854608633E-006   0.0000000000000000     
   3.1399888754600164E-007   3.0447658252849974E-006   0.0000000000000000     
   4.1126051695695878E-007   3.6212828285445540E-006   0.0000000000000000     
   5.2409850023807952E-007   4.2408891952395344E-006   0.0000000000000000     
   1.0886633415558293E-006   4.2560796327501201E-006   0.0000000000000000     
   1.2490610856424565E-006   4.9164397594101579E-006   0.0000000000000000     
   1.4245601854916914E-006   5.6125096360981142E-006   0.0000000000000000     
   1.6151606411035329E-006   6.3442892628139891E-006   0.0000000000000000     
   1.8208624524779828E-006   7.1117786395577826E-006   0.0000000000000000     
   9.5290293584118913E-007   4.2514594121358713E-006   0.0000000000000000     
   1.1072319914488502E-006   4.9116719703145039E-006   0.0000000000000000     
   1.2779748386002781E-006   5.6077858129060251E-006   0.0000000000000000     
   1.4651314772954723E-006   6.3398009399104342E-006   0.0000000000000000     
   1.6687019075344332E-006   7.1077173513277311E-006   0.0000000000000000     
   8.1355532705001748E-007   4.2473875990126909E-006   0.0000000000000000     
   9.6083111798757423E-007   4.9073745391194934E-006   0.0000000000000000     
   1.1256377440380930E-006   5.6034251523559124E-006   0.0000000000000000     
   1.3079752052015733E-006   6.3355394387219472E-006   0.0000000000000000     
   1.5078435014780160E-006   7.1037173982175969E-006   0.0000000000000000     
   6.7062051518231417E-007   4.2438641933805788E-006   0.0000000000000000     
   8.0985846525862824E-007   4.9035474658251247E-006   0.0000000000000000     
   9.6754890180513583E-007   5.5994276544477754E-006   0.0000000000000000     
   1.1436918248218368E-006   6.3315047592485257E-006   0.0000000000000000     
   1.3382872343087315E-006   7.0997787802273782E-006   0.0000000000000000     
   5.2409850023807952E-007   4.2408891952395344E-006   0.0000000000000000     
   6.5431403326201271E-007   4.9001907504313988E-006   0.0000000000000000     
   8.0370831190140696E-007   5.5957933191816114E-006   0.0000000000000000     
   9.7228133615626238E-007   6.3276969014901713E-006   0.0000000000000000     
   1.1600331060265792E-006   7.0959014973570777E-006   0.0000000000000000     
   0.0000000000000000        0.0000000000000000        0.0000000000000000     
  -8.0687405340962584E-010   3.7220540846334812E-008   0.0000000000000000     
   2.5712092150222046E-009   1.4060181051206535E-007   0.0000000000000000     
   1.0134249805295488E-008   3.1014380899719166E-007   0.0000000000000000     
   2.1882247717410231E-008   5.4584653630171363E-007   0.0000000000000000     
   0.0000000000000000        0.0000000000000000        0.0000000000000000     
  -1.4109647012970277E-008   3.7449515954701246E-008   0.0000000000000000     
  -2.4314270406864198E-008   1.4092378083472666E-007   0.0000000000000000     
  -3.0613870181681768E-008   3.1042279464007630E-007   0.0000000000000000     
  -3.3008446337422983E-008   5.4594655737075007E-007   0.0000000000000000     
   0.0000000000000000        0.0000000000000000        0.0000000000000000     
  -2.7470518468930132E-008   3.8162868178927147E-008   0.0000000000000000     
  -5.1328006258064208E-008   1.4207180344359222E-007   0.0000000000000000     
  -7.1572463367402247E-008   3.1172680579399519E-007   0.0000000000000000     
  -8.8203889796944257E-008   5.4712787523013612E-007   0.0000000000000000     
   0.0000000000000000        0.0000000000000000        0.0000000000000000     
  -4.0889488421289187E-008   3.9360597519012535E-008   0.0000000000000000     
  -7.8469998338577843E-008   1.4404587833866201E-007   0.0000000000000000     
  -1.1274152975186595E-007   3.1405584245894844E-007   0.0000000000000000     
  -1.4370408266115356E-007   5.4939048987987178E-007   0.0000000000000000     
   0.0000000000000000        0.0000000000000000        0.0000000000000000     
  -5.4366556870047445E-008   4.1042703974957389E-008   0.0000000000000000     
  -1.0574024664840508E-007   1.4684600551993604E-007   0.0000000000000000     
  -1.5412106933507289E-007   3.1740990463493595E-007   0.0000000000000000     
  -1.9950902493005088E-007   5.5273440131995704E-007   0.0000000000000000     
   2.1882247717410231E-008   5.4584653630171363E-007   0.0000000000000000     
   4.1282757810759812E-008   8.3963094088553100E-007   0.0000000000000000     
   7.1803334944737607E-008   1.1834179712085432E-006   0.0000000000000000     
   1.1344397911934363E-007   1.5772076272707504E-006   0.0000000000000000     
   1.6620469033457784E-007   2.0209999090721526E-006   0.0000000000000000     
  -3.3008446337422983E-008   5.4594655737075007E-007   0.0000000000000000     
  -2.7554031420793871E-008   8.3948378313539928E-007   0.0000000000000000     
  -1.0306657978500449E-008   1.1830231860426756E-006   0.0000000000000000     
   1.8733673989457285E-008   1.5765647660925783E-006   0.0000000000000000     
   5.9566964483079316E-008   2.0201085232851079E-006   0.0000000000000000     
  -8.8203889796944257E-008   5.4712787523013612E-007   0.0000000000000000     
  -9.6840172161701859E-008   8.4039568578451233E-007   0.0000000000000000     
  -9.3099197076686729E-008   1.1836509114896209E-006   0.0000000000000000     
  -7.6980964541898839E-008   1.5768935523454622E-006   0.0000000000000000     
  -4.8485474557338249E-008   2.0201236083520354E-006   0.0000000000000000     
  -1.4370408266115356E-007   5.4939048987987178E-007   0.0000000000000000     
  -1.6657566441196413E-007   8.4236664883286951E-007   0.0000000000000000     
  -1.7657428234982119E-007   1.1853011475493798E-006   0.0000000000000000     
  -1.7369993647472476E-007   1.5781939860294007E-006   0.0000000000000000     
  -1.5795262678667487E-007   2.0210451642729345E-006   0.0000000000000000     
  -1.9950902493005088E-007   5.5273440131995704E-007   0.0000000000000000     
  -2.3676050817158061E-007   8.4539667228047133E-007   0.0000000000000000     
  -2.6073191379790386E-007   1.1879738942219511E-006   0.0000000000000000     
  -2.7142324180902042E-007   1.5804660671443954E-006   0.0000000000000000     
  -2.6883449220493051E-007   2.0228731910478057E-006   0.0000000000000000     
   1.6620469033457784E-007   2.0209999090721526E-006   0.0000000000000000     
   2.3231361200520795E-007   2.5113381854608633E-006   0.0000000000000000     
   3.1399888754600164E-007   3.0447658252849974E-006   0.0000000000000000     
   4.1126051695695878E-007   3.6212828285445540E-006   0.0000000000000000     
   5.2409850023807952E-007   4.2408891952395344E-006   0.0000000000000000     
   5.9566964483079316E-008   2.0201085232851079E-006   0.0000000000000000     
   1.1424967865950070E-007   2.5101737374229477E-006   0.0000000000000000     
   1.8483828167585655E-007   3.0432796883087801E-006   0.0000000000000000     
   2.7133277353214684E-007   3.6194263759426046E-006   0.0000000000000000     
   3.7373315422837142E-007   4.2386138003244226E-006   0.0000000000000000     
  -4.8485474557338249E-008   2.0201236083520354E-006   0.0000000000000000     
  -5.7377715426538973E-009   2.5098580307896197E-006   0.0000000000000000     
   5.3137100082505324E-008   3.0426137709384931E-006   0.0000000000000000     
   1.2813914031813934E-007   3.6183908287986565E-006   0.0000000000000000     
   2.1926834916424824E-007   4.2371892043701069E-006   0.0000000000000000     
  -1.5795262678667487E-007   2.0210451642729345E-006   0.0000000000000000     
  -1.2764873860125579E-007   2.5103910655608796E-006   0.0000000000000000     
  -8.1104657234052088E-008   3.0427680731741386E-006   0.0000000000000000     
  -1.8320382685063536E-008   3.6181761871127071E-006   0.0000000000000000     
   6.0704085045709765E-008   4.2366154073765899E-006   0.0000000000000000     
  -2.6883449220493051E-007   2.0228731910478057E-006   0.0000000000000000     
  -2.5148322251630519E-007   2.5117728417367284E-006   0.0000000000000000     
  -2.1788699027381559E-007   3.0437425950157135E-006   0.0000000000000000     
  -1.6804579547746188E-007   3.6187824508847599E-006   0.0000000000000000     
  -1.0195963812724391E-007   4.2368924093438674E-006   0.0000000000000000     
   5.2409850023807952E-007   4.2408891952395344E-006   0.0000000000000000     
   6.5431403326201271E-007   4.9001907504313988E-006   0.0000000000000000     
   8.0370831190140696E-007   5.5957933191816114E-006   0.0000000000000000     
   9.7228133615626238E-007   6.3276969014901713E-006   0.0000000000000000     
   1.1600331060265792E-006   7.0959014973570777E-006   0.0000000000000000     
   3.7373315422837142E-007   4.2386138003244226E-006   0.0000000000000000     
   4.9392131346306970E-007   4.8974926457947520E-006   0.0000000000000000     
   6.3377914093478059E-007   5.5927135966941092E-006   0.0000000000000000     
   7.9330663664350398E-007   6.3242766530224968E-006   0.0000000000000000     
   9.7250380058923998E-007   7.0921818147799140E-006   0.0000000000000000     
   2.1926834916424824E-007   4.2371892043701069E-006   0.0000000000000000     
   3.2840379732714208E-007   4.8956414047716166E-006   0.0000000000000000     
   4.5742455551313101E-007   5.5903799371219535E-006   0.0000000000000000     
   6.0633062372221527E-007   6.3214048014211178E-006   0.0000000000000000     
   7.7512200195439445E-007   7.0887159976691093E-006   0.0000000000000000     
   6.0704085045709765E-008   4.2366154073765899E-006   0.0000000000000000     
   1.5776148485422980E-007   4.8946370273619976E-006   0.0000000000000000     
   2.7464455563645858E-007   5.5887923404651451E-006   0.0000000000000000     
   4.1135329739239620E-007   6.3190813466860349E-006   0.0000000000000000     
   5.6788771012204251E-007   7.0855040460246629E-006   0.0000000000000000     
  -1.0195963812724391E-007   4.2368924093438674E-006   0.0000000000000000     
  -1.8005623955667118E-008   4.8944795135658900E-006   0.0000000000000000     
   8.5439141304763126E-008   5.5879508067236840E-006   0.0000000000000000     
   2.0837465765404688E-007   6.3173062888172441E-006   0.0000000000000000     
   3.5080092509218409E-007   7.0825459598465772E-006   0.0000000000000000     
   0.0000000000000000        0.0000000000000000        0.0000000000000000     
  -5.4366556870047445E-008   4.1042703974957389E-008   0.0000000000000000     
  -1.0574024664840508E-007   1.4684600551993604E-007   0.0000000000000000     
  -1.5412106933507289E-007   3.1740990463493595E-007   0.0000000000000000     
  -1.9950902493005088E-007   5.5273440131995704E-007   0.0000000000000000     
   0.0000000000000000        0.0000000000000000        0.0000000000000000     
  -6.7995084601356846E-008   4.3244933387195399E-008   0.0000000000000000     
  -1.3329441209738998E-007   1.5052810533063285E-007   0.0000000000000000     
  -1.9589798248809952E-007   3.2184951583031239E-007   0.0000000000000000     
  -2.5580579577348529E-007   5.5720916488623399E-007   0.0000000000000000     
   0.0000000000000000        0.0000000000000000        0.0000000000000000     
  -8.1868432401369296E-008   4.6003031596160236E-008   0.0000000000000000     
  -1.6128815559537672E-007   1.5514809811397105E-007   0.0000000000000000     
  -2.3825916958202227E-007   3.2743519955343246E-007   0.0000000000000000     
  -3.1278147436130601E-007   5.6286433591454449E-007   0.0000000000000000     
   0.0000000000000000        0.0000000000000000        0.0000000000000000     
  -9.5986600270084783E-008   4.9316998601851886E-008   0.0000000000000000     
  -1.8972147714236519E-007   1.6070598386995064E-007   0.0000000000000000     
  -2.8120463061684128E-007   3.3416695580429627E-007   0.0000000000000000     
  -3.7043606069351286E-007   5.6969991440488887E-007   0.0000000000000000     
   0.0000000000000000        0.0000000000000000        0.0000000000000000     
  -1.1034958820750336E-007   5.3186834404270355E-008   0.0000000000000000     
  -2.1859437673835546E-007   1.6720176259857161E-007   0.0000000000000000     
  -3.2473436559255633E-007   3.4204478458290367E-007   0.0000000000000000     
  -4.2876955477010596E-007   5.7771590035726671E-007   0.0000000000000000     
  -1.9950902493005088E-007   5.5273440131995704E-007   0.0000000000000000     
  -2.3676050817158061E-007   8.4539667228047133E-007   0.0000000000000000     
  -2.6073191379790386E-007   1.1879738942219511E-006   0.0000000000000000     
  -2.7142324180902042E-007   1.5804660671443954E-006   0.0000000000000000     
  -2.6883449220493051E-007   2.0228731910478057E-006   0.0000000000000000     
  -2.5580579577348529E-007   5.5720916488623399E-007   0.0000000000000000     
  -3.0756948935964092E-007   8.4952212334866944E-007   0.0000000000000000     
  -3.4574070065265998E-007   1.1917034620678903E-006   0.0000000000000000     
  -3.7031942965254242E-007   1.5837531810438969E-006   0.0000000000000000     
  -3.8130567635928819E-007   2.0256712802766892E-006   0.0000000000000000     
  -3.1278147436130601E-007   5.6286433591454449E-007   0.0000000000000000     
  -3.7917739389523458E-007   8.5477936925881512E-007   0.0000000000000000     
  -4.3176925214581502E-007   1.1965241616477521E-006   0.0000000000000000     
  -4.7055704911304712E-007   1.5880987130813562E-006   0.0000000000000000     
  -4.9554078479693104E-007   2.0295030235596269E-006   0.0000000000000000     
  -3.7043606069351286E-007   5.6969991440488887E-007   0.0000000000000000     
  -4.5158422177836159E-007   8.6116841001090881E-007   0.0000000000000000     
  -5.1881756827736878E-007   1.2024359929615370E-006   0.0000000000000000     
  -5.7213610019053464E-007   1.5935026632567737E-006   0.0000000000000000     
  -6.1153981751785890E-007   2.0343684208966184E-006   0.0000000000000000     
  -4.2876955477010596E-007   5.7771590035726671E-007   0.0000000000000000     
  -5.2478997300902184E-007   8.6868924560495018E-007   0.0000000000000000     
  -6.0688564904732150E-007   1.2094389560092444E-006   0.0000000000000000     
  -6.7505658288500475E-007   1.5999650315701491E-006   0.0000000000000000     
  -7.2930277452207188E-007   2.0402674722876642E-006   0.0000000000000000     
  -2.6883449220493051E-007   2.0228731910478057E-006   0.0000000000000000     
  -2.5148322251630519E-007   2.5117728417367284E-006   0.0000000000000000     
  -2.1788699027381559E-007   3.0437425950157135E-006   0.0000000000000000     
  -1.6804579547746188E-007   3.6187824508847599E-006   0.0000000000000000     
  -1.0195963812724391E-007   4.2368924093438674E-006   0.0000000000000000     
  -3.8130567635928819E-007   2.0256712802766892E-006   0.0000000000000000     
  -3.7742427363641078E-007   2.5140897017651596E-006   0.0000000000000000     
  -3.5740005434742358E-007   3.0456403875082022E-006   0.0000000000000000     
  -3.2123301849232664E-007   3.6203233375058148E-006   0.0000000000000000     
  -2.6892316607111990E-007   4.2381385517579995E-006   0.0000000000000000     
  -4.9554078479693104E-007   2.0295030235596269E-006   0.0000000000000000     
  -5.0565494231018168E-007   2.5174279880941682E-006   0.0000000000000000     
  -4.9983400476551425E-007   3.0485645016965840E-006   0.0000000000000000     
  -4.7807797216292875E-007   3.6229125643668753E-006   0.0000000000000000     
  -4.4038684450242524E-007   4.2404721761050416E-006   0.0000000000000000     
  -6.1153981751785890E-007   2.0343684208966184E-006   0.0000000000000000     
  -6.3617522853761792E-007   2.5217877007237537E-006   0.0000000000000000     
  -6.4518884152808772E-007   3.0525149375808612E-006   0.0000000000000000     
  -6.3858065648926829E-007   3.6265501314679414E-006   0.0000000000000000     
  -6.1635067342115986E-007   4.2438932823849944E-006   0.0000000000000000     
  -7.2930277452207188E-007   2.0402674722876642E-006   0.0000000000000000     
  -7.6898513231871936E-007   2.5271688396539169E-006   0.0000000000000000     
  -7.9346456463514395E-007   3.0574916951610328E-006   0.0000000000000000     
  -8.0274107147134543E-007   3.6312360388090127E-006   0.0000000000000000     
  -7.9681465282732391E-007   4.2484018705978571E-006   0.0000000000000000     
  -1.0195963812724391E-007   4.2368924093438674E-006   0.0000000000000000     
  -1.8005623955667118E-008   4.8944795135658900E-006   0.0000000000000000     
   8.5439141304763126E-008   5.5879508067236840E-006   0.0000000000000000     
   2.0837465765404688E-007   6.3173062888172441E-006   0.0000000000000000     
   3.5080092509218409E-007   7.0825459598465772E-006   0.0000000000000000     
  -2.6892316607111990E-007   4.2381385517579995E-006   0.0000000000000000     
  -1.9905281475331276E-007   4.8953054263912034E-006   0.0000000000000000     
  -1.1020428220841482E-007   5.5880433575318784E-006   0.0000000000000000     
  -2.3775684364258578E-009   6.3163523451800229E-006   0.0000000000000000     
   1.2442732656265397E-007   7.0802323893356343E-006   0.0000000000000000     
  -4.4038684450242524E-007   4.2404721761050416E-006   0.0000000000000000     
  -3.8553537318947121E-007   4.8972513288458439E-006   0.0000000000000000     
  -3.1229830962953460E-007   5.5892580145240419E-006   0.0000000000000000     
  -2.2067565382261526E-007   6.3164922331396364E-006   0.0000000000000000     
  -1.1066740576871330E-007   7.0789539846926276E-006   0.0000000000000000     
  -6.1635067342115986E-007   4.2438932823849944E-006   0.0000000000000000     
  -5.7745329926414233E-007   4.9003172209298089E-006   0.0000000000000000     
  -5.2084294095859615E-007   5.5915947777001718E-006   0.0000000000000000     
  -4.4651959850452128E-007   6.3177259526960864E-006   0.0000000000000000     
  -3.5448327190191765E-007   7.0787107459175510E-006   0.0000000000000000     
  -7.9681465282732391E-007   4.2484018705978571E-006   0.0000000000000000     
  -7.7480659297732616E-007   4.9045031026430994E-006   0.0000000000000000     
  -7.3583817619559961E-007   5.5950536470602707E-006   0.0000000000000000     
  -6.7990940248214392E-007   6.3200535038493736E-006   0.0000000000000000     
  -6.0702027183695910E-007   7.0795026730104079E-006   0.0000000000000000     
   0.0000000000000000        0.0000000000000000        0.0000000000000000     
  -1.1034958820750336E-007   5.3186834404270355E-008   0.0000000000000000     
  -2.1859437673835546E-007   1.6720176259857161E-007   0.0000000000000000     
  -3.2473436559255633E-007   3.4204478458290367E-007   0.0000000000000000     
  -4.2876955477010596E-007   5.7771590035726671E-007   0.0000000000000000     
   0.0000000000000000        0.0000000000000000        0.0000000000000000     
  -1.2511471960655310E-007   5.7700110027964590E-008   0.0000000000000000     
  -2.4815893842193690E-007   1.7476445358408895E-007   0.0000000000000000     
  -3.6913265644615144E-007   3.5119303066837315E-007   0.0000000000000000     
  -4.8803587367919679E-007   5.8698584128081709E-007   0.0000000000000000     
   0.0000000000000000        0.0000000000000000        0.0000000000000000     
  -1.4043931786016208E-007   6.2944396497483551E-008   0.0000000000000000     
  -2.7866724623169883E-007   1.8352307611075788E-007   0.0000000000000000     
  -4.1468378511461041E-007   3.6173603883982299E-007   0.0000000000000000     
  -5.4848893450889687E-007   5.9758328468467890E-007   0.0000000000000000     
   0.0000000000000000        0.0000000000000000        0.0000000000000000     
  -1.5632338296833034E-007   6.8919693812827198E-008   0.0000000000000000     
  -3.1011930016764140E-007   1.9347763017857825E-007   0.0000000000000000     
  -4.6138775159793324E-007   3.7367380909725313E-007   0.0000000000000000     
  -6.1012873725920600E-007   6.0950823056885192E-007   0.0000000000000000     
   0.0000000000000000        0.0000000000000000        0.0000000000000000     
  -1.7276691493105783E-007   7.5626001973995571E-008   0.0000000000000000     
  -3.4251510022976450E-007   2.0462811578755016E-007   0.0000000000000000     
  -5.0924455589611997E-007   3.8700634144066379E-007   0.0000000000000000     
  -6.7295528193012428E-007   6.2276067893333636E-007   0.0000000000000000     
  -4.2876955477010596E-007   5.7771590035726671E-007   0.0000000000000000     
  -5.2478997300902184E-007   8.6868924560495018E-007   0.0000000000000000     
  -6.0688564904732150E-007   1.2094389560092444E-006   0.0000000000000000     
  -6.7505658288500475E-007   1.5999650315701491E-006   0.0000000000000000     
  -7.2930277452207188E-007   2.0402674722876642E-006   0.0000000000000000     
  -4.8803587367919679E-007   5.8698584128081709E-007   0.0000000000000000     
  -5.9899793528042585E-007   8.7735929611416194E-007   0.0000000000000000     
  -6.9614818640919154E-007   1.2175298058611488E-006   0.0000000000000000     
  -7.7948662706549385E-007   1.6074973705217774E-006   0.0000000000000000     
  -8.4901325724933300E-007   2.0472619900960474E-006   0.0000000000000000     
  -5.4848893450889687E-007   5.9758328468467890E-007   0.0000000000000000     
  -6.7441139628578373E-007   8.8719598161176582E-007   0.0000000000000000     
  -7.8677987231649743E-007   1.2267052975875235E-006   0.0000000000000000     
  -8.8559436260103788E-007   1.6161112326119527E-006   0.0000000000000000     
  -9.7085486713940528E-007   2.0554137866850524E-006   0.0000000000000000     
  -6.1012873725920600E-007   6.0950823056885192E-007   0.0000000000000000     
  -7.5103035602509578E-007   8.9819930209776162E-007   0.0000000000000000     
  -8.7878070676923949E-007   1.2369654311883692E-006   0.0000000000000000     
  -9.9337978949163692E-007   1.6258066178406746E-006   0.0000000000000000     
  -1.0948276041922884E-006   2.0647228620546777E-006   0.0000000000000000     
  -6.7295528193012428E-007   6.2276067893333636E-007   0.0000000000000000     
  -8.2885481449836201E-007   9.1036925757214987E-007   0.0000000000000000     
  -9.7215068976741751E-007   1.2483102066636856E-006   0.0000000000000000     
  -1.1028429077372913E-006   1.6365835262079439E-006   0.0000000000000000     
  -1.2209314684079826E-006   2.0751892162049251E-006   0.0000000000000000     
  -7.2930277452207188E-007   2.0402674722876642E-006   0.0000000000000000     
  -7.6898513231871936E-007   2.5271688396539169E-006   0.0000000000000000     
  -7.9346456463514395E-007   3.0574916951610328E-006   0.0000000000000000     
  -8.0274107147134543E-007   3.6312360388090127E-006   0.0000000000000000     
  -7.9681465282732391E-007   4.2484018705978571E-006   0.0000000000000000     
  -8.4901325724933300E-007   2.0472619900960474E-006   0.0000000000000000     
  -9.0430069189476594E-007   2.5336860131221874E-006   0.0000000000000000     
  -9.4492154593584982E-007   3.0636317881384229E-006   0.0000000000000000     
  -9.7087581937258454E-007   3.6370993151447550E-006   0.0000000000000000     
  -9.8216351220497063E-007   4.2540885941411830E-006   0.0000000000000000     
  -9.7085486713940528E-007   2.0554137866850524E-006   0.0000000000000000     
  -1.0423379455070372E-006   2.5414538293660955E-006   0.0000000000000000     
  -1.0998201572793729E-006   3.0710722302143561E-006   0.0000000000000000     
  -1.1433015024564119E-006   3.6442689892298327E-006   0.0000000000000000     
  -1.1727819810381544E-006   4.2610441064125263E-006   0.0000000000000000     
  -1.0948276041922884E-006   2.0647228620546777E-006   0.0000000000000000     
  -1.1830968931555337E-006   2.5504722883856429E-006   0.0000000000000000     
  -1.2581603986657131E-006   3.0798130213888324E-006   0.0000000000000000     
  -1.3200181207228265E-006   3.6527450610642471E-006   0.0000000000000000     
  -1.3686700593268743E-006   4.2692684074118852E-006   0.0000000000000000     
  -1.2209314684079826E-006   2.0751892162049251E-006   0.0000000000000000     
  -1.3265775348402549E-006   2.5607413901808279E-006   0.0000000000000000     
  -1.4199422700948702E-006   3.0898541616618520E-006   0.0000000000000000     
  -1.5010256741718292E-006   3.6625275306479961E-006   0.0000000000000000     
  -1.5698277470711312E-006   4.2787614971392615E-006   0.0000000000000000     
  -7.9681465282732391E-007   4.2484018705978571E-006   0.0000000000000000     
  -7.7480659297732616E-007   4.9045031026430994E-006   0.0000000000000000     
  -7.3583817619559961E-007   5.5950536470602707E-006   0.0000000000000000     
  -6.7990940248214392E-007   6.3200535038493736E-006   0.0000000000000000     
  -6.0702027183695910E-007   7.0795026730104079E-006   0.0000000000000000     
  -9.8216351220497063E-007   4.2540885941411830E-006   0.0000000000000000     
  -9.7803402381181741E-007   4.9098849881938473E-006   0.0000000000000000     
  -9.5773675357193441E-007   5.5997738603688877E-006   0.0000000000000000     
  -9.2127170148532173E-007   6.3237552106663018E-006   0.0000000000000000     
  -8.6863886755197950E-007   7.0818290390860930E-006   0.0000000000000000     
  -1.1727819810381544E-006   4.2610441064125263E-006   0.0000000000000000     
  -1.1875743612504102E-006   4.9165388917901886E-006   0.0000000000000000     
  -1.1869914113189900E-006   5.6058946553905717E-006   0.0000000000000000     
  -1.1710331312438933E-006   6.3291113972136749E-006   0.0000000000000000     
  -1.1396995210251206E-006   7.0861891172594990E-006   0.0000000000000000     
  -1.3686700593268743E-006   4.2692684074118852E-006   0.0000000000000000     
  -1.4034276052931048E-006   4.9244648134321200E-006   0.0000000000000000     
  -1.4236021494367663E-006   5.6134160321253228E-006   0.0000000000000000     
  -1.4291936917578589E-006   6.3361220634914920E-006   0.0000000000000000     
  -1.4202022322563825E-006   7.0925829075306285E-006   0.0000000000000000     
  -1.5698277470711312E-006   4.2787614971392615E-006   0.0000000000000000     
  -1.6255937559399013E-006   4.9336627531196457E-006   0.0000000000000000     
  -1.6675689679252633E-006   5.6223379905731426E-006   0.0000000000000000     
  -1.6957533830272183E-006   6.3447872094997548E-006   0.0000000000000000     
  -1.7101470012457650E-006   7.1010104098994798E-006   0.0000000000000000     
   0.0000000000000000        0.0000000000000000        0.0000000000000000     
  -1.7276691493105783E-007   7.5626001973995571E-008   0.0000000000000000     
  -3.4251510022976450E-007   2.0462811578755016E-007   0.0000000000000000     
  -5.0924455589611997E-007   3.8700634144066379E-007   0.0000000000000000     
  -6.7295528193012428E-007   6.2276067893333636E-007   0.0000000000000000     
   0.0000000000000000        0.0000000000000000        0.0000000000000000     
  -1.9024658208291504E-007   8.3196620006386534E-008   0.0000000000000000     
  -3.7655402309264741E-007   2.1716272972973547E-007   0.0000000000000000     
  -5.5892232302919684E-007   4.0189832917004689E-007   0.0000000000000000     
  -7.3735148189256372E-007   6.3740341832732057E-007   0.0000000000000000     
   0.0000000000000000        0.0000000000000000        0.0000000000000000     
  -2.0923905275847233E-007   9.1764846935397964E-008   0.0000000000000000     
  -4.1293544543086918E-007   2.3126966879719614E-007   0.0000000000000000     
  -6.1108917801719062E-007   4.1851446558539443E-007   0.0000000000000000     
  -8.0370025051743664E-007   6.5349923729999308E-007   0.0000000000000000     
   0.0000000000000000        0.0000000000000000        0.0000000000000000     
  -2.2974432695772971E-007   1.0133068276102990E-007   0.0000000000000000     
  -4.5165936724443003E-007   2.4694893298993213E-007   0.0000000000000000     
  -6.6574512086010099E-007   4.3685475068670663E-007   0.0000000000000000     
  -8.7200158780474240E-007   6.7104813585135369E-007   0.0000000000000000     
   0.0000000000000000        0.0000000000000000        0.0000000000000000     
  -2.5176240468068723E-007   1.1189412748328228E-007   0.0000000000000000     
  -4.9272578853332997E-007   2.6420052230794342E-007   0.0000000000000000     
  -7.2289015155792816E-007   4.5691918447398349E-007   0.0000000000000000     
  -9.4225549375448176E-007   6.9005011398140239E-007   0.0000000000000000     
  -6.7295528193012428E-007   6.2276067893333636E-007   0.0000000000000000     
  -8.2885481449836201E-007   9.1036925757214987E-007   0.0000000000000000     
  -9.7215068976741751E-007   1.2483102066636856E-006   0.0000000000000000     
  -1.1028429077372913E-006   1.6365835262079439E-006   0.0000000000000000     
  -1.2209314684079826E-006   2.0751892162049251E-006   0.0000000000000000     
  -7.3735148189256372E-007   6.3740341832732057E-007   0.0000000000000000     
  -9.0794397838525514E-007   9.2366132764621451E-007   0.0000000000000000     
  -1.0668022912097783E-006   1.2606553875713867E-006   0.0000000000000000     
  -1.2139264203661332E-006   1.6483855981028364E-006   0.0000000000000000     
  -1.3493163658543199E-006   2.0868519592405643E-006   0.0000000000000000     
  -8.0370025051743664E-007   6.5349923729999308E-007   0.0000000000000000     
  -9.8835705436544876E-007   9.3803099193124013E-007   0.0000000000000000     
  -1.1626479809950688E-006   1.2739167374693853E-006   0.0000000000000000     
  -1.3265730304062964E-006   1.6611564739144272E-006   0.0000000000000000     
  -1.4801322025991318E-006   2.0997502012663663E-006   0.0000000000000000     
  -8.7200158780474240E-007   6.7104813585135369E-007   0.0000000000000000     
  -1.0700940424389423E-006   9.5347825042722694E-007   0.0000000000000000     
  -1.2596877591232886E-006   1.2880942563576812E-006   0.0000000000000000     
  -1.4407827378577805E-006   1.6748961536427161E-006   0.0000000000000000     
  -1.6133789786424189E-006   2.1138839422823315E-006   0.0000000000000000     
  -9.4225549375448176E-007   6.9005011398140239E-007   0.0000000000000000     
  -1.1531549426057366E-006   9.7000310313417485E-007   0.0000000000000000     
  -1.3579216255944377E-006   1.3031879442362751E-006   0.0000000000000000     
  -1.5565555427205857E-006   1.6896046372877035E-006   0.0000000000000000     
  -1.7490566939841805E-006   2.1292531822884599E-006   0.0000000000000000     
  -1.2209314684079826E-006   2.0751892162049251E-006   0.0000000000000000     
  -1.3265775348402549E-006   2.5607413901808279E-006   0.0000000000000000     
  -1.4199422700948702E-006   3.0898541616618520E-006   0.0000000000000000     
  -1.5010256741718292E-006   3.6625275306479961E-006   0.0000000000000000     
  -1.5698277470711312E-006   4.2787614971392615E-006   0.0000000000000000     
  -1.3493163658543199E-006   2.0868519592405643E-006   0.0000000000000000     
  -1.4731809845493828E-006   2.5724079234205847E-006   0.0000000000000000     
  -1.5857291333263656E-006   3.1014069430789134E-006   0.0000000000000000     
  -1.6869608121852699E-006   3.6738490182155487E-006   0.0000000000000000     
  -1.7768760211260940E-006   4.2897341488304933E-006   0.0000000000000000     
  -1.4801322025991318E-006   2.0997502012663663E-006   0.0000000000000000     
  -1.6233083562710993E-006   2.5856186767738483E-006   0.0000000000000000     
  -1.7560843501197213E-006   3.1146826576855178E-006   0.0000000000000000     
  -1.8784601841449992E-006   3.6869421440013741E-006   0.0000000000000000     
  -1.9904358583469319E-006   4.3023971357214196E-006   0.0000000000000000     
  -1.6133789786424189E-006   2.1138839422823315E-006   0.0000000000000000     
  -1.7769596500054037E-006   2.6003736502406175E-006   0.0000000000000000     
  -1.9310079204749362E-006   3.1296813054816641E-006   0.0000000000000000     
  -2.0755237900510168E-006   3.7018069080054709E-006   0.0000000000000000     
  -2.2105072587336446E-006   4.3167504578120387E-006   0.0000000000000000     
  -1.7490566939841805E-006   2.1292531822884599E-006   0.0000000000000000     
  -1.9341348657522974E-006   2.6166728438208932E-006   0.0000000000000000     
  -2.1104998443920113E-006   3.1464028864673540E-006   0.0000000000000000     
  -2.2781516299033236E-006   3.7184433102278396E-006   0.0000000000000000     
  -2.4370902222862330E-006   4.3327941151023531E-006   0.0000000000000000     
  -1.5698277470711312E-006   4.2787614971392615E-006   0.0000000000000000     
  -1.6255937559399013E-006   4.9336627531196457E-006   0.0000000000000000     
  -1.6675689679252633E-006   5.6223379905731426E-006   0.0000000000000000     
  -1.6957533830272183E-006   6.3447872094997548E-006   0.0000000000000000     
  -1.7101470012457650E-006   7.1010104098994798E-006   0.0000000000000000     
  -1.7768760211260940E-006   4.2897341488304933E-006   0.0000000000000000     
  -1.8547124901201120E-006   4.9442990132537160E-006   0.0000000000000000     
  -1.9197079491385974E-006   5.6327802898151892E-006   0.0000000000000000     
  -1.9718623981815504E-006   6.3551779785149131E-006   0.0000000000000000     
  -2.0111758372489703E-006   7.1114920793528885E-006   0.0000000000000000     
  -1.9904358583469319E-006   4.3023971357214196E-006   0.0000000000000000     
  -2.0914234847630501E-006   4.9565398962352903E-006   0.0000000000000000     
  -2.1808351754308846E-006   5.6448626889326249E-006   0.0000000000000000     
  -2.2586709303504352E-006   6.3673655138134260E-006   0.0000000000000000     
  -2.3249307495217012E-006   7.1240483708776928E-006   0.0000000000000000     
  -2.2105072587336446E-006   4.3167504578120387E-006   0.0000000000000000     
  -2.3357267398687153E-006   4.9703854020643644E-006   0.0000000000000000     
  -2.4509506468021243E-006   5.6585851879254496E-006   0.0000000000000000     
  -2.5561789795338712E-006   6.3813498153952918E-006   0.0000000000000000     
  -2.6514117380639558E-006   7.1386792844738901E-006   0.0000000000000000     
  -2.4370902222862330E-006   4.3327941151023531E-006   0.0000000000000000     
  -2.5876222554371083E-006   4.9858355307409435E-006   0.0000000000000000     
  -2.7300543632523168E-006   5.6739477867936609E-006   0.0000000000000000     
  -2.8643865457318596E-006   6.3971308832605071E-006   0.0000000000000000     
  -2.9906188028757360E-006   7.1553848201414822E-006   0.0000000000000000     
 </DataArray>
 <DataArray  type="Float64" Name="stress" NumberOfComponents="3" format="ascii">
   27049.478920979873        8114.8436762939618        3378.0477759353303     
   24586.587272288787        3233.2281928837165        1515.0990838331290     
   22628.745401819273        35.111970212037704        233.77108577758878     
   21174.066120927768       -1485.7956205329428       -500.81414778353030     
   20239.387202433310       -1273.3686699544287       -704.82482531963490     
   24526.189588876870        7357.8568766630606        2925.5893874185854     
   22583.303852496876        2991.0714259540791        1421.6118655903745     
   21073.162633299100        133.23663800812119        394.15250304867430     
   19999.364005878382       -1220.3352582122525       -187.89468839400055     
   19380.954422908031       -1021.8728084506174       -341.49012140640735     
   22195.035585435973        6658.5106756307923        2515.1837529605273     
   20697.406050629826        2784.0003507114834        1355.1788160295214     
   19563.209786120035        244.22536682190002        566.87173158179633     
   18798.775353330413       -964.69842928775961        122.36118840021372     
   18422.780006445562       -803.37035776196353        3.7565726903575984     
   20056.016910657185        6016.8050731971553        2146.8308725611550     
   18928.725700654493        2611.9645879729469        1315.7623886220172     
   18098.366339943041        367.92380647256778        751.80969848678808     
   17571.471106080528       -719.12359012399793        429.75705484700984     
   17364.030359631204       -618.08368949237865        330.69904250175597     
   18109.133564540498        5432.7400693621494        1820.5307462204687     
   17277.094758337535        2474.9137950442719        1303.3250640336114     
   16678.113292698872        504.17805699269047        948.84767818895295     
   16316.627710285289       -483.84761418966445        734.09778710025569     
   16203.881886767020       -466.23250822831596        639.12366673080930     
   20239.387202433310       -1273.3686699544287       -704.82482531963490     
   19924.417702186460       -225.89855013888791       -223.25713497282578     
   19493.433089482351        434.85452815247754        153.71220161398895     
   18938.561807492046        682.65204215651556        381.14237777978741     
   18245.098769211927        468.47703519451170        399.60938002508675     
   19380.954422908031       -1021.8728084506174       -341.49012140640735     
   18996.089621030234       -162.37150614934671       -15.147851570630912     
   18499.963255500934        370.50052388278255        253.42858829343439     
   17884.811475627583        556.37222739436038        425.39503160680135     
   17136.758590671081        357.42309161675621        451.64549281236583     
   18422.780006445562       -803.37035776196353        3.7565726903575984     
   17996.785335402805       -123.44234891994984        180.61959600330465     
   17465.534945788739        290.50432961228762        346.78701429082707     
   16822.740061799588        423.74251591993470        469.22363466522995     
   16056.977981446787        248.79029710143914        508.28918513417091     
   17364.030359631204       -618.08368949237865        330.69904250175597     
   16925.962067858691       -109.22623685369490        363.86109146787800     
   16389.892508988960        194.86097062275985        433.62821319762361     
   15752.202333879635        284.83549175067765        512.46803401590091     
   15005.269646747969        142.68488130679816        569.36418833449090     
   16203.881886767020       -466.23250822831596        639.12366673080930     
   15783.087430381018       -119.83612408002591        534.39604275434681     
   15272.787529775695        83.565613002177088        513.79742652823427     
   14673.058838425850        139.72085083598995        554.97444909489036     
   13981.172612816150        39.207335938779579        634.70375483810199     
   18245.098769211927        468.47703519451170        399.60938002508675     
   17326.174816842180        16.831160461384570      -0.61775429084077549     
   16453.349485657589       -281.15264365457097       -206.87733287006620     
   15638.465428866242       -385.99886645972674       -217.31574955172343     
   14901.883706728118       -229.83730708743406       -17.125056942064273     
   17136.758590671081        357.42309161675621        451.64549281236583     
   16410.880126650191        24.887132878833654        126.65226451081277     
   15712.024164821158       -190.92597130008835       -30.655016489319326     
   15050.620274569936       -260.99343889467400       -23.688337342827072     
   14443.078350337908       -137.32947893182791        152.05169713537683     
   16056.977981446787        248.79029710143914        508.28918513417091     
   15505.951294894629        25.565630642066935        253.49088382747840     
   14962.107835732355       -118.55678363854440        139.44686228348579     
   14433.702720947756       -163.95821708116364        158.12607814586534     
   13932.521742945424       -79.521347287690332        305.46456104854724     
   15005.269646747969        142.68488130679816        569.36418833449090     
   14610.199851454507        19.083158694207668        379.77348699815946     
   14201.793072684955       -63.493755689227328        303.49891791051857     
   13785.563287739751       -93.750950851318521        328.56365826582174     
   13368.319803334385       -54.680770614964786        443.95303524303540     
   13981.172612816150        39.207335938779579        634.70375483810199     
   13722.522364884955        5.6407303866153597        505.38437406559484     
   13429.440900227482       -25.236945404073595        461.56518365713345     
   13104.310593736962       -49.366545837673584        488.00819225160592     
   12748.869780101366       -61.342029144118897        568.22749607748244     
   14901.883706728118       -229.83730708743406       -17.125056942064273     
   14257.400546764908        48.648947614167810        28.625762586882317     
   13567.618003996911        176.13725963312390        67.822452880854655     
   12805.643220783119        62.984770166078306        28.634386316056929     
   11896.609490599245       -540.36420920111732       -271.91965076489379     
   14443.078350337908       -137.32947893182791        152.05169713537683     
   13840.777294773194        60.274114360145177        132.01969248251052     
   13198.974363763866        156.43997287563434        124.48113161479040     
   12501.111854511233        104.87242658616697        78.839226983137607     
   11706.017257320476       -208.49456126872519       -115.15158538106554     
   13932.521742945424       -79.521347287690332        305.46456104854724     
   13376.532693727393        42.698762066967902        224.34870993704027     
   12787.907454706867        110.85008311418824        175.18926729114696     
   12158.970534003487        109.26842982602375        123.85723452423382     
   11471.511708260643        1.9698831867740410        6.0440268041860303     
   13368.319803334385       -54.680770614964786        443.95303524303540     
   12863.502614196752       -2.1104734299406118        306.62449234247742     
   12334.002237824800        41.910334581100415        220.96286497376860     
   11779.854521008794        83.403546159679081        165.67180895834082     
   11199.225965413865        132.51811743026883        106.50750674156653     
   12748.869780101366       -61.342029144118897        568.22749607748244     
   12300.752087818522       -72.574092259166719        379.65956649317161     
   11836.948693754552       -48.479933278973931        262.56084428598029     
   11364.190249870237        32.131596976544188        205.61435404916580     
   10892.623438848144        206.57922001341649        194.61927096810894     
   18109.133564540498        5432.7400693621494        1820.5307462204687     
   17277.094758337535        2474.9137950442719        1303.3250640336114     
   16678.113292698872        504.17805699269047        948.84767818895295     
   16316.627710285289       -483.84761418966445        734.09778710025569     
   16203.881886767020       -466.23250822831596        639.12366673080930     
   16294.994268741739        4888.4982806225216        1530.7806900603166     
   15676.902290766317        2265.4084855848523        1183.4660548412123     
   15245.732516781374        513.57480287918315        964.09197217085318     
   15005.734437595729       -370.77522563225284        852.38111853575992     
   14966.202931009175       -369.30745394236601        830.12281432365626     
   14554.207744916726        4366.2623234750181        1272.0780202025476     
   14124.388593255728        2070.1088643418580        1084.6561408689827     
   13836.973499252936        529.41860266446974        990.62914781887764     
   13695.349441709661       -259.22536216320350        972.10274713010972     
   13706.408625693708       -281.80812155567583        1012.3869484116244     
   12886.773993065453        3866.0321979196360        1044.4227366471612     
   12619.487955678811        1888.9952714520477        1006.8670380319822     
   12451.624559460859        551.64734802640760        1028.3667827668069     
   12385.106821835492       -149.29949618494175        1093.1017418176073     
   12424.042191936334       -203.84666207426744        1185.7171553828975     
   11292.693013187923        3387.8079039563772        847.81483939415727     
   11162.134715466909        1722.0480612811884        950.07048271613769     
   11089.474632393385        580.19911127544492        1077.2127234448033     
   11074.643090048767       -41.098430958312747        1215.2182327635892     
   11118.652264311688       -135.53389736027566        1349.9168790259555     
   16203.881886767020       -466.23250822831596        639.12366673080930     
   15783.087430381018       -119.83612408002591        534.39604275434681     
   15272.787529775695        83.565613002177088        513.79742652823427     
   14673.058838425850        139.72085083598995        554.97444909489036     
   13981.172612816150        39.207335938779579        634.70375483810199     
   14966.202931009175       -369.30745394236601        830.12281432365626     
   14612.497345856307       -85.107267313300326        691.01924208113837     
   14165.954522964439        77.589359981918278        642.63307914742313     
   13628.003679789179        116.19949706565785        664.82639222506316     
   12997.626651945744        24.301162078910238        737.17643539599771     
   13706.408625693708       -281.80812155567583        1012.3869484116244     
   13421.618768856843       -60.123302546900049        840.86099934692174     
   13041.475997247508        61.769205087650334        766.59309494329830     
   12568.857166777652        82.793922737623689        771.63677719063435     
   12004.556651136945      -0.82955264154179531        838.23914759905529     
   12424.042191936334       -203.84666207426744        1185.7171553828975     
   12209.971485750808       -44.976518247185140        983.71788810235023     
   11898.856847583995        36.051202544617354        885.47616125429511     
   11495.090144724771        39.509300346949658        875.20832616086307     
   11001.339867324003       -36.084793714906027        937.70085743432969     
   11118.652264311688       -135.53389736027566        1349.9168790259555     
   10977.084302147225       -39.757469543832030        1119.3903025978805     
   10737.615596803576       0.38289144674990894        999.08650659231148     
   10406.193707970113       -13.649395545622156        975.35131047780908     
   9987.3854708670151       -81.369672030637958        1035.3803207205726     
   13981.172612816150        39.207335938779579        634.70375483810199     
   13722.522364884955        5.6407303866153597        505.38437406559484     
   13429.440900227482       -25.236945404073595        461.56518365713345     
   13104.310593736962       -49.366545837673584        488.00819225160592     
   12748.869780101366       -61.342029144118897        568.22749607748244     
   12997.626651945744        24.301162078910238        737.17643539599771     
   12841.463397774631        22.683591579981112        616.15225317941974     
   12639.934988222562        13.109220847182769        576.32818000346424     
   12395.132876549578       -2.0665976603877425        603.43760000824716     
   12108.113804756727       -20.132177540921930        682.21987511312375     
   12004.556651136945      -0.82955264154179531        838.23914759905529     
   11944.333807321360        25.186852406755861        723.98462774549205     
   11828.197412729627        32.532790850320907        686.43170981681362     
   11657.994228486063        22.116385030105448        712.27062088853188     
   11434.274845155907       -5.5176914097864938        787.40497778008285     
   11001.339867324003       -36.084793714906027        937.70085743432969     
   11030.386535027121        13.421369313996820        828.71916130181842     
   10993.399596439423        33.585717480675157        791.79029401108858     
   10892.037952583256        24.142221390193299        814.56966158949103     
   10726.515707212189       -16.025554660121088        884.10052739912976     
   9987.3854708670151       -81.369672030637958        1035.3803207205726     
   10098.924407299093       -12.360087717584520        930.20435741976439     
   10134.783601121904        16.772897722878497        892.32574088767956     
   10096.499192122765        4.8678353518234871        910.39043864055350     
   9984.1108003741065       -50.379114034897157        972.58189266099703     
   12748.869780101366       -61.342029144118897        568.22749607748244     
   12300.752087818522       -72.574092259166719        379.65956649317161     
   11836.948693754552       -48.479933278973931        262.56084428598029     
   11364.190249870237        32.131596976544188        205.61435404916580     
   10892.623438848144        206.57922001341649        194.61927096810894     
   12108.113804756727       -20.132177540921930        682.21987511312375     
   11744.418481036837       -34.527617797206858        493.78997159865293     
   11363.269663987287       -3.8482260778928321        380.81168072627452     
   10972.432569639403        93.317639380058608        335.15251055448846     
   10582.974668450181        292.38903165525517        348.22849076057702     
   11434.274845155907       -5.5176914097864938        787.40497778008285     
   11152.068682987152       -25.650513817116007        598.17534625421547     
   10850.797033601051        8.1733815207007865        487.59276790908439     
   10539.002856546032        116.77462623787596        449.82533533920082     
   10228.253991343196        332.73493127407664        479.84460896709811     
   10726.515707212189       -16.025554660121088        884.10052739912976     
   10522.924050736818       -43.813855959982902        693.54406190673114     
   10298.886534289048       -9.2632250289284457        584.30818409823371     
   10063.540593383306        107.38395262388076        552.28816524581657     
   9828.7069749056354        335.55222930767650        594.79050151076694     
   9984.1108003741065       -50.379114034897157        972.58189266099703     
   9856.3340084336141       -87.238874109580138        780.50469131153818     
   9707.0240000436479       -53.642645940079092        672.07847070167702     
   9545.7744547940965        68.819357920856419        644.53940757111627     
   9384.5047111633521        306.36962565077692        696.77472948550064     
   11292.693013187923        3387.8079039563772        847.81483939415727     
   11162.134715466909        1722.0480612811884        950.07048271613769     
   11089.474632393385        580.19911127544492        1077.2127234448033     
   11074.643090048767       -41.098430958312747        1215.2182327635892     
   11118.652264311688       -135.53389736027566        1349.9168790259555     
   9751.4628952771764        2925.4388685831527        678.92275723165505     
   9720.2654585930613        1505.6891470007356        865.34637582402831     
   9715.4578301266974        527.18667754055650        1063.4387279394973     
   9736.3317873920550       -12.948283360774894        1261.1182863130823     
   9782.5864584718565       -110.44008053129255        1446.0314631043711     
   8242.5817293262353        2472.7745187978708        534.41491894777323     
   8299.8301383433372        1295.6822030044277        797.84970312387168     
   8353.1034027506503        477.15138622235054        1059.8852277665746     
   8400.8888071260117        14.650412762566248        1310.2027220615505     
   8441.5669962378306       -89.341324426905430        1538.1214078810833     
   6766.0495153351085        2029.8148546005325        414.29132454251163     
   6900.7995761751527        1092.0185181607235        747.55788925476429     
   7002.3155590285405        430.06563515394987        1066.4769052521051     
   7068.1408309405797        41.652610681180249        1362.3358637600445     
   7095.3525189455986       -72.287932115576496        1626.0073406988893     
   5321.8662533037932        1596.5598759911379        318.55197401587043     
   5523.1446146488897        894.68938763828453        714.44837518310010     
   5662.9987855100053        385.90190221239004        1083.1386611369364     
   5737.9156759548187        68.013558771065618        1417.3829239910522     
   5743.7044948607436       -59.329617487730047        1709.5119898149048     
   11118.652264311688       -135.53389736027566        1349.9168790259555     
   10977.084302147225       -39.757469543832030        1119.3903025978805     
   10737.615596803576       0.38289144674990894        999.08650659231148     
   10406.193707970113       -13.649395545622156        975.35131047780908     
   9987.3854708670151       -81.369672030637958        1035.3803207205726     
   9782.5864584718565       -110.44008053129255        1446.0314631043711     
   9730.0211341007689       -26.102972199798842        1213.0337994403201     
   9574.8316174774736        8.8546103288149425        1089.7212928699482     
   9323.7796249652583       -3.7177074202163567        1064.1698463745113     
   8982.4137772306294       -62.677744440863535        1125.3379132429925     
   8441.5669962378306       -89.341324426905430        1538.1214078810833     
   8474.7205931444623       -18.527335098617641        1303.1918353748151     
   8401.3345325036626        9.2616819585564372        1177.3275161529318     
   8228.9358479318107       -3.7978047239935222        1150.3195892924257     
   7964.0134694523258       -56.013582133634827        1212.8333278454440     
   7095.3525189455986       -72.287932115576496        1626.0073406988893     
   7210.8876033313081       -17.068968526688423        1389.6621229909069     
   7216.7834354470851        1.5999467101783011        1261.6868161729810     
   7121.2781503781662       -13.829667413090192        1233.5734807137865     
   6931.7497112392211       -61.211567608891528        1297.6414448916514     
   5743.7044948607436       -59.329617487730047        1709.5119898149048     
   5938.2325285798224       -21.765574658491687        1472.2461041428126     
   6020.8465520296268       -14.134643614625475        1342.5866820680874     
   6000.4364669932211       -33.755487562491908        1313.7128306657210     
   5885.2088638515716       -78.114156946853200        1379.5481189567899     
   9987.3854708670151       -81.369672030637958        1035.3803207205726     
   10098.924407299093       -12.360087717584520        930.20435741976439     
   10134.783601121904        16.772897722878497        892.32574088767956     
   10096.499192122765        4.8678353518234871        910.39043864055350     
   9984.1108003741065       -50.379114034897157        972.58189266099703     
   8982.4137772306294       -62.677744440863535        1125.3379132429925     
   9167.8487257140878        16.731574806938170        1021.7353293956734     
   9270.0902819732419        50.731093849427907        981.64460236314665     
   9290.8516936848464        37.997783315551260        994.88591053619393     
   9230.4467349897768       -23.901101563941211        1050.9891153611275     
   7964.0134694523258       -56.013582133634827        1212.8333278454440     
   8216.8725239553351        29.888571863687503        1109.8445232497065     
   8379.5617297119552        64.944743136998568        1066.5469028866391     
   8454.0033835211943        47.785965594894606        1073.9553865596909     
   8440.8564443295800       -23.984071384988056        1122.9309059071734     
   6931.7497112392211       -61.211567608891528        1297.6414448916514     
   7245.5241886529047        27.444654851264204        1194.3280011506702     
   7462.7385896999804        59.996846685426590        1146.8761489039794     
   7585.5600872095874        35.154615594063216        1147.5214405689687     
   7615.0593458209860       -49.277630751190372        1188.4491487544572     
   5885.2088638515716       -78.114156946853200        1379.5481189567899     
   6253.3616272135414        9.7126839016741542        1274.9945908154973     
   6519.1975924831850        36.424607206804012        1222.4881404097935     
   6685.1657954890052       0.93667328641186032        1215.5141430555279     
   6752.8078607756916       -98.590228592064250        1247.5808016456697     
   9984.1108003741065       -50.379114034897157        972.58189266099703     
   9856.3340084336141       -87.238874109580138        780.50469131153818     
   9707.0240000436479       -53.642645940079092        672.07847070167702     
   9545.7744547940965        68.819357920856419        644.53940757111627     
   9384.5047111633521        306.36962565077692        696.77472948550064     
   9230.4467349897768       -23.901101563941211        1050.9891153611275     
   9184.8500703936024       -58.747362620039439        866.28006281783962     
   9120.3014869092531       -20.451651039848457        779.81659715431022     
   9048.4135712064108        107.42081922759371        792.01064745519363     
   8983.2799209152290        347.27056871221157        905.79093758573015     
   8440.8564443295800       -23.984071384988056        1122.9309059071734     
   8480.6910494362874       -57.530871001648848        944.79343122860814     
   8504.6506503128876       -15.125437190840785        877.89391280287271     
   8526.0662613771710        117.85176129454203        924.61439612883430     
   8560.6883107301528        360.52683922659662        1090.0337303212511     
   7615.0593458209860       -49.277630751190372        1188.4491487544572     
   7743.6686806607813       -81.727219150746350        1016.3065346850140     
   7859.8744438603799       -35.199498598728496        967.06641910714461     
   7978.4186826989189        103.25380084883363        1044.1960412654967     
   8116.2444655032596        349.92777685073816        1253.6593686582717     
   6752.8078607756916       -98.590228592064250        1247.5808016456697     
   6973.6212903978558       -129.73724817880748        1081.0441424639337     
   7185.8089269970869       -78.623392021232576        1047.9631014350903     
   7405.2192377029769        66.145470417864544        1152.2349704819092     
   7649.5759283616107        318.38092522099123        1399.8569333379289     
   5321.8662533037932        1596.5598759911379        318.55197401587043     
   5523.1446146488897        894.68938763828453        714.44837518310010     
   5662.9987855100053        385.90190221239004        1083.1386611369364     
   5737.9156759548187        68.013558771065618        1417.3829239910522     
   5743.7044948607436       -59.329617487730047        1709.5119898149048     
   3899.1264116304724        1169.7379234891418        245.53630751469623     
   4149.6455765842275        672.03724516430270        671.58005554146337     
   4315.7660978167305        301.93183800836687        1066.7259037382312     
   4393.7687329843493        57.592898184876731        1425.3020565908830     
   4379.2346759128359       -61.881447035072824        1741.3050227349247     
   2486.9244587133276        746.07733761399834        193.58376518583589     
   2782.2413313855041        451.14507579458632        644.08270041075082     
   2971.1445078164206        218.28149949423573        1060.0614060087867     
   3049.6879127681168        45.909558619001018        1437.3456369260684     
   3013.3114323443961       -67.237706375675998        1771.5260923183416     
   1085.2603945523597        325.57811836570789        162.69434702928936     
   1420.9228619356945        232.01021151099431        631.93655768790654     
   1629.1054793780077        134.94333195032920        1063.0783006131439     
   1705.6213689280953        32.954256786898782        1453.3905149629052     
   1645.8556572660414       -75.401503690938966        1800.0054708760638     
  -305.86578085243292       -91.759734255729867        152.86805304505663     
   65.681157634557593        14.629986223598046        635.12188954497333     
   289.62055888345924        51.909802501657119        1075.7099135646722     
   361.51759252749696        18.717769822117859        1473.3143421875400     
   276.78915960655297       -86.375911178968408        1826.5753956515780     
   5743.7044948607436       -59.329617487730047        1709.5119898149048     
   5938.2325285798224       -21.765574658491687        1472.2461041428126     
   6020.8465520296268       -14.134643614625475        1342.5866820680874     
   6000.4364669932211       -33.755487562491908        1313.7128306657210     
   5885.2088638515716       -78.114156946853200        1379.5481189567899     
   4379.2346759128359       -61.881447035072824        1741.3050227349247     
   4657.1476240581405       -15.062656253525120        1509.7273375136781     
   4819.5289527235200       0.68373459956592342        1384.0854733782362     
   4875.7411355562244       -11.884334563346329        1359.1323420119550     
   4834.6141446837937       -50.142846479336413        1430.2384487483787     
   3013.3114323443961       -67.237706375675998        1771.5260923183416     
   3370.4188339235052       -13.624379815116754        1545.5035793872910     
   3609.2022656948502        7.8402220549887716        1423.6916080459378     
   3739.4384149773441        3.5368581391139742E-003   1402.3987850173287     
   3770.5271816307918       -34.384186585804855        1478.3990197838659     
   1645.8556572660414       -75.401503690938966        1800.0054708760638     
   2077.9393201057615       -17.434088831244480        1579.3724907074034     
   2389.7398800808378        7.3945072645395840        1461.1759480107819     
   2591.3876215806417        2.0407918613904030        1443.2641381237743     
   2692.7929482099826       -30.596692680887259        1523.7748540871662     
   276.78915960655297       -86.375911178968408        1826.5753956515780     
   779.60417849200496       -26.475428302081013        1611.1353951110671     
   1161.0184881695477      -0.59527847251104049        1496.3153331952731     
   1431.4530724647402       -5.6446201405984198        1481.4891960050234     
   1601.2636239436538       -38.550104965160813        1566.1228256736053     
   5885.2088638515716       -78.114156946853200        1379.5481189567899     
   6253.3616272135414        9.7126839016741542        1274.9945908154973     
   6519.1975924831850        36.424607206804012        1222.4881404097935     
   6685.1657954890052       0.93667328641186032        1215.5141430555279     
   6752.8078607756916       -98.590228592064250        1247.5808016456697     
   4834.6141446837937       -50.142846479336413        1430.2384487483787     
   5252.6092439074546        37.034319730298648        1328.1517082789910     
   5565.8719804980010        63.911944887557411        1277.0850355886137     
   5777.5347284536574        30.056209563446146        1272.0007203653863     
   5890.0703145968655       -65.486593113959998        1307.9623539618237     
   3770.5271816307918       -34.384186585804855        1478.3990197838659     
   4233.3447219248937        48.861962475952168        1378.3932265876815     
   4589.6587132895620        72.685237495446017        1328.3034899622855     
   4843.2423063858914        37.259465574365322        1324.5138609215128     
   4997.4319225934050       -57.568556083323301        1363.5333346174932     
   2692.7929482099826       -30.596692680887259        1523.7748540871662     
   3195.4077121792948        45.593245966232985        1425.4726793786679     
   3590.4153052163588        63.360937375294498        1375.9233844515579     
   3882.1844945913867        23.457485002274552        1372.8856858806678     
   4074.8449821506797       -73.535883989014110        1414.2201338727966     
   1601.2636239436538       -38.550104965160813        1566.1228256736053     
   2138.6473114173377        27.602380241854121        1469.1581191131154     
   2568.0096485280042        36.510597783550452        1419.7406322722788     
   2894.2664421309514       -10.519111661089369        1416.9631360537071     
   3122.2668111884500       -112.22518837637654        1459.9568891571187     
   6752.8078607756916       -98.590228592064250        1247.5808016456697     
   6973.6212903978558       -129.73724817880748        1081.0441424639337     
   7185.8089269970869       -78.623392021232576        1047.9631014350903     
   7405.2192377029769        66.145470417864544        1152.2349704819092     
   7649.5759283616107        318.38092522099123        1399.8569333379289     
   5890.0703145968655       -65.486593113959998        1307.9623539618237     
   6205.0685040189619       -82.762196855795537        1150.0423135080814     
   6499.8856749873603       -35.584889569356164        1112.2947865403962     
   6787.9760418909264        84.018955182636091        1196.9024979329911     
   7083.8450884816375        285.32192200882264        1407.3106891709633     
   4997.4319225934050       -57.568556083323301        1363.5333346174932     
   5395.7175903421703       -66.334122810668532        1212.3972002092598     
   5763.0332711843375       -27.107135720764518        1168.9827456220007     
   6110.9011107572160        65.624180340143539        1234.3888299721973     
   6451.3666897742687        217.99518860254580        1410.4218535401696     
   4074.8449821506797       -73.535883989014110        1414.2201338727966     
   4545.6474746783797       -78.675744155939583        1268.1616307867632     
   4975.5678637644542       -50.937501221833372        1218.1648577943522     
   5374.6006787048118        13.515073278367709        1264.7577179825178     
   5752.9479612864779        118.75939216669985        1408.8057391003624     
   3122.2668111884500       -112.22518837637654        1459.9568891571187     
   3654.9273143079454       -118.22974067906284        1317.3818952829404     
   4137.7601251310844       -105.14738227405246        1259.9591691955504     
   4579.5806441246405       -70.177131368302526        1288.0623620493520     
   4989.2437469902106       -10.472058731191282        1402.1502780564219     
  -305.86578085243292       -91.759734255729867        152.86805304505663     
   65.681157634557593        14.629986223598046        635.12188954497333     
   289.62055888345924        51.909802501657119        1075.7099135646722     
   361.51759252749696        18.717769822117859        1473.3143421875400     
   276.78915960655297       -86.375911178968408        1826.5753956515780     
  -1694.4695021547379       -508.34085064642142        163.83291662913780     
  -1291.3655229452024       -206.50489212699912        633.74976712242699     
  -1054.3630622766439       -34.208020409068979        1063.8417701150961     
  -987.55502566972120        7.3353303441633670        1454.5041830802847     
  -1094.7775180143544       -82.895746594070260        1806.1891386081807     
  -3088.5662040082452       -926.56986120247359        195.31697117753293     
  -2654.6358853402467       -429.58131533105450        647.61507591935253     
  -2404.2629566661576       -122.60789057558964        1061.9238366013440     
  -2341.2032652617286       -6.8331008938278046        1440.3688121416819     
  -2468.4727321501796       -82.698781061380714        1785.2026382870797     
  -4488.1558864129538       -1346.4467659238860        247.32021669024206     
  -4024.1228963624922       -654.59712874768593        676.69635222524482     
  -3760.0517724965371       -213.28038661691005        1069.8830677019048     
  -3699.3729574117924       -23.763669692036956        1430.7726863688631     
  -3844.2238519340231       -85.738022679936876        1763.4260728423433     
  -5893.2385493688644       -1767.9715648106594        319.84265316726510     
  -5399.8195284518288       -881.55017946016028        720.97214950492378     
  -5121.7022453379086       -306.21611724291029        1087.6466513941843     
  -5062.0103211569758       -43.432692657685038        1425.5812333092404     
  -5221.9591664450827       -91.967074750470601        1740.6720247208029     
   276.78915960655297       -86.375911178968408        1826.5753956515780     
   779.60417849200496       -26.475428302081013        1611.1353951110671     
   1161.0184881695477      -0.59527847251104049        1496.3153331952731     
   1431.4530724647402       -5.6446201405984198        1481.4891960050234     
   1601.2636239436538       -38.550104965160813        1566.1228256736053     
  -1094.7775180143544       -82.895746594070260        1806.1891386081807     
  -523.15172117744225       -10.561225153100025        1596.0280945500735     
  -74.566238497139011        22.158978992558112        1484.7623144830920     
   261.68278146852703        18.560999555388094        1473.3801888649768     
   496.40023820943082       -18.025405262648377        1562.7191819670388     
  -2468.4727321501796       -82.698781061380714        1785.2026382870797     
  -1832.5722184429960      -0.68524359225307307        1579.7720718078560     
  -1320.4004311218443        36.232513739897797        1471.5101850382637     
  -921.03162727702761        31.637937082792178        1463.0037364430650     
  -623.27824138818949       -10.782546843707593        1556.4223019727924     
  -3844.2238519340231       -85.738022679936876        1763.4260728423433     
  -3148.5728554491011        3.2377136725724540        1562.1364433527347     
  -2576.3784613328921        41.775981986166471        1456.2936830784761     
  -2116.5582692401194        33.833659555155123        1450.0693057437802     
  -1757.6170742290726       -16.446413988984091        1546.9292436443579     
  -5221.9591664450827       -91.967074750470601        1740.6720247208029     
  -4471.0708351421699        1.2911685910016786        1542.8948658088295     
  -3842.3976686158549        38.935806936214476        1438.8549999240536     
  -3324.7702578332546        25.386255982091825        1434.2973739160404     
  -2906.4690995801798       -34.660265823493432        1533.9519043903142     
   1601.2636239436538       -38.550104965160813        1566.1228256736053     
   2138.6473114173377        27.602380241854121        1469.1581191131154     
   2568.0096485280042        36.510597783550452        1419.7406322722788     
   2894.2664421309514       -10.519111661089369        1416.9631360537071     
   3122.2668111884500       -112.22518837637654        1459.9568891571187     
   496.40023820943082       -18.025405262648377        1562.7191819670388     
   1064.6144898861476        37.977119015806807        1470.3892961609640     
   1530.1215671300292        50.825084748318375        1428.0688637617754     
   1898.6843431566278        22.423504759498314        1436.4116627720095     
   2176.1499404326132       -45.281510054703176        1495.9922652180869     
  -623.27824138818949       -10.782546843707593        1556.4223019727924     
  -27.441511231065668        32.433036854302131        1469.6039394196914     
   471.59251458763748        46.314435178854154        1435.0754592130190     
   880.23004993091013        33.041479832721080        1454.9080722950052     
   1205.0535499417397       -5.1593500238186607        1530.9210578676727     
  -1757.6170742290726       -16.446413988984091        1546.9292436443579     
  -1137.3465827420528        11.512979731611154        1466.4968199024283     
  -607.38128884309458        23.758554575892788        1440.4608086233363     
  -160.87171497795995        22.459124693087979        1472.1793533583018     
   209.25197904952805        9.7781762558885106        1564.5433005634234     
  -2906.4690995801798       -34.660265823493432        1533.9519043903142     
  -2264.9372842485486       -24.273470054516451        1460.7814119723864     
  -1706.6182768778458       -16.120895868614411        1443.9476772361606     
  -1224.4162525062870       -8.2994292677864223        1487.9768208803705     
  -811.00908595697024       0.99699085748972038        1596.6799120315723     
   3122.2668111884500       -112.22518837637654        1459.9568891571187     
   3654.9273143079454       -118.22974067906284        1317.3818952829404     
   4137.7601251310844       -105.14738227405246        1259.9591691955504     
   4579.5806441246405       -70.177131368302526        1288.0623620493520     
   4989.2437469902106       -10.472058731191282        1402.1502780564219     
   2176.1499404326132       -45.281510054703176        1495.9922652180869     
   2769.6958073579763       -24.910180388873641        1365.9116897592276     
   3293.1649084457767       -27.133236083448764        1299.8766834160244     
   3753.6378002655219       -49.697858329621113        1298.2359751990689     
   4158.1906516234394       -90.352200963775203        1361.2422016442717     
   1205.0535499417397       -5.1593500238186607        1530.9210578676727     
   1840.4749572067160        32.182283760410314        1408.6671546720434     
   2387.4978346727107        8.0978782849962272        1330.7032853802921     
   2852.1803684375345       -74.406247492228317        1297.9881196082983     
   3240.6729043158834       -212.21531208455258        1311.2867129284264     
   209.25197904952805        9.7781762558885106        1564.5433005634234     
   867.68227405244068        55.320806213190536        1445.5578382074764     
   1421.4186581861700        3.3558905452111958        1352.4011193401341     
   1876.0900244072193       -141.31312683160934        1287.1537363954355     
   2237.5825649321550       -373.61807455679684        1251.6345613042577     
  -811.00908595697024       0.99699085748972038        1596.6799120315723     
  -148.31508485894392        46.504392332556890        1476.5041973051227     
   395.49643011410853       -38.935579641461828        1364.9375339678932     
   826.11180456363013       -247.89257693847389        1265.5933469928400     
   1149.6573707441576       -572.53985446839329        1181.7488137823873     
  -5893.2385493688644       -1767.9715648106594        319.84265316726510     
  -5399.8195284518288       -881.55017946016028        720.97214950492378     
  -5121.7022453379086       -306.21611724291029        1087.6466513941843     
  -5062.0103211569758       -43.432692657685038        1425.5812333092404     
  -5221.9591664450827       -91.967074750470601        1740.6720247208029     
  -7315.3016074569168       -2194.5904822370753        414.49159787351516     
  -6781.7636902110353       -1083.0243014889156        754.01892792956551     
  -6482.9289114479998       -356.73936275697974        1070.1551009014088     
  -6420.7458163047777       -17.222642392395755        1370.3827025677051     
  -6594.5519982527694       -61.718647465815138        1662.2490528106114     
  -8765.8324752580465       -2629.7497425774141        532.87436807390509     
  -8186.2475611043465       -1291.3455674356478        804.28232006750773     
  -7859.5811538817352       -412.46082890009302        1063.2766562985239     
  -7786.7133811835965        5.2701142329428876        1319.2264618115767     
  -7965.1488760674911       -33.653180314793190        1581.3757481277771     
  -10244.831152772254       -3073.4493458316761        674.99096376843488     
  -9613.2405472163991       -1506.5047480047451        871.73776416197870     
  -9251.5540808265851       -473.34768469332994        1066.9292388895622     
  -9159.7223192230758        24.111053328834259        1271.9641405129448     
  -9333.5006958992326       -7.6697654652007259        1497.8518299283078     
  -11752.297639999540       -3525.6892919998622        840.84138495710465     
  -11062.712079093599       -1728.4926212800024        956.36071809488601     
  -10658.743134416633       -539.36720368256601        1081.0310312944860     
  -10539.583289620159        39.365185499922063        1228.4484229919583     
  -10699.361469457663        16.331242797690720        1411.4795225049604     
  -5221.9591664450827       -91.967074750470601        1740.6720247208029     
  -4471.0708351421699        1.2911685910016786        1542.8948658088295     
  -3842.3976686158549        38.935806936214476        1438.8549999240536     
  -3324.7702578332546        25.386255982091825        1434.2973739160404     
  -2906.4690995801798       -34.660265823493432        1533.9519043903142     
  -6594.5519982527694       -61.718647465815138        1662.2490528106114     
  -5798.0357324146526        21.441958970934365        1471.6636113609502     
  -5118.8200992170759        53.218999300474934        1371.5250829808917     
  -4545.9569833182368        38.279841414210068        1369.2820022096282     
  -4067.8441023706982       -18.414872710927057        1471.0477015516274     
  -7965.1488760674911       -33.653180314793190        1581.3757481277771     
  -7128.6643354598564        36.421481209185458        1398.2562283120858     
  -6403.5785264943870        59.498465646675868        1302.3367693919788     
  -5779.2546995025623        40.487670224448948        1302.7632488337206     
  -5244.3241744500110       -15.418769278260243        1407.0102372654578     
  -9333.5006958992326       -7.6697654652007259        1497.8518299283078     
  -8462.6747274867921        46.373494466662578        1322.4374458740242     
  -7696.3514102506424        57.984237269190544        1231.0233017759651     
  -7024.2960835499334        32.314846489452520        1234.4447515479176     
  -6435.4933902604425       -25.238250870635511        1341.5143547226019     
  -10699.361469457663        16.331242797690720        1411.4795225049604     
  -9799.7904284817250        51.438985502807100        1243.9765304656819     
  -8996.8259977522594        48.880605457304682        1157.3252130399535     
  -8280.7272245607546        14.055334121987471        1164.0409690877975     
  -7640.9552467361609       -47.459865556192653        1274.2500809739879     
  -2906.4690995801798       -34.660265823493432        1533.9519043903142     
  -2264.9372842485486       -24.273470054516451        1460.7814119723864     
  -1706.6182768778458       -16.120895868614411        1443.9476772361606     
  -1224.4162525062870       -8.2994292677864223        1487.9768208803705     
  -811.00908595697024       0.99699085748972038        1596.6799120315723     
  -4067.8441023706982       -18.414872710927057        1471.0477015516274     
  -3404.9405929574268       -11.212706812935266        1404.9848073324702     
  -2819.0972461844362        1.8572621863786480        1397.4633373389167     
  -2303.0673156764510        22.407795925412870        1453.9969167760491     
  -1849.3938711791668        51.873431795761348        1579.1137092204465     
  -5244.3241744500110       -15.418769278260243        1407.0102372654578     
  -4562.8448015505037       -14.077287530242529        1348.7240917468846     
  -3951.6679391369025        1.1471517843801848        1351.0554094288500     
  -3403.5682784872524        31.448544357197761        1420.4029323067882     
  -2911.1475645262699        77.753645161427244        1561.8931193438063     
  -6435.4933902604425       -25.238250870635511        1341.5143547226019     
  -5738.1863482681756       -32.264374159506815        1291.6454675999314     
  -5103.8235571131845       -17.427659925416492        1304.3442043209645     
  -4525.3737657526390        19.933032439233102        1386.8005647739942     
  -3995.6851790105006        80.119643851994852        1544.6348469723760     
  -7640.9552467361609       -47.459865556192653        1274.2500809739879     
  -6930.5284366869582       -65.205935586509440        1233.4155650009775     
  -6275.0925197005072       -53.100836731208346        1256.9764180109103     
  -5667.9830212762208       -11.119353978674781        1352.8277707171756     
  -5102.4770480434609        60.313291416200173        1526.9918437331376     
  -811.00908595697024       0.99699085748972038        1596.6799120315723     
  -148.31508485894392        46.504392332556890        1476.5041973051227     
   395.49643011410853       -38.935579641461828        1364.9375339678932     
   826.11180456363013       -247.89257693847389        1265.5933469928400     
   1149.6573707441576       -572.53985446839329        1181.7488137823873     
  -1849.3938711791668        51.873431795761348        1579.1137092204465     
  -1183.7848278880915        105.25042358727057        1468.0918826155748     
  -630.66248718700103        23.341164871507146        1374.9769181069073     
  -182.86849016021856       -184.28527860649587        1303.7684036411126     
   167.10055395006694       -507.73372021204079        1257.9352968471114     
  -2911.1475645262699        77.753645161427244        1561.8931193438063     
  -2241.3443250565197        136.36175410679937        1457.6942181148429     
  -1677.7132457050648        55.544371452435257        1379.9084527920522     
  -1211.9323836441379       -153.04591932760064        1332.6853110040474     
  -835.46858035847106       -477.55749548400104        1319.4489935079914     
  -3995.6851790105006        80.119643851994852        1544.6348469723760     
  -3320.3777363984664        141.76571509466862        1445.0011805932475     
  -2745.0217334098197        60.089473775698593        1379.6111970347754     
  -2260.4073097232904       -151.22966224244124        1352.5802429869291     
  -1857.2678752695404       -478.48892877025622        1367.1131092677740     
  -5102.4770480434609        60.313291416200173        1526.9918437331376     
  -4420.3355006459660        123.18221210892398        1429.7361125461432     
  -3832.0304795336961        39.099966744754965        1373.9788272479923     
  -3327.7109483837626       -176.28681405563111        1363.6576832509700     
  -2897.6305279481421       -507.52523730525832        1401.6294416234437     
  -11752.297639999540       -3525.6892919998622        840.84138495710465     
  -11062.712079093599       -1728.4926212800024        956.36071809488601     
  -10658.743134416633       -539.36720368256601        1081.0310312944860     
  -10539.583289620159        39.365185499922063        1228.4484229919583     
  -10699.361469457663        16.331242797690720        1411.4795225049604     
  -13308.128703522221       -3992.4386110566666        1034.5105205126658     
  -12526.919337304205       -1887.8474662193548        1014.3367126408266     
  -12058.884152169992       -505.43045135782540        1032.8698050191317     
  -11901.217427674026        152.60232767214438        1105.7398552477762     
  -12044.941495477744        98.680839051362000        1247.0637209023407     
  -14932.221109922606       -4479.6663329767816        1260.0832593078703     
  -14039.904273223297       -2061.9474715492679        1094.1663477613356     
  -13486.702405412090       -480.51839316552150        996.33130266900014     
  -13268.320507866378        262.35073248092704        984.53030560738637     
  -13373.093029306565        183.23837241725141        1074.2525837241778     
  -16624.574859200700       -4987.3724577602097        1517.5596013427178     
  -15601.596743846354       -2250.7715273309927        1195.8174060422839     
  -14941.969358360240       -464.56074962603452        971.31183995550327     
  -14640.501473370858        368.73751884072408        864.64261046575143     
  -14683.343653820253        270.17364019700472        892.82763594797666     
  -18385.189951356497       -5515.5569854069490        1806.9395466172086     
  -17211.926662207818       -2454.2985404910191        1319.2576958088191     
  -16424.457200517532       -457.48746430011579        957.70806164460714     
  -16017.372027973473        471.88890828734930        745.90085688014187     
  -15975.226787719590        359.65434216612630        702.57310139906531     
  -10699.361469457663        16.331242797690720        1411.4795225049604     
  -9799.7904284817250        51.438985502807100        1243.9765304656819     
  -8996.8259977522594        48.880605457304682        1157.3252130399535     
  -8280.7272245607546        14.055334121987471        1164.0409690877975     
  -7640.9552467361609       -47.459865556192653        1274.2500809739879     
  -12044.941495477744        98.680839051362000        1247.0637209023407     
  -11138.311109155353        65.010917999281901        1103.8713283759448     
  -10310.684460484688        28.243882133638635        1032.2493215887052     
  -9553.7513673420399       -7.4895038852382640        1046.8694433431497     
  -8858.5039529824589       -38.385532712845361        1159.7036067796332     
  -13373.093029306565        183.23837241725141        1074.2525837241778     
  -12469.523194291967        76.810776558516409        958.34331935048772     
  -11626.320880014755        2.0385479765277523        904.73951282038820     
  -10836.688821967282       -38.469278671620486        930.25209834846873     
  -10093.287487690590       -43.022492444483305        1048.6835642607157     
  -14683.343653820253        270.17364019700472        892.82763594797666     
  -13792.942791408761        87.040255211377371        807.16023235579269     
  -12943.232783465115       -29.483521289997952        774.54498556963040     
  -12128.998798753028       -78.549539614182322        813.90579140426178     
  -11344.698035072230       -60.899397589106684        940.85307447735840     
  -15975.226787719590        359.65434216612630        702.57310139906531     
  -15108.095163349071        95.897231904205000        650.09419096487875     
  -14260.931064874427       -66.077150406394139        641.42161054983637     
  -13430.159558119747       -127.40761760013083        697.55735392486486     
  -12612.154896256736       -91.565929530674566        835.89028790919008     
  -7640.9552467361609       -47.459865556192653        1274.2500809739879     
  -6930.5284366869582       -65.205935586509440        1233.4155650009775     
  -6275.0925197005072       -53.100836731208346        1256.9764180109103     
  -5667.9830212762208       -11.119353978674781        1352.8277707171756     
  -5102.4770480434609        60.313291416200173        1526.9918437331376     
  -8858.5039529824589       -38.385532712845361        1159.7036067796332     
  -8130.2639608519648       -32.371825710719804        1121.3803893298482     
  -7456.6541722824177       -12.888100277997637        1146.2158956605958     
  -6831.0996595640163        21.173321223537641        1242.8581895766890     
  -6246.9555264775590        70.556187279935784        1417.8100836074245     
  -10093.287487690590       -43.022492444483305        1048.6835642607157     
  -9352.0805976647262       -17.182425117173807        1011.3862709535200     
  -8664.1875198914404        6.2801133171401489        1036.1805022321760     
  -8023.1573187630484        29.801787426296869        1132.4716688330452     
  -7422.4693390523225        55.524528889846806        1307.2391443251645     
  -11344.698035072230       -60.899397589106684        940.85307447735840     
  -10595.282658918708       -18.971610713045720        903.03219768254598     
  -9896.9092290000917        5.2953167040554945        926.40962505242999     
  -9243.2989968043294        15.889288774820216        1021.1515983278092     
  -8628.1165153303064        16.546167149336725        1194.7085794775423     
  -12612.154896256736       -91.565929530674566        835.89028790919008     
  -11859.212431728020       -37.109620864317094        795.93904725794641     
  -11154.086864138937       -15.008904596754292        816.47258032236766     
  -10490.732503388192       -19.525877218744427        908.42043714128852     
  -9863.0730120787630       -45.165768879288862        1079.6972273021231     
  -5102.4770480434609        60.313291416200173        1526.9918437331376     
  -4420.3355006459660        123.18221210892398        1429.7361125461432     
  -3832.0304795336961        39.099966744754965        1373.9788272479923     
  -3327.7109483837626       -176.28681405563111        1363.6576832509700     
  -2897.6305279481421       -507.52523730525832        1401.6294416234437     
  -6246.9555264775590        70.556187279935784        1417.8100836074245     
  -5561.0410325792091        121.26590719983119        1314.0974342143425     
  -4945.1838438005707        72.300552805766074        1270.3796922957727     
  -4390.3495064228273       -63.974903070504070        1289.5306391919748     
  -3887.8379300853267       -275.59870195670283        1373.1368923741386     
  -7422.4693390523225        55.524528889846806        1307.2391443251645     
  -6721.4323210237535        96.067101940682733        1201.8361267273845     
  -6068.3132585426683        81.585352344810872        1173.5381242290314     
  -5455.3974148767138        20.509554037527778        1223.8640928846144     
  -4875.4619498989305       -79.226362959044536        1352.8975477794725     
  -8628.1165153303064        16.546167149336725        1194.7085794775423     
  -7900.6065177618057        49.154500314798042        1092.3419878948494     
  -7200.5215660789945        68.962501130600231        1082.8653097460306     
  -6521.8926532248297        79.933469047153721        1166.2084536757343     
  -5859.3163386312226        85.565867237301745        1340.7796158399885     
  -9863.0730120787630       -45.165768879288862        1079.6972273021231     
  -9097.7485006669158       -18.055618284104639        985.06410639272406     
  -8341.0083501692861        36.223595574934734        997.83592789228396     
  -7588.9870148524478        116.73640829069427        1116.1673207008978     
  -6838.3673120983849        222.24130003921346        1336.6682433399019     
  -18385.189951356497       -5515.5569854069490        1806.9395466172086     
  -17211.926662207818       -2454.2985404910191        1319.2576958088191     
  -16424.457200517532       -457.48746430011579        957.70806164460714     
  -16017.372027973473        471.88890828734930        745.90085688014187     
  -15975.226787719590        359.65434216612630        702.57310139906531     
  -20277.747968651227       -6083.3243905953677        2134.5923131534282     
  -18875.749846248978       -2571.8693207109477        1327.6499164388433     
  -17901.816835404752       -306.50184034195081        751.94295970371752     
  -17348.090401256668        710.74169730258291        433.45014245983685     
  -17194.781976834242        514.24551822817648        389.65232159411067     
  -22365.930493346121       -6709.7791480038359        2506.8871189734605     
  -20660.810693460138       -2725.9637642716243        1364.6688229500799     
  -19423.143622797146       -169.64774063107870        558.58161846955102     
  -18645.130197138857        957.45380294854840        117.46952960236457     
  -18304.896383813550        698.47402444744603        57.537184452872047     
  -24649.737525441171       -7394.9212576323507        2923.8239640773072     
  -22566.919455853349       -2916.5248555356129        1430.2705395047874     
  -20987.868637152362       -46.752252142057841        377.48857908385605     
  -19907.638504960134        1212.2929181112304       -202.25750447353968     
  -19304.778860198126        912.60653391247524       -294.00591438913187     
  -27129.169064936388       -8138.7507194809159        3385.4028484649666     
  -24593.886536913928       -3143.4956243802972        1524.4112252907273     
  -22595.424752769657        62.356991126349385        208.52881122334031     
  -21134.768392860682        1475.5248591820236       -525.94596475077662     
  -20193.647911423446        1156.9064656652226       -665.20772876692922     
  -15975.226787719590        359.65434216612630        702.57310139906531     
  -15108.095163349071        95.897231904205000        650.09419096487875     
  -14260.931064874427       -66.077150406394139        641.42161054983637     
  -13430.159558119747       -127.40761760013083        697.55735392486486     
  -12612.154896256736       -91.565929530674566        835.89028790919008     
  -17194.781976834242        514.24551822817648        389.65232159411067     
  -16401.298481317917        75.378758621804991        467.49469816147717     
  -15590.623558929397       -170.31294395501118        528.03438819118560     
  -14763.614073100318       -230.43552515373904        597.84249559380373     
  -13921.463498224884       -116.64103446891113        700.47656421792306     
  -18304.896383813550        698.47402444744603        57.537184452872047     
  -17634.959922641436        69.279386982930191        273.45884195365369     
  -16908.697392404520       -274.93116079005267        410.86538161840667     
  -16130.564011345359       -348.65279225469294        502.17844391923336     
  -15305.962969748216       -172.29703864614658        577.49238713869715     
  -19304.778860198126        912.60653391247524       -294.00591438913187     
  -18808.571144352398        77.799799350673311        67.785268505992150     
  -18214.805254524952       -379.75194370851932        289.72870696532567     
  -17530.613785547906       -481.80842128078257        410.34960664213577     
  -16764.959183432606       -258.06592297545285        466.61285178866768     
  -20193.647911423446        1156.9064656652226       -665.20772876692922     
  -19921.633242823114        101.13695164923593       -149.72363710960909     
  -19508.608834352664       -484.60009613299371        164.44329715975516     
  -18963.381269358011       -629.65995550120260        322.14772762895240     
  -18297.787656908113       -373.49965668530331        367.52692943101670     
  -12612.154896256736       -91.565929530674566        835.89028790919008     
  -11859.212431728020       -37.109620864317094        795.93904725794641     
  -11154.086864138937       -15.008904596754292        816.47258032236766     
  -10490.732503388192       -19.525877218744427        908.42043714128852     
  -9863.0730120787630       -45.165768879288862        1079.6972273021231     
  -13921.463498224884       -116.64103446891113        700.47656421792306     
  -13144.918173796475        22.093743595184606        595.93088973274303     
  -12420.829757160367        79.974032868227368        576.79503053760641     
  -11741.830833479953        68.236330420366812        652.22528084228236     
  -11100.643446261513       -2.0004377912337077        827.92081977651992     
  -15305.962969748216       -172.29703864614658        577.49238713869715     
  -14487.741979007586        52.341090513624295        404.58079466110229     
  -13726.579665843254        148.30840514346710        342.16661081912054     
  -13014.164781128304        132.75494716916182        397.41532306722252     
  -12342.342488386450        22.764706802764977        573.60769032148403     
  -16764.959183432606       -258.06592297545285        466.61285178866768     
  -15886.622435843277        54.415745796739429        221.40383272554274     
  -15070.046023891064        191.07590974930554        111.95657600906920     
  -14306.367603725899        175.34565204196679        143.24552426387990     
  -13586.877560705663        30.561795093454748        315.95045815290513     
  -18297.787656908113       -373.49965668530331        367.52692943101670     
  -17340.553072742598        29.060489444290397        45.940175142568542     
  -16450.017004915233        209.29224778009757       -114.42733608681769     
  -15617.168652912438        197.23162003399830       -110.97677216619057     
  -14833.058878831091        22.709065883021140        54.205950139646383     
  -9863.0730120787630       -45.165768879288862        1079.6972273021231     
  -9097.7485006669158       -18.055618284104639        985.06410639272406     
  -8341.0083501692861        36.223595574934734        997.83592789228396     
  -7588.9870148524478        116.73640829069427        1116.1673207008978     
  -6838.3673120983849        222.24130003921346        1336.6682433399019     
  -11100.643446261513       -2.0004377912337077        827.92081977651992     
  -10313.741527852131       -15.241553083286362        747.27433362932982     
  -9523.0325334110494        36.310089624078500        756.36074916804705     
  -8727.3536559897584        146.49628047207852        855.73049912974034     
  -7925.8332461221817        309.13750243785671        1044.1781611357430     
  -12342.342488386450        22.764706802764977        573.60769032148403     
  -11554.667406357308       -36.939548769511930        512.29021483465533     
  -10748.975145008786        5.0758655408722007        523.45403828255473     
  -9926.7855096846761        137.20122033639154        610.12003050632654     
  -9089.6628469354036        348.17824944355516        773.31176867261138     
  -13586.877560705663        30.561795093454748        315.95045815290513     
  -12819.336337225470       -81.635761761761387        279.23904984776539     
  -12017.678100985086       -55.773989157228243        298.09280563144438     
  -11186.108698982009        90.893301371780581        378.06045463510634     
  -10328.646454748707        341.91972112937538        522.42476647528645     
  -14833.058878831091        22.709065883021140        54.205950139646383     
  -14106.663891092810       -147.95041573590242        47.325425565774104     
  -13328.096039780808       -144.70035210909737        79.353634581101389     
  -12504.273532877409        9.3985634890323126        158.41124389278832     
  -11641.712176582067        292.62697706032577        290.06012250869469     
 </DataArray>
 <DataArray  type="Float64" Name="VM" NumberOfComponents="1" format="ascii">
   24743.813876356391     
   23288.335423792465     
   22614.834915116262     
   21971.832965472538     
   20940.792672806310     
   22380.550945708626     
   21388.473232133219     
   21017.951532361585     
   20639.176850398715     
   19920.349776425464     
   20202.671496564446     
   19596.459331825328     
   19467.023957439222     
   19300.379884386337     
   18837.318938688812     
   18209.867152162122     
   17912.887718729682     
   17964.494586145251     
   17957.278979116873     
   17690.451868075161     
   16401.712233053971     
   16338.906024988111     
   16513.808025777962     
   16612.582834168978     
   16479.180035161164     
   20940.792672806310     
   20042.052770172781     
   19281.522417831962     
   18618.337675256724     
   18028.720226970738     
   19920.349776425464     
   19077.811652575827     
   18322.782080328303     
   17628.621669764201     
   16978.902319617879     
   18837.318938688812     
   18061.532498441757     
   17332.520702055630     
   16634.787139191361     
   15958.342391151295     
   17690.451868075161     
   16992.529715050128     
   16310.637546497779     
   15636.946434153360     
   14966.962877127748     
   16479.180035161164     
   15870.360139168026     
   15257.152607078811     
   14635.300996024593     
   14004.824414548002     
   18028.720226970738     
   17317.765404002777     
   16599.579919493575     
   15839.466671213222     
   15018.150745713949     
   16978.902319617879     
   16399.917942923123     
   15808.441059994111     
   15182.854961415451     
   14514.619912337077     
   15958.342391151295     
   15499.404266684131     
   15023.678719364638     
   14518.959751559980     
   13982.465607202659     
   14966.962877127748     
   14615.477371894080     
   14243.349953420317     
   13844.378508980069     
   13417.795544428134     
   14004.824414548002     
   13747.599314802983     
   13465.829536987896     
   13156.244286637642     
   12817.493222858453     
   15018.150745713949     
   14233.224787149731     
   13480.924272355493     
   12774.363571951864     
   12184.893668776109     
   14514.619912337077     
   13812.631758520247     
   13123.225106098727     
   12449.755851452894     
   11813.328515108682     
   13982.465607202659     
   13360.886412765458     
   12736.459399887597     
   12106.607049937742     
   11470.531670587019     
   13417.795544428134     
   12875.515825703484     
   12319.047011899615     
   11741.881812222291     
   11135.086640040636     
   12817.493222858453     
   12354.712016109757     
   11869.977833014882     
   11353.745403234545     
   10796.080801970904     
   16401.712233053971     
   16338.906024988111     
   16513.808025777962     
   16612.582834168978     
   16479.180035161164     
   14723.996426095133     
   14818.384840207507     
   15088.231008695335     
   15266.072041136682     
   15222.288268453683     
   13122.357574132044     
   13344.441488686813     
   13687.973072238290     
   13928.924125388805     
   13960.029100968575     
   11595.987335180720     
   11917.339049447797     
   12314.665160661121     
   12603.446583789211     
   12694.437872417078     
   10144.015636959186     
   10537.782985592845     
   10970.876768045891     
   11293.131769670432     
   11428.761027671830     
   16479.180035161164     
   15870.360139168026     
   15257.152607078811     
   14635.300996024593     
   14004.824414548002     
   15222.288268453683     
   14704.029190195286     
   14171.100597122046     
   13619.045555444120     
   13048.115534001377     
   13960.029100968575     
   13530.393892810978     
   13078.277598200943     
   12598.756695447106     
   12092.446985449102     
   12694.437872417078     
   12350.615014058430     
   11979.454493702488     
   11575.079450857482     
   11138.474346269741     
   11428.761027671830     
   11166.623727712185     
   10875.973476113266     
   10549.171653944793     
   10187.403843621114     
   14004.824414548002     
   13747.599314802983     
   13465.829536987896     
   13156.244286637642     
   12817.493222858453     
   13048.115534001377     
   12874.445115343899     
   12672.761781557632     
   12440.150717015455     
   12175.666708000599     
   12092.446985449102     
   11997.473297706791     
   11871.649995731252     
   11712.108016450667     
   11518.063304074711     
   11138.474346269741     
   11116.739211604521     
   11061.986127431433     
   10971.084122203789     
   10843.209655212464     
   10187.403843621114     
   10232.746014014290     
   10243.674436765092     
   10216.486861390465     
   10150.159791827075     
   12817.493222858453     
   12354.712016109757     
   11869.977833014882     
   11353.745403234545     
   10796.080801970904     
   12175.666708000599     
   11792.775331313162     
   11384.317867334936     
   10941.482750863353     
   10457.260047874990     
   11518.063304074711     
   11212.885060739867     
   10879.541143199160     
   10510.021784043287     
   10100.264719467454     
   10843.209655212464     
   10613.100876162656     
   10353.105752334672     
   10055.883077783777     
   9720.0493199660687     
   10150.159791827075     
   9992.1143362244711     
   9803.3143035809662     
   9576.8421267516096     
   9313.6538961376627     
   10144.015636959186     
   10537.782985592845     
   10970.876768045891     
   11293.131769670432     
   11428.761027671830     
   8746.6977153240787     
   9184.8481335511933     
   9640.4819636749107     
   9984.6708063571314     
   10152.073947820021     
   7384.4105541900753     
   7856.3173907784621     
   8329.8490456100517     
   8694.9390115391197     
   8894.9237431273523     
   6056.4559339193629     
   6553.9504652238011     
   7044.0076177286946     
   7431.9459258511497     
   7667.7154935797435     
   4762.2486086627905     
   5281.6101809926313     
   5792.4676604201004     
   6210.0699789260871     
   6488.5843485617215     
   11428.761027671830     
   11166.623727712185     
   10875.973476113266     
   10549.171653944793     
   10187.403843621114     
   10152.073947820021     
   9967.0621600412433     
   9754.7514059885725     
   9506.0462752271615     
   9222.2469852616960     
   8894.9237431273523     
   8779.1328308479169     
   8640.7752810842303     
   8468.5510553260719     
   8263.6332825812169     
   7667.7154935797435     
   7610.1088191524059     
   7539.6273191300006     
   7441.5313786942434     
   7316.3395314783666     
   6488.5843485617215     
   6472.6234341768322     
   6460.9219549618638     
   6433.2300666353449     
   6388.3458233787078     
   10187.403843621114     
   10232.746014014290     
   10243.674436765092     
   10216.486861390465     
   10150.159791827075     
   9222.2469852616960     
   9328.8888355691015     
   9399.8800011370658     
   9430.6803137981624     
   9419.9825051247117     
   8263.6332825812169     
   8424.2246773275983     
   8549.2473941130520     
   8632.9956856952776     
   8673.7535306980080     
   7316.3395314783666     
   7521.8868104922876     
   7693.7832566016750     
   7824.6857192113221     
   7912.2716930970810     
   6388.3458233787078     
   6627.2711331251357     
   6837.1950791656345     
   7008.3952992265758     
   7137.5954269112599     
   10150.159791827075     
   9992.1143362244711     
   9803.3143035809662     
   9576.8421267516096     
   9313.6538961376627     
   9419.9825051247117     
   9335.7287464679102     
   9229.9070678490498     
   9099.1857870094063     
   8953.3043021117355     
   8673.7535306980080     
   8665.5199441784862     
   8646.9671670689258     
   8617.8662295143058     
   8596.1344019691296     
   7912.2716930970810     
   7981.3901921170554     
   8053.6439761339152     
   8130.9937946022610     
   8238.3711817632557     
   7137.5954269112599     
   7284.1563276318684     
   7449.9452502182376     
   7637.7196697235559     
   7877.8612286036614     
   4762.2486086627905     
   5281.6101809926313     
   5792.4676604201004     
   6210.0699789260871     
   6488.5843485617215     
   3491.6159276593653     
   4029.3343620827000     
   4563.7314904207278     
   5014.9704488812458     
   5343.1216143245174     
   2235.7125710775904     
   2816.6880913693576     
   3405.5823546784004     
   3919.2577954029603     
   4324.5911869281490     
   1004.9191756619911     
   1714.9966014268705     
   2417.1809746055606     
   3031.6752331943576     
   3543.8235436151258     
   379.49108933355586     
   1101.6835209220962     
   1882.2847829527848     
   2576.0908319034338     
   3180.7411055872390     
   6488.5843485617215     
   6472.6234341768322     
   6460.9219549618638     
   6433.2300666353449     
   6388.3458233787078     
   5343.1216143245174     
   5347.6377766800288     
   5382.5312175392583     
   5419.6549674837270     
   5454.8304839571201     
   4324.5911869281490     
   4309.4747415221973     
   4367.9284450452687     
   4459.0978336667858     
   4572.1652414296595     
   3543.8235436151258     
   3440.5835460569115     
   3478.2676546548951     
   3599.8666092686617     
   3781.5512684171231     
   3180.7411055872390     
   2901.1025080297873     
   2839.9884053647120     
   2939.6599264008864     
   3159.9813765314416     
   6388.3458233787078     
   6627.2711331251357     
   6837.1950791656345     
   7008.3952992265758     
   7137.5954269112599     
   5454.8304839571201     
   5717.4040858134158     
   5959.8765508269025     
   6169.3693046771887     
   6341.5482337534559     
   4572.1652414296595     
   4839.0752377271720     
   5101.9427965201685     
   5342.3720002895307     
   5553.6478429364643     
   3781.5512684171231     
   4020.3155672551202     
   4283.3515000118459     
   4542.6078125432050     
   4786.3840468381604     
   3159.9813765314416     
   3315.2404429547223     
   3542.4902822839786     
   3798.7744850731378     
   4062.7532374971938     
   7137.5954269112599     
   7284.1563276318684     
   7449.9452502182376     
   7637.7196697235559     
   7877.8612286036614     
   6341.5482337534559     
   6556.7569567894534     
   6796.5194668097774     
   7057.6969362494910     
   7360.8874239788802     
   5553.6478429364643     
   5821.1519166821427     
   6121.1982965197067     
   6443.4108508340805     
   6799.2026433054934     
   4786.3840468381604     
   5084.4306269147328     
   5428.0834603376834     
   5797.6472164417110     
   6195.2803219075868     
   4062.7532374971938     
   4360.1695181591967     
   4725.4291651530666     
   5126.0296023205992     
   5553.6462518960279     
   379.49108933355586     
   1101.6835209220962     
   1882.2847829527848     
   2576.0908319034338     
   3180.7411055872390     
   1532.5772149429617     
   1627.4250177181086     
   2114.7250218706035     
   2707.2698487474881     
   3301.7593389466379     
   2765.9440889067150     
   2710.9897960970561     
   2980.5667505273177     
   3418.9572514711017     
   3931.5267277442467     
   4012.0943464403090     
   3919.3924339942942     
   4100.6684692983736     
   4442.8983505338983     
   4876.9689791558194     
   5267.2387303188889     
   5170.5292094216074     
   5320.3552644521751     
   5612.7376306106535     
   5990.5662889905898     
   3180.7411055872390     
   2901.1025080297873     
   2839.9884053647120     
   2939.6599264008864     
   3159.9813765314416     
   3301.7593389466379     
   2812.5062089727880     
   2573.1810755392989     
   2564.4712588856391     
   2753.5358454646375     
   3931.5267277442467     
   3293.0388767201175     
   2878.9995127362367     
   2701.7734095814890     
   2765.7228076770125     
   4876.9689791558194     
   4152.6529459125404     
   3620.7010126498926     
   3295.5542037567047     
   3199.9300024600693     
   5990.5662889905898     
   5209.3975358983153     
   4596.3087175540177     
   4160.6215964300027     
   3925.1815632133721     
   3159.9813765314416     
   3315.2404429547223     
   3542.4902822839786     
   3798.7744850731378     
   4062.7532374971938     
   2753.5358454646375     
   2753.2797404641124     
   2895.5532597500364     
   3122.9417679410235     
   3398.5580628529756     
   2765.7228076770125     
   2545.9580055917968     
   2526.0696163565440     
   2664.0354864820151     
   2913.6842358858098     
   3199.9300024600693     
   2785.4304540742096     
   2570.7370585088975     
   2555.7647200459619     
   2717.5766996991392     
   3925.1815632133721     
   3387.8015314175695     
   3023.2843555503018     
   2851.5482009388284     
   2882.1355840062447     
   4062.7532374971938     
   4360.1695181591967     
   4725.4291651530666     
   5126.0296023205992     
   5553.6462518960279     
   3398.5580628529756     
   3652.1190064440225     
   4000.5079332389232     
   4397.1654863362010     
   4820.0991366859635     
   2913.6842358858098     
   3046.6674479046501     
   3315.5982145752278     
   3661.5582281435377     
   4048.8436810664284     
   2717.5766996991392     
   2641.3716944376902     
   2739.0944673710455     
   2962.2784390418083     
   3268.3535174839344     
   2882.1355840062447     
   2563.4451934412382     
   2400.5198818694885     
   2398.7242416065178     
   2548.9859543402104     
   5267.2387303188889     
   5170.5292094216074     
   5320.3552644521751     
   5612.7376306106535     
   5990.5662889905898     
   6541.4970430698813     
   6444.0731789028287     
   6578.6480476702627     
   6837.3633443316367     
   7167.5751938740605     
   7845.7199971728851     
   7749.2940423872860     
   7879.9138469770342     
   8117.5763191027290     
   8407.0758491525521     
   9180.5514556081707     
   9081.9236968117839     
   9211.4669428642883     
   9432.6890750058428     
   9683.6660732186374     
   10546.709323817044     
   10439.987861871741     
   10566.770082601677     
   10771.560461317200     
   10983.085165876526     
   5990.5662889905898     
   5209.3975358983153     
   4596.3087175540177     
   4160.6215964300027     
   3925.1815632133721     
   7167.5751938740605     
   6343.4517978195381     
   5667.5226610091268     
   5144.5124509093575     
   4792.1529543720699     
   8407.0758491525521     
   7546.1367391620952     
   6817.5218585714683     
   6223.1012316299802     
   5775.9281664516911     
   9683.6660732186374     
   8789.6518838137381     
   8014.3439766872980     
   7358.0113007651426     
   6830.2835841942560     
   10983.085165876526     
   10059.078611593664     
   9241.3874821694862     
   8529.4784976021692     
   7930.6336833395062     
   3925.1815632133721     
   3387.8015314175695     
   3023.2843555503018     
   2851.5482009388284     
   2882.1355840062447     
   4792.1529543720699     
   4180.6117366103517     
   3716.3503431729673     
   3420.3141572449604     
   3316.5770412377451     
   5775.9281664516911     
   5119.8328490106724     
   4593.0671819741801     
   4212.4739495411468     
   4003.2122670785802     
   6830.2835841942560     
   6143.9180176714599     
   5573.5367886323611     
   5132.1785712296933     
   4842.4934188934412     
   7930.6336833395062     
   7221.3922828564891     
   6617.1264392187331     
   6128.0959352494265     
   5774.2332111335327     
   2882.1355840062447     
   2563.4451934412382     
   2400.5198818694885     
   2398.7242416065178     
   2548.9859543402104     
   3316.5770412377451     
   2828.9396162484582     
   2466.7154184855754     
   2265.6429835580257     
   2262.2471891548080     
   4003.2122670785802     
   3423.8092610051312     
   2936.5688233013116     
   2575.8245795527982     
   2397.8994071635575     
   4842.4934188934412     
   4216.6108179768607     
   3662.4695409198316     
   3206.0709480247606     
   2897.7074144886005     
   5774.2332111335327     
   5121.6679466205069     
   4527.6121875627387     
   4012.0808150986486     
   3616.2023168727555     
   10546.709323817044     
   10439.987861871741     
   10566.770082601677     
   10771.560461317200     
   10983.085165876526     
   11963.469598192185     
   11829.006725351283     
   11948.961451903431     
   12130.391547482233     
   12285.945720315885     
   13450.304792416502     
   13266.973816566302     
   13364.859120971038     
   13509.478538356296     
   13593.590883699670     
   15008.210684079735     
   14752.969243500538     
   14811.048328243805     
   14903.743605851145     
   14900.739935311749     
   16638.122103106496     
   16286.562463234344     
   16285.260821628575     
   16309.702949136383     
   16203.814635283663     
   10983.085165876526     
   10059.078611593664     
   9241.3874821694862     
   8529.4784976021692     
   7930.6336833395062     
   12285.945720315885     
   11333.397916899939     
   10478.494238340663     
   9720.6211384813687     
   9064.7264000402411     
   13593.590883699670     
   12617.763989767758     
   11732.463634370437     
   10936.842862857062     
   10234.318566138152     
   14900.739935311749     
   13907.117279863296     
   12997.934139303608     
   12171.827411303004     
   11431.124638052579     
   16203.814635283663     
   15198.040255927335     
   14271.316140687177     
   13421.403526097116     
   12649.748198301249     
   7930.6336833395062     
   7221.3922828564891     
   6617.1264392187331     
   6128.0959352494265     
   5774.2332111335327     
   9064.7264000402411     
   8343.3524708612167     
   7710.2002619795749     
   7172.3843576611771     
   6745.4243149667209     
   10234.318566138152     
   9506.2990634426478     
   8851.1924054734063     
   8273.9665323945374     
   7786.8405478151690     
   11431.124638052579     
   10700.736723074302     
   10028.756252715208     
   9418.8083121547934     
   8880.8454780747816     
   12649.748198301249     
   11920.686332949623     
   11235.940140354121     
   10598.428753101976     
   10016.686788559553     
   5774.2332111335327     
   5121.6679466205069     
   4527.6121875627387     
   4012.0808150986486     
   3616.2023168727555     
   6745.4243149667209     
   6065.8720454602399     
   5446.0264259685373     
   4897.6583385221547     
   4447.0518440622600     
   7786.8405478151690     
   7082.7833571746687     
   6438.7687204865369     
   5862.3544176110499     
   5374.1172528916250     
   8880.8454780747816     
   8148.0048437958203     
   7474.3979332068357     
   6866.0699906468744     
   6342.9753974357818     
   10016.686788559553     
   9247.4938331245085     
   8535.9770018792678     
   7888.5835769610840     
   7327.5147431080177     
   16638.122103106496     
   16286.562463234344     
   16285.260821628575     
   16309.702949136383     
   16203.814635283663     
   18398.566045956704     
   17878.770791859843     
   17798.266888237795     
   17730.060423619583     
   17470.626836136995     
   20347.947760893363     
   19584.849211910379     
   19363.063713927670     
   19142.905890640435     
   18664.204344468002     
   22486.835975221613     
   21403.084144641140     
   20974.724752878446     
   20543.620382826957     
   19783.435578370401     
   24815.648097939462     
   23332.413800701735     
   22629.550230805587     
   21928.756058202671     
   20828.142364170671     
   16203.814635283663     
   15198.040255927335     
   14271.316140687177     
   13421.403526097116     
   12649.748198301249     
   17470.626836136995     
   16459.047275837915     
   15533.117053703183     
   14686.306098444569     
   13916.498820128261     
   18664.204344468002     
   17676.048470579259     
   16788.011732631607     
   15982.779404067051     
   15253.376969678686     
   19783.435578370401     
   18847.957154289361     
   18034.912322222739     
   17309.342046992297     
   16657.045729594643     
   20828.142364170671     
   19974.077312985577     
   19272.983862971221     
   18664.864223873508     
   18125.108161179567     
   12649.748198301249     
   11920.686332949623     
   11235.940140354121     
   10598.428753101976     
   10016.686788559553     
   13916.498820128261     
   13196.407967967474     
   12500.993123400322     
   11830.158934615059     
   11191.891771616691     
   15253.376969678686     
   14530.890141782156     
   13814.050304410071     
   13099.145788995307     
   12393.626728593230     
   16657.045729594643     
   15918.519870638222     
   15167.726353814380     
   14396.979450812600     
   13613.188065876328     
   18125.108161179567     
   17355.283974607111     
   16556.841624769273     
   15717.888027692890     
   14844.723344372602     
   10016.686788559553     
   9247.4938331245085     
   8535.9770018792678     
   7888.5835769610840     
   7327.5147431080177     
   11191.891771616691     
   10387.086018629163     
   9630.7577047935902     
   8925.4418326097093     
   8284.6541890276148     
   12393.626728593230     
   11570.315596139659     
   10789.674006917394     
   10051.795917693958     
   9364.9375298036121     
   13613.188065876328     
   12787.863604927048     
   12001.000032954393     
   11250.903114368464     
   10542.684549403064     
   14844.723344372602     
   14033.513022837842     
   13257.050691823762     
   12511.984234855481     
   11801.448072848158     
 </DataArray>
 <DataArray  type="Float64" Name="strain" NumberOfComponents="3" format="ascii">
   4.1025043030152809E-007   0.0000000000000000        1.4638207029053099E-007
   3.9361031357372788E-007  -6.9045799813382003E-008   6.5654293632768926E-008
   3.7697019684592772E-007  -1.1255852750556241E-007   1.0130080383695514E-008
   3.6033008011812750E-007  -1.3063359094685456E-007  -2.1701946403952981E-008
   3.4368996339032729E-007  -1.2241974717807368E-007  -3.0542409097184177E-008
   3.7198054209796585E-007   0.0000000000000000        1.2677554012147204E-007
   3.6143304041184419E-007  -6.3065328829916385E-008   6.1603180842249557E-008
   3.5055319403161102E-007  -1.0314520253302680E-007   1.7079941798775888E-008
   3.3942440972236760E-007  -1.2033574099959611E-007  -8.1421031637400242E-009
   3.2812527109072026E-007  -1.1393598558871711E-007  -1.4797905260944319E-008
   3.3662470637911228E-007   0.0000000000000000        1.0899129596162286E-007
   3.3103676575693966E-007  -5.7087024407957730E-008   5.8724415361279259E-008
   3.2483236960122446E-007  -9.3745626150235181E-008   2.4564441701877843E-008
   3.1813641470194566E-007  -1.1007218392144806E-007   5.3023181640092613E-009
   3.1106318522956916E-007  -1.0550340599492720E-007   1.6278481658216260E-010
   3.0418292314496728E-007   0.0000000000000000        9.3029337810983394E-008
   3.0241893873771015E-007  -5.1110885370390018E-008   5.7016370173620748E-008
   2.9979981996668784E-007  -8.4359768258505748E-008   3.2578420267760817E-008
   2.9645346971862881E-007  -9.9842748699135941E-008   1.8622805710037092E-008
   2.9249092444131535E-007  -9.7121546623029018E-008   1.4330291841742760E-008
   2.7465519239553090E-007   0.0000000000000000        7.8889665669553647E-008
   2.7557701033040425E-007  -4.5136910540949823E-008   5.6477419441456494E-008
   2.7544766459335107E-007  -7.4987598846949522E-008   4.1116732721521297E-008
   2.7436303324236982E-007  -8.9647265454587512E-008   3.1810904107677748E-008
   2.7239586065392526E-007  -8.8789951237640371E-008   2.7695358891668403E-008
   3.4368996339032729E-007  -1.2241974717807368E-007  -3.0542409097184177E-008
   3.3320312112046872E-007  -1.0338706434658041E-007  -9.6744758488224503E-009
   3.2271627885061009E-007  -9.0219589978203782E-008   6.6608620699395219E-009
   3.1222943658075157E-007  -8.3315275001518327E-008   1.6516169703790787E-008
   3.0174259431089290E-007  -8.3417543259484437E-008   1.7316406467753760E-008
   3.2812527109072026E-007  -1.1393598558871711E-007  -1.4797905260944319E-008
   3.1741335121458395E-007  -9.7686639874306939E-008  -6.5640690139400618E-010
   3.0648021830560162E-007  -8.6324807546124958E-008   1.0981905492715490E-008
   2.9529833012348796E-007  -8.0151186921565256E-008   1.8433784702961393E-008
   2.8382552771976762E-007  -7.9726741426409485E-008   1.9571304688535852E-008
   3.1106318522956916E-007  -1.0550340599492720E-007   1.6278481658216260E-010
   3.0056363400131315E-007  -9.2041299159013174E-008   7.8268491601432016E-009
   2.8963972744841750E-007  -8.2485935902072226E-008   1.5027437285935840E-008
   2.7826028845039346E-007  -7.7051325043665694E-008   2.0333024168826632E-008
   2.6637234820527257E-007  -7.6138384955543274E-008   2.2025864689147407E-008
   2.9249092444131535E-007  -9.7121546623029018E-008   1.4330291841742760E-008
   2.8264549898191329E-007  -8.6450247620188371E-008   1.5767313963608046E-008
   2.7219057029670220E-007  -7.8701779701232138E-008   1.8790555905230357E-008
   2.6111252810590723E-007  -7.4013753473553563E-008   2.2206948140689041E-008
   2.4937440303926548E-007  -7.2648266878626550E-008   2.4672448161161274E-008
   2.7239586065392526E-007  -8.8789951237640371E-008   2.7695358891668403E-008
   2.6365063779341713E-007  -8.0912705886572200E-008   2.3157161852688360E-008
   2.5412863076458405E-007  -7.4971177432175530E-008   2.2264555149556817E-008
   2.4385237638625088E-007  -7.1036613344862756E-008   2.4048892794111918E-008
   2.3282350686724194E-007  -6.9252407465101091E-008   2.7503829376317754E-008
   3.0174259431089290E-007  -8.3417543259484437E-008   1.7316406467753760E-008
   2.8868542447839605E-007  -8.6350354743187809E-008  -2.6769352603100269E-011
   2.7562825464589932E-007  -8.6952624822530783E-008  -8.9646844243695348E-009
   2.6257108481340268E-007  -8.4625641585326661E-008  -9.4170158139080156E-009
   2.4951391498090584E-007  -7.8340040318431169E-008  -7.4208580082278515E-010
   2.8382552771976762E-007  -7.9726741426409485E-008   1.9571304688535852E-008
   2.7339023311310901E-007  -8.1639615085270398E-008   5.4882647954685533E-009
   2.6282169927018640E-007  -8.1742220345773933E-008  -1.3283840478705041E-009
   2.5214863843730561E-007  -7.9602992021094243E-008  -1.0264946181891732E-009
   2.4140461990029094E-007  -7.4504216400553337E-008   6.5889068758663294E-009
   2.6637234820527257E-007  -7.6138384955543274E-008   2.2025864689147407E-008
   2.5830469342836680E-007  -7.7103662630438700E-008   1.0984604965857398E-008
   2.4996124784706531E-007  -7.6786485572637520E-008   6.0426973656177178E-009
   2.4138150310120176E-007  -7.4901150556091508E-008   6.8521300529874985E-009
   2.3260630245219552E-007  -7.0987964502855299E-008   1.3236797645437047E-008
   2.4937440303926548E-007  -7.2648266878626550E-008   2.4672448161161274E-008
   2.4340791506410408E-007  -7.2732946612369070E-008   1.6456851103253576E-008
   2.3701401998986205E-007  -7.2067194624911893E-008   1.3151619776122471E-008
   2.3022814288325245E-007  -7.0490332286220722E-008   1.4237758524852275E-008
   2.2307873390864792E-007  -6.7752945193588001E-008   1.9237964860531534E-008
   2.3282350686724194E-007  -6.9252407465101091E-008   2.7503829376317754E-008
   2.2868050242948284E-007  -6.8518599651314531E-008   2.1899989542842443E-008
   2.2395019973081177E-007  -6.7567820257871977E-008   2.0001157958475784E-008
   2.1865200929147108E-007  -6.6344328732646032E-008   2.1147021664236257E-008
   2.1278787314741005E-007  -6.4766716052908817E-008   2.4623191496690908E-008
   2.4951391498090584E-007  -7.8340040318431169E-008  -7.4208580082278515E-010
   2.3738009770801097E-007  -7.0476186940255079E-008   1.2404497120982337E-009
   2.2524628043511626E-007  -6.4902469026099165E-008   2.9389729581703685E-009
   2.1311246316222157E-007  -6.2978469934480950E-008   1.2408234070291336E-009
   2.0097864588932636E-007  -6.8489117606348191E-008  -1.1783184866478732E-008
   2.4140461990029094E-007  -7.4504216400553337E-008   6.5889068758663294E-009
   2.3037825100775251E-007  -6.8199317901196892E-008   5.7208533409087896E-009
   2.1920070619835291E-007  -6.3387538937558750E-008   5.3941823699742508E-009
   2.0782750210892306E-007  -6.0757685496120051E-008   3.4163665026026295E-009
   1.9614276042835156E-007  -6.2004995641081135E-008  -4.9899020331795070E-009
   2.3260630245219552E-007  -7.0987964502855299E-008   1.3236797645437047E-008
   2.2272871775178837E-007  -6.6171017434187500E-008   9.7217774306050783E-009
   2.1257754049621018E-007  -6.2092035888297870E-008   7.5915349159497016E-009
   2.0210316675092799E-007  -5.8973712172917035E-008   5.3671468293834652E-009
   1.9118201238841018E-007  -5.7324727154856980E-008   2.6190782818139465E-010
   2.2307873390864792E-007  -6.7752945193588001E-008   1.9237964860531534E-008
   2.1440226260376224E-007  -6.4352687628149440E-008   1.3287061334840688E-008
   2.0535715229084118E-007  -6.0971505612772330E-008   9.5750574821966395E-009
   1.9591389095268150E-007  -5.7509213502382647E-008   7.1791117215281019E-009
   1.8599117550307975E-007  -5.3787494536564848E-008   4.6153252921345494E-009
   2.1278787314741005E-007  -6.4766716052908817E-008   2.4623191496690908E-008
   2.0537540525827121E-007  -6.2713328643412062E-008   1.6451914548037437E-008
   1.9752487789563739E-007  -5.9992742356755657E-008   1.1377636585725812E-008
   1.8924251284628790E-007  -5.6285424633075449E-008   8.9099553421305179E-009
   1.8051082788073533E-007  -5.1020130194017117E-008   8.4335017419513875E-009
   2.7465519239553090E-007   0.0000000000000000        7.8889665669553647E-008
   2.7557701033040425E-007  -4.5136910540949823E-008   5.6477419441456494E-008
   2.7544766459335107E-007  -7.4987598846949522E-008   4.1116732721521297E-008
   2.7436303324236982E-007  -8.9647265454587512E-008   3.1810904107677748E-008
   2.7239586065392526E-007  -8.8789951237640371E-008   2.7695358891668403E-008
   2.4714074640924972E-007   0.0000000000000000        6.6333829902613719E-008
   2.4995466241818102E-007  -4.0627703360750716E-008   5.1283529043119201E-008
   2.5152766793196032E-007  -6.7669082535920487E-008   4.1777318794070306E-008
   2.5194945008809010E-007  -8.1208259281849533E-008   3.6936515136549595E-008
   2.5128325278653145E-007  -8.0986138887418663E-008   3.5971988620691770E-008
   2.2073881746457036E-007   0.0000000000000000        5.5123380875443728E-008
   2.2505593223255283E-007  -3.6120128560581012E-008   4.7001766104322587E-008
   2.2796913197422656E-007  -6.0361224118523506E-008   4.2927263072151364E-008
   2.2955195083931036E-007  -7.2797169911268370E-008   4.2124452375638088E-008
   2.2984918436934018E-007  -7.3228845154396471E-008   4.3870101097837061E-008
   1.9544940556149272E-007   0.0000000000000000        4.5258318588043647E-008
   2.0087982290405327E-007  -3.1614185254193255E-008   4.3630904981385897E-008
   2.0476883925088226E-007  -5.3064000330197495E-008   4.4562560586561633E-008
   2.0716494451151626E-007  -6.4413859045593165E-008   4.7367742145429649E-008
   2.0808660317597691E-007  -6.5517655327586125E-008   5.1381076733258899E-008
   1.7127251070001685E-007   0.0000000000000000        3.6738643040413481E-008
   1.7742533828470921E-007  -2.7109872555981403E-008   4.1169720917699299E-008
   1.8192358165017921E-007  -4.5777387974042852E-008   4.6679218015941472E-008
   1.8478287698893767E-007  -5.6058189299549042E-008   5.2659456753088862E-008
   1.8598854055866284E-007  -5.7852159610896363E-008   5.8496398091124742E-008
   2.7239586065392526E-007  -8.8789951237640371E-008   2.7695358891668403E-008
   2.6365063779341713E-007  -8.0912705886572200E-008   2.3157161852688360E-008
   2.5412863076458405E-007  -7.4971177432175530E-008   2.2264555149556817E-008
   2.4385237638625088E-007  -7.1036613344862756E-008   2.4048892794111918E-008
   2.3282350686724194E-007  -6.9252407465101091E-008   2.7503829376317754E-008
   2.5128325278653145E-007  -8.0986138887418663E-008   3.5971988620691770E-008
   2.4396715876750497E-007  -7.4480941184503206E-008   2.9944167156849330E-008
   2.3571129524949773E-007  -6.9536616615123564E-008   2.7847433429721672E-008
   2.2655239717782471E-007  -6.6203360114518255E-008   2.8809143663086070E-008
   2.1650560505536786E-007  -6.4583113891746893E-008   3.1944312200493233E-008
   2.2984918436934018E-007  -7.3228845154396471E-008   4.3870101097837061E-008
   2.2399426266034854E-007  -6.8110148886732548E-008   3.6437309971699945E-008
   2.1704908726202022E-007  -6.4177893234776704E-008   3.3219034114209594E-008
   2.0906698316593944E-007  -6.1464387121594545E-008   3.3437593678260823E-008
   2.0008009194882348E-007  -6.0036609133043764E-008   3.6323696395959061E-008
   2.0808660317597691E-007  -6.5517655327586125E-008   5.1381076733258899E-008
   2.0372440735374941E-007  -6.1799466066207132E-008   4.2627775151101844E-008
   1.9813402478034350E-007  -5.8893430862176356E-008   3.8370633654352790E-008
   1.9138728924367807E-007  -5.6816962384508019E-008   3.7925694133637401E-008
   1.8353608842397457E-007  -5.5608112565201779E-008   4.0633703822154286E-008
   1.8598854055866284E-007  -5.7852159610896363E-008   5.8496398091124742E-008
   1.8315019238350624E-007  -5.5548046003133324E-008   4.8506913112574822E-008
   1.7895834548949252E-007  -5.3681696459905386E-008   4.3293748619000166E-008
   1.7350480877722998E-007  -5.2258458465610925E-008   4.2265223454038396E-008
   1.6686327287460346E-007  -5.1293088554845712E-008   4.4866480564558147E-008
   2.3282350686724194E-007  -6.9252407465101091E-008   2.7503829376317754E-008
   2.2868050242948284E-007  -6.8518599651314531E-008   2.1899989542842443E-008
   2.2395019973081177E-007  -6.7567820257871977E-008   2.0001157958475784E-008
   2.1865200929147108E-007  -6.6344328732646032E-008   2.1147021664236257E-008
   2.1278787314741005E-007  -6.4766716052908817E-008   2.4623191496690908E-008
   2.1650560505536786E-007  -6.4583113891746893E-008   3.1944312200493233E-008
   2.1391097200501059E-007  -6.3829257129206791E-008   2.6699930971108191E-008
   2.1060003703280677E-007  -6.2981187926993086E-008   2.4974221133483449E-008
   2.0659588093079492E-007  -6.2010107677087686E-008   2.6148962667024046E-008
   2.0190255763365009E-007  -6.0876105316132342E-008   2.9562861254902029E-008
   2.0008009194882348E-007  -6.0036609133043764E-008   3.6323696395959061E-008
   1.9894629585998887E-007  -5.9301888163160861E-008   3.1372667202304656E-008
   1.9697395959124216E-007  -5.8598773882809453E-008   2.9745374092061926E-008
   1.9418932188295052E-007  -5.7921364725261893E-008   3.0865060238503049E-008
   1.9059883587631404E-007  -5.7263335749275974E-008   3.4120882370470255E-008
   1.8353608842397457E-007  -5.5608112565201779E-008   4.0633703822154286E-008
   1.8377266873721536E-007  -5.4928243186568994E-008   3.5911163656412132E-008
   1.8305539801992034E-007  -5.4407236024185862E-008   3.4310912740480504E-008
   1.8141325476943664E-007  -5.4057819406413064E-008   3.5298018668877945E-008
   1.7885538956017042E-007  -5.3899671113729629E-008   3.8311022853962291E-008
   1.6686327287460346E-007  -5.1293088554845712E-008   4.4866480564558147E-008
   1.6837720722690613E-007  -5.0700623498455206E-008   4.0308855488189792E-008
   1.6882919553008402E-007  -5.0394369710228216E-008   3.8667448771799450E-008
   1.6825064735862028E-007  -5.0401365371416764E-008   3.9450252341090652E-008
   1.6665374224307627E-007  -5.0760205902452157E-008   4.2145215348643205E-008
   2.1278787314741005E-007  -6.4766716052908817E-008   2.4623191496690908E-008
   2.0537540525827121E-007  -6.2713328643412062E-008   1.6451914548037437E-008
   1.9752487789563739E-007  -5.9992742356755657E-008   1.1377636585725812E-008
   1.8924251284628790E-007  -5.6285424633075449E-008   8.9099553421305179E-009
   1.8051082788073533E-007  -5.1020130194017117E-008   8.4335017419513875E-009
   2.0190255763365009E-007  -6.0876105316132342E-008   2.9562861254902029E-008
   1.9591294610626664E-007  -5.9297552701804300E-008   2.1397565435941627E-008
   1.8940706886351092E-007  -5.6880485421234649E-008   1.6501839498138564E-008
   1.8240728796375643E-007  -5.3306868858529368E-008   1.4523275457361166E-008
   1.7492096598256006E-007  -4.8041722814663317E-008   1.5089901266291670E-008
   1.9059883587631404E-007  -5.7263335749275974E-008   3.4120882370470255E-008
   1.8599606395220478E-007  -5.6187851978554362E-008   2.5920931671016006E-008
   1.8080575031908070E-007  -5.4117762142660246E-008   2.1129019942726990E-008
   1.7506617447791117E-007  -5.0748770512098901E-008   1.9492431198032037E-008
   1.6880722519934955E-007  -4.5595687768814705E-008   2.0793266388574252E-008
   1.7885538956017042E-007  -5.3899671113729629E-008   3.8311022853962291E-008
   1.7560113679208020E-007  -5.3344851186350472E-008   3.0053576015958348E-008
   1.7169442502996208E-007  -5.1648819755260706E-008   2.5320021310923462E-008
   1.6718875679326903E-007  -4.8527970423185184E-008   2.3932487160652053E-008
   1.6213402176855554E-007  -4.3550997719400229E-008   2.5774255065466569E-008
   1.6665374224307627E-007  -5.0760205902452157E-008   4.2145215348643205E-008
   1.6470842784444146E-007  -5.0735651277327735E-008   3.3821869956833323E-008
   1.6205194656376119E-007  -4.9429164099219558E-008   2.9123400397072671E-008
   1.5875214412363066E-007  -4.6581882975289546E-008   2.7930040994748372E-008
   1.5487656372446865E-007  -4.1816363128303815E-008   3.0193571611038363E-008
   1.7127251070001685E-007   0.0000000000000000        3.6738643040413481E-008
   1.7742533828470921E-007  -2.7109872555981403E-008   4.1169720917699299E-008
   1.8192358165017921E-007  -4.5777387974042852E-008   4.6679218015941472E-008
   1.8478287698893767E-007  -5.6058189299549042E-008   5.2659456753088862E-008
   1.8598854055866284E-007  -5.7852159610896363E-008   5.8496398091124742E-008
   1.4789718724503716E-007   0.0000000000000000        2.9419986146705051E-008
   1.5447597857488069E-007  -2.3506508176286385E-008   3.7498342952374563E-008
   1.5928836378107551E-007  -3.9790844524957548E-008   4.6082344877378213E-008
   1.6233693787333813E-007  -4.8897463659639854E-008   5.4648459073566901E-008
   1.6359530804385408E-007  -5.0753600301214165E-008   6.2661363401189414E-008
   1.2501248956144791E-007   0.0000000000000000        2.3157979821070174E-008
   1.3185209129070017E-007  -1.9904447308309565E-008   3.4573487135367771E-008
   1.3683263311473242E-007  -3.3812993910047415E-008   4.5928359869884902E-008
   1.3994156138828736E-007  -4.1760270489587285E-008   5.6775451289333854E-008
   1.4113948989276503E-007  -4.3696857054970911E-008   6.6651927674846945E-008
   1.0261841764924914E-007   0.0000000000000000        1.7952624063508838E-008
   1.0955323367878227E-007  -1.6303689244863711E-008   3.2394175201039788E-008
   1.1455493114137260E-007  -2.7843817209243541E-008   4.6213999227591224E-008
   1.1759408412893709E-007  -3.4646493976683231E-008   5.9034554096268592E-008
   1.1861731497633786E-007  -3.6681561463320934E-008   7.0460318096951867E-008
   8.0714971508440863E-008   0.0000000000000000        1.3803918874021051E-008
   8.7578963305956736E-008  -1.2704233279273037E-008   3.0959429591267670E-008
   9.2453803580771477E-008  -2.1883295557343526E-008   4.6936008649267245E-008
   9.5291860138724990E-008  -2.7556019066922999E-008   6.1419926706278928E-008
   9.6025056335117712E-008  -2.9707349432432552E-008   7.4078852891979206E-008
   1.8598854055866284E-007  -5.7852159610896363E-008   5.8496398091124742E-008
   1.8315019238350624E-007  -5.5548046003133324E-008   4.8506913112574822E-008
   1.7895834548949252E-007  -5.3681696459905386E-008   4.3293748619000166E-008
   1.7350480877722998E-007  -5.2258458465610925E-008   4.2265223454038396E-008
   1.6686327287460346E-007  -5.1293088554845712E-008   4.4866480564558147E-008
   1.6359530804385408E-007  -5.0753600301214165E-008   6.2661363401189414E-008
   1.6229753376267849E-007  -4.9085155207167158E-008   5.2564797975747206E-008
   1.5953625390631382E-007  -4.7726581248573786E-008   4.7221256024364425E-008
   1.5541491561985540E-007  -4.6680859915163233E-008   4.6114026676228820E-008
   1.5002028500938149E-007  -4.5956697960167543E-008   4.8764642907196346E-008
   1.4113948989276503E-007  -4.3696857054970911E-008   6.6651927674846945E-008
   1.4133797989456745E-007  -4.2682391884032604E-008   5.6471646199575326E-008
   1.3997593379860159E-007  -4.1852311296542370E-008   5.1017525699960378E-008
   1.3716791982248350E-007  -4.1207975985058954E-008   4.9847182202671785E-008
   1.3301362573487360E-007  -4.0753627049488872E-008   5.2556110873302575E-008
   1.1861731497633786E-007  -3.6681561463320934E-008   7.0460318096951867E-008
   1.2026680489815525E-007  -3.6338920825434685E-008   6.0218691996272631E-008
   1.2027172419056720E-007  -3.6057251398732456E-008   5.4673095367495848E-008
   1.1875711751003489E-007  -3.5836885208775667E-008   5.3454850830930748E-008
   1.1583521969203148E-007  -3.5678941349677630E-008   5.6231129278638232E-008
   9.6025056335117712E-008  -2.9707349432432552E-008   7.4078852891979206E-008
   9.9079370016289491E-008  -3.0053922220540639E-008   6.3797331179521878E-008
   1.0041811575190023E-007  -3.0339810153725222E-008   5.8178756222950456E-008
   1.0017605188769948E-007  -3.0564773794340973E-008   5.6927555995514579E-008
   9.8477385182260456E-008  -3.0727946935038742E-008   5.9780418488127569E-008
   1.6686327287460346E-007  -5.1293088554845712E-008   4.4866480564558147E-008
   1.6837720722690613E-007  -5.0700623498455206E-008   4.0308855488189792E-008
   1.6882919553008402E-007  -5.0394369710228216E-008   3.8667448771799450E-008
   1.6825064735862028E-007  -5.0401365371416764E-008   3.9450252341090652E-008
   1.6665374224307627E-007  -5.0760205902452157E-008   4.2145215348643205E-008
   1.5002028500938149E-007  -4.5956697960167543E-008   4.8764642907196346E-008
   1.5271382088786675E-007  -4.5560384048454793E-008   4.4275197607145849E-008
   1.5424784923030691E-007  -4.5504933179042414E-008   4.2537932769069691E-008
   1.5465753931150301E-007  -4.5820962079831709E-008   4.3111722789901740E-008
   1.5396028442431597E-007  -4.6550585367681234E-008   4.5542861665648860E-008
   1.3301362573487360E-007  -4.0753627049488872E-008   5.2556110873302575E-008
   1.3679843253993714E-007  -4.0586219755381882E-008   4.8093262674153950E-008
   1.3933463844618094E-007  -4.0815396262943133E-008   4.6217032458421034E-008
   1.4066112656404546E-007  -4.1473584157691069E-008   4.6538066750919937E-008
   1.4080086109575129E-007  -4.2604016744731042E-008   4.8660339255977512E-008
   1.1583521969203148E-007  -3.5678941349677630E-008   5.6231129278638232E-008
   1.2062151320329210E-007  -3.5770210029076791E-008   5.1754213383195707E-008
   1.2407899226157254E-007  -3.6313745503742794E-008   4.9697966452505774E-008
   1.2625022837552281E-007  -3.7341890176146890E-008   4.9725929091321976E-008
   1.2716404391743905E-007  -3.8896590574958106E-008   5.1499463112693143E-008
   9.8477385182260456E-008  -3.0727946935038742E-008   5.9780418488127569E-008
   1.0417413036738398E-007  -3.1104930071039803E-008   5.5249765602004887E-008
   1.0847117017201906E-007  -3.1988911175635859E-008   5.2974486084424380E-008
   1.1141474655838469E-007  -3.3410217756004830E-008   5.2672279532406215E-008
   1.1303974882255517E-007  -3.5407209780412864E-008   5.4061834737979022E-008
   1.6665374224307627E-007  -5.0760205902452157E-008   4.2145215348643205E-008
   1.6470842784444146E-007  -5.0735651277327735E-008   3.3821869956833323E-008
   1.6205194656376119E-007  -4.9429164099219558E-008   2.9123400397072671E-008
   1.5875214412363066E-007  -4.6581882975289546E-008   2.7930040994748372E-008
   1.5487656372446865E-007  -4.1816363128303815E-008   3.0193571611038363E-008
   1.5396028442431597E-007  -4.6550585367681234E-008   4.5542861665648860E-008
   1.5337457131966024E-007  -4.6903373062302009E-008   3.7538802722106386E-008
   1.5210728303702013E-007  -4.5942368285210406E-008   3.3792052543353443E-008
   1.5026978875730220E-007  -4.3451720868905483E-008   3.4320461389725057E-008
   1.4798497917169277E-007  -3.9128556792705958E-008   3.9250940628714976E-008
   1.4080086109575129E-007  -4.2604016744731042E-008   4.8660339255977512E-008
   1.4163250517894636E-007  -4.3362303097208918E-008   4.0941048686573022E-008
   1.4181980469116900E-007  -4.2775343871411784E-008   3.8042069554791151E-008
   1.4151184554981348E-007  -4.0666135285310159E-008   4.0066623832249489E-008
   1.4087550431603625E-007  -3.6794660899874162E-008   4.7234794980587550E-008
   1.2716404391743905E-007  -3.8896590574958106E-008   5.1499463112693143E-008
   1.2946978077343341E-007  -4.0080463722483010E-008   4.4039949836350607E-008
   1.3117390489066663E-007  -3.9886030529280707E-008   4.1906211494642931E-008
   1.3245737570740448E-007  -3.8171196732680701E-008   4.5248495121504856E-008
   1.3352110220746729E-007  -3.4749092713337325E-008   5.4325239308525106E-008
   1.1303974882255517E-007  -3.5407209780412864E-008   5.4061834737979022E-008
   1.1687570774752496E-007  -3.7030393921636067E-008   4.6845246173437129E-008
   1.2015659907672428E-007  -3.7239434502005980E-008   4.5411734395520577E-008
   1.2308959327629363E-007  -3.5923671681550472E-008   4.9930182054216061E-008
   1.2590102751325522E-007  -3.2941530888124865E-008   6.0660467111310256E-008
   8.0714971508440863E-008   0.0000000000000000        1.3803918874021051E-008
   8.7578963305956736E-008  -1.2704233279273037E-008   3.0959429591267670E-008
   9.2453803580771477E-008  -2.1883295557343526E-008   4.6936008649267245E-008
   9.5291860138724990E-008  -2.7556019066922999E-008   6.1419926706278928E-008
   9.6025056335117712E-008  -2.9707349432432552E-008   7.4078852891979206E-008
   5.9136750576395500E-008   0.0000000000000000        1.0639906658970170E-008
   6.5800573383915600E-008  -9.5476071301827545E-009   2.9101802406796746E-008
   7.0419775773570331E-008  -1.6546633188944203E-008   4.6224789161990016E-008
   7.2941514392148107E-008  -2.1008962028507136E-008   6.1763089118938263E-008
   7.3296651833722634E-008  -2.2927530830148726E-008   7.5456550985180071E-008
   3.7718354290485470E-008   0.0000000000000000        8.3886298247195557E-009
   4.4114963477452137E-008  -6.3921220603510820E-009   2.7910250351132535E-008
   4.8427667632802498E-008  -1.1217697547511507E-008   4.5935994260380754E-008
   5.0598584086373612E-008  -1.4483280253523902E-008   6.2284977600129633E-008
   5.0558045737618313E-008  -1.6187185601316578E-008   7.6766130667128135E-008
   1.6459782650710787E-008   0.0000000000000000        7.0500883712692052E-009
   2.2521996641373268E-008  -3.2377774511619000E-009   2.7383917499809283E-008
   2.6477041329881815E-008  -5.8964718643845528E-009   4.6066726359902906E-008
   2.8262251531533760E-008  -7.9788692315254971E-009   6.2980255648392562E-008
   2.7807935139555384E-008  -9.4859700145125216E-009   7.8000237071296096E-008
  -4.6389643429285657E-009   0.0000000000000000        6.6242822986191205E-009
   1.0215360294579697E-009  -8.4572684446153897E-011   2.7521948546948844E-008
   4.5674603022160350E-009  -5.8293941938967756E-010   4.6614096254469133E-008
   5.9317043596810264E-009  -1.4956251322688536E-009   6.3843621494793397E-008
   5.0450322160040591E-009  -2.8235443176822384E-009   7.9151600478235051E-008
   9.6025056335117712E-008  -2.9707349432432552E-008   7.4078852891979206E-008
   9.9079370016289491E-008  -3.0053922220540639E-008   6.3797331179521878E-008
   1.0041811575190023E-007  -3.0339810153725222E-008   5.8178756222950456E-008
   1.0017605188769948E-007  -3.0564773794340973E-008   5.6927555995514579E-008
   9.8477385182260456E-008  -3.0727946935038742E-008   5.9780418488127569E-008
   7.3296651833722634E-008  -2.2927530830148726E-008   7.5456550985180071E-008
   7.7694440348903302E-008  -2.3536782391182788E-008   6.5421517958926049E-008
   8.0322063872394172E-008  -2.4086249186958169E-008   5.9977037179723567E-008
   8.1321773932087141E-008  -2.4576777920503563E-008   5.8895734820518045E-008
   8.0827616643793252E-008  -2.5008784831407909E-008   6.1976999445763075E-008
   5.0558045737618313E-008  -1.6187185601316578E-008   7.6766130667128135E-008
   5.6241769131133999E-008  -1.7079167166536134E-008   6.6971821773449274E-008
   6.0114169984639229E-008  -1.7915340960891104E-008   6.1693303015323973E-008
   6.2323955898665050E-008  -1.8697133127251071E-008   6.0770614017417576E-008
   6.3014040626775553E-008  -1.9425705684584039E-008   6.4063957523967527E-008
   2.7807935139555384E-008  -9.4859700145125216E-009   7.8000237071296096E-008
   3.4719492445918913E-008  -1.0680264747716215E-008   6.8439474597320812E-008
   3.9792025465024603E-008  -1.1825457612661864E-008   6.3317624413800553E-008
   4.3179589733703749E-008  -1.2922924910213370E-008   6.2541445985363556E-008
   4.5032865933570813E-008  -1.3973909619064701E-008   6.6030243677110539E-008
   5.0450322160040591E-009  -2.8235443176822384E-009   7.9151600478235051E-008
   1.3125780116377154E-008  -4.3392780308280413E-009   6.9815867121479575E-008
   1.9353284528521685E-008  -5.8150137487229230E-009   6.4840331105128502E-008
   2.3885774308448663E-008  -7.2513423646670081E-009   6.4197865160217675E-008
   2.6880477590553366E-008  -8.6488198691376141E-009   6.7865322445856236E-008
   9.8477385182260456E-008  -3.0727946935038742E-008   5.9780418488127569E-008
   1.0417413036738398E-007  -3.1104930071039803E-008   5.5249765602004887E-008
   1.0847117017201906E-007  -3.1988911175635859E-008   5.2974486084424380E-008
   1.1141474655838469E-007  -3.3410217756004830E-008   5.2672279532406215E-008
   1.1303974882255517E-007  -3.5407209780412864E-008   5.4061834737979022E-008
   8.0827616643793252E-008  -2.5008784831407909E-008   6.1976999445763075E-008
   8.7358315799806081E-008  -2.5645807557365631E-008   5.7553240692089614E-008
   9.2444973283862234E-008  -2.6764160821030715E-008   5.5340351542173263E-008
   9.6141964426410391E-008  -2.8386736816210851E-008   5.5120031215833405E-008
   9.8495271542184241E-008  -3.0541794791550334E-008   5.6678368671679033E-008
   6.3014040626775553E-008  -1.9425705684584039E-008   6.4063957523967527E-008
   7.0311435553035133E-008  -2.0352357568358599E-008   5.9730373152132870E-008
   7.6130885700682146E-008  -2.1736872941523711E-008   5.7559817898365703E-008
   8.0534407778559709E-008  -2.3595220439023372E-008   5.7395600639932218E-008
   8.3578374823640044E-008  -2.5946635547689082E-008   5.9086444500091375E-008
   4.5032865933570813E-008  -1.3973909619064701E-008   6.6030243677110539E-008
   5.3028828973157082E-008  -1.5217151128125924E-008   6.1770482773075607E-008
   5.9523450400062840E-008  -1.6896060903160216E-008   5.9623346659567511E-008
   6.4585787484845075E-008  -1.9019964389585693E-008   5.9491713054828938E-008
   6.8281762455789738E-008  -2.1599822977236970E-008   6.1282872467821186E-008
   2.6880477590553366E-008  -8.6488198691376141E-009   6.7865322445856236E-008
   3.5506109955746362E-008  -1.0233196886389121E-008   6.3663518494901663E-008
   4.2617607819882314E-008  -1.2231538279580845E-008   6.1522094065132079E-008
   4.8290369593821308E-008  -1.4646650738339581E-008   6.1401735895660647E-008
   5.2598906128356047E-008  -1.7481753862215194E-008   6.3264798530141814E-008
   1.1303974882255517E-007  -3.5407209780412864E-008   5.4061834737979022E-008
   1.1687570774752496E-007  -3.7030393921636067E-008   4.6845246173437129E-008
   1.2015659907672428E-007  -3.7239434502005980E-008   4.5411734395520577E-008
   1.2308959327629363E-007  -3.5923671681550472E-008   4.9930182054216061E-008
   1.2590102751325522E-007  -3.2941530888124865E-008   6.0660467111310256E-008
   9.8495271542184241E-008  -3.0541794791550334E-008   5.6678368671679033E-008
   1.0383161938459501E-007  -3.2404712467691405E-008   4.9835166918683533E-008
   1.0850935236430278E-007  -3.3092509867759403E-008   4.8199440750083834E-008
   1.1271283925560227E-007  -3.2539564289744036E-008   5.1865774910429615E-008
   1.1663747519798317E-007  -3.0663860075594472E-008   6.0983463197408410E-008
   8.3578374823640044E-008  -2.5946635547689082E-008   5.9086444500091375E-008
   9.0260297119756186E-008  -2.8084156665221996E-008   5.2537212009067928E-008
   9.6186090198342778E-008  -2.9266951951267764E-008   5.0655918976953369E-008
   1.0152023094425289E-007  -2.9460769214783690E-008   5.3490182632128548E-008
   1.0643280221989175E-007  -2.8623580305495579E-008   6.1118280320074019E-008
   6.8281762455789738E-008  -2.1599822977236970E-008   6.1282872467821186E-008
   7.6154169965419367E-008  -2.4039499775990896E-008   5.4953670667426411E-008
   8.3180818568850079E-008  -2.5726797672519498E-008   5.2787143837755260E-008
   8.9509102612021681E-008  -2.6647752172217927E-008   5.4806167779242437E-008
   9.5288669060607792E-008  -2.6785416603654056E-008   6.1048248694349043E-008
   5.2598906128356047E-008  -1.7481753862215194E-008   6.3264798530141814E-008
   6.1506603941861077E-008  -2.0245132249524110E-008   5.7086548795594081E-008
   6.9488405663555003E-008  -2.2441256996889630E-008   5.4598230665140521E-008
   7.6677229725585525E-008  -2.4067522076761581E-008   5.5816035688805257E-008
   8.3206422743492811E-008  -2.5120753047137577E-008   6.0759845382444947E-008
  -4.6389643429285657E-009   0.0000000000000000        6.6242822986191205E-009
   1.0215360294579697E-009  -8.4572684446153897E-011   2.7521948546948844E-008
   4.5674603022160350E-009  -5.8293941938967756E-010   4.6614096254469133E-008
   5.9317043596810264E-009  -1.4956251322688536E-009   6.3843621494793397E-008
   5.0450322160040591E-009  -2.8235443176822384E-009   7.9151600478235051E-008
  -2.5699454116013527E-008   0.0000000000000000        7.0994263872626385E-009
  -2.0490234255118378E-008   3.0150794126093598E-009   2.7462489908638506E-008
  -1.7401677602565387E-008   4.7016816378987364E-009   4.6099810038320831E-008
  -1.6495927079549504E-008   5.0600306340846622E-009   6.3028514600145672E-008
  -1.7831813233935558E-008   4.0922918135039351E-009   7.8268196006354500E-008
  -4.6843254094125054E-008   0.0000000000000000        8.4637354176930944E-009
  -4.2096024845682171E-008   6.1134908378503249E-009   2.8063319956505276E-008
  -3.9458009824891342E-008   9.9778499404042940E-009   4.6016699586058239E-008
  -3.8985888916559675E-008   1.1592131311411515E-008   6.2415981859472888E-008
  -4.0727718297196083E-008   1.0964050643061217E-008   7.7358780992440123E-008
  -6.8070364277263130E-008   0.0000000000000000        1.0717209389910489E-008
  -6.3795729295636449E-008   9.2106623360176992E-009   2.9323508596427278E-008
  -6.1601127608524398E-008   1.5245585752200849E-008   4.6361599600415873E-008
  -6.1537397608403028E-008   1.8100803625525015E-008   6.2000149742650732E-008
  -6.3641707418834040E-008   1.7792152215004504E-008   7.6415129823168209E-008
  -8.9380784665427782E-008   0.0000000000000000        1.3859848303914822E-008
  -8.5589241243563014E-008   1.2306594651256472E-008   3.1242126478546699E-008
  -8.3830623502750583E-008   2.0504909272641034E-008   4.7131354893747986E-008
  -8.4149675222661160E-008   2.4586173394823459E-008   6.1775186776733748E-008
  -8.6572817400332363E-008   2.4577011253050904E-008   7.5429121071234791E-008
   5.0450322160040591E-009  -2.8235443176822384E-009   7.9151600478235051E-008
   1.3125780116377154E-008  -4.3392780308280413E-009   6.9815867121479575E-008
   1.9353284528521685E-008  -5.8150137487229230E-009   6.4840331105128502E-008
   2.3885774308448663E-008  -7.2513423646670081E-009   6.4197865160217675E-008
   2.6880477590553366E-008  -8.6488198691376141E-009   6.7865322445856236E-008
  -1.7831813233935558E-008   4.0922918135039351E-009   7.8268196006354500E-008
  -8.6663892271918699E-009   2.4397381866688772E-009   6.9161217430503185E-008
  -1.3535655365817740E-009   7.4214750902833021E-010   6.4339700294267322E-008
   4.2685746933651762E-009  -9.9906391475283350E-010   6.3846474850815664E-008
   8.3634643298037552E-009  -2.7824246120912938E-009   6.7717831218571684E-008
  -4.0727718297196083E-008   1.0964050643061217E-008   7.7358780992440123E-008
  -3.0539444089422005E-008   9.1514403656774310E-009   6.8456789778340432E-008
  -2.2187836420730225E-008   7.2058773846075170E-009   6.3765441351658090E-008
  -1.5508716806697757E-008   5.1324570877650088E-009   6.3396828579199482E-008
  -1.0334057955584620E-008   2.9366820928791542E-009   6.7444966418821001E-008
  -6.3641707418834040E-008   1.7792152215004504E-008   7.6415129823168209E-008
  -5.2492402825847886E-008   1.5796826171788383E-008   6.7692579211951841E-008
  -4.3148520932145707E-008   1.3578158673100570E-008   6.3106059600067295E-008
  -3.5445139451777766E-008   1.1146685672119849E-008   6.2836336582230472E-008
  -2.9211385833872957E-008   8.5139784713289612E-009   6.7033600557922174E-008
  -8.6572817400332363E-008   2.4577011253050904E-008   7.5429121071234791E-008
  -7.4524303095324519E-008   2.2376873652227547E-008   6.6858777518382617E-008
  -6.4234640178278661E-008   1.9860918458682852E-008   6.2350383330042324E-008
  -5.5539768910464702E-008   1.7046955555534469E-008   6.2152886203028422E-008
  -4.8267850330552197E-008   1.3954674400842676E-008   6.6471249190246952E-008
   2.6880477590553366E-008  -8.6488198691376141E-009   6.7865322445856236E-008
   3.5506109955746362E-008  -1.0233196886389121E-008   6.3663518494901663E-008
   4.2617607819882314E-008  -1.2231538279580845E-008   6.1522094065132079E-008
   4.8290369593821308E-008  -1.4646650738339581E-008   6.1401735895660647E-008
   5.2598906128356047E-008  -1.7481753862215194E-008   6.3264798530141814E-008
   8.3634643298037552E-009  -2.7824246120912938E-009   6.7717831218571684E-008
   1.7553689236356758E-008  -4.6901204658339579E-009   6.3716869500308443E-008
   2.5247900695092230E-008  -6.8035230898448404E-009   6.1882984096343599E-008
   3.1532621528812976E-008  -9.1196966364581683E-009   6.2244505386787077E-008
   3.6495573224150406E-008  -1.1635441536408121E-008   6.4826331492783768E-008
  -1.0334057955584620E-008   2.9366820928791542E-009   6.7444966418821001E-008
  -6.1952370478927182E-010   6.7775817039369730E-010   6.3682837374853299E-008
   7.6283030672330213E-009  -1.5860553199572853E-009   6.2186603232564161E-008
   1.4505293433018230E-008  -3.8504589191091994E-009   6.3046016466116897E-008
   2.0110022582481423E-008  -6.1112569167723427E-009   6.6339912507599153E-008
  -2.9211385833872957E-008   8.5139784713289612E-009   6.7033600557922174E-008
  -1.9013341277692270E-008   5.8786159092371169E-009   6.3548195529105232E-008
  -1.0241814253597707E-008   3.4328823538136862E-009   6.2419968373677904E-008
  -2.7934908730981057E-009   1.1786773197745994E-009   6.3794438645526412E-008
   3.4386421028793581E-009  -8.8329029098283161E-010   6.7796876357748344E-008
  -4.8267850330552197E-008   1.3954674400842676E-008   6.6471249190246952E-008
  -3.7627587387203233E-008   1.0920128587000803E-008   6.3300527852136741E-008
  -2.8363033468621026E-008   8.2644097865789899E-009   6.2571066013566966E-008
  -2.0365440395432519E-008   5.9837574414016615E-009   6.4478995571482726E-008
  -1.3521803053570286E-008   4.0716619440763468E-009   6.9189462854701461E-008
   5.2598906128356047E-008  -1.7481753862215194E-008   6.3264798530141814E-008
   6.1506603941861077E-008  -2.0245132249524110E-008   5.7086548795594081E-008
   6.9488405663555003E-008  -2.2441256996889630E-008   5.4598230665140521E-008
   7.6677229725585525E-008  -2.4067522076761581E-008   5.5816035688805257E-008
   8.3206422743492811E-008  -2.5120753047137577E-008   6.0759845382444947E-008
   3.6495573224150406E-008  -1.1635441536408121E-008   6.4826331492783768E-008
   4.6286147691243973E-008  -1.4263648709937774E-008   5.9189506556233193E-008
   5.5021747987846864E-008  -1.6918045143619701E-008   5.6327989614694390E-008
   6.2809119296073470E-008  -1.9596486640154628E-008   5.6256892258626321E-008
   6.9754938531876199E-008  -2.2296823274180116E-008   5.8987162071251779E-008
   2.0110022582481423E-008  -6.1112569167723427E-009   6.6339912507599153E-008
   3.0513671201309882E-008  -8.6660033900267403E-009   6.1042243369121877E-008
   3.9751141186453536E-008  -1.1802524535280284E-008   5.7663809033145989E-008
   4.7908370711420048E-008  -1.5501005967058144E-008   5.6246151849692927E-008
   5.5072291632354156E-008  -1.9740286389655295E-008   5.6822424226898481E-008
   3.4386421028793581E-009  -8.8329029098283161E-010   6.7796876357748344E-008
   1.4184767203141392E-008  -3.4163979333756939E-009   6.2640839655657311E-008
   2.3673531517043446E-008  -7.0511617818439977E-009   5.8604048504739140E-008
   3.1974732707611702E-008  -1.1735668902562919E-008   5.5776661910468871E-008
   3.9161133121653236E-008  -1.7414880733940723E-008   5.4237497656517834E-008
  -1.3521803053570286E-008   4.0716619440763468E-009   6.9189462854701461E-008
  -2.7044400426451834E-009   1.5166486298373345E-009   6.3981848549888656E-008
   6.7862850667757847E-009  -2.6264084779282398E-009   5.9147293138608707E-008
   1.5007992960752873E-008  -8.2621019717927152E-009   5.4842378369689731E-008
   2.2023655451411259E-008  -1.5290617761527342E-008   5.1209115263903450E-008
  -8.9380784665427782E-008   0.0000000000000000        1.3859848303914822E-008
  -8.5589241243563014E-008   1.2306594651256472E-008   3.1242126478546699E-008
  -8.3830623502750583E-008   2.0504909272641034E-008   4.7131354893747986E-008
  -8.4149675222661160E-008   2.4586173394823459E-008   6.1775186776733748E-008
  -8.6572817400332363E-008   2.4577011253050904E-008   7.5429121071234791E-008
  -1.1094874104642991E-007   0.0000000000000000        1.7961302574518991E-008
  -1.0761427332940600E-007   1.5858413426239914E-008   3.2674153543614507E-008
  -1.0626511837701510E-007   2.6468988511290339E-008   4.6373387705727717E-008
  -1.0692631705978433E-007   3.1816685041650630E-008   5.9383250444600556E-008
  -1.0960060673355041E-007   3.1944115866833591E-008   7.2030792288459828E-008
  -1.3294845920808037E-007   0.0000000000000000        2.3091222616535886E-008
  -1.2998073151456088E-007   1.9408811681594268E-008   3.4852233869592000E-008
  -1.2893071508686178E-007   3.2423558621073784E-008   4.6075321772936034E-008
  -1.2980490692422467E-007   3.9021402143133704E-008   5.7166480011834994E-008
  -1.3258421536621756E-007   3.9264858041757569E-008   6.8526282418870344E-008
  -1.5537993915037918E-007   0.0000000000000000        2.9249608429965512E-008
  -1.5268815204691627E-007   2.2957790269336246E-008   3.7775303113685744E-008
  -1.5182582959030977E-007   3.8368642325910759E-008   4.6233600351881025E-008
  -1.5278259392036210E-007   4.6200462484929279E-008   5.5118446088894276E-008
  -1.5551999610432787E-007   4.6539674055076147E-008   6.4906912630226671E-008
  -1.7824318087332637E-007   0.0000000000000000        3.6436460014807867E-008
  -1.7573607154515999E-007   2.6505350040801293E-008   4.1442297784111727E-008
  -1.7494888288853103E-007   4.4304262277373725E-008   4.6844678022761063E-008
  -1.7585654742116893E-007   5.3354002873099496E-008   5.3232764996318191E-008
  -1.7840434737161617E-007   5.3768994727249831E-008   6.1164112641881621E-008
  -8.6572817400332363E-008   2.4577011253050904E-008   7.5429121071234791E-008
  -7.4524303095324519E-008   2.2376873652227547E-008   6.6858777518382617E-008
  -6.4234640178278661E-008   1.9860918458682852E-008   6.2350383330042324E-008
  -5.5539768910464702E-008   1.7046955555534469E-008   6.2152886203028422E-008
  -4.8267850330552197E-008   1.3954674400842676E-008   6.6471249190246952E-008
  -1.0960060673355041E-007   3.1944115866833591E-008   7.2030792288459828E-008
  -9.6741138668432216E-008   2.9347544644922170E-008   6.3772089825641172E-008
  -8.5579763316786977E-008   2.6481083817759962E-008   5.9432753595838647E-008
  -7.5957348929041673E-008   2.3367782273494688E-008   5.9335553429083891E-008
  -6.7705327342623667E-008   2.0032305966671373E-008   6.3745400400570524E-008
  -1.3258421536621756E-007   3.9264858041757569E-008   6.8526282418870344E-008
  -1.1899317966371020E-007   3.6250346364119044E-008   6.0591103226857055E-008
  -1.0702380110313983E-007   3.3009533726583197E-008   5.6434593340319086E-008
  -9.6523350009498279E-008   2.9571068001253628E-008   5.6453074116127893E-008
  -8.7328309061108883E-008   2.5964641384279051E-008   6.0970443614836508E-008
  -1.5551999610432787E-007   4.6539674055076147E-008   6.4906912630226671E-008
  -1.4127644626377985E-007   4.3086265211878338E-008   5.7305622654541053E-008
  -1.2856244469052334E-007   3.9448161005739726E-008   5.3344343076958487E-008
  -1.1723317562494615E-007   3.5660061192573873E-008   5.3492605900409765E-008
  -1.0713203191665420E-007   3.1756829436791623E-008   5.8132288704646080E-008
  -1.7840434737161617E-007   5.3768994727249831E-008   6.1164112641881621E-008
  -1.6358703540220945E-007   4.9856268567455409E-008   5.3905649653512882E-008
  -1.5019150298982419E-007   4.5798806746383043E-008   5.0150759231731323E-008
  -1.3808239707995585E-007   4.1637891691503570E-008   5.0441775327137896E-008
  -1.2711195478448840E-007   3.7413778474410933E-008   5.5217503508872813E-008
  -4.8267850330552197E-008   1.3954674400842676E-008   6.6471249190246952E-008
  -3.7627587387203233E-008   1.0920128587000803E-008   6.3300527852136741E-008
  -2.8363033468621026E-008   8.2644097865789899E-009   6.2571066013566966E-008
  -2.0365440395432519E-008   5.9837574414016615E-009   6.4478995571482726E-008
  -1.3521803053570286E-008   4.0716619440763468E-009   6.9189462854701461E-008
  -6.7705327342623667E-008   2.0032305966671373E-008   6.3745400400570524E-008
  -5.6692946348559106E-008   1.6837824517904880E-008   6.0882674984407039E-008
  -4.6994240414005830E-008   1.4126440600695158E-008   6.0556744618019725E-008
  -3.8496494240901254E-008   1.1888799843805805E-008   6.3006533060295461E-008
  -3.1082598345298254E-008   1.0111526552491857E-008   6.8428260732886019E-008
  -8.7328309061108883E-008   2.5964641384279051E-008   6.0970443614836508E-008
  -7.5977026921523851E-008   2.2579602548915142E-008   5.8444710642364997E-008
  -6.5866868077870281E-008   1.9777458892090851E-008   5.8545734408583503E-008
  -5.6883380696573534E-008   1.7541983798389559E-008   6.1550793733294154E-008
  -4.8907894301244968E-008   1.5851631908655137E-008   6.7682035171564940E-008
  -1.0713203191665420E-007   3.1756829436791623E-008   5.8132288704646080E-008
  -9.5475117267005392E-008   2.8153192172015764E-008   5.5971303595997031E-008
  -8.4976587652259327E-008   2.5228656786808981E-008   5.6521582187241802E-008
  -7.5522561258073485E-008   2.2959086036083747E-008   6.0094691140206413E-008
  -6.6995351202768320E-008   2.1313753292585752E-008   6.6934176702136287E-008
  -1.2711195478448840E-007   3.7413778474410933E-008   5.5217503508872813E-008
  -1.1518277760018342E-007   3.3565876590326296E-008   5.3448007816709024E-008
  -1.0431937114468575E-007   3.0490448652982398E-008   5.4468978113806112E-008
  -9.4410786918043652E-008   2.8154592540069860E-008   5.8622536731077610E-008
  -8.5342850591138693E-008   2.6517606763820642E-008   6.6169646561769300E-008
  -1.3521803053570286E-008   4.0716619440763468E-009   6.9189462854701461E-008
  -2.7044400426451834E-009   1.5166486298373345E-009   6.3981848549888656E-008
   6.7862850667757847E-009  -2.6264084779282398E-009   5.9147293138608707E-008
   1.5007992960752873E-008  -8.2621019717927152E-009   5.4842378369689731E-008
   2.2023655451411259E-008  -1.5290617761527342E-008   5.1209115263903450E-008
  -3.1082598345298254E-008   1.0111526552491857E-008   6.8428260732886019E-008
  -2.0255999249404546E-008   7.6730978658949679E-009   6.3617314913341579E-008
  -1.0627747277474219E-008   3.5423318504601245E-009   5.9582333117965988E-008
  -2.1263817763044965E-009  -2.1570788593071718E-009   5.6496630824448217E-008
   5.3236778335613199E-009  -9.2977314399510157E-009   5.4510529530041497E-008
  -4.8907894301244968E-008   1.5851631908655137E-008   6.7682035171564940E-008
  -3.8037547521475990E-008   1.3479417527062587E-008   6.3166749451643197E-008
  -2.8239609285679925E-008   9.3143057527325785E-009   5.9796032954322268E-008
  -1.9433643464097629E-008   3.5088965960940121E-009   5.7749696810175387E-008
  -1.1536688861887846E-008  -3.7819486896076624E-009   5.7176123052012963E-008
  -6.6995351202768320E-008   2.1313753292585752E-008   6.6934176702136287E-008
  -5.6048457515447782E-008   1.8964650600236808E-008   6.2616717825707387E-008
  -4.6050809592375491E-008   1.4726599896644075E-008   5.9783151871506937E-008
  -3.6917306850842634E-008   8.7815421779090980E-009   5.8611810529433597E-008
  -2.8562019943974390E-008   1.3115238968434300E-009   5.9241568068270210E-008
  -8.5342850591138693E-008   2.6517606763820642E-008   6.6169646561769300E-008
  -7.4288169404644064E-008   2.4154714371711901E-008   6.1955231543666210E-008
  -6.4062674492618710E-008   1.9811818510081064E-008   5.9539082514079669E-008
  -5.4580415069451222E-008   1.3700441174324961E-008   5.9091832940875367E-008
  -4.5756215945942747E-008   6.0293986846530735E-009   6.0737275803682557E-008
  -1.7824318087332637E-007   0.0000000000000000        3.6436460014807867E-008
  -1.7573607154515999E-007   2.6505350040801293E-008   4.1442297784111727E-008
  -1.7494888288853103E-007   4.4304262277373725E-008   4.6844678022761063E-008
  -1.7585654742116893E-007   5.3354002873099496E-008   5.3232764996318191E-008
  -1.7840434737161617E-007   5.3768994727249831E-008   6.1164112641881621E-008
  -2.0183995200342037E-007   0.0000000000000000        4.4828789222215520E-008
  -1.9934275162397334E-007   3.1170472249531789E-008   4.3954590881102486E-008
  -1.9845425027937742E-007   5.1870579904886207E-008   4.4757691550829046E-008
  -1.9911663543292780E-007   6.2049459266239197E-008   4.7915393727403631E-008
  -2.0124242911988588E-007   6.1869388128244760E-008   5.4039427905768097E-008
  -2.2647202016715953E-007   0.0000000000000000        5.4603607903341045E-008
  -2.2368866719597528E-007   3.5833730173628680E-008   4.7413875069657879E-008
  -2.2237578145770725E-007   5.9424872140968434E-008   4.3174356448990005E-008
  -2.2245042879351092E-007   7.0714114747347331E-008   4.2662979909653411E-008
  -2.2380107568386233E-007   6.9919438020153686E-008   4.6550945294714377E-008
  -2.5213938536454395E-007   0.0000000000000000        6.5760916058184442E-008
  -2.4877275476078425E-007   4.0495124930381882E-008   5.1818754261832300E-008
  -2.4671001889120717E-007   6.6967167631367298E-008   4.2090179731405144E-008
  -2.4585204548371791E-007   7.9348132680866357E-008   3.7467846453515898E-008
  -2.4607326243132258E-007   7.7919612272384681E-008   3.8689197557745656E-008
  -2.7884204759557352E-007   0.0000000000000000        7.8300713686745712E-008
  -2.7459395166767521E-007   4.5154657636188781E-008   5.7167833485048827E-008
  -2.7145351602045829E-007   7.4497494930919068E-008   4.1500682671266312E-008
  -2.6931564500766132E-007   8.7951675277989865E-008   3.2322370464806149E-008
  -2.6805205150615713E-007   8.5870372974700056E-008   3.0444834393959496E-008
  -1.7840434737161617E-007   5.3768994727249831E-008   6.1164112641881621E-008
  -1.6358703540220945E-007   4.9856268567455409E-008   5.3905649653512882E-008
  -1.5019150298982419E-007   4.5798806746383043E-008   5.0150759231731323E-008
  -1.3808239707995585E-007   4.1637891691503570E-008   5.0441775327137896E-008
  -1.2711195478448840E-007   3.7413778474410933E-008   5.5217503508872813E-008
  -2.0124242911988588E-007   6.1869388128244760E-008   5.4039427905768097E-008
  -1.8596357307591895E-007   5.6775070845764793E-008   4.7834424229624279E-008
  -1.7198596041874633E-007   5.2024153671317420E-008   4.4730803935510560E-008
  -1.5919174193627449E-007   4.7643931771956236E-008   4.5364342544869823E-008
  -1.4744980488614341E-007   4.3652760886364873E-008   5.0253822960450775E-008
  -2.2380107568386233E-007   6.9919438020153686E-008   4.6550945294714377E-008
  -2.0820944045432535E-007   6.3627795580768435E-008   4.1528210505187801E-008
  -1.9378220740679524E-007   5.8165580199682576E-008   3.9205378888883489E-008
  -1.8041913397276324E-007   5.3542289465309390E-008   4.0310924261766981E-008
  -1.6800634566595409E-007   4.9749395897711572E-008   4.5442954451297682E-008
  -2.4607326243132258E-007   7.7919612272384681E-008   3.8689197557745656E-008
  -2.3031758113286956E-007   7.0415384877233433E-008   3.4976943402084351E-008
  -2.1557312878463524E-007   6.4224771895825603E-008   3.3563616041350652E-008
  -2.0175723228114622E-007   5.9335835000195433E-008   3.5269250960851342E-008
  -1.8877380359659161E-007   5.5708500215542699E-008   4.0770299894018864E-008
  -2.6805205150615713E-007   8.5870372974700056E-008   3.0444834393959496E-008
  -2.5228107221533886E-007   7.7138763015148761E-008   2.8170748275144747E-008
  -2.3735179866254181E-007   7.0203369484265569E-008   2.7794936457159575E-008
  -2.2319895454732845E-007   6.5027337497263207E-008   3.0227485336744144E-008
  -2.0974475195662556E-007   6.1534675655772445E-008   3.6221912476064906E-008
  -1.2711195478448840E-007   3.7413778474410933E-008   5.5217503508872813E-008
  -1.1518277760018342E-007   3.3565876590326296E-008   5.3448007816709024E-008
  -1.0431937114468575E-007   3.0490448652982398E-008   5.4468978113806112E-008
  -9.4410786918043652E-008   2.8154592540069860E-008   5.8622536731077610E-008
  -8.5342850591138693E-008   2.6517606763820642E-008   6.6169646561769300E-008
  -1.4744980488614341E-007   4.3652760886364873E-008   5.0253822960450775E-008
  -1.3534254021897914E-007   4.0111789375747823E-008   4.8593150204293420E-008
  -1.2421312903665031E-007   3.7068469190112130E-008   4.9669355478625824E-008
  -1.1395752759885130E-007   3.4508386984879047E-008   5.3857188214989857E-008
  -1.0446870637769233E-007   3.2410714087053394E-008   6.1438436956321735E-008
  -1.6800634566595409E-007   4.9749395897711572E-008   4.5442954451297682E-008
  -1.5578209783549291E-007   4.6474029236370734E-008   4.3826738407985868E-008
  -1.4443452589810970E-007   4.3425606154742869E-008   4.4901155096727628E-008
  -1.3386829758318230E-007   4.0612483050920191E-008   4.9073772316098627E-008
  -1.2398544496198795E-007   3.8037755510092397E-008   5.6647029587423798E-008
  -1.8877380359659161E-007   5.5708500215542699E-008   4.0770299894018864E-008
  -1.7649318626174658E-007   5.2660219782709447E-008   3.9131395232910329E-008
  -1.6497496373352180E-007   4.9572801423401379E-008   4.0144417085605301E-008
  -1.5413442972394627E-007   4.6481316463601989E-008   4.4249902594205065E-008
  -1.4388467275791846E-007   4.3416352029140477E-008   5.1770705110693504E-008
  -2.0974475195662556E-007   6.1534675655772445E-008   3.6221912476064906E-008
  -1.9746799242447873E-007   5.8677568477568146E-008   3.4490692047844347E-008
  -1.8582640321266519E-007   5.5520285910748789E-008   3.5380478480635932E-008
  -1.7474791233704282E-007   5.2128231229961888E-008   3.9364885609455838E-008
  -1.6415872135691626E-007   4.8562602245738997E-008   4.6786879849758665E-008
  -8.5342850591138693E-008   2.6517606763820642E-008   6.6169646561769300E-008
  -7.4288169404644064E-008   2.4154714371711901E-008   6.1955231543666210E-008
  -6.4062674492618710E-008   1.9811818510081064E-008   5.9539082514079669E-008
  -5.4580415069451222E-008   1.3700441174324961E-008   5.9091832940875367E-008
  -4.5756215945942747E-008   6.0293986846530735E-009   6.0737275803682557E-008
  -1.0446870637769233E-007   3.2410714087053394E-008   6.1438436956321735E-008
  -9.3290346745652627E-008   2.9826303616226560E-008   5.6944222149288175E-008
  -8.2781233494038349E-008   2.5930928432432289E-008   5.5049786666150145E-008
  -7.2852617258361273E-008   2.0885499147605737E-008   5.5879661031652241E-008
  -6.3419305324971934E-008   1.4845877951148255E-008   5.9502598669546005E-008
  -1.2398544496198795E-007   3.8037755510092397E-008   5.6647029587423798E-008
  -1.1250420752676597E-007   3.5208279970796809E-008   5.2079565491519995E-008
  -1.0154648107076853E-007   3.1701322165126853E-008   5.0853318716591357E-008
  -9.1025838018132876E-008   2.7618812975009035E-008   5.3034110691666623E-008
  -8.0861567350186943E-008   2.3056870366843905E-008   5.8625560403777142E-008
  -1.4388467275791846E-007   4.3416352029140477E-008   5.1770705110693504E-008
  -1.3192254779760408E-007   4.0322274260722323E-008   4.7334819475443470E-008
  -1.2035350527363624E-007   3.7151982849238305E-008   4.6924163422327993E-008
  -1.0909787823231628E-007   3.3941687750243382E-008   5.0535699659281818E-008
  -9.8083101646706890E-008   3.0722679480444476E-008   5.8100450019732839E-008
  -1.6415872135691626E-007   4.8562602245738997E-008   4.6786879849758665E-008
  -1.5153886358636141E-007   4.5187815531932838E-008   4.2686111277018044E-008
  -1.3919792381402946E-007   4.2308768343762013E-008   4.3239556875332304E-008
  -1.2706679895566094E-007   3.9890541879107146E-008   4.8367250563705567E-008
  -1.1508399503516916E-007   3.7895858227812157E-008   5.7922290544729086E-008
  -2.7884204759557352E-007   0.0000000000000000        7.8300713686745712E-008
  -2.7459395166767521E-007   4.5154657636188781E-008   5.7167833485048827E-008
  -2.7145351602045829E-007   7.4497494930919068E-008   4.1500682671266312E-008
  -2.6931564500766132E-007   8.7951675277989865E-008   3.2322370464806149E-008
  -2.6805205150615713E-007   8.5870372974700056E-008   3.0444834393959496E-008
  -3.0754584419121026E-007   0.0000000000000000        9.2499000236648551E-008
  -3.0173648416726154E-007   5.1514260552729084E-008   5.7531496379016546E-008
  -2.9683110472170275E-007   8.4400720171324569E-008   3.2584194920494425E-008
  -2.9268854850745742E-007   9.8586146961326392E-008   1.8782839506592931E-008
  -2.8915092720504491E-007   9.4544668521307477E-008   1.6884933935744796E-008
  -3.3921661248241616E-007   0.0000000000000000        1.0863177515551662E-007
  -3.3071702606964421E-007   5.7871324062773625E-008   5.9135648994503462E-008
  -3.2287082167679705E-007   9.4288255770134415E-008   2.4205203467013878E-008
  -3.1553943896705699E-007   1.0918321436817008E-007   5.0903462827691313E-009
  -3.0857397651912975E-007   1.0316571565985853E-007   2.4932779929577888E-009
  -3.7385435246919107E-007   0.0000000000000000        1.2669903844334998E-007
  -3.6153269998654444E-007   6.4225849687006537E-008   6.1978390045207458E-008
  -3.4956404935849572E-007   1.0416013898339417E-007   1.6357838426967095E-008
  -3.3785543967322508E-007   1.1974307449332119E-007  -8.7644918605200536E-009
  -3.2630934700619782E-007   1.1173400319953188E-007  -1.2740256290195714E-008
  -4.1145906415153520E-007   0.0000000000000000        1.4670079010014856E-007
  -3.9418063082666393E-007   7.0577838944898002E-008   6.6057819762598189E-008
  -3.7690219750179272E-007   1.1401640694928745E-007   9.0362484863447474E-009
  -3.5962376417692150E-007   1.3026592295067049E-007  -2.2790991805866990E-008
  -3.4234533085205023E-007   1.2025001398487094E-007  -2.8825668246566933E-008
  -2.6805205150615713E-007   8.5870372974700056E-008   3.0444834393959496E-008
  -2.5228107221533886E-007   7.7138763015148761E-008   2.8170748275144747E-008
  -2.3735179866254181E-007   7.0203369484265569E-008   2.7794936457159575E-008
  -2.2319895454732845E-007   6.5027337497263207E-008   3.0227485336744144E-008
  -2.0974475195662556E-007   6.1534675655772445E-008   3.6221912476064906E-008
  -2.8915092720504491E-007   9.4544668521307477E-008   1.6884933935744796E-008
  -2.7373186848174099E-007   8.3262805050286338E-008   2.0258103586997345E-008
  -2.5899216126238155E-007   7.5114568728730134E-008   2.2881490154951376E-008
  -2.4490805692590328E-007   6.9977478279605952E-008   2.5906508142398163E-008
  -2.3144118646473686E-007   6.7663300249975905E-008   3.0353984449443335E-008
  -3.0857397651912975E-007   1.0316571565985853E-007   2.4932779929577888E-009
  -2.9426239564560523E-007   8.9329456062922681E-008   1.1849883151324993E-008
  -2.8043696740279175E-007   7.9961300948855056E-008   1.7804166536797623E-008
  -2.6709946956114915E-007   7.4841940185815229E-008   2.1761065903166780E-008
  -2.5423789763590620E-007   7.3658197537971970E-008   2.5024670109343544E-008
  -3.2630934700619782E-007   1.1173400319953188E-007  -1.2740256290195714E-008
  -3.1386518473595997E-007   9.5339519044273202E-008   2.9373616352596601E-009
  -3.0168132785687328E-007   8.4744827210816114E-008   1.2554910635164113E-008
  -2.8976785431939456E-007   7.9622928573059837E-008   1.7781816287825883E-008
  -2.7812565677566622E-007   7.9523697200905499E-008   2.0219890244175600E-008
  -3.4234533085205023E-007   1.2025001398487094E-007  -2.8825668246566933E-008
  -3.3253290547196478E-007   1.0129378207493618E-007  -6.4880242747497272E-009
  -3.2272048009187948E-007   8.9466375902880105E-008   7.1258762102560576E-009
  -3.1290805471179418E-007   8.4322573755103343E-008   1.3959734863921271E-008
  -3.0309562933170872E-007   8.5263944006452191E-008   1.5926166942010725E-008
  -2.0974475195662556E-007   6.1534675655772445E-008   3.6221912476064906E-008
  -1.9746799242447873E-007   5.8677568477568146E-008   3.4490692047844347E-008
  -1.8582640321266519E-007   5.5520285910748789E-008   3.5380478480635932E-008
  -1.7474791233704282E-007   5.2128231229961888E-008   3.9364885609455838E-008
  -1.6415872135691626E-007   4.8562602245738997E-008   4.6786879849758665E-008
  -2.3144118646473686E-007   6.7663300249975905E-008   3.0353984449443335E-008
  -2.1919243828125051E-007   6.6092819928902110E-008   2.5823671888418862E-008
  -2.0741369945034725E-007   6.3437049333605627E-008   2.4994451323296277E-008
  -1.9603836221010106E-007   5.9846426341072549E-008   2.8263095503165569E-008
  -1.8500072191540240E-007   5.5469876601453671E-008   3.5876568856982533E-008
  -2.5423789763590620E-007   7.3658197537971970E-008   2.5024670109343544E-008
  -2.4172407176936121E-007   7.3311061403598332E-008   1.7531834435314433E-008
  -2.2951786978977157E-007   7.1104705081607392E-008   1.4827219802161891E-008
  -2.1756652108798421E-007   6.7283406358460887E-008   1.7221330666246310E-008
  -2.0581953167378797E-007   6.2091124221978321E-008   2.4856333247264307E-008
  -2.7812565677566622E-007   7.9523697200905499E-008   2.0219890244175600E-008
  -2.6504911932637163E-007   8.0340041275828702E-008   9.5941660847735188E-009
  -2.5212281328026425E-007   7.8534828615277076E-008   4.8514516270596652E-009
  -2.3931618832230815E-007   7.4454265552662285E-008   6.2073060514347958E-009
  -2.2660076832056164E-007   6.8443751055085885E-008   1.3691186519959221E-008
  -3.0309562933170872E-007   8.5263944006452191E-008   1.5926166942010725E-008
  -2.8915452032626476E-007   8.7187106854451168E-008   1.9907409228446370E-009
  -2.7521341132082101E-007   8.5738289154244448E-008  -4.9585178970954331E-009
  -2.6127230231537731E-007   8.1373036931795503E-008  -4.8089934605349249E-009
  -2.4733119330993329E-007   7.4543778825539140E-008   2.3489245060513431E-009
  -1.6415872135691626E-007   4.8562602245738997E-008   4.6786879849758665E-008
  -1.5153886358636141E-007   4.5187815531932838E-008   4.2686111277018044E-008
  -1.3919792381402946E-007   4.2308768343762013E-008   4.3239556875332304E-008
  -1.2706679895566094E-007   3.9890541879107146E-008   4.8367250563705567E-008
  -1.1508399503516916E-007   3.7895858227812157E-008   5.7922290544729086E-008
  -1.8500072191540240E-007   5.5469876601453671E-008   3.5876568856982533E-008
  -1.7181948436545241E-007   5.1314681754539213E-008   3.2381887790604293E-008
  -1.5889875933830456E-007   4.8220330827456557E-008   3.2775632463948708E-008
  -1.4618837566885639E-007   4.6078372954483441E-008   3.7081654962288750E-008
  -1.3364290828089231E-007   4.4781457937908517E-008   4.5247720315882196E-008
  -2.0581953167378797E-007   6.2091124221978321E-008   2.4856333247264307E-008
  -1.9239309236210757E-007   5.7157677885628011E-008   2.2199242642835065E-008
  -1.7917496507785079E-007   5.3829473484058465E-008   2.2683008325577371E-008
  -1.6613243126309322E-007   5.1920614554029906E-008   2.6438534655274151E-008
  -1.5323527202947451E-007   5.1251285058736271E-008   3.3510176642479828E-008
  -2.2660076832056164E-007   6.8443751055085885E-008   1.3691186519959221E-008
  -2.1324742681161568E-007   6.2736085656764655E-008   1.2100358826736500E-008
  -2.0001576507063194E-007   5.9158824018971623E-008   1.2917354910695923E-008
  -1.8688961148989240E-007   5.7445431851106399E-008   1.6382619700854608E-008
  -1.7385370618479197E-007   5.7341894292566448E-008   2.2638406547262413E-008
  -2.4733119330993329E-007   7.4543778825539140E-008   2.3489245060513431E-009
  -2.3437131277286732E-007   6.8067479193199017E-008   2.0507684411835445E-009
  -2.2141143223580135E-007   6.4228807663752435E-008   3.4386574985143938E-009
  -2.0845155169873532E-007   6.2678010389204264E-008   6.8644872353541602E-009
  -1.9549167116166941E-007   6.3085677167249097E-008   1.2569271975376771E-008
 </DataArray>
 </PointData>
 </Piece>
 <Piece  NumberOfPoints="           800 "  NumberOfCells="          512 ">
 <Points>
 <DataArray  type="Float64" NumberOfComponents="3"  format="ascii" >
   0.0000000000000000        0.0000000000000000        0.0000000000000000     
  0.62500000000000000        0.0000000000000000        0.0000000000000000     
   1.2500000000000000        0.0000000000000000        0.0000000000000000     
   1.8750000000000000        0.0000000000000000        0.0000000000000000     
   2.5000000000000000        0.0000000000000000        0.0000000000000000     
   0.0000000000000000        4.1113281249999994E-002   0.0000000000000000     
  0.62500000000000000        5.5055618286132812E-002   0.0000000000000000     
   1.2500000000000000        6.8098449707031244E-002   0.0000000000000000     
   1.8750000000000000        8.0241775512695304E-002   0.0000000000000000     
   2.5000000000000000        9.1485595703125006E-002   0.0000000000000000     
   0.0000000000000000        8.9453124999999994E-002   0.0000000000000000     
  0.62500000000000000       0.11646270751953125        0.0000000000000000     
   1.2500000000000000       0.14172973632812499        0.0000000000000000     
   1.8750000000000000       0.16525421142578123        0.0000000000000000     
   2.5000000000000000       0.18703613281250001        0.0000000000000000     
   0.0000000000000000       0.14501953125000000        0.0000000000000000     
  0.62500000000000000       0.18422126770019528        0.0000000000000000     
   1.2500000000000000       0.22089385986328125        0.0000000000000000     
   1.8750000000000000       0.25503730773925781        0.0000000000000000     
   2.5000000000000000       0.28665161132812500        0.0000000000000000     
   0.0000000000000000       0.20781249999999998        0.0000000000000000     
  0.62500000000000000       0.25833129882812500        0.0000000000000000     
   1.2500000000000000       0.30559082031250001        0.0000000000000000     
   1.8750000000000000       0.34959106445312493        0.0000000000000000     
   2.5000000000000000       0.39033203124999999        0.0000000000000000     
   2.5000000000000000        0.0000000000000000        0.0000000000000000     
   3.1250000000000000        0.0000000000000000        0.0000000000000000     
   3.7500000000000000        0.0000000000000000        0.0000000000000000     
   4.3750000000000000        0.0000000000000000        0.0000000000000000     
   5.0000000000000000        0.0000000000000000        0.0000000000000000     
   2.5000000000000000        9.1485595703125006E-002   0.0000000000000000     
   3.1250000000000000       0.10182991027832031        0.0000000000000000     
   3.7500000000000000       0.11127471923828126        0.0000000000000000     
   4.3750000000000000       0.11982002258300782        0.0000000000000000     
   5.0000000000000000       0.12746582031250001        0.0000000000000000     
   2.5000000000000000       0.18703613281250001        0.0000000000000000     
   3.1250000000000000       0.20707550048828124        0.0000000000000000     
   3.7500000000000000       0.22537231445312500        0.0000000000000000     
   4.3750000000000000       0.24192657470703127        0.0000000000000000     
   5.0000000000000000       0.25673828124999998        0.0000000000000000     
   2.5000000000000000       0.28665161132812500        0.0000000000000000     
   3.1250000000000000       0.31573677062988287        0.0000000000000000     
   3.7500000000000000       0.34229278564453131        0.0000000000000000     
   4.3750000000000000       0.36631965637207031        0.0000000000000000     
   5.0000000000000000       0.38781738281250006        0.0000000000000000     
   2.5000000000000000       0.39033203124999999        0.0000000000000000     
   3.1250000000000000       0.42781372070312496        0.0000000000000000     
   3.7500000000000000       0.46203613281250011        0.0000000000000000     
   4.3750000000000000       0.49299926757812507        0.0000000000000000     
   5.0000000000000000       0.52070312500000004        0.0000000000000000     
   5.0000000000000000        0.0000000000000000        0.0000000000000000     
   5.6250000000000000        0.0000000000000000        0.0000000000000000     
   6.2500000000000000        0.0000000000000000        0.0000000000000000     
   6.8750000000000000        0.0000000000000000        0.0000000000000000     
   7.5000000000000000        0.0000000000000000        0.0000000000000000     
   5.0000000000000000       0.12746582031250001        0.0000000000000000     
   5.6250000000000000       0.13421211242675782        0.0000000000000000     
   6.2500000000000000       0.14005889892578127        0.0000000000000000     
   6.8750000000000000       0.14500617980957031        0.0000000000000000     
   7.5000000000000000       0.14905395507812502        0.0000000000000000     
   5.0000000000000000       0.25673828124999998        0.0000000000000000     
   5.6250000000000000       0.26980743408203128        0.0000000000000000     
   6.2500000000000000       0.28113403320312502        0.0000000000000000     
   6.8750000000000000       0.29071807861328125        0.0000000000000000     
   7.5000000000000000       0.29855957031250002        0.0000000000000000     
   5.0000000000000000       0.38781738281250006        0.0000000000000000     
   5.6250000000000000       0.40678596496582037        0.0000000000000000     
   6.2500000000000000       0.42322540283203131        0.0000000000000000     
   6.8750000000000000       0.43713569641113281        0.0000000000000000     
   7.5000000000000000       0.44851684570312500        0.0000000000000000     
   5.0000000000000000       0.52070312500000004        0.0000000000000000     
   5.6250000000000000       0.54514770507812504        0.0000000000000000     
   6.2500000000000000       0.56633300781249996        0.0000000000000000     
   6.8750000000000000       0.58425903320312500        0.0000000000000000     
   7.5000000000000000       0.59892578124999996        0.0000000000000000     
   7.5000000000000000        0.0000000000000000        0.0000000000000000     
   8.1250000000000000        0.0000000000000000        0.0000000000000000     
   8.7500000000000000        0.0000000000000000        0.0000000000000000     
   9.3750000000000000        0.0000000000000000        0.0000000000000000     
   10.000000000000000        0.0000000000000000        0.0000000000000000     
   7.5000000000000000       0.14905395507812502        0.0000000000000000     
   8.1250000000000000       0.15220222473144532        0.0000000000000000     
   8.7500000000000000       0.15445098876953126        0.0000000000000000     
   9.3750000000000000       0.15580024719238281        0.0000000000000000     
   10.000000000000000       0.15625000000000000        0.0000000000000000     
   7.5000000000000000       0.29855957031250002        0.0000000000000000     
   8.1250000000000000       0.30465850830078123        0.0000000000000000     
   8.7500000000000000       0.30901489257812498        0.0000000000000000     
   9.3750000000000000       0.31162872314453127        0.0000000000000000     
   10.000000000000000       0.31250000000000000        0.0000000000000000     
   7.5000000000000000       0.44851684570312500        0.0000000000000000     
   8.1250000000000000       0.45736885070800781        0.0000000000000000     
   8.7500000000000000       0.46369171142578125        0.0000000000000000     
   9.3750000000000000       0.46748542785644531        0.0000000000000000     
   10.000000000000000       0.46875000000000000        0.0000000000000000     
   7.5000000000000000       0.59892578124999996        0.0000000000000000     
   8.1250000000000000       0.61033325195312504        0.0000000000000000     
   8.7500000000000000       0.61848144531250004        0.0000000000000000     
   9.3750000000000000       0.62337036132812496        0.0000000000000000     
   10.000000000000000       0.62500000000000000        0.0000000000000000     
   0.0000000000000000       0.20781249999999998        0.0000000000000000     
  0.62500000000000000       0.25833129882812500        0.0000000000000000     
   1.2500000000000000       0.30559082031250001        0.0000000000000000     
   1.8750000000000000       0.34959106445312493        0.0000000000000000     
   2.5000000000000000       0.39033203124999999        0.0000000000000000     
   0.0000000000000000       0.27783203125000000        0.0000000000000000     
  0.62500000000000000       0.33879280090332031        0.0000000000000000     
   1.2500000000000000       0.39582061767578119        0.0000000000000000     
   1.8750000000000000       0.44891548156738287        0.0000000000000000     
   2.5000000000000000       0.49807739257812506        0.0000000000000000     
   0.0000000000000000       0.35507812500000002        0.0000000000000000     
  0.62500000000000000       0.42560577392578119        0.0000000000000000     
   1.2500000000000000       0.49158325195312497        0.0000000000000000     
   1.8750000000000000       0.55301055908203134        0.0000000000000000     
   2.5000000000000000       0.60988769531249998        0.0000000000000000     
   0.0000000000000000       0.43955078124999991        0.0000000000000000     
  0.62500000000000000       0.51877021789550792        0.0000000000000000     
   1.2500000000000000       0.59287872314453127        0.0000000000000000     
   1.8750000000000000       0.66187629699707018        0.0000000000000000     
   2.5000000000000000       0.72576293945312498        0.0000000000000000     
   0.0000000000000000       0.53125000000000000        0.0000000000000000     
  0.62500000000000000       0.61828613281250000        0.0000000000000000     
   1.2500000000000000       0.69970703125000000        0.0000000000000000     
   1.8750000000000000       0.77551269531250000        0.0000000000000000     
   2.5000000000000000       0.84570312500000000        0.0000000000000000     
   2.5000000000000000       0.39033203124999999        0.0000000000000000     
   3.1250000000000000       0.42781372070312496        0.0000000000000000     
   3.7500000000000000       0.46203613281250011        0.0000000000000000     
   4.3750000000000000       0.49299926757812507        0.0000000000000000     
   5.0000000000000000       0.52070312500000004        0.0000000000000000     
   2.5000000000000000       0.49807739257812506        0.0000000000000000     
   3.1250000000000000       0.54330635070800781        0.0000000000000000     
   3.7500000000000000       0.58460235595703125        0.0000000000000000     
   4.3750000000000000       0.62196540832519531        0.0000000000000000     
   5.0000000000000000       0.65539550781250011        0.0000000000000000     
   2.5000000000000000       0.60988769531249998        0.0000000000000000     
   3.1250000000000000       0.66221466064453127        0.0000000000000000     
   3.7500000000000000       0.70999145507812500        0.0000000000000000     
   4.3750000000000000       0.75321807861328138        0.0000000000000000     
   5.0000000000000000       0.79189453124999998        0.0000000000000000     
   2.5000000000000000       0.72576293945312498        0.0000000000000000     
   3.1250000000000000       0.78453865051269533        0.0000000000000000     
   3.7500000000000000       0.83820343017578136        0.0000000000000000     
   4.3750000000000000       0.88675727844238283        0.0000000000000000     
   5.0000000000000000       0.93020019531250020        0.0000000000000000     
   2.5000000000000000       0.84570312500000000        0.0000000000000000     
   3.1250000000000000       0.91027832031250011        0.0000000000000000     
   3.7500000000000000       0.96923828125000011        0.0000000000000000     
   4.3750000000000000        1.0225830078125002        0.0000000000000000     
   5.0000000000000000        1.0703125000000000        0.0000000000000000     
   5.0000000000000000       0.52070312500000004        0.0000000000000000     
   5.6250000000000000       0.54514770507812504        0.0000000000000000     
   6.2500000000000000       0.56633300781249996        0.0000000000000000     
   6.8750000000000000       0.58425903320312500        0.0000000000000000     
   7.5000000000000000       0.59892578124999996        0.0000000000000000     
   5.0000000000000000       0.65539550781250011        0.0000000000000000     
   5.6250000000000000       0.68489265441894542        0.0000000000000000     
   6.2500000000000000       0.71045684814453125        0.0000000000000000     
   6.8750000000000000       0.73208808898925781        0.0000000000000000     
   7.5000000000000000       0.74978637695312511        0.0000000000000000     
   5.0000000000000000       0.79189453124999998        0.0000000000000000     
   5.6250000000000000       0.82602081298828134        0.0000000000000000     
   6.2500000000000000       0.85559692382812513        0.0000000000000000     
   6.8750000000000000       0.88062286376953125        0.0000000000000000     
   7.5000000000000000       0.90109863281250002        0.0000000000000000     
   5.0000000000000000       0.93020019531250020        0.0000000000000000     
   5.6250000000000000       0.96853218078613279        0.0000000000000000     
   6.2500000000000000        1.0017532348632812        0.0000000000000000     
   6.8750000000000000        1.0298633575439453        0.0000000000000000     
   7.5000000000000000        1.0528625488281251        0.0000000000000000     
   5.0000000000000000        1.0703125000000000        0.0000000000000000     
   5.6250000000000000        1.1124267578125000        0.0000000000000000     
   6.2500000000000000        1.1489257812500002        0.0000000000000000     
   6.8750000000000000        1.1798095703125000        0.0000000000000000     
   7.5000000000000000        1.2050781250000000        0.0000000000000000     
   7.5000000000000000       0.59892578124999996        0.0000000000000000     
   8.1250000000000000       0.61033325195312504        0.0000000000000000     
   8.7500000000000000       0.61848144531250004        0.0000000000000000     
   9.3750000000000000       0.62337036132812496        0.0000000000000000     
   10.000000000000000       0.62500000000000000        0.0000000000000000     
   7.5000000000000000       0.74978637695312511        0.0000000000000000     
   8.1250000000000000       0.76355171203613281        0.0000000000000000     
   8.7500000000000000       0.77338409423828125        0.0000000000000000     
   9.3750000000000000       0.77928352355957031        0.0000000000000000     
   10.000000000000000       0.78125000000000000        0.0000000000000000     
   7.5000000000000000       0.90109863281250002        0.0000000000000000     
   8.1250000000000000       0.91702423095703123        0.0000000000000000     
   8.7500000000000000       0.92839965820312498        0.0000000000000000     
   9.3750000000000000       0.93522491455078127        0.0000000000000000     
   10.000000000000000       0.93750000000000000        0.0000000000000000     
   7.5000000000000000        1.0528625488281251        0.0000000000000000     
   8.1250000000000000        1.0707508087158202        0.0000000000000000     
   8.7500000000000000        1.0835281372070311        0.0000000000000000     
   9.3750000000000000        1.0911945343017579        0.0000000000000000     
   10.000000000000000        1.0937500000000000        0.0000000000000000     
   7.5000000000000000        1.2050781250000000        0.0000000000000000     
   8.1250000000000000        1.2247314453125000        0.0000000000000000     
   8.7500000000000000        1.2387695312500000        0.0000000000000000     
   9.3750000000000000        1.2471923828125000        0.0000000000000000     
   10.000000000000000        1.2500000000000000        0.0000000000000000     
   0.0000000000000000       0.53125000000000000        0.0000000000000000     
  0.62500000000000000       0.61828613281250000        0.0000000000000000     
   1.2500000000000000       0.69970703125000000        0.0000000000000000     
   1.8750000000000000       0.77551269531250000        0.0000000000000000     
   2.5000000000000000       0.84570312500000000        0.0000000000000000     
   0.0000000000000000       0.63017578125000007        0.0000000000000000     
  0.62500000000000000       0.72415351867675770        0.0000000000000000     
   1.2500000000000000       0.81206817626953132        0.0000000000000000     
   1.8750000000000000       0.89391975402832036        0.0000000000000000     
   2.5000000000000000       0.96970825195312493        0.0000000000000000     
   0.0000000000000000       0.73632812500000011        0.0000000000000000     
  0.62500000000000000       0.83637237548828114        0.0000000000000000     
   1.2500000000000000       0.92996215820312500        0.0000000000000000     
   1.8750000000000000        1.0170974731445312        0.0000000000000000     
   2.5000000000000000        1.0977783203124998        0.0000000000000000     
   0.0000000000000000       0.84970703125000002        0.0000000000000000     
  0.62500000000000000       0.95494270324707042        0.0000000000000000     
   1.2500000000000000        1.0533889770507812        0.0000000000000000     
   1.8750000000000000        1.1450458526611329        0.0000000000000000     
   2.5000000000000000        1.2299133300781251        0.0000000000000000     
   0.0000000000000000       0.97031250000000002        0.0000000000000000     
  0.62500000000000000        1.0798645019531250        0.0000000000000000     
   1.2500000000000000        1.1823486328125001        0.0000000000000000     
   1.8750000000000000        1.2777648925781249        0.0000000000000000     
   2.5000000000000000        1.3661132812499999        0.0000000000000000     
   2.5000000000000000       0.84570312500000000        0.0000000000000000     
   3.1250000000000000       0.91027832031250011        0.0000000000000000     
   3.7500000000000000       0.96923828125000011        0.0000000000000000     
   4.3750000000000000        1.0225830078125002        0.0000000000000000     
   5.0000000000000000        1.0703125000000000        0.0000000000000000     
   2.5000000000000000       0.96970825195312493        0.0000000000000000     
   3.1250000000000000        1.0394336700439455        0.0000000000000000     
   3.7500000000000000        1.1030960083007812        0.0000000000000000     
   4.3750000000000000        1.1606952667236330        0.0000000000000000     
   5.0000000000000000        1.2122314453125000        0.0000000000000000     
   2.5000000000000000        1.0977783203124998        0.0000000000000000     
   3.1250000000000000        1.1720046997070310        0.0000000000000000     
   3.7500000000000000        1.2397766113281252        0.0000000000000000     
   4.3750000000000000        1.3010940551757812        0.0000000000000000     
   5.0000000000000000        1.3559570312500000        0.0000000000000000     
   2.5000000000000000        1.2299133300781251        0.0000000000000000     
   3.1250000000000000        1.3079914093017579        0.0000000000000000     
   3.7500000000000000        1.3792800903320308        0.0000000000000000     
   4.3750000000000000        1.4437793731689454        0.0000000000000000     
   5.0000000000000000        1.5014892578125003        0.0000000000000000     
   2.5000000000000000        1.3661132812499999        0.0000000000000000     
   3.1250000000000000        1.4473937988281251        0.0000000000000000     
   3.7500000000000000        1.5216064453125000        0.0000000000000000     
   4.3750000000000000        1.5887512207031249        0.0000000000000000     
   5.0000000000000000        1.6488281249999999        0.0000000000000000     
   5.0000000000000000        1.0703125000000000        0.0000000000000000     
   5.6250000000000000        1.1124267578125000        0.0000000000000000     
   6.2500000000000000        1.1489257812500002        0.0000000000000000     
   6.8750000000000000        1.1798095703125000        0.0000000000000000     
   7.5000000000000000        1.2050781250000000        0.0000000000000000     
   5.0000000000000000        1.2122314453125000        0.0000000000000000     
   5.6250000000000000        1.2577045440673831        0.0000000000000000     
   6.2500000000000000        1.2971145629882814        0.0000000000000000     
   6.8750000000000000        1.3304615020751953        0.0000000000000000     
   7.5000000000000000        1.3577453613281250        0.0000000000000000     
   5.0000000000000000        1.3559570312500000        0.0000000000000000     
   5.6250000000000000        1.4043655395507815        0.0000000000000000     
   6.2500000000000000        1.4463195800781250        0.0000000000000000     
   6.8750000000000000        1.4818191528320315        0.0000000000000000     
   7.5000000000000000        1.5108642578125000        0.0000000000000000     
   5.0000000000000000        1.5014892578125003        0.0000000000000000     
   5.6250000000000000        1.5524097442626954        0.0000000000000000     
   6.2500000000000000        1.5965408325195314        0.0000000000000000     
   6.8750000000000000        1.6338825225830078        0.0000000000000000     
   7.5000000000000000        1.6644348144531251        0.0000000000000000     
   5.0000000000000000        1.6488281249999999        0.0000000000000000     
   5.6250000000000000        1.7018371582031251        0.0000000000000000     
   6.2500000000000000        1.7477783203125001        0.0000000000000000     
   6.8750000000000000        1.7866516113281250        0.0000000000000000     
   7.5000000000000000        1.8184570312499999        0.0000000000000000     
   7.5000000000000000        1.2050781250000000        0.0000000000000000     
   8.1250000000000000        1.2247314453125000        0.0000000000000000     
   8.7500000000000000        1.2387695312500000        0.0000000000000000     
   9.3750000000000000        1.2471923828125000        0.0000000000000000     
   10.000000000000000        1.2500000000000000        0.0000000000000000     
   7.5000000000000000        1.3577453613281250        0.0000000000000000     
   8.1250000000000000        1.3789661407470704        0.0000000000000000     
   8.7500000000000000        1.3941238403320313        0.0000000000000000     
   9.3750000000000000        1.4032184600830078        0.0000000000000000     
   10.000000000000000        1.4062500000000000        0.0000000000000000     
   7.5000000000000000        1.5108642578125000        0.0000000000000000     
   8.1250000000000000        1.5334548950195312        0.0000000000000000     
   8.7500000000000000        1.5495910644531250        0.0000000000000000     
   9.3750000000000000        1.5592727661132812        0.0000000000000000     
   10.000000000000000        1.5625000000000000        0.0000000000000000     
   7.5000000000000000        1.6644348144531251        0.0000000000000000     
   8.1250000000000000        1.6881977081298827        0.0000000000000000     
   8.7500000000000000        1.7051712036132811        0.0000000000000000     
   9.3750000000000000        1.7153553009033204        0.0000000000000000     
   10.000000000000000        1.7187500000000000        0.0000000000000000     
   7.5000000000000000        1.8184570312499999        0.0000000000000000     
   8.1250000000000000        1.8431945800781251        0.0000000000000000     
   8.7500000000000000        1.8608642578125001        0.0000000000000000     
   9.3750000000000000        1.8714660644531249        0.0000000000000000     
   10.000000000000000        1.8750000000000000        0.0000000000000000     
   0.0000000000000000       0.97031250000000002        0.0000000000000000     
  0.62500000000000000        1.0798645019531250        0.0000000000000000     
   1.2500000000000000        1.1823486328125001        0.0000000000000000     
   1.8750000000000000        1.2777648925781249        0.0000000000000000     
   2.5000000000000000        1.3661132812499999        0.0000000000000000     
   0.0000000000000000        1.0981445312500000        0.0000000000000000     
  0.62500000000000000        1.2111377716064453        0.0000000000000000     
   1.2500000000000000        1.3168411254882810        0.0000000000000000     
   1.8750000000000000        1.4152545928955080        0.0000000000000000     
   2.5000000000000000        1.5063781738281252        0.0000000000000000     
   0.0000000000000000        1.2332031250000002        0.0000000000000000     
  0.62500000000000000        1.3487625122070312        0.0000000000000000     
   1.2500000000000000        1.4568664550781250        0.0000000000000000     
   1.8750000000000000        1.5575149536132813        0.0000000000000000     
   2.5000000000000000        1.6507080078125000        0.0000000000000000     
   0.0000000000000000        1.3754882812500000        0.0000000000000000     
  0.62500000000000000        1.4927387237548828        0.0000000000000000     
   1.2500000000000000        1.6024246215820315        0.0000000000000000     
   1.8750000000000000        1.7045459747314451        0.0000000000000000     
   2.5000000000000000        1.7991027832031248        0.0000000000000000     
   0.0000000000000000        1.5249999999999999        0.0000000000000000     
  0.62500000000000000        1.6430664062500000        0.0000000000000000     
   1.2500000000000000        1.7535156250000001        0.0000000000000000     
   1.8750000000000000        1.8563476562499999        0.0000000000000000     
   2.5000000000000000        1.9515625000000001        0.0000000000000000     
   2.5000000000000000        1.3661132812499999        0.0000000000000000     
   3.1250000000000000        1.4473937988281251        0.0000000000000000     
   3.7500000000000000        1.5216064453125000        0.0000000000000000     
   4.3750000000000000        1.5887512207031249        0.0000000000000000     
   5.0000000000000000        1.6488281249999999        0.0000000000000000     
   2.5000000000000000        1.5063781738281252        0.0000000000000000     
   3.1250000000000000        1.5902118682861328        0.0000000000000000     
   3.7500000000000000        1.6667556762695310        0.0000000000000000     
   4.3750000000000000        1.7360095977783203        0.0000000000000000     
   5.0000000000000000        1.7979736328125002        0.0000000000000000     
   2.5000000000000000        1.6507080078125000        0.0000000000000000     
   3.1250000000000000        1.7364456176757814        0.0000000000000000     
   3.7500000000000000        1.8147277832031248        0.0000000000000000     
   4.3750000000000000        1.8855545043945314        0.0000000000000000     
   5.0000000000000000        1.9489257812500000        0.0000000000000000     
   2.5000000000000000        1.7991027832031248        0.0000000000000000     
   3.1250000000000000        1.8860950469970703        0.0000000000000000     
   3.7500000000000000        1.9655227661132815        0.0000000000000000     
   4.3750000000000000        2.0373859405517578        0.0000000000000000     
   5.0000000000000000        2.1016845703125000        0.0000000000000000     
   2.5000000000000000        1.9515625000000001        0.0000000000000000     
   3.1250000000000000        2.0391601562499999        0.0000000000000000     
   3.7500000000000000        2.1191406250000000        0.0000000000000000     
   4.3750000000000000        2.1915039062499999        0.0000000000000000     
   5.0000000000000000        2.2562500000000001        0.0000000000000000     
   5.0000000000000000        1.6488281249999999        0.0000000000000000     
   5.6250000000000000        1.7018371582031251        0.0000000000000000     
   6.2500000000000000        1.7477783203125001        0.0000000000000000     
   6.8750000000000000        1.7866516113281250        0.0000000000000000     
   7.5000000000000000        1.8184570312499999        0.0000000000000000     
   5.0000000000000000        1.7979736328125002        0.0000000000000000     
   5.6250000000000000        1.8526477813720703        0.0000000000000000     
   6.2500000000000000        1.9000320434570310        0.0000000000000000     
   6.8750000000000000        1.9401264190673828        0.0000000000000000     
   7.5000000000000000        1.9729309082031250        0.0000000000000000     
   5.0000000000000000        1.9489257812500000        0.0000000000000000     
   5.6250000000000000        2.0048416137695311        0.0000000000000000     
   6.2500000000000000        2.0533020019531252        0.0000000000000000     
   6.8750000000000000        2.0943069458007812        0.0000000000000000     
   7.5000000000000000        2.1278564453125002        0.0000000000000000     
   5.0000000000000000        2.1016845703125000        0.0000000000000000     
   5.6250000000000000        2.1584186553955074        0.0000000000000000     
   6.2500000000000000        2.2075881958007812        0.0000000000000000     
   6.8750000000000000        2.2491931915283203        0.0000000000000000     
   7.5000000000000000        2.2832336425781250        0.0000000000000000     
   5.0000000000000000        2.2562500000000001        0.0000000000000000     
   5.6250000000000000        2.3133789062500001        0.0000000000000000     
   6.2500000000000000        2.3628906250000004        0.0000000000000000     
   6.8750000000000000        2.4047851562500000        0.0000000000000000     
   7.5000000000000000        2.4390624999999999        0.0000000000000000     
   7.5000000000000000        1.8184570312499999        0.0000000000000000     
   8.1250000000000000        1.8431945800781251        0.0000000000000000     
   8.7500000000000000        1.8608642578125001        0.0000000000000000     
   9.3750000000000000        1.8714660644531249        0.0000000000000000     
   10.000000000000000        1.8750000000000000        0.0000000000000000     
   7.5000000000000000        1.9729309082031250        0.0000000000000000     
   8.1250000000000000        1.9984455108642578        0.0000000000000000     
   8.7500000000000000        2.0166702270507812        0.0000000000000000     
   9.3750000000000000        2.0276050567626953        0.0000000000000000     
   10.000000000000000        2.0312500000000000        0.0000000000000000     
   7.5000000000000000        2.1278564453125002        0.0000000000000000     
   8.1250000000000000        2.1539505004882811        0.0000000000000000     
   8.7500000000000000        2.1725891113281248        0.0000000000000000     
   9.3750000000000000        2.1837722778320314        0.0000000000000000     
   10.000000000000000        2.1875000000000000        0.0000000000000000     
   7.5000000000000000        2.2832336425781250        0.0000000000000000     
   8.1250000000000000        2.3097095489501953        0.0000000000000000     
   8.7500000000000000        2.3286209106445312        0.0000000000000000     
   9.3750000000000000        2.3399677276611328        0.0000000000000000     
   10.000000000000000        2.3437500000000000        0.0000000000000000     
   7.5000000000000000        2.4390624999999999        0.0000000000000000     
   8.1250000000000000        2.4657226562500001        0.0000000000000000     
   8.7500000000000000        2.4847656250000001        0.0000000000000000     
   9.3750000000000000        2.4961914062499999        0.0000000000000000     
   10.000000000000000        2.5000000000000000        0.0000000000000000     
   0.0000000000000000        1.5249999999999999        0.0000000000000000     
  0.62500000000000000        1.6430664062500000        0.0000000000000000     
   1.2500000000000000        1.7535156250000001        0.0000000000000000     
   1.8750000000000000        1.8563476562499999        0.0000000000000000     
   2.5000000000000000        1.9515625000000001        0.0000000000000000     
   0.0000000000000000        1.6821289062500000        0.0000000000000000     
  0.62500000000000000        1.8000888824462891        0.0000000000000000     
   1.2500000000000000        1.9104385375976562        0.0000000000000000     
   1.8750000000000000        2.0131778717041016        0.0000000000000000     
   2.5000000000000000        2.1083068847656250        0.0000000000000000     
   0.0000000000000000        1.8472656250000001        0.0000000000000000     
  0.62500000000000000        1.9641494750976562        0.0000000000000000     
   1.2500000000000000        2.0734924316406249        0.0000000000000000     
   1.8750000000000000        2.1752944946289063        0.0000000000000000     
   2.5000000000000000        2.2695556640625001        0.0000000000000000     
   0.0000000000000000        2.0204101562500001        0.0000000000000000     
  0.62500000000000000        2.1352481842041016        0.0000000000000000     
   1.2500000000000000        2.2426773071289063        0.0000000000000000     
   1.8750000000000000        2.3426975250244135        0.0000000000000000     
   2.5000000000000000        2.4353088378906249        0.0000000000000000     
   0.0000000000000000        2.2015625000000001        0.0000000000000000     
  0.62500000000000000        2.3133850097656250        0.0000000000000000     
   1.2500000000000000        2.4179931640625001        0.0000000000000000     
   1.8750000000000000        2.5153869628906249        0.0000000000000000     
   2.5000000000000000        2.6055664062499999        0.0000000000000000     
   2.5000000000000000        1.9515625000000001        0.0000000000000000     
   3.1250000000000000        2.0391601562499999        0.0000000000000000     
   3.7500000000000000        2.1191406250000000        0.0000000000000000     
   4.3750000000000000        2.1915039062499999        0.0000000000000000     
   5.0000000000000000        2.2562500000000001        0.0000000000000000     
   2.5000000000000000        2.1083068847656250        0.0000000000000000     
   3.1250000000000000        2.1958255767822266        0.0000000000000000     
   3.7500000000000000        2.2757339477539062        0.0000000000000000     
   4.3750000000000000        2.3480319976806641        0.0000000000000000     
   5.0000000000000000        2.4127197265625000        0.0000000000000000     
   2.5000000000000000        2.2695556640625001        0.0000000000000000     
   3.1250000000000000        2.3562759399414062        0.0000000000000000     
   3.7500000000000000        2.4354553222656250        0.0000000000000000     
   4.3750000000000000        2.5070938110351562        0.0000000000000000     
   5.0000000000000000        2.5711914062500001        0.0000000000000000     
   2.5000000000000000        2.4353088378906249        0.0000000000000000     
   3.1250000000000000        2.5205112457275392        0.0000000000000000     
   3.7500000000000000        2.5983047485351562        0.0000000000000000     
   4.3750000000000000        2.6686893463134762        0.0000000000000000     
   5.0000000000000000        2.7316650390624999        0.0000000000000000     
   2.5000000000000000        2.6055664062499999        0.0000000000000000     
   3.1250000000000000        2.6885314941406251        0.0000000000000000     
   3.7500000000000000        2.7642822265625000        0.0000000000000000     
   4.3750000000000000        2.8328186035156251        0.0000000000000000     
   5.0000000000000000        2.8941406249999995        0.0000000000000000     
   5.0000000000000000        2.2562500000000001        0.0000000000000000     
   5.6250000000000000        2.3133789062500001        0.0000000000000000     
   6.2500000000000000        2.3628906250000004        0.0000000000000000     
   6.8750000000000000        2.4047851562500000        0.0000000000000000     
   7.5000000000000000        2.4390624999999999        0.0000000000000000     
   5.0000000000000000        2.4127197265625000        0.0000000000000000     
   5.6250000000000000        2.4697971343994141        0.0000000000000000     
   6.2500000000000000        2.5192642211914062        0.0000000000000000     
   6.8750000000000000        2.5611209869384766        0.0000000000000000     
   7.5000000000000000        2.5953674316406250        0.0000000000000000     
   5.0000000000000000        2.5711914062500001        0.0000000000000000     
   5.6250000000000000        2.6277481079101559        0.0000000000000000     
   6.2500000000000000        2.6767639160156254        0.0000000000000000     
   6.8750000000000000        2.7182388305664062        0.0000000000000000     
   7.5000000000000000        2.7521728515625004        0.0000000000000000     
   5.0000000000000000        2.7316650390624999        0.0000000000000000     
   5.6250000000000000        2.7872318267822265        0.0000000000000000     
   6.2500000000000000        2.8353897094726563        0.0000000000000000     
   6.8750000000000000        2.8761386871337891        0.0000000000000000     
   7.5000000000000000        2.9094787597656251        0.0000000000000000     
   5.0000000000000000        2.8941406249999995        0.0000000000000000     
   5.6250000000000000        2.9482482910156245        0.0000000000000000     
   6.2500000000000000        2.9951416015624996        0.0000000000000000     
   6.8750000000000000        3.0348205566406250        0.0000000000000000     
   7.5000000000000000        3.0672851562500001        0.0000000000000000     
   7.5000000000000000        2.4390624999999999        0.0000000000000000     
   8.1250000000000000        2.4657226562500001        0.0000000000000000     
   8.7500000000000000        2.4847656250000001        0.0000000000000000     
   9.3750000000000000        2.4961914062499999        0.0000000000000000     
   10.000000000000000        2.5000000000000000        0.0000000000000000     
   7.5000000000000000        2.5953674316406250        0.0000000000000000     
   8.1250000000000000        2.6220035552978516        0.0000000000000000     
   8.7500000000000000        2.6410293579101562        0.0000000000000000     
   9.3750000000000000        2.6524448394775391        0.0000000000000000     
   10.000000000000000        2.6562500000000000        0.0000000000000000     
   7.5000000000000000        2.7521728515625004        0.0000000000000000     
   8.1250000000000000        2.7785659790039063        0.0000000000000000     
   8.7500000000000000        2.7974182128906251        0.0000000000000000     
   9.3750000000000000        2.8087295532226562        0.0000000000000000     
   10.000000000000000        2.8125000000000000        0.0000000000000000     
   7.5000000000000000        2.9094787597656251        0.0000000000000000     
   8.1250000000000000        2.9354099273681644        0.0000000000000000     
   8.7500000000000000        2.9539321899414066        0.0000000000000000     
   9.3750000000000000        2.9650455474853512        0.0000000000000000     
   10.000000000000000        2.9687500000000000        0.0000000000000000     
   7.5000000000000000        3.0672851562500001        0.0000000000000000     
   8.1250000000000000        3.0925354003906249        0.0000000000000000     
   8.7500000000000000        3.1105712890624999        0.0000000000000000     
   9.3750000000000000        3.1213928222656251        0.0000000000000000     
   10.000000000000000        3.1250000000000000        0.0000000000000000     
   0.0000000000000000        2.2015625000000001        0.0000000000000000     
  0.62500000000000000        2.3133850097656250        0.0000000000000000     
   1.2500000000000000        2.4179931640625001        0.0000000000000000     
   1.8750000000000000        2.5153869628906249        0.0000000000000000     
   2.5000000000000000        2.6055664062499999        0.0000000000000000     
   0.0000000000000000        2.3907226562499999        0.0000000000000000     
  0.62500000000000000        2.4985599517822266        0.0000000000000000     
   1.2500000000000000        2.5994400024414062        0.0000000000000000     
   1.8750000000000000        2.6933628082275392        0.0000000000000000     
   2.5000000000000000        2.7803283691406251        0.0000000000000000     
   0.0000000000000000        2.5878906250000000        0.0000000000000000     
  0.62500000000000000        2.6907730102539058        0.0000000000000000     
   1.2500000000000000        2.7870178222656254        0.0000000000000000     
   1.8750000000000000        2.8766250610351562        0.0000000000000000     
   2.5000000000000000        2.9595947265624996        0.0000000000000000     
   0.0000000000000000        2.7930664062499999        0.0000000000000000     
  0.62500000000000000        2.8900241851806645        0.0000000000000000     
   1.2500000000000000        2.9807266235351562        0.0000000000000000     
   1.8750000000000000        3.0651737213134762        0.0000000000000000     
   2.5000000000000000        3.1433654785156246        0.0000000000000000     
   0.0000000000000000        3.0062499999999996        0.0000000000000000     
  0.62500000000000000        3.0963134765625000        0.0000000000000000     
   1.2500000000000000        3.1805664062499996        0.0000000000000000     
   1.8750000000000000        3.2590087890625004        0.0000000000000000     
   2.5000000000000000        3.3316406250000004        0.0000000000000000     
   2.5000000000000000        2.6055664062499999        0.0000000000000000     
   3.1250000000000000        2.6885314941406251        0.0000000000000000     
   3.7500000000000000        2.7642822265625000        0.0000000000000000     
   4.3750000000000000        2.8328186035156251        0.0000000000000000     
   5.0000000000000000        2.8941406249999995        0.0000000000000000     
   2.5000000000000000        2.7803283691406251        0.0000000000000000     
   3.1250000000000000        2.8603366851806640        0.0000000000000000     
   3.7500000000000000        2.9333877563476558        0.0000000000000000     
   4.3750000000000000        2.9994815826416015        0.0000000000000000     
   5.0000000000000000        3.0586181640625001        0.0000000000000000     
   2.5000000000000000        2.9595947265624996        0.0000000000000000     
   3.1250000000000000        3.0359268188476567        0.0000000000000000     
   3.7500000000000000        3.1056213378906250        0.0000000000000000     
   4.3750000000000000        3.1686782836914058        0.0000000000000000     
   5.0000000000000000        3.2250976562499996        0.0000000000000000     
   2.5000000000000000        3.1433654785156246        0.0000000000000000     
   3.1250000000000000        3.2153018951416015        0.0000000000000000     
   3.7500000000000000        3.2809829711914067        0.0000000000000000     
   4.3750000000000000        3.3404087066650390        0.0000000000000000     
   5.0000000000000000        3.3935791015625001        0.0000000000000000     
   2.5000000000000000        3.3316406250000004        0.0000000000000000     
   3.1250000000000000        3.3984619140624996        0.0000000000000000     
   3.7500000000000000        3.4594726562499996        0.0000000000000000     
   4.3750000000000000        3.5146728515624996        0.0000000000000000     
   5.0000000000000000        3.5640624999999999        0.0000000000000000     
   5.0000000000000000        2.8941406249999995        0.0000000000000000     
   5.6250000000000000        2.9482482910156245        0.0000000000000000     
   6.2500000000000000        2.9951416015624996        0.0000000000000000     
   6.8750000000000000        3.0348205566406250        0.0000000000000000     
   7.5000000000000000        3.0672851562500001        0.0000000000000000     
   5.0000000000000000        3.0586181640625001        0.0000000000000000     
   5.6250000000000000        3.1107975006103517        0.0000000000000000     
   6.2500000000000000        3.1560195922851562        0.0000000000000000     
   6.8750000000000000        3.1942844390869141        0.0000000000000000     
   7.5000000000000000        3.2255920410156249        0.0000000000000000     
   5.0000000000000000        3.2250976562499996        0.0000000000000000     
   5.6250000000000000        3.2748794555664067        0.0000000000000000     
   6.2500000000000000        3.3180236816406250        0.0000000000000000     
   6.8750000000000000        3.3545303344726558        0.0000000000000000     
   7.5000000000000000        3.3843994140625000        0.0000000000000000     
   5.0000000000000000        3.3935791015625001        0.0000000000000000     
   5.6250000000000000        3.4404941558837887        0.0000000000000000     
   6.2500000000000000        3.4811538696289062        0.0000000000000000     
   6.8750000000000000        3.5155582427978516        0.0000000000000000     
   7.5000000000000000        3.5437072753906249        0.0000000000000000     
   5.0000000000000000        3.5640624999999999        0.0000000000000000     
   5.6250000000000000        3.6076416015624999        0.0000000000000000     
   6.2500000000000000        3.6454101562500001        0.0000000000000000     
   6.8750000000000000        3.6773681640625000        0.0000000000000000     
   7.5000000000000000        3.7035156249999996        0.0000000000000000     
   7.5000000000000000        3.0672851562500001        0.0000000000000000     
   8.1250000000000000        3.0925354003906249        0.0000000000000000     
   8.7500000000000000        3.1105712890624999        0.0000000000000000     
   9.3750000000000000        3.1213928222656251        0.0000000000000000     
   10.000000000000000        3.1250000000000000        0.0000000000000000     
   7.5000000000000000        3.2255920410156249        0.0000000000000000     
   8.1250000000000000        3.2499423980712892        0.0000000000000000     
   8.7500000000000000        3.2673355102539063        0.0000000000000000     
   9.3750000000000000        3.2777713775634765        0.0000000000000000     
   10.000000000000000        3.2812500000000000        0.0000000000000000     
   7.5000000000000000        3.3843994140625000        0.0000000000000000     
   8.1250000000000000        3.4076309204101558        0.0000000000000000     
   8.7500000000000000        3.4242248535156246        0.0000000000000000     
   9.3750000000000000        3.4341812133789062        0.0000000000000000     
   10.000000000000000        3.4375000000000000        0.0000000000000000     
   7.5000000000000000        3.5437072753906249        0.0000000000000000     
   8.1250000000000000        3.5656009674072267        0.0000000000000000     
   8.7500000000000000        3.5812393188476563        0.0000000000000000     
   9.3750000000000000        3.5906223297119140        0.0000000000000000     
   10.000000000000000        3.5937500000000000        0.0000000000000000     
   7.5000000000000000        3.7035156249999996        0.0000000000000000     
   8.1250000000000000        3.7238525390624999        0.0000000000000000     
   8.7500000000000000        3.7383789062499999        0.0000000000000000     
   9.3750000000000000        3.7470947265625001        0.0000000000000000     
   10.000000000000000        3.7500000000000000        0.0000000000000000     
   0.0000000000000000        3.0062499999999996        0.0000000000000000     
  0.62500000000000000        3.0963134765625000        0.0000000000000000     
   1.2500000000000000        3.1805664062499996        0.0000000000000000     
   1.8750000000000000        3.2590087890625004        0.0000000000000000     
   2.5000000000000000        3.3316406250000004        0.0000000000000000     
   0.0000000000000000        3.2274414062499996        0.0000000000000000     
  0.62500000000000000        3.3096408843994141        0.0000000000000000     
   1.2500000000000000        3.3865371704101563        0.0000000000000000     
   1.8750000000000000        3.4581302642822260        0.0000000000000000     
   2.5000000000000000        3.5244201660156249        0.0000000000000000     
   0.0000000000000000        3.4566406249999995        0.0000000000000000     
  0.62500000000000000        3.5300064086914062        0.0000000000000000     
   1.2500000000000000        3.5986389160156254        0.0000000000000000     
   1.8750000000000000        3.6625381469726559        0.0000000000000000     
   2.5000000000000000        3.7217041015624996        0.0000000000000000     
   0.0000000000000000        3.6938476562500000        0.0000000000000000     
  0.62500000000000000        3.7574100494384766        0.0000000000000000     
   1.2500000000000000        3.8168716430664058        0.0000000000000000     
   1.8750000000000000        3.8722324371337895        0.0000000000000000     
   2.5000000000000000        3.9234924316406254        0.0000000000000000     
   0.0000000000000000        3.9390624999999999        0.0000000000000000     
  0.62500000000000000        3.9918518066406254        0.0000000000000000     
   1.2500000000000000        4.0412353515624995        0.0000000000000000     
   1.8750000000000000        4.0872131347656255        0.0000000000000000     
   2.5000000000000000        4.1297851562500005        0.0000000000000000     
   2.5000000000000000        3.3316406250000004        0.0000000000000000     
   3.1250000000000000        3.3984619140624996        0.0000000000000000     
   3.7500000000000000        3.4594726562499996        0.0000000000000000     
   4.3750000000000000        3.5146728515624996        0.0000000000000000     
   5.0000000000000000        3.5640624999999999        0.0000000000000000     
   2.5000000000000000        3.5244201660156249        0.0000000000000000     
   3.1250000000000000        3.5854068756103512        0.0000000000000000     
   3.7500000000000000        3.6410903930664067        0.0000000000000000     
   4.3750000000000000        3.6914707183837887        0.0000000000000000     
   5.0000000000000000        3.7365478515624999        0.0000000000000000     
   2.5000000000000000        3.7217041015624996        0.0000000000000000     
   3.1250000000000000        3.7761367797851557        0.0000000000000000     
   3.7500000000000000        3.8258361816406250        0.0000000000000000     
   4.3750000000000000        3.8708023071289062        0.0000000000000000     
   5.0000000000000000        3.9110351562499996        0.0000000000000000     
   2.5000000000000000        3.9234924316406254        0.0000000000000000     
   3.1250000000000000        3.9706516265869141        0.0000000000000000     
   3.7500000000000000        4.0137100219726562        0.0000000000000000     
   4.3750000000000000        4.0526676177978516        0.0000000000000000     
   5.0000000000000000        4.0875244140624991        0.0000000000000000     
   2.5000000000000000        4.1297851562500005        0.0000000000000000     
   3.1250000000000000        4.1689514160156245        0.0000000000000000     
   3.7500000000000000        4.2047119140625000        0.0000000000000000     
   4.3750000000000000        4.2370666503906254        0.0000000000000000     
   5.0000000000000000        4.2660156249999996        0.0000000000000000     
   5.0000000000000000        3.5640624999999999        0.0000000000000000     
   5.6250000000000000        3.6076416015624999        0.0000000000000000     
   6.2500000000000000        3.6454101562500001        0.0000000000000000     
   6.8750000000000000        3.6773681640625000        0.0000000000000000     
   7.5000000000000000        3.7035156249999996        0.0000000000000000     
   5.0000000000000000        3.7365478515624999        0.0000000000000000     
   5.6250000000000000        3.7763217926025394        0.0000000000000000     
   6.2500000000000000        3.8107925415039063        0.0000000000000000     
   6.8750000000000000        3.8399600982666016        0.0000000000000000     
   7.5000000000000000        3.8638244628906246        0.0000000000000000     
   5.0000000000000000        3.9110351562499996        0.0000000000000000     
   5.6250000000000000        3.9465347290039068        0.0000000000000000     
   6.2500000000000000        3.9773010253906249        0.0000000000000000     
   6.8750000000000000        4.0033340454101562        0.0000000000000000     
   7.5000000000000000        4.0246337890625004        0.0000000000000000     
   5.0000000000000000        4.0875244140624991        0.0000000000000000     
   5.6250000000000000        4.1182804107666025        0.0000000000000000     
   6.2500000000000000        4.1449356079101562        0.0000000000000000     
   6.8750000000000000        4.1674900054931641        0.0000000000000000     
   7.5000000000000000        4.1859436035156250        0.0000000000000000     
   5.0000000000000000        4.2660156249999996        0.0000000000000000     
   5.6250000000000000        4.2915588378906246        0.0000000000000000     
   6.2500000000000000        4.3136962890624995        0.0000000000000000     
   6.8750000000000000        4.3324279785156250        0.0000000000000000     
   7.5000000000000000        4.3477539062500004        0.0000000000000000     
   7.5000000000000000        3.7035156249999996        0.0000000000000000     
   8.1250000000000000        3.7238525390624999        0.0000000000000000     
   8.7500000000000000        3.7383789062499999        0.0000000000000000     
   9.3750000000000000        3.7470947265625001        0.0000000000000000     
   10.000000000000000        3.7500000000000000        0.0000000000000000     
   7.5000000000000000        3.8638244628906246        0.0000000000000000     
   8.1250000000000000        3.8823856353759769        0.0000000000000000     
   8.7500000000000000        3.8956436157226566        0.0000000000000000     
   9.3750000000000000        3.9035984039306637        0.0000000000000000     
   10.000000000000000        3.9062500000000000        0.0000000000000000     
   7.5000000000000000        4.0246337890625004        0.0000000000000000     
   8.1250000000000000        4.0412002563476559        0.0000000000000000     
   8.7500000000000000        4.0530334472656255        0.0000000000000000     
   9.3750000000000000        4.0601333618164057        0.0000000000000000     
   10.000000000000000        4.0625000000000000        0.0000000000000000     
   7.5000000000000000        4.1859436035156250        0.0000000000000000     
   8.1250000000000000        4.2002964019775391        0.0000000000000000     
   8.7500000000000000        4.2105484008789062        0.0000000000000000     
   9.3750000000000000        4.2166996002197266        0.0000000000000000     
   10.000000000000000        4.2187500000000000        0.0000000000000000     
   7.5000000000000000        4.3477539062500004        0.0000000000000000     
   8.1250000000000000        4.3596740722656246        0.0000000000000000     
   8.7500000000000000        4.3681884765624996        0.0000000000000000     
   9.3750000000000000        4.3732971191406254        0.0000000000000000     
   10.000000000000000        4.3750000000000000        0.0000000000000000     
   0.0000000000000000        3.9390624999999999        0.0000000000000000     
  0.62500000000000000        3.9918518066406254        0.0000000000000000     
   1.2500000000000000        4.0412353515624995        0.0000000000000000     
   1.8750000000000000        4.0872131347656255        0.0000000000000000     
   2.5000000000000000        4.1297851562500005        0.0000000000000000     
   0.0000000000000000        4.1922851562499996        0.0000000000000000     
  0.62500000000000000        4.2333316802978516        0.0000000000000000     
   1.2500000000000000        4.2717300415039068        0.0000000000000000     
   1.8750000000000000        4.3074802398681635        0.0000000000000000     
   2.5000000000000000        4.3405822753906245        0.0000000000000000     
   0.0000000000000000        4.4535156249999996        0.0000000000000000     
  0.62500000000000000        4.4818496704101562        0.0000000000000000     
   1.2500000000000000        4.5083557128906255        0.0000000000000000     
   1.8750000000000000        4.5330337524414057        0.0000000000000000     
   2.5000000000000000        4.5558837890624995        0.0000000000000000     
   0.0000000000000000        4.7227539062500004        0.0000000000000000     
  0.62500000000000000        4.7374057769775391        0.0000000000000000     
   1.2500000000000000        4.7511123657226557        0.0000000000000000     
   1.8750000000000000        4.7638736724853521        0.0000000000000000     
   2.5000000000000000        4.7756896972656255        0.0000000000000000     
   0.0000000000000000        5.0000000000000000        0.0000000000000000     
  0.62500000000000000        5.0000000000000000        0.0000000000000000     
   1.2500000000000000        5.0000000000000000        0.0000000000000000     
   1.8750000000000000        5.0000000000000000        0.0000000000000000     
   2.5000000000000000        5.0000000000000000        0.0000000000000000     
   2.5000000000000000        4.1297851562500005        0.0000000000000000     
   3.1250000000000000        4.1689514160156245        0.0000000000000000     
   3.7500000000000000        4.2047119140625000        0.0000000000000000     
   4.3750000000000000        4.2370666503906254        0.0000000000000000     
   5.0000000000000000        4.2660156249999996        0.0000000000000000     
   2.5000000000000000        4.3405822753906245        0.0000000000000000     
   3.1250000000000000        4.3710361480712896        0.0000000000000000     
   3.7500000000000000        4.3988418579101562        0.0000000000000000     
   4.3750000000000000        4.4239994049072262        0.0000000000000000     
   5.0000000000000000        4.4465087890625004        0.0000000000000000     
   2.5000000000000000        4.5558837890624995        0.0000000000000000     
   3.1250000000000000        4.5769058227539059        0.0000000000000000     
   3.7500000000000000        4.5960998535156259        0.0000000000000000     
   4.3750000000000000        4.6134658813476559        0.0000000000000000     
   5.0000000000000000        4.6290039062499995        0.0000000000000000     
   2.5000000000000000        4.7756896972656255        0.0000000000000000     
   3.1250000000000000        4.7865604400634769        0.0000000000000000     
   3.7500000000000000        4.7964859008789054        0.0000000000000000     
   4.3750000000000000        4.8054660797119144        0.0000000000000000     
   5.0000000000000000        4.8135009765625005        0.0000000000000000     
   2.5000000000000000        5.0000000000000000        0.0000000000000000     
   3.1250000000000000        5.0000000000000000        0.0000000000000000     
   3.7500000000000000        5.0000000000000000        0.0000000000000000     
   4.3750000000000000        5.0000000000000000        0.0000000000000000     
   5.0000000000000000        5.0000000000000000        0.0000000000000000     
   5.0000000000000000        4.2660156249999996        0.0000000000000000     
   5.6250000000000000        4.2915588378906246        0.0000000000000000     
   6.2500000000000000        4.3136962890624995        0.0000000000000000     
   6.8750000000000000        4.3324279785156250        0.0000000000000000     
   7.5000000000000000        4.3477539062500004        0.0000000000000000     
   5.0000000000000000        4.4465087890625004        0.0000000000000000     
   5.6250000000000000        4.4663700103759769        0.0000000000000000     
   6.2500000000000000        4.4835830688476568        0.0000000000000000     
   6.8750000000000000        4.4981479644775391        0.0000000000000000     
   7.5000000000000000        4.5100646972656246        0.0000000000000000     
   5.0000000000000000        4.6290039062499995        0.0000000000000000     
   5.6250000000000000        4.6427139282226566        0.0000000000000000     
   6.2500000000000000        4.6545959472656255        0.0000000000000000     
   6.8750000000000000        4.6646499633789062        0.0000000000000000     
   7.5000000000000000        4.6728759765624996        0.0000000000000000     
   5.0000000000000000        4.8135009765625005        0.0000000000000000     
   5.6250000000000000        4.8205905914306637        0.0000000000000000     
   6.2500000000000000        4.8267349243164057        0.0000000000000000     
   6.8750000000000000        4.8319339752197266        0.0000000000000000     
   7.5000000000000000        4.8361877441406254        0.0000000000000000     
   5.0000000000000000        5.0000000000000000        0.0000000000000000     
   5.6250000000000000        5.0000000000000000        0.0000000000000000     
   6.2500000000000000        5.0000000000000000        0.0000000000000000     
   6.8750000000000000        5.0000000000000000        0.0000000000000000     
   7.5000000000000000        5.0000000000000000        0.0000000000000000     
   7.5000000000000000        4.3477539062500004        0.0000000000000000     
   8.1250000000000000        4.3596740722656246        0.0000000000000000     
   8.7500000000000000        4.3681884765624996        0.0000000000000000     
   9.3750000000000000        4.3732971191406254        0.0000000000000000     
   10.000000000000000        4.3750000000000000        0.0000000000000000     
   7.5000000000000000        4.5100646972656246        0.0000000000000000     
   8.1250000000000000        4.5193332672119144        0.0000000000000000     
   8.7500000000000000        4.5259536743164066        0.0000000000000000     
   9.3750000000000000        4.5299259185791012        0.0000000000000000     
   10.000000000000000        4.5312500000000000        0.0000000000000000     
   7.5000000000000000        4.6728759765624996        0.0000000000000000     
   8.1250000000000000        4.6792739868164066        0.0000000000000000     
   8.7500000000000000        4.6838439941406254        0.0000000000000000     
   9.3750000000000000        4.6865859985351559        0.0000000000000000     
   10.000000000000000        4.6875000000000000        0.0000000000000000     
   7.5000000000000000        4.8361877441406254        0.0000000000000000     
   8.1250000000000000        4.8394962310791012        0.0000000000000000     
   8.7500000000000000        4.8418594360351559        0.0000000000000000     
   9.3750000000000000        4.8432773590087894        0.0000000000000000     
   10.000000000000000        4.8437500000000000        0.0000000000000000     
   7.5000000000000000        5.0000000000000000        0.0000000000000000     
   8.1250000000000000        5.0000000000000000        0.0000000000000000     
   8.7500000000000000        5.0000000000000000        0.0000000000000000     
   9.3750000000000000        5.0000000000000000        0.0000000000000000     
   10.000000000000000        5.0000000000000000        0.0000000000000000     
 </DataArray>
 </Points>
 <Cells>
 <DataArray  type="Int32"  Name="connectivity"  format="ascii">
           0           1           6           5
           1           2           7           6
           2           3           8           7
           3           4           9           8
           5           6          11          10
           6           7          12          11
           7           8          13          12
           8           9          14          13
          10          11          16          15
          11          12          17          16
          12          13          18          17
          13          14          19          18
          15          16          21          20
          16          17          22          21
          17          18          23          22
          18          19          24          23
          25          26          31          30
          26          27          32          31
          27          28          33          32
          28          29          34          33
          30          31          36          35
          31          32          37          36
          32          33          38          37
          33          34          39          38
          35          36          41          40
          36          37          42          41
          37          38          43          42
          38          39          44          43
          40          41          46          45
          41          42          47          46
          42          43          48          47
          43          44          49          48
          50          51          56          55
          51          52          57          56
          52          53          58          57
          53          54          59          58
          55          56          61          60
          56          57          62          61
          57          58          63          62
          58          59          64          63
          60          61          66          65
          61          62          67          66
          62          63          68          67
          63          64          69          68
          65          66          71          70
          66          67          72          71
          67          68          73          72
          68          69          74          73
          75          76          81          80
          76          77          82          81
          77          78          83          82
          78          79          84          83
          80          81          86          85
          81          82          87          86
          82          83          88          87
          83          84          89          88
          85          86          91          90
          86          87          92          91
          87          88          93          92
          88          89          94          93
          90          91          96          95
          91          92          97          96
          92          93          98          97
          93          94          99          98
         100         101         106         105
         101         102         107         106
         102         103         108         107
         103         104         109         108
         105         106         111         110
         106         107         112         111
         107         108         113         112
         108         109         114         113
         110         111         116         115
         111         112         117         116
         112         113         118         117
         113         114         119         118
         115         116         121         120
         116         117         122         121
         117         118         123         122
         118         119         124         123
         125         126         131         130
         126         127         132         131
         127         128         133         132
         128         129         134         133
         130         131         136         135
         131         132         137         136
         132         133         138         137
         133         134         139         138
         135         136         141         140
         136         137         142         141
         137         138         143         142
         138         139         144         143
         140         141         146         145
         141         142         147         146
         142         143         148         147
         143         144         149         148
         150         151         156         155
         151         152         157         156
         152         153         158         157
         153         154         159         158
         155         156         161         160
         156         157         162         161
         157         158         163         162
         158         159         164         163
         160         161         166         165
         161         162         167         166
         162         163         168         167
         163         164         169         168
         165         166         171         170
         166         167         172         171
         167         168         173         172
         168         169         174         173
         175         176         181         180
         176         177         182         181
         177         178         183         182
         178         179         184         183
         180         181         186         185
         181         182         187         186
         182         183         188         187
         183         184         189         188
         185         186         191         190
         186         187         192         191
         187         188         193         192
         188         189         194         193
         190         191         196         195
         191         192         197         196
         192         193         198         197
         193         194         199         198
         200         201         206         205
         201         202         207         206
         202         203         208         207
         203         204         209         208
         205         206         211         210
         206         207         212         211
         207         208         213         212
         208         209         214         213
         210         211         216         215
         211         212         217         216
         212         213         218         217
         213         214         219         218
         215         216         221         220
         216         217         222         221
         217         218         223         222
         218         219         224         223
         225         226         231         230
         226         227         232         231
         227         228         233         232
         228         229         234         233
         230         231         236         235
         231         232         237         236
         232         233         238         237
         233         234         239         238
         235         236         241         240
         236         237         242         241
         237         238         243         242
         238         239         244         243
         240         241         246         245
         241         242         247         246
         242         243         248         247
         243         244         249         248
         250         251         256         255
         251         252         257         256
         252         253         258         257
         253         254         259         258
         255         256         261         260
         256         257         262         261
         257         258         263         262
         258         259         264         263
         260         261         266         265
         261         262         267         266
         262         263         268         267
         263         264         269         268
         265         266         271         270
         266         267         272         271
         267         268         273         272
         268         269         274         273
         275         276         281         280
         276         277         282         281
         277         278         283         282
         278         279         284         283
         280         281         286         285
         281         282         287         286
         282         283         288         287
         283         284         289         288
         285         286         291         290
         286         287         292         291
         287         288         293         292
         288         289         294         293
         290         291         296         295
         291         292         297         296
         292         293         298         297
         293         294         299         298
         300         301         306         305
         301         302         307         306
         302         303         308         307
         303         304         309         308
         305         306         311         310
         306         307         312         311
         307         308         313         312
         308         309         314         313
         310         311         316         315
         311         312         317         316
         312         313         318         317
         313         314         319         318
         315         316         321         320
         316         317         322         321
         317         318         323         322
         318         319         324         323
         325         326         331         330
         326         327         332         331
         327         328         333         332
         328         329         334         333
         330         331         336         335
         331         332         337         336
         332         333         338         337
         333         334         339         338
         335         336         341         340
         336         337         342         341
         337         338         343         342
         338         339         344         343
         340         341         346         345
         341         342         347         346
         342         343         348         347
         343         344         349         348
         350         351         356         355
         351         352         357         356
         352         353         358         357
         353         354         359         358
         355         356         361         360
         356         357         362         361
         357         358         363         362
         358         359         364         363
         360         361         366         365
         361         362         367         366
         362         363         368         367
         363         364         369         368
         365         366         371         370
         366         367         372         371
         367         368         373         372
         368         369         374         373
         375         376         381         380
         376         377         382         381
         377         378         383         382
         378         379         384         383
         380         381         386         385
         381         382         387         386
         382         383         388         387
         383         384         389         388
         385         386         391         390
         386         387         392         391
         387         388         393         392
         388         389         394         393
         390         391         396         395
         391         392         397         396
         392         393         398         397
         393         394         399         398
         400         401         406         405
         401         402         407         406
         402         403         408         407
         403         404         409         408
         405         406         411         410
         406         407         412         411
         407         408         413         412
         408         409         414         413
         410         411         416         415
         411         412         417         416
         412         413         418         417
         413         414         419         418
         415         416         421         420
         416         417         422         421
         417         418         423         422
         418         419         424         423
         425         426         431         430
         426         427         432         431
         427         428         433         432
         428         429         434         433
         430         431         436         435
         431         432         437         436
         432         433         438         437
         433         434         439         438
         435         436         441         440
         436         437         442         441
         437         438         443         442
         438         439         444         443
         440         441         446         445
         441         442         447         446
         442         443         448         447
         443         444         449         448
         450         451         456         455
         451         452         457         456
         452         453         458         457
         453         454         459         458
         455         456         461         460
         456         457         462         461
         457         458         463         462
         458         459         464         463
         460         461         466         465
         461         462         467         466
         462         463         468         467
         463         464         469         468
         465         466         471         470
         466         467         472         471
         467         468         473         472
         468         469         474         473
         475         476         481         480
         476         477         482         481
         477         478         483         482
         478         479         484         483
         480         481         486         485
         481         482         487         486
         482         483         488         487
         483         484         489         488
         485         486         491         490
         486         487         492         491
         487         488         493         492
         488         489         494         493
         490         491         496         495
         491         492         497         496
         492         493         498         497
         493         494         499         498
         500         501         506         505
         501         502         507         506
         502         503         508         507
         503         504         509         508
         505         506         511         510
         506         507         512         511
         507         508         513         512
         508         509         514         513
         510         511         516         515
         511         512         517         516
         512         513         518         517
         513         514         519         518
         515         516         521         520
         516         517         522         521
         517         518         523         522
         518         519         524         523
         525         526         531         530
         526         527         532         531
         527         528         533         532
         528         529         534         533
         530         531         536         535
         531         532         537         536
         532         533         538         537
         533         534         539         538
         535         536         541         540
         536         537         542         541
         537         538         543         542
         538         539         544         543
         540         541         546         545
         541         542         547         546
         542         543         548         547
         543         544         549         548
         550         551         556         555
         551         552         557         556
         552         553         558         557
         553         554         559         558
         555         556         561         560
         556         557         562         561
         557         558         563         562
         558         559         564         563
         560         561         566         565
         561         562         567         566
         562         563         568         567
         563         564         569         568
         565         566         571         570
         566         567         572         571
         567         568         573         572
         568         569         574         573
         575         576         581         580
         576         577         582         581
         577         578         583         582
         578         579         584         583
         580         581         586         585
         581         582         587         586
         582         583         588         587
         583         584         589         588
         585         586         591         590
         586         587         592         591
         587         588         593         592
         588         589         594         593
         590         591         596         595
         591         592         597         596
         592         593         598         597
         593         594         599         598
         600         601         606         605
         601         602         607         606
         602         603         608         607
         603         604         609         608
         605         606         611         610
         606         607         612         611
         607         608         613         612
         608         609         614         613
         610         611         616         615
         611         612         617         616
         612         613         618         617
         613         614         619         618
         615         616         621         620
         616         617         622         621
         617         618         623         622
         618         619         624         623
         625         626         631         630
         626         627         632         631
         627         628         633         632
         628         629         634         633
         630         631         636         635
         631         632         637         636
         632         633         638         637
         633         634         639         638
         635         636         641         640
         636         637         642         641
         637         638         643         642
         638         639         644         643
         640         641         646         645
         641         642         647         646
         642         643         648         647
         643         644         649         648
         650         651         656         655
         651         652         657         656
         652         653         658         657
         653         654         659         658
         655         656         661         660
         656         657         662         661
         657         658         663         662
         658         659         664         663
         660         661         666         665
         661         662         667         666
         662         663         668         667
         663         664         669         668
         665         666         671         670
         666         667         672         671
         667         668         673         672
         668         669         674         673
         675         676         681         680
         676         677         682         681
         677         678         683         682
         678         679         684         683
         680         681         686         685
         681         682         687         686
         682         683         688         687
         683         684         689         688
         685         686         691         690
         686         687         692         691
         687         688         693         692
         688         689         694         693
         690         691         696         695
         691         692         697         696
         692         693         698         697
         693         694         699         698
         700         701         706         705
         701         702         707         706
         702         703         708         707
         703         704         709         708
         705         706         711         710
         706         707         712         711
         707         708         713         712
         708         709         714         713
         710         711         716         715
         711         712         717         716
         712         713         718         717
         713         714         719         718
         715         716         721         720
         716         717         722         721
         717         718         723         722
         718         719         724         723
         725         726         731         730
         726         727         732         731
         727         728         733         732
         728         729         734         733
         730         731         736         735
         731         732         737         736
         732         733         738         737
         733         734         739         738
         735         736         741         740
         736         737         742         741
         737         738         743         742
         738         739         744         743
         740         741         746         745
         741         742         747         746
         742         743         748         747
         743         744         749         748
         750         751         756         755
         751         752         757         756
         752         753         758         757
         753         754         759         758
         755         756         761         760
         756         757         762         761
         757         758         763         762
         758         759         764         763
         760         761         766         765
         761         762         767         766
         762         763         768         767
         763         764         769         768
         765         766         771         770
         766         767         772         771
         767         768         773         772
         768         769         774         773
         775         776         781         780
         776         777         782         781
         777         778         783         782
         778         779         784         783
         780         781         786         785
         781         782         787         786
         782         783         788         787
         783         784         789         788
         785         786         791         790
         786         787         792         791
         787         788         793         792
         788         789         794         793
         790         791         796         795
         791         792         797         796
         792         793         798         797
         793         794         799         798
 </DataArray>
 <DataArray  type="Int32"  Name="offsets"  format="ascii"> 
           4
           8
          12
          16
          20
          24
          28
          32
          36
          40
          44
          48
          52
          56
          60
          64
          68
          72
          76
          80
          84
          88
          92
          96
         100
         104
         108
         112
         116
         120
         124
         128
         132
         136
         140
         144
         148
         152
         156
         160
         164
         168
         172
         176
         180
         184
         188
         192
         196
         200
         204
         208
         212
         216
         220
         224
         228
         232
         236
         240
         244
         248
         252
         256
         260
         264
         268
         272
         276
         280
         284
         288
         292
         296
         300
         304
         308
         312
         316
         320
         324
         328
         332
         336
         340
         344
         348
         352
         356
         360
         364
         368
         372
         376
         380
         384
         388
         392
         396
         400
         404
         408
         412
         416
         420
         424
         428
         432
         436
         440
         444
         448
         452
         456
         460
         464
         468
         472
         476
         480
         484
         488
         492
         496
         500
         504
         508
         512
         516
         520
         524
         528
         532
         536
         540
         544
         548
         552
         556
         560
         564
         568
         572
         576
         580
         584
         588
         592
         596
         600
         604
         608
         612
         616
         620
         624
         628
         632
         636
         640
         644
         648
         652
         656
         660
         664
         668
         672
         676
         680
         684
         688
         692
         696
         700
         704
         708
         712
         716
         720
         724
         728
         732
         736
         740
         744
         748
         752
         756
         760
         764
         768
         772
         776
         780
         784
         788
         792
         796
         800
         804
         808
         812
         816
         820
         824
         828
         832
         836
         840
         844
         848
         852
         856
         860
         864
         868
         872
         876
         880
         884
         888
         892
         896
         900
         904
         908
         912
         916
         920
         924
         928
         932
         936
         940
         944
         948
         952
         956
         960
         964
         968
         972
         976
         980
         984
         988
         992
         996
        1000
        1004
        1008
        1012
        1016
        1020
        1024
        1028
        1032
        1036
        1040
        1044
        1048
        1052
        1056
        1060
        1064
        1068
        1072
        1076
        1080
        1084
        1088
        1092
        1096
        1100
        1104
        1108
        1112
        1116
        1120
        1124
        1128
        1132
        1136
        1140
        1144
        1148
        1152
        1156
        1160
        1164
        1168
        1172
        1176
        1180
        1184
        1188
        1192
        1196
        1200
        1204
        1208
        1212
        1216
        1220
        1224
        1228
        1232
        1236
        1240
        1244
        1248
        1252
        1256
        1260
        1264
        1268
        1272
        1276
        1280
        1284
        1288
        1292
        1296
        1300
        1304
        1308
        1312
        1316
        1320
        1324
        1328
        1332
        1336
        1340
        1344
        1348
        1352
        1356
        1360
        1364
        1368
        1372
        1376
        1380
        1384
        1388
        1392
        1396
        1400
        1404
        1408
        1412
        1416
        1420
        1424
        1428
        1432
        1436
        1440
        1444
        1448
        1452
        1456
        1460
        1464
        1468
        1472
        1476
        1480
        1484
        1488
        1492
        1496
        1500
        1504
        1508
        1512
        1516
        1520
        1524
        1528
        1532
        1536
        1540
        1544
        1548
        1552
        1556
        1560
        1564
        1568
        1572
        1576
        1580
        1584
        1588
        1592
        1596
        1600
        1604
        1608
        1612
        1616
        1620
        1624
        1628
        1632
        1636
        1640
        1644
        1648
        1652
        1656
        1660
        1664
        1668
        1672
        1676
        1680
        1684
        1688
        1692
        1696
        1700
        1704
        1708
        1712
        1716
        1720
        1724
        1728
        1732
        1736
        1740
        1744
        1748
        1752
        1756
        1760
        1764
        1768
        1772
        1776
        1780
        1784
        1788
        1792
        1796
        1800
        1804
        1808
        1812
        1816
        1820
        1824
        1828
        1832
        1836
        1840
        1844
        1848
        1852
        1856
        1860
        1864
        1868
        1872
        1876
        1880
        1884
        1888
        1892
        1896
        1900
        1904
        1908
        1912
        1916
        1920
        1924
        1928
        1932
        1936
        1940
        1944
        1948
        1952
        1956
        1960
        1964
        1968
        1972
        1976
        1980
        1984
        1988
        1992
        1996
        2000
        2004
        2008
        2012
        2016
        2020
        2024
        2028
        2032
        2036
        2040
        2044
        2048
 </DataArray>
 <DataArray  type="UInt8"  Name="types"  format="ascii">
 9
 9
 9
 9
 9
 9
 9
 9
 9
 9
 9
 9
 9
 9
 9
 9
 9
 9
 9
 9
 9
 9
 9
 9
 9
 9
 9
 9
 9
 9
 9
 9
 9
 9
 9
 9
 9
 9
 9
 9
 9
 9
 9
 9
 9
 9
 9
 9
 9
 9
 9
 9
 9
 9
 9
 9
 9
 9
 9
 9
 9
 9
 9
 9
 9
 9
 9
 9
 9
 9
 9
 9
 9
 9
 9
 9
 9
 9
 9
 9
 9
 9
 9
 9
 9
 9
 9
 9
 9
 9
 9
 9
 9
 9
 9
 9
 9
 9
 9
 9
 9
 9
 9
 9
 9
 9
 9
 9
 9
 9
 9
 9
 9
 9
 9
 9
 9
 9
 9
 9
 9
 9
 9
 9
 9
 9
 9
 9
 9
 9
 9
 9
 9
 9
 9
 9
 9
 9
 9
 9
 9
 9
 9
 9
 9
 9
 9
 9
 9
 9
 9
 9
 9
 9
 9
 9
 9
 9
 9
 9
 9
 9
 9
 9
 9
 9
 9
 9
 9
 9
 9
 9
 9
 9
 9
 9
 9
 9
 9
 9
 9
 9
 9
 9
 9
 9
 9
 9
 9
 9
 9
 9
 9
 9
 9
 9
 9
 9
 9
 9
 9
 9
 9
 9
 9
 9
 9
 9
 9
 9
 9
 9
 9
 9
 9
 9
 9
 9
 9
 9
 9
 9
 9
 9
 9
 9
 9
 9
 9
 9
 9
 9
 9
 9
 9
 9
 9
 9
 9
 9
 9
 9
 9
 9
 9
 9
 9
 9
 9
 9
 9
 9
 9
 9
 9
 9
 9
 9
 9
 9
 9
 9
 9
 9
 9
 9
 9
 9
 9
 9
 9
 9
 9
 9
 9
 9
 9
 9
 9
 9
 9
 9
 9
 9
 9
 9
 9
 9
 9
 9
 9
 9
 9
 9
 9
 9
 9
 9
 9
 9
 9
 9
 9
 9
 9
 9
 9
 9
 9
 9
 9
 9
 9
 9
 9
 9
 9
 9
 9
 9
 9
 9
 9
 9
 9
 9
 9
 9
 9
 9
 9
 9
 9
 9
 9
 9
 9
 9
 9
 9
 9
 9
 9
 9
 9
 9
 9
 9
 9
 9
 9
 9
 9
 9
 9
 9
 9
 9
 9
 9
 9
 9
 9
 9
 9
 9
 9
 9
 9
 9
 9
 9
 9
 9
 9
 9
 9
 9
 9
 9
 9
 9
 9
 9
 9
 9
 9
 9
 9
 9
 9
 9
 9
 9
 9
 9
 9
 9
 9
 9
 9
 9
 9
 9
 9
 9
 9
 9
 9
 9
 9
 9
 9
 9
 9
 9
 9
 9
 9
 9
 9
 9
 9
 9
 9
 9
 9
 9
 9
 9
 9
 9
 9
 9
 9
 9
 9
 9
 9
 9
 9
 9
 9
 9
 9
 9
 9
 9
 9
 9
 9
 9
 9
 9
 9
 9
 9
 9
 9
 9
 9
 9
 9
 9
 9
 9
 9
 9
 9
 9
 9
 9
 9
 9
 9
 9
 9
 9
 9
 9
 9
 9
 9
 9
 9
 9
 9
 9
 9
 9
 9
 9
 9
 9
 9
 9
 9
 9
 9
 9
 9
 9
 9
 9
 9
 9
 9
 9
 9
 9
 9
 9
 </DataArray>
 </Cells> 
 <PointData>
 <DataArray  type="Float64" Name="disp" NumberOfComponents="3" format="ascii">
   3.0010748842620342E-006   7.1576852223865071E-006   0.0000000000000000     
   3.1220999769839237E-006   7.9478595873629390E-006   0.0000000000000000     
   3.2353404509668133E-006   8.7655011284865790E-006   0.0000000000000000     
   3.3407963062107030E-006   9.6106098457574295E-006   0.0000000000000000     
   3.4384675427155925E-006   1.0483185739175492E-005   0.0000000000000000     
   2.9503293481853258E-006   7.1552150008868857E-006   0.0000000000000000     
   3.0512704068220348E-006   7.9447825831606726E-006   0.0000000000000000     
   3.1447393271301273E-006   8.7619601756311710E-006   0.0000000000000000     
   3.2307361091096029E-006   9.6067477782983777E-006   0.0000000000000000     
   3.3092607527604617E-006   1.0479145391162294E-005   0.0000000000000000     
   2.8908583297129494E-006   7.1523322034572853E-006   0.0000000000000000     
   2.9725117546713032E-006   7.9414389199234549E-006   0.0000000000000000     
   3.0470419311336927E-006   8.7582727613699715E-006   0.0000000000000000     
   3.1144488591001190E-006   9.6028337277968351E-006   0.0000000000000000     
   3.1747325385705812E-006   1.0475121819204046E-005   0.0000000000000000     
   2.8226618288449049E-006   7.1490368300977023E-006   0.0000000000000000     
   2.8858240205317282E-006   7.9378285976512810E-006   0.0000000000000000     
   2.9422482629775102E-006   8.7544388857029805E-006   0.0000000000000000     
   2.9919345561822502E-006   9.5988676942528034E-006   0.0000000000000000     
   3.0348829001459486E-006   1.0471115023300745E-005   0.0000000000000000     
   2.7457398455811923E-006   7.1453288808081395E-006   0.0000000000000000     
   2.7912072044033104E-006   7.9339516163441542E-006   0.0000000000000000     
   2.8303583226615787E-006   8.7504585486301996E-006   0.0000000000000000     
   2.8631932003559972E-006   9.5948496776662792E-006   0.0000000000000000     
   2.8897118374865663E-006   1.0467125003452395E-005   0.0000000000000000     
   3.4384675427155925E-006   1.0483185739175492E-005   0.0000000000000000     
   3.5283139554058758E-006   1.1379279542658799E-005   0.0000000000000000     
   3.6102953392059481E-006   1.2294941990125388E-005   0.0000000000000000     
   3.6844116941158090E-006   1.3230173081575262E-005   0.0000000000000000     
   3.7506630201354588E-006   1.4184972817008417E-005   0.0000000000000000     
   3.3092607527604617E-006   1.0479145391162294E-005   0.0000000000000000     
   3.3807122031883454E-006   1.1375177028752042E-005   0.0000000000000000     
   3.4454894054988942E-006   1.2290866705596743E-005   0.0000000000000000     
   3.5035923596921086E-006   1.3226214421696399E-005   0.0000000000000000     
   3.5550210657679878E-006   1.4181220177051008E-005   0.0000000000000000     
   3.1747325385705812E-006   1.0475121819204046E-005   0.0000000000000000     
   3.2286859378553049E-006   1.1371140206102027E-005   0.0000000000000000     
   3.2771020252645173E-006   1.2286892059001199E-005   0.0000000000000000     
   3.3199808007982170E-006   1.3222377377901567E-005   0.0000000000000000     
   3.3573222644564058E-006   1.4177596162803128E-005   0.0000000000000000     
   3.0348829001459486E-006   1.0471115023300745E-005   0.0000000000000000     
   3.0722351594067555E-006   1.1367169074708750E-005   0.0000000000000000     
   3.1051331985028179E-006   1.2283018050338756E-005   0.0000000000000000     
   3.1335770174341369E-006   1.3218661950190767E-005   0.0000000000000000     
   3.1575666162007126E-006   1.4174100774264777E-005   0.0000000000000000     
   2.8897118374865663E-006   1.0467125003452395E-005   0.0000000000000000     
   2.9113598678426961E-006   1.1363263634572217E-005   0.0000000000000000     
   2.9295829252137963E-006   1.2279244679609417E-005   0.0000000000000000     
   2.9443810095998676E-006   1.3215068138563996E-005   0.0000000000000000     
   2.9557541210009085E-006   1.4170734011435956E-005   0.0000000000000000     
   3.7506630201354588E-006   1.4184972817008417E-005   0.0000000000000000     
   3.8091769088090066E-006   1.5155171788573018E-005   0.0000000000000000     
   3.8600809516805611E-006   1.6136600588417225E-005   0.0000000000000000     
   3.9033751487501229E-006   1.7129259216541039E-005   0.0000000000000000     
   3.9390595000176921E-006   1.8133147672944457E-005   0.0000000000000000     
   3.5550210657679878E-006   1.4181220177051008E-005   0.0000000000000000     
   3.6000849678357579E-006   1.5151707568308550E-005   0.0000000000000000     
   3.6390935100046426E-006   1.6133500192117010E-005   0.0000000000000000     
   3.6720466922746421E-006   1.7126598048476384E-005   0.0000000000000000     
   3.6989445146457565E-006   1.8131001137386670E-005   0.0000000000000000     
   3.3573222644564058E-006   1.4177596162803128E-005   0.0000000000000000     
   3.3896036567970807E-006   1.5148377862511437E-005   0.0000000000000000     
   3.4173022183782401E-006   1.6130551925832060E-005   0.0000000000000000     
   3.4404179491998857E-006   1.7124118352764981E-005   0.0000000000000000     
   3.4589508492620154E-006   1.8129077143310215E-005   0.0000000000000000     
   3.1575666162007126E-006   1.4174100774264777E-005   0.0000000000000000     
   3.1777329756929750E-006   1.5145182671181682E-005   0.0000000000000000     
   3.1947070768013549E-006   1.6127755789562367E-005   0.0000000000000000     
   3.2084889195258529E-006   1.7121820129406838E-005   0.0000000000000000     
   3.2190785038664671E-006   1.8127375690715087E-005   0.0000000000000000     
   2.9557541210009085E-006   1.4170734011435956E-005   0.0000000000000000     
   2.9644729245234416E-006   1.5142121994319276E-005   0.0000000000000000     
   2.9713080852739870E-006   1.6125111783307941E-005   0.0000000000000000     
   2.9762596032525440E-006   1.7119703378401943E-005   0.0000000000000000     
   2.9793274784591134E-006   1.8125896779601289E-005   0.0000000000000000     
   3.9390595000176921E-006   1.8133147672944457E-005   0.0000000000000000     
   3.9675025365936460E-006   1.9146411541140666E-005   0.0000000000000000     
   3.9890727895883626E-006   2.0167196404642853E-005   0.0000000000000000     
   4.0037702590018418E-006   2.1195502263451004E-005   0.0000000000000000     
   4.0115949448340836E-006   2.2231329117565132E-005   0.0000000000000000     
   3.6989445146457565E-006   1.8131001137386670E-005   0.0000000000000000     
   3.7202226961343015E-006   1.9144762286168017E-005   0.0000000000000000     
   3.7363169557565909E-006   2.0165934322140568E-005   0.0000000000000000     
   3.7472272935126253E-006   2.1194517245304321E-005   0.0000000000000000     
   3.7529537094024059E-006   2.2230511055659284E-005   0.0000000000000000     
   3.4589508492620154E-006   1.8129077143310215E-005   0.0000000000000000     
   3.4734380017746486E-006   1.9143324964231325E-005   0.0000000000000000     
   3.4844164899478041E-006   2.0164758482291899E-005   0.0000000000000000     
   3.4918863137814830E-006   2.1193377697491926E-005   0.0000000000000000     
   3.4958474732756840E-006   2.2229182609831414E-005   0.0000000000000000     
   3.2190785038664671E-006   1.8127375690715087E-005   0.0000000000000000     
   3.2271484535146884E-006   1.9142099575330593E-005   0.0000000000000000     
   3.2333713921620038E-006   2.0163668885096836E-005   0.0000000000000000     
   3.2377473198084135E-006   2.1192083620013806E-005   0.0000000000000000     
   3.2402762364539185E-006   2.2227343780081516E-005   0.0000000000000000     
   2.9793274784591134E-006   1.8125896779601289E-005   0.0000000000000000     
   2.9813540513544192E-006   1.9141086119465822E-005   0.0000000000000000     
   2.9831816623991874E-006   2.0162665530555384E-005   0.0000000000000000     
   2.9848103115934173E-006   2.1190635012869974E-005   0.0000000000000000     
   2.9862399989371089E-006   2.2224994566409592E-005   0.0000000000000000     
   2.7457398455811923E-006   7.1453288808081395E-006   0.0000000000000000     
   2.7912072044033104E-006   7.9339516163441542E-006   0.0000000000000000     
   2.8303583226615787E-006   8.7504585486301996E-006   0.0000000000000000     
   2.8631932003559972E-006   9.5948496776662792E-006   0.0000000000000000     
   2.8897118374865663E-006   1.0467125003452395E-005   0.0000000000000000     
   2.6600842401259231E-006   7.1412710013095548E-006   0.0000000000000000     
   2.6887025687465047E-006   7.9298726467428438E-006   0.0000000000000000     
   2.7114426651173696E-006   8.7463937006586870E-006   0.0000000000000000     
   2.7283045292385164E-006   9.5908341630570859E-006   0.0000000000000000     
   2.7392881611099465E-006   1.0463194033938041E-005   0.0000000000000000     
   2.5656868726832084E-006   7.1369258373229083E-006   0.0000000000000000     
   2.5783513760217679E-006   7.9256563595881331E-006   0.0000000000000000     
   2.5855718452763531E-006   8.7423062922955108E-006   0.0000000000000000     
   2.5873482804469640E-006   9.5868756354450416E-006   0.0000000000000000     
   2.5836806815336007E-006   1.0459364389036725E-005   0.0000000000000000     
   2.4625477432530488E-006   7.1322933888482006E-006   0.0000000000000000     
   2.4601536262290986E-006   7.9213027548800184E-006   0.0000000000000000     
   2.4527458631385287E-006   8.7381963235406662E-006   0.0000000000000000     
   2.4403244539813392E-006   9.5829740948301429E-006   0.0000000000000000     
   2.4228893987575299E-006   1.0455636068748450E-005   0.0000000000000000     
   2.3506668518354438E-006   7.1273736558854294E-006   0.0000000000000000     
   2.3341093193684977E-006   7.9168118326185000E-006   0.0000000000000000     
   2.3129647187038973E-006   8.7340637943941546E-006   0.0000000000000000     
   2.2872330498416427E-006   9.5791295412123933E-006   0.0000000000000000     
   2.2569143127817337E-006   1.0452009073073213E-005   0.0000000000000000     
   2.8897118374865663E-006   1.0467125003452395E-005   0.0000000000000000     
   2.9113598678426961E-006   1.1363263634572217E-005   0.0000000000000000     
   2.9295829252137963E-006   1.2279244679609417E-005   0.0000000000000000     
   2.9443810095998676E-006   1.3215068138563996E-005   0.0000000000000000     
   2.9557541210009085E-006   1.4170734011435956E-005   0.0000000000000000     
   2.7392881611099465E-006   1.0463194033938041E-005   0.0000000000000000     
   2.7461058800426723E-006   1.1359454482833984E-005   0.0000000000000000     
   2.7504700053477093E-006   1.2275596679277359E-005   0.0000000000000000     
   2.7523805370250566E-006   1.3211620623268171E-005   0.0000000000000000     
   2.7518374750747152E-006   1.4167526314806411E-005   0.0000000000000000     
   2.5836806815336007E-006   1.0459364389036725E-005   0.0000000000000000     
   2.5765190128862287E-006   1.1355772216635614E-005   0.0000000000000000     
   2.5678132388548135E-006   1.2272098781806774E-005   0.0000000000000000     
   2.5575633594393552E-006   1.3208344084550194E-005   0.0000000000000000     
   2.5457693746398545E-006   1.4164508124865885E-005   0.0000000000000000     
   2.4228893987575299E-006   1.0455636068748450E-005   0.0000000000000000     
   2.4025992663733647E-006   1.1352216835977112E-005   0.0000000000000000     
   2.3816126257351091E-006   1.2268750987197652E-005   0.0000000000000000     
   2.3599294768427625E-006   1.3205238522410075E-005   0.0000000000000000     
   2.3375498196963251E-006   1.4161679441614379E-005   0.0000000000000000     
   2.2569143127817337E-006   1.0452009073073213E-005   0.0000000000000000     
   2.2243466405040814E-006   1.1348788340858465E-005   0.0000000000000000     
   2.1918681659885965E-006   1.2265553295449999E-005   0.0000000000000000     
   2.1594788892352784E-006   1.3202303936847805E-005   0.0000000000000000     
   2.1271788102441282E-006   1.4159040265051892E-005   0.0000000000000000     
   2.9557541210009085E-006   1.4170734011435956E-005   0.0000000000000000     
   2.9644729245234416E-006   1.5142121994319276E-005   0.0000000000000000     
   2.9713080852739870E-006   1.6125111783307941E-005   0.0000000000000000     
   2.9762596032525440E-006   1.7119703378401943E-005   0.0000000000000000     
   2.9793274784591134E-006   1.8125896779601289E-005   0.0000000000000000     
   2.7518374750747152E-006   1.4167526314806411E-005   0.0000000000000000     
   2.7497484116373805E-006   1.5139228338712225E-005   0.0000000000000000     
   2.7470209388537479E-006   1.6122641279805756E-005   0.0000000000000000     
   2.7436550567238190E-006   1.7117765138087002E-005   0.0000000000000000     
   2.7396507652475926E-006   1.8124599913555970E-005   0.0000000000000000     
   2.5457693746398545E-006   1.4164508124865885E-005   0.0000000000000000     
   2.5334843453836922E-006   1.5136534211148523E-005   0.0000000000000000     
   2.5217613325982539E-006   1.6120365651792805E-005   0.0000000000000000     
   2.5106003362835376E-006   1.7116002446798718E-005   0.0000000000000000     
   2.5000013564395436E-006   1.8123444596166275E-005   0.0000000000000000     
   2.3375498196963251E-006   1.4161679441614379E-005   0.0000000000000000     
   2.3156807257623771E-006   1.5134039611628176E-005   0.0000000000000000     
   2.2955292665075023E-006   1.6118284899269080E-005   0.0000000000000000     
   2.2770954419316982E-006   1.7114415304537094E-005   0.0000000000000000     
   2.2603792520349669E-006   1.8122430827432208E-005   0.0000000000000000     
   2.1271788102441282E-006   1.4159040265051892E-005   0.0000000000000000     
   2.0963375527734364E-006   1.5131744540151179E-005   0.0000000000000000     
   2.0683247405814946E-006   1.6116399022234585E-005   0.0000000000000000     
   2.0431403736683033E-006   1.7113003711302116E-005   0.0000000000000000     
   2.0207844520338620E-006   1.8121558607353765E-005   0.0000000000000000     
   2.9793274784591134E-006   1.8125896779601289E-005   0.0000000000000000     
   2.9813540513544192E-006   1.9141086119465822E-005   0.0000000000000000     
   2.9831816623991874E-006   2.0162665530555384E-005   0.0000000000000000     
   2.9848103115934173E-006   2.1190635012869974E-005   0.0000000000000000     
   2.9862399989371089E-006   2.2224994566409592E-005   0.0000000000000000     
   2.7396507652475926E-006   1.8124599913555970E-005   0.0000000000000000     
   2.7360201526283201E-006   1.9140228987618333E-005   0.0000000000000000     
   2.7337753070692520E-006   2.0161735741679768E-005   0.0000000000000000     
   2.7329162285703900E-006   2.1189120175740283E-005   0.0000000000000000     
   2.7334429171317328E-006   2.2222382289799865E-005   0.0000000000000000     
   2.5000013564395436E-006   1.8123444596166275E-005   0.0000000000000000     
   2.4911121146708644E-006   1.9139472570769454E-005   0.0000000000000000     
   2.4850803325820920E-006   2.0160866841482224E-005   0.0000000000000000     
   2.4819060101732270E-006   2.1187627408304600E-005   0.0000000000000000     
   2.4815891474442690E-006   2.2219754271236573E-005   0.0000000000000000     
   2.2603792520349669E-006   1.8122430827432208E-005   0.0000000000000000     
   2.2466299374820539E-006   1.9138816868919182E-005   0.0000000000000000     
   2.2370967389377078E-006   2.0160058829962752E-005   0.0000000000000000     
   2.2317796564019284E-006   2.1186156710562926E-005   0.0000000000000000     
   2.2306786898747163E-006   2.2217110510719696E-005   0.0000000000000000     
   2.0207844520338620E-006   1.8121558607353765E-005   0.0000000000000000     
   2.0025736210618881E-006   1.9138261882067517E-005   0.0000000000000000     
   1.9898245261360989E-006   2.0159311707121345E-005   0.0000000000000000     
   1.9825371672564950E-006   2.1184708082515259E-005   0.0000000000000000     
   1.9807115444230759E-006   2.2214451008249255E-005   0.0000000000000000     
   2.3506668518354438E-006   7.1273736558854294E-006   0.0000000000000000     
   2.3341093193684977E-006   7.9168118326185000E-006   0.0000000000000000     
   2.3129647187038973E-006   8.7340637943941546E-006   0.0000000000000000     
   2.2872330498416427E-006   9.5791295412123933E-006   0.0000000000000000     
   2.2569143127817337E-006   1.0452009073073213E-005   0.0000000000000000     
   2.2300024390185139E-006   7.1222914268421926E-006   0.0000000000000000     
   2.2002554617118499E-006   7.9122656297306440E-006   0.0000000000000000     
   2.1663064294588854E-006   8.7299623433256034E-006   0.0000000000000000     
   2.1281553422596205E-006   9.5753815676270792E-006   0.0000000000000000     
   2.0858022001140555E-006   1.0448523302635066E-005   0.0000000000000000     
   2.1005127453903797E-006   7.1171714901260833E-006   0.0000000000000000     
   2.0586290595310407E-006   7.9077461831435120E-006   0.0000000000000000     
   2.0128490128899203E-006   8.7259456088046500E-006   0.0000000000000000     
   1.9631726054670194E-006   9.5717697671094956E-006   0.0000000000000000     
   1.9095998372623376E-006   1.0445218658058052E-005   0.0000000000000000     
   1.9621977709510420E-006   7.1120138457371016E-006   0.0000000000000000     
   1.9092301128260696E-006   7.9032534928571038E-006   0.0000000000000000     
   1.8525924689970017E-006   8.7220135908312841E-006   0.0000000000000000     
   1.7922848394638388E-006   9.5682941396596375E-006   0.0000000000000000     
   1.7283072242265805E-006   1.0442095139342171E-005   0.0000000000000000     
   1.8150575157004996E-006   7.1068184936752482E-006   0.0000000000000000     
   1.7520586215969372E-006   7.8987875588714263E-006   0.0000000000000000     
   1.6855367977801307E-006   8.7181662894055126E-006   0.0000000000000000     
   1.6154920442500795E-006   9.5649546852775114E-006   0.0000000000000000     
   1.5419243610067836E-006   1.0439152746487421E-005   0.0000000000000000     
   2.2569143127817337E-006   1.0452009073073213E-005   0.0000000000000000     
   2.2243466405040814E-006   1.1348788340858465E-005   0.0000000000000000     
   2.1918681659885965E-006   1.2265553295449999E-005   0.0000000000000000     
   2.1594788892352784E-006   1.3202303936847805E-005   0.0000000000000000     
   2.1271788102441282E-006   1.4159040265051892E-005   0.0000000000000000     
   2.0858022001140555E-006   1.0448523302635066E-005   0.0000000000000000     
   2.0417609809698049E-006   1.1345531421800976E-005   0.0000000000000000     
   1.9985456627744836E-006   1.2262549798576221E-005   0.0000000000000000     
   1.9561562455280916E-006   1.3199578432960801E-005   0.0000000000000000     
   1.9145927292306293E-006   1.4156617324954716E-005   0.0000000000000000     
   1.9095998372623376E-006   1.0445218658058052E-005   0.0000000000000000     
   1.8548421334619623E-006   1.1342490769325929E-005   0.0000000000000000     
   1.8016109192519802E-006   1.2259784588588735E-005   0.0000000000000000     
   1.7499061946323910E-006   1.3197100115846473E-005   0.0000000000000000     
   1.6997279596031949E-006   1.4154437351099144E-005   0.0000000000000000     
   1.7283072242265805E-006   1.0442095139342171E-005   0.0000000000000000     
   1.6635900979805535E-006   1.1339666383433322E-005   0.0000000000000000     
   1.6010639354210856E-006   1.2257257665487536E-005   0.0000000000000000     
   1.5407287365481758E-006   1.3194868985504822E-005   0.0000000000000000     
   1.4825845013618245E-006   1.4152500343485169E-005   0.0000000000000000     
   1.5419243610067836E-006   1.0439152746487421E-005   0.0000000000000000     
   1.4680048745255789E-006   1.1337058264123154E-005   0.0000000000000000     
   1.3969047112817998E-006   1.2254969029272629E-005   0.0000000000000000     
   1.3286238712754464E-006   1.3192885041935842E-005   0.0000000000000000     
   1.2631623545065188E-006   1.4150806302112795E-005   0.0000000000000000     
   2.1271788102441282E-006   1.4159040265051892E-005   0.0000000000000000     
   2.0963375527734364E-006   1.5131744540151179E-005   0.0000000000000000     
   2.0683247405814946E-006   1.6116399022234585E-005   0.0000000000000000     
   2.0431403736683033E-006   1.7113003711302116E-005   0.0000000000000000     
   2.0207844520338620E-006   1.8121558607353765E-005   0.0000000000000000     
   1.9145927292306293E-006   1.4156617324954716E-005   0.0000000000000000     
   1.8753863528695699E-006   1.5129662208121551E-005   0.0000000000000000     
   1.8400683554323879E-006   1.6114708816024892E-005   0.0000000000000000     
   1.8086387369190827E-006   1.7111757148664738E-005   0.0000000000000000     
   1.7810974973296545E-006   1.8120807206041086E-005   0.0000000000000000     
   1.6997279596031949E-006   1.4154437351099144E-005   0.0000000000000000     
   1.6527586525034817E-006   1.5127805826943316E-005   0.0000000000000000     
   1.6106807116723397E-006   1.6113215075975573E-005   0.0000000000000000     
   1.5734941371097692E-006   1.7110665098195906E-005   0.0000000000000000     
   1.5411989288157707E-006   1.8120155893604316E-005   0.0000000000000000     
   1.4825845013618245E-006   1.4152500343485169E-005   0.0000000000000000     
   1.4284544516751698E-006   1.5126175396616472E-005   0.0000000000000000     
   1.3801618093013493E-006   1.6111917802086622E-005   0.0000000000000000     
   1.3377065742403622E-006   1.7109727559895619E-005   0.0000000000000000     
   1.3010887464922098E-006   1.8119604670043457E-005   0.0000000000000000     
   1.2631623545065188E-006   1.4150806302112795E-005   0.0000000000000000     
   1.2024737503846362E-006   1.5124770917141016E-005   0.0000000000000000     
   1.1485116483194176E-006   1.6110816994358044E-005   0.0000000000000000     
   1.1012760483108627E-006   1.7108944533763872E-005   0.0000000000000000     
   1.0607669503589722E-006   1.8119153535358500E-005   0.0000000000000000     
   2.0207844520338620E-006   1.8121558607353765E-005   0.0000000000000000     
   2.0025736210618881E-006   1.9138261882067517E-005   0.0000000000000000     
   1.9898245261360989E-006   2.0159311707121345E-005   0.0000000000000000     
   1.9825371672564950E-006   2.1184708082515259E-005   0.0000000000000000     
   1.9807115444230759E-006   2.2214451008249255E-005   0.0000000000000000     
   1.7810974973296545E-006   1.8120807206041086E-005   0.0000000000000000     
   1.7587999467875943E-006   1.9137789851616630E-005   0.0000000000000000     
   1.7431013954163935E-006   2.0158635948854062E-005   0.0000000000000000     
   1.7340018432160513E-006   2.1183345497753376E-005   0.0000000000000000     
   1.7315012901865684E-006   2.2211918498314578E-005   0.0000000000000000     
   1.5411989288157707E-006   1.8120155893604316E-005   0.0000000000000000     
   1.5151656960364014E-006   1.9137383018968701E-005   0.0000000000000000     
   1.4967650480177187E-006   2.0158042031056945E-005   0.0000000000000000     
   1.4859969847597237E-006   2.1182132929869049E-005   0.0000000000000000     
   1.4828615062624152E-006   2.2209655715405012E-005   0.0000000000000000     
   1.3010887464922098E-006   1.8119604670043457E-005   0.0000000000000000     
   1.2716708688083083E-006   1.9137041384123725E-005   0.0000000000000000     
   1.2508154839400758E-006   2.0157529953729995E-005   0.0000000000000000     
   1.2385225918875118E-006   2.1181070378862273E-005   0.0000000000000000     
   1.2347921926506162E-006   2.2207662659520561E-005   0.0000000000000000     
   1.0607669503589722E-006   1.8119153535358500E-005   0.0000000000000000     
   1.0283154651033156E-006   1.9136764947081695E-005   0.0000000000000000     
   1.0052527031834633E-006   2.0157099716873214E-005   0.0000000000000000     
   9.9157866459941564E-007   2.1180157844733053E-005   0.0000000000000000     
   9.8729334935117199E-007   2.2205939330661219E-005   0.0000000000000000     
   1.8150575157004996E-006   7.1068184936752482E-006   0.0000000000000000     
   1.7520586215969372E-006   7.8987875588714263E-006   0.0000000000000000     
   1.6855367977801307E-006   8.7181662894055126E-006   0.0000000000000000     
   1.6154920442500795E-006   9.5649546852775114E-006   0.0000000000000000     
   1.5419243610067836E-006   1.0439152746487421E-005   0.0000000000000000     
   1.6596668427261450E-006   7.1018781961732426E-006   0.0000000000000000     
   1.5874230094229934E-006   7.8945217414823789E-006   0.0000000000000000     
   1.5117975437738175E-006   8.7144953778027007E-006   0.0000000000000000     
   1.4327904457786177E-006   9.5617991051342099E-006   0.0000000000000000     
   1.3504017154373938E-006   1.0436432923476903E-005   0.0000000000000000     
   1.4966006151153705E-006   7.0974857154638075E-006   0.0000000000000000     
   1.4156316998835877E-006   7.8906294009858780E-006   0.0000000000000000     
   1.3314902515125748E-006   8.7110925292982172E-006   0.0000000000000000     
   1.2441762700023312E-006   9.5588751004008304E-006   0.0000000000000000     
   1.1536897553528568E-006   1.0433977114293712E-005   0.0000000000000000     
   1.3258588328681758E-006   7.0936410515469394E-006   0.0000000000000000     
   1.2366846929787208E-006   7.8871105373819185E-006   0.0000000000000000     
   1.1446149209964018E-006   8.7079577438920638E-006   0.0000000000000000     
   1.0496495169212192E-006   9.5561826710773760E-006   0.0000000000000000     
   9.5178848075317266E-007   1.0431785318937854E-005   0.0000000000000000     
   1.1474414959845611E-006   7.0903442044226419E-006   0.0000000000000000     
   1.0505819887083919E-006   7.8839651506705056E-006   0.0000000000000000     
   9.5117155222529904E-007   8.7050910215842370E-006   0.0000000000000000     
   8.4921018653528211E-007   9.5537218171638453E-006   0.0000000000000000     
   7.4469789163834120E-007   1.0429857537409322E-005   0.0000000000000000     
   1.5419243610067836E-006   1.0439152746487421E-005   0.0000000000000000     
   1.4680048745255789E-006   1.1337058264123154E-005   0.0000000000000000     
   1.3969047112817998E-006   1.2254969029272629E-005   0.0000000000000000     
   1.3286238712754464E-006   1.3192885041935842E-005   0.0000000000000000     
   1.2631623545065188E-006   1.4150806302112795E-005   0.0000000000000000     
   1.3504017154373938E-006   1.0436432923476903E-005   0.0000000000000000     
   1.2680279897770390E-006   1.1334716424451685E-005   0.0000000000000000     
   1.1890659058244469E-006   1.2252969199679464E-005   0.0000000000000000     
   1.1135154635796171E-006   1.3191191249160229E-005   0.0000000000000000     
   1.0413766630425497E-006   1.4149382572893994E-005   0.0000000000000000     
   1.1536897553528568E-006   1.0433977114293712E-005   0.0000000000000000     
   1.0636009704149356E-006   1.1332690877475166E-005   0.0000000000000000     
   9.7748017803935066E-007   1.2251308696443489E-005   0.0000000000000000     
   8.9532737822610224E-007   1.3189830571198680E-005   0.0000000000000000     
   8.1714257097519012E-007   1.4148256501740740E-005   0.0000000000000000     
   9.5178848075317266E-007   1.0431785318937854E-005   0.0000000000000000     
   8.5472381643926794E-007   1.1330981623193597E-005   0.0000000000000000     
   7.6214752792651101E-007   1.2249987519564708E-005   0.0000000000000000     
   6.7405961521490176E-007   1.3188803008051183E-005   0.0000000000000000     
   5.9046007830443997E-007   1.4147428088653031E-005   0.0000000000000000     
   7.4469789163834120E-007   1.0429857537409322E-005   0.0000000000000000     
   6.4139652785003643E-007   1.1329588661606977E-005   0.0000000000000000     
   5.4306795548592782E-007   1.2249005669043120E-005   0.0000000000000000     
   4.4971217454601546E-007   1.3188108559717751E-005   0.0000000000000000     
   3.6132918503029930E-007   1.4146897333630867E-005   0.0000000000000000     
   1.2631623545065188E-006   1.4150806302112795E-005   0.0000000000000000     
   1.2024737503846362E-006   1.5124770917141016E-005   0.0000000000000000     
   1.1485116483194176E-006   1.6110816994358044E-005   0.0000000000000000     
   1.1012760483108627E-006   1.7108944533763872E-005   0.0000000000000000     
   1.0607669503589722E-006   1.8119153535358500E-005   0.0000000000000000     
   1.0413766630425497E-006   1.4149382572893994E-005   0.0000000000000000     
   9.7472120733775557E-007   1.5123602704268347E-005   0.0000000000000000     
   9.1562079958974534E-007   1.6109911176670893E-005   0.0000000000000000     
   8.6407543979851878E-007   1.7108307990101629E-005   0.0000000000000000     
   8.2008512796407632E-007   1.8118793144560553E-005   0.0000000000000000     
   8.1714257097519012E-007   1.4148256501740740E-005   0.0000000000000000     
   7.4510148124040420E-007   1.5122681073749859E-005   0.0000000000000000     
   6.8137983397553394E-007   1.6109198872906225E-005   0.0000000000000000     
   6.2597762918057946E-007   1.7107809899209842E-005   0.0000000000000000     
   5.7889486685554085E-007   1.8118514152660702E-005   0.0000000000000000     
   5.9046007830443997E-007   1.4147428088653031E-005   0.0000000000000000     
   5.1361457209258194E-007   1.5122006025585545E-005   0.0000000000000000     
   4.4578875147678362E-007   1.6108680083064044E-005   0.0000000000000000     
   3.8698261645704474E-007   1.7107450261088512E-005   0.0000000000000000     
   3.3719616703336558E-007   1.8118316559658950E-005   0.0000000000000000     
   3.6132918503029930E-007   1.4146897333630867E-005   0.0000000000000000     
   2.8026047989428896E-007   1.5121577559775416E-005   0.0000000000000000     
   2.0884755209349410E-007   1.6108354807144340E-005   0.0000000000000000     
   1.4709040162791468E-007   1.7107229075737634E-005   0.0000000000000000     
   9.4989028497550753E-008   1.8118200365555309E-005   0.0000000000000000     
   1.0607669503589722E-006   1.8119153535358500E-005   0.0000000000000000     
   1.0283154651033156E-006   1.9136764947081695E-005   0.0000000000000000     
   1.0052527031834633E-006   2.0157099716873214E-005   0.0000000000000000     
   9.9157866459941564E-007   2.1180157844733053E-005   0.0000000000000000     
   9.8729334935117199E-007   2.2205939330661219E-005   0.0000000000000000     
   8.2008512796407632E-007   1.8118793144560553E-005   0.0000000000000000     
   7.8493114029545386E-007   1.9136549742147066E-005   0.0000000000000000     
   7.5989475300168787E-007   2.0156760884960572E-005   0.0000000000000000     
   7.4497596608277833E-007   2.1179426573001065E-005   0.0000000000000000     
   7.4017477953872504E-007   2.2204546806268548E-005   0.0000000000000000     
   5.7889486685554085E-007   1.8118514152660702E-005   0.0000000000000000     
   5.4134954975875376E-007   1.9136391803624281E-005   0.0000000000000000     
   5.1455968064855436E-007   2.0156523022466040E-005   0.0000000000000000     
   4.9852525952494275E-007   2.1178907809185984E-005   0.0000000000000000     
   4.9324628638791883E-007   2.2203546163784104E-005   0.0000000000000000     
   3.3719616703336558E-007   1.8118316559658950E-005   0.0000000000000000     
   2.9757069349321528E-007   1.9136291131513338E-005   0.0000000000000000     
   2.6924748612406321E-007   2.0156386129389626E-005   0.0000000000000000     
   2.5222654492590922E-007   2.1178601553287803E-005   0.0000000000000000     
   2.4650786989875347E-007   2.2202937403207885E-005   0.0000000000000000     
   9.4989028497550753E-008   1.8118200365555309E-005   0.0000000000000000     
   5.3594571498838511E-008   1.9136247725814242E-005   0.0000000000000000     
   2.3958169428214091E-008   2.0156350205731315E-005   0.0000000000000000     
   6.0798222856775895E-009   2.1178507805306529E-005   0.0000000000000000     
  -4.0469928771149854E-011   2.2202720524539896E-005   0.0000000000000000     
   1.1474414959845611E-006   7.0903442044226419E-006   0.0000000000000000     
   1.0505819887083919E-006   7.8839651506705056E-006   0.0000000000000000     
   9.5117155222529904E-007   8.7050910215842370E-006   0.0000000000000000     
   8.4921018653528211E-007   9.5537218171638453E-006   0.0000000000000000     
   7.4469789163834120E-007   1.0429857537409322E-005   0.0000000000000000     
   9.6106724938163735E-007   7.0877059791724878E-006   0.0000000000000000     
   8.5696152351960748E-007   7.8813468391408002E-006   0.0000000000000000     
   7.5074944255444602E-007   8.7026600096658566E-006   0.0000000000000000     
   6.4243100648615245E-007   9.5516454907476554E-006   0.0000000000000000     
   5.3200621531472752E-007   1.0428303282386197E-005   0.0000000000000000     
   7.6645473797651529E-007   7.0858371808780502E-006   0.0000000000000000     
   6.5546123385937273E-007   7.8794092010819734E-006   0.0000000000000000     
   5.4293788933902211E-007   8.7008323554280341E-006   0.0000000000000000     
   4.2888470441546328E-007   9.5501066439162270E-006   0.0000000000000000     
   3.1330167908869651E-007   1.0427232066546557E-005   0.0000000000000000     
   5.6360396176919503E-007   7.0847378095393308E-006   0.0000000000000000     
   4.4608111972768782E-007   7.8781522364940220E-006   0.0000000000000000     
   3.2773689257902754E-007   8.6996080588707659E-006   0.0000000000000000     
   2.0857128032321436E-007   9.5491052766695582E-006   0.0000000000000000     
   8.8584282960248150E-008   1.0426643889890404E-005   0.0000000000000000     
   3.5251492075967641E-007   7.0844078651563288E-006   0.0000000000000000     
   2.2882118112455268E-007   7.8775759453769475E-006   0.0000000000000000     
   1.0514645227446246E-007   8.6989871199940554E-006   0.0000000000000000     
  -1.8509265790594330E-008   9.5486413890076509E-006   0.0000000000000000     
  -1.4214597307061755E-007   1.0426538752417734E-005   0.0000000000000000     
   7.4469789163834120E-007   1.0429857537409322E-005   0.0000000000000000     
   6.4139652785003643E-007   1.1329588661606977E-005   0.0000000000000000     
   5.4306795548592782E-007   1.2249005669043120E-005   0.0000000000000000     
   4.4971217454601546E-007   1.3188108559717751E-005   0.0000000000000000     
   3.6132918503029930E-007   1.4146897333630867E-005   0.0000000000000000     
   5.3200621531472752E-007   1.0428303282386197E-005   0.0000000000000000     
   4.2323972800291532E-007   1.1328571862371612E-005   0.0000000000000000     
   3.1989620351346056E-007   1.2248389708494040E-005   0.0000000000000000     
   2.2197564184636323E-007   1.3187756820753476E-005   0.0000000000000000     
   1.2947804300162335E-007   1.4146673199149923E-005   0.0000000000000000     
   3.1330167908869651E-007   1.0427232066546557E-005   0.0000000000000000     
   1.9987404025357903E-007   1.1327991095143812E-005   0.0000000000000000     
   9.2287014804968413E-008   1.2248166201532787E-005   0.0000000000000000     
  -9.4593972571354459E-009   1.3187757385713471E-005   0.0000000000000000     
  -1.0536519593273255E-007   1.4146764647685872E-005   0.0000000000000000     
   8.8584282960248150E-008   1.0426643889890404E-005   0.0000000000000000     
  -2.8700535397972462E-008   1.1327846359923574E-005   0.0000000000000000     
  -1.3975961063954870E-007   1.2248335148159351E-005   0.0000000000000000     
  -2.4459294276448067E-007   1.3188110254597728E-005   0.0000000000000000     
  -3.4320053177276835E-007   1.4147171679238715E-005   0.0000000000000000     
  -1.4214597307061755E-007   1.0426538752417734E-005   0.0000000000000000     
  -2.6248399895173909E-007   1.1328137656710899E-005   0.0000000000000000     
  -3.7624367282009070E-007   1.2248896548373741E-005   0.0000000000000000     
  -4.8342499467567250E-007   1.3188815427406256E-005   0.0000000000000000     
  -5.8402796451848416E-007   1.4147894293808451E-005   0.0000000000000000     
   3.6132918503029930E-007   1.4146897333630867E-005   0.0000000000000000     
   2.8026047989428896E-007   1.5121577559775416E-005   0.0000000000000000     
   2.0884755209349410E-007   1.6108354807144340E-005   0.0000000000000000     
   1.4709040162791468E-007   1.7107229075737634E-005   0.0000000000000000     
   9.4989028497550753E-008   1.8118200365555309E-005   0.0000000000000000     
   1.2947804300162335E-007   1.4146673199149923E-005   0.0000000000000000     
   4.4800467600429910E-008   1.5121410082960775E-005   0.0000000000000000     
  -2.9660023736028121E-008   1.6108238711463423E-005   0.0000000000000000     
  -9.3903431007750754E-008   1.7107159084657869E-005   0.0000000000000000     
  -1.4792975421473790E-007   1.8118171202544110E-005   0.0000000000000000     
  -1.0536519593273255E-007   1.4146764647685872E-005   0.0000000000000000     
  -1.9300420183409032E-007   1.5121518001782933E-005   0.0000000000000000     
  -2.6995023557347668E-007   1.6108347462337591E-005   0.0000000000000000     
  -3.3620329715089140E-007   1.7107253029349850E-005   0.0000000000000000     
  -3.9176338656633455E-007   1.8118234702819705E-005   0.0000000000000000     
  -3.4320053177276835E-007   1.4147171679238715E-005   0.0000000000000000     
  -4.3315352840927189E-007   1.5121901316241892E-005   0.0000000000000000     
  -5.1202308341885156E-007   1.6108681059766846E-005   0.0000000000000000     
  -5.7980919680150752E-007   1.7107510909813588E-005   0.0000000000000000     
  -6.3651186855723918E-007   1.8118390866382099E-005   0.0000000000000000     
  -5.8402796451848416E-007   1.4147894293808451E-005   0.0000000000000000     
  -6.7564751212511473E-007   1.5122560026337650E-005   0.0000000000000000     
  -7.5587856727215296E-007   1.6109239503751190E-005   0.0000000000000000     
  -8.2472112995959876E-007   1.7107932726049070E-005   0.0000000000000000     
  -8.8217520018745202E-007   1.8118639693231293E-005   0.0000000000000000     
   9.4989028497550753E-008   1.8118200365555309E-005   0.0000000000000000     
   5.3594571498838511E-008   1.9136247725814242E-005   0.0000000000000000     
   2.3958169428214091E-008   2.0156350205731315E-005   0.0000000000000000     
   6.0798222856775895E-009   2.1178507805306529E-005   0.0000000000000000     
  -4.0469928771149854E-011   2.2202720524539896E-005   0.0000000000000000     
  -1.4792975421473790E-007   1.8118171202544110E-005   0.0000000000000000     
  -1.9078407633618100E-007   1.9136260260207748E-005   0.0000000000000000     
  -2.2151148035127121E-007   2.0156411452734390E-005   0.0000000000000000     
  -2.4011196626000871E-007   2.1178624780124032E-005   0.0000000000000000     
  -2.4658553406239333E-007   2.2202900242376662E-005   0.0000000000000000     
  -3.9176338656633455E-007   1.8118234702819705E-005   0.0000000000000000     
  -4.3577051012364737E-007   1.9136327408374637E-005   0.0000000000000000     
  -4.6736467412667112E-007   2.0156566071642118E-005   0.0000000000000000     
  -4.8654587857540579E-007   2.1178950692622149E-005   0.0000000000000000     
  -4.9331412346985160E-007   2.2203481271314726E-005   0.0000000000000000     
  -6.3651186855723918E-007   1.8118390866382099E-005   0.0000000000000000     
  -6.8136472986356079E-007   1.9136449170314910E-005   0.0000000000000000     
  -7.1360141189798576E-007   2.0156814062454502E-005   0.0000000000000000     
  -7.3322191466051418E-007   2.1179485542800900E-005   0.0000000000000000     
  -7.4022623815114563E-007   2.2204463611354086E-005   0.0000000000000000     
  -8.8217520018745202E-007   1.8118639693231293E-005   0.0000000000000000     
  -9.2756673555592122E-007   1.9136625546028552E-005   0.0000000000000000     
  -9.6022169366521495E-007   2.0157155425171543E-005   0.0000000000000000     
  -9.8014007451533320E-007   2.1180229330660274E-005   0.0000000000000000     
  -9.8732187810627575E-007   2.2205847262494743E-005   0.0000000000000000     
   3.5251492075967641E-007   7.0844078651563288E-006   0.0000000000000000     
   2.2882118112455268E-007   7.8775759453769475E-006   0.0000000000000000     
   1.0514645227446246E-007   8.6989871199940554E-006   0.0000000000000000     
  -1.8509265790594330E-008   9.5486413890076509E-006   0.0000000000000000     
  -1.4214597307061755E-007   1.0426538752417734E-005   0.0000000000000000     
   1.3221514936536439E-007   7.0846942950176829E-006   0.0000000000000000     
   3.0590710625444303E-009   7.8777057231277695E-006   0.0000000000000000     
  -1.2520891193912617E-007   8.6991021411872564E-006   0.0000000000000000     
  -2.5258879963964736E-007   9.5488835491961420E-006   0.0000000000000000     
  -3.7908059203901922E-007   1.0427049947154426E-005   0.0000000000000000     
  -9.8267817996336270E-008   7.0854440464120331E-006   0.0000000000000000     
  -2.3182755744575991E-007   7.8785669651435058E-006   0.0000000000000000     
  -3.6370468042619097E-007   8.7000857248397174E-006   0.0000000000000000     
  -4.9389918693762943E-007   9.5500003255006670E-006   0.0000000000000000     
  -6.2241107698007526E-007   1.0428310767126351E-005   0.0000000000000000     
  -3.3893398132542553E-007   7.0866571193393784E-006   0.0000000000000000     
  -4.7583870440036035E-007   7.8801596714241580E-006   0.0000000000000000     
  -6.1034085318673209E-007   8.7019378709514399E-006   0.0000000000000000     
  -7.4244042768454067E-007   9.5519917179212243E-006   0.0000000000000000     
  -8.7213742789378611E-007   1.0430321212333511E-005   0.0000000000000000     
  -5.8978334062190352E-007   7.0883335137997180E-006   0.0000000000000000     
  -7.2897436980125687E-007   7.8824838419697262E-006   0.0000000000000000     
  -8.6511743022074918E-007   8.7046585795224258E-006   0.0000000000000000     
  -9.9821252188038088E-007   9.5548577264578204E-006   0.0000000000000000     
  -1.1282596447801512E-006   1.0433081282775903E-005   0.0000000000000000     
  -1.4214597307061755E-007   1.0426538752417734E-005   0.0000000000000000     
  -2.6248399895173909E-007   1.1328137656710899E-005   0.0000000000000000     
  -3.7624367282009070E-007   1.2248896548373741E-005   0.0000000000000000     
  -4.8342499467567250E-007   1.3188815427406256E-005   0.0000000000000000     
  -5.8402796451848416E-007   1.4147894293808451E-005   0.0000000000000000     
  -3.7908059203901922E-007   1.0427049947154426E-005   0.0000000000000000     
  -5.0167549246309868E-007   1.1328937279512594E-005   0.0000000000000000     
  -6.1736470423774286E-007   1.2249881490721129E-005   0.0000000000000000     
  -7.2614822736295198E-007   1.3189882580780034E-005   0.0000000000000000     
  -8.2802606183872561E-007   1.4148940549689302E-005   0.0000000000000000     
  -6.2241107698007526E-007   1.0428310767126351E-005   0.0000000000000000     
  -7.4647415798742911E-007   1.1330317522335461E-005   0.0000000000000000     
  -8.6332223739359074E-007   1.2251321063746693E-005   0.0000000000000000     
  -9.7295531519856067E-007   1.3191321391360041E-005   0.0000000000000000     
  -1.0753733914023384E-006   1.4150318505175506E-005   0.0000000000000000     
  -8.7213742789378611E-007   1.0430321212333511E-005   0.0000000000000000     
  -9.9687999552472982E-007   1.1332278385179508E-005   0.0000000000000000     
  -1.1141162722876340E-006   1.2253215267450434E-005   0.0000000000000000     
  -1.2238462581824982E-006   1.3193131859146283E-005   0.0000000000000000     
  -1.3260699532093226E-006   1.4152028160267054E-005   0.0000000000000000     
  -1.1282596447801512E-006   1.0433081282775903E-005   0.0000000000000000     
  -1.2528930050750016E-006   1.1334819868044732E-005   0.0000000000000000     
  -1.3697468089198727E-006   1.2255564101832347E-005   0.0000000000000000     
  -1.4788210563147651E-006   1.3195313984138756E-005   0.0000000000000000     
  -1.5801157472596782E-006   1.4154069514963954E-005   0.0000000000000000     
  -5.8402796451848416E-007   1.4147894293808451E-005   0.0000000000000000     
  -6.7564751212511473E-007   1.5122560026337650E-005   0.0000000000000000     
  -7.5587856727215296E-007   1.6109239503751190E-005   0.0000000000000000     
  -8.2472112995959876E-007   1.7107932726049070E-005   0.0000000000000000     
  -8.8217520018745202E-007   1.8118639693231293E-005   0.0000000000000000     
  -8.2802606183872561E-007   1.4148940549689302E-005   0.0000000000000000     
  -9.2065092180829366E-007   1.5123508874455307E-005   0.0000000000000000     
  -1.0016755214148860E-006   1.6110041032084411E-005   0.0000000000000000     
  -1.0710998606585024E-006   1.7108537022576611E-005   0.0000000000000000     
  -1.1289239395391428E-006   1.8118996845931909E-005   0.0000000000000000     
  -1.0753733914023384E-006   1.4150318505175506E-005   0.0000000000000000     
  -1.1683285262854838E-006   1.5124762602979967E-005   0.0000000000000000     
  -1.2495727801285563E-006   1.6111103882560298E-005   0.0000000000000000     
  -1.3191061529315559E-006   1.7109342343916512E-005   0.0000000000000000     
  -1.3769286446944819E-006   1.8119477987048590E-005   0.0000000000000000     
  -1.3260699532093226E-006   1.4152028160267054E-005   0.0000000000000000     
  -1.4186803255566853E-006   1.5126321211911628E-005   0.0000000000000000     
  -1.4995703434131639E-006   1.6112428055178865E-005   0.0000000000000000     
  -1.5687400067787589E-006   1.7110348690068766E-005   0.0000000000000000     
  -1.6261893156534699E-006   1.8120083116581335E-005   0.0000000000000000     
  -1.5801157472596782E-006   1.4154069514963954E-005   0.0000000000000000     
  -1.6717063196218975E-006   1.5128184701250288E-005   0.0000000000000000     
  -1.7516682112687086E-006   1.6114013549940092E-005   0.0000000000000000     
  -1.8200014222001113E-006   1.7111556061033376E-005   0.0000000000000000     
  -1.8767059524161059E-006   1.8120812234530139E-005   0.0000000000000000     
  -8.8217520018745202E-007   1.8118639693231293E-005   0.0000000000000000     
  -9.2756673555592122E-007   1.9136625546028552E-005   0.0000000000000000     
  -9.6022169366521495E-007   2.0157155425171543E-005   0.0000000000000000     
  -9.8014007451533320E-007   2.1180229330660274E-005   0.0000000000000000     
  -9.8732187810627575E-007   2.2205847262494743E-005   0.0000000000000000     
  -1.1289239395391428E-006   1.8118996845931909E-005   0.0000000000000000     
  -1.1745587147843388E-006   1.9136863890664971E-005   0.0000000000000000     
  -1.2074151431216209E-006   2.0157581545290473E-005   0.0000000000000000     
  -1.2274932245509895E-006   2.1181149809808408E-005   0.0000000000000000     
  -1.2347929590724450E-006   2.2207568684218778E-005   0.0000000000000000     
  -1.3769286446944819E-006   1.8119477987048590E-005   0.0000000000000000     
  -1.4225228551324229E-006   1.9137171559373583E-005   0.0000000000000000     
  -1.4553713839604654E-006   2.0158083808308528E-005   0.0000000000000000     
  -1.4754742311786095E-006   2.1182214733853428E-005   0.0000000000000000     
  -1.4828313967868557E-006   2.2209564336008283E-005   0.0000000000000000     
  -1.6261893156534699E-006   1.8120083116581335E-005   0.0000000000000000     
  -1.6714591566001742E-006   1.9137548552154377E-005   0.0000000000000000     
  -1.7040904161817484E-006   2.0158662214225715E-005   0.0000000000000000     
  -1.7240830943981936E-006   2.1183424102795343E-005   0.0000000000000000     
  -1.7314371912495088E-006   2.2211834217863257E-005   0.0000000000000000     
  -1.8767059524161059E-006   1.8120812234530139E-005   0.0000000000000000     
  -1.9213676191875927E-006   1.9137994869007356E-005   0.0000000000000000     
  -1.9535722397854706E-006   2.0159316763042027E-005   0.0000000000000000     
  -1.9733198142097409E-006   2.1184777916634140E-005   0.0000000000000000     
  -1.9806103424604032E-006   2.2214378329783701E-005   0.0000000000000000     
  -5.8978334062190352E-007   7.0883335137997180E-006   0.0000000000000000     
  -7.2897436980125687E-007   7.8824838419697262E-006   0.0000000000000000     
  -8.6511743022074918E-007   8.7046585795224258E-006   0.0000000000000000     
  -9.9821252188038088E-007   9.5548577264578204E-006   0.0000000000000000     
  -1.1282596447801512E-006   1.0433081282775903E-005   0.0000000000000000     
  -8.5147715153714471E-007   7.0906696563427084E-006   0.0000000000000000     
  -9.9184932080359429E-007   7.8856748617997201E-006   0.0000000000000000     
  -1.1285881777352899E-006   8.7083392484756659E-006   0.0000000000000000     
  -1.2616937223322311E-006   9.5586628163705459E-006   0.0000000000000000     
  -1.3911659545944184E-006   1.0436645565484356E-005   0.0000000000000000     
  -1.1246766697225239E-006   7.0938619735180098E-006   0.0000000000000000     
  -1.2650783245625170E-006   7.8898681159336549E-006   0.0000000000000000     
  -1.4013068619374000E-006   8.7130712757341511E-006   0.0000000000000000     
  -1.5333622818471728E-006   9.5634714529194960E-006   0.0000000000000000     
  -1.6612445842918355E-006   1.0441068647489694E-005   0.0000000000000000     
  -1.4093818951780411E-006   7.0979104653256194E-006   0.0000000000000000     
  -1.5486613810780249E-006   7.8950636043715287E-006   0.0000000000000000     
  -1.6832734828270800E-006   8.7188546612978831E-006   0.0000000000000000     
  -1.8132182004252055E-006   9.5692836361046775E-006   0.0000000000000000     
  -1.9384955338724020E-006   1.0446350528791915E-005   0.0000000000000000     
  -1.7055928279036958E-006   7.1028151317655373E-006   0.0000000000000000     
  -1.8425984903501187E-006   7.9012613271133449E-006   0.0000000000000000     
  -1.9744880404043305E-006   8.7256894051668618E-006   0.0000000000000000     
  -2.1012614780663298E-006   9.5760993659260855E-006   0.0000000000000000     
  -2.2229188033361188E-006   1.0452491209391021E-005   0.0000000000000000     
  -1.1282596447801512E-006   1.0433081282775903E-005   0.0000000000000000     
  -1.2528930050750016E-006   1.1334819868044732E-005   0.0000000000000000     
  -1.3697468089198727E-006   1.2255564101832347E-005   0.0000000000000000     
  -1.4788210563147651E-006   1.3195313984138756E-005   0.0000000000000000     
  -1.5801157472596782E-006   1.4154069514963954E-005   0.0000000000000000     
  -1.3911659545944184E-006   1.0436645565484356E-005   0.0000000000000000     
  -1.5148164703558482E-006   1.1337993881760464E-005   0.0000000000000000     
  -1.6304568654505163E-006   1.2258414151142219E-005   0.0000000000000000     
  -1.7380871398784227E-006   1.3197906373629632E-005   0.0000000000000000     
  -1.8377072936395674E-006   1.4156470549222696E-005   0.0000000000000000     
  -1.6612445842918355E-006   1.0441068647489694E-005   0.0000000000000000     
  -1.7829536750848737E-006   1.1341852337156041E-005   0.0000000000000000     
  -1.8964894600397729E-006   1.2261811999629836E-005   0.0000000000000000     
  -2.0018519391565326E-006   1.3200947634911079E-005   0.0000000000000000     
  -2.0990411124351536E-006   1.4159259242999773E-005   0.0000000000000000     
  -1.9384955338724020E-006   1.0446350528791915E-005   0.0000000000000000     
  -2.0573046192620780E-006   1.1346395234231466E-005   0.0000000000000000     
  -2.1678445926876427E-006   1.2265757647295193E-005   0.0000000000000000     
  -2.2701154541490956E-006   1.3204437767983102E-005   0.0000000000000000     
  -2.3641172036464358E-006   1.4162435596295190E-005   0.0000000000000000     
  -2.2229188033361188E-006   1.0452491209391021E-005   0.0000000000000000     
  -2.3378693028874626E-006   1.1351622572986735E-005   0.0000000000000000     
  -2.4445222633941262E-006   1.2270251094138292E-005   0.0000000000000000     
  -2.5428776848561099E-006   1.3208376772845697E-005   0.0000000000000000     
  -2.6329355672734144E-006   1.4165999609108945E-005   0.0000000000000000     
  -1.5801157472596782E-006   1.4154069514963954E-005   0.0000000000000000     
  -1.6717063196218975E-006   1.5128184701250288E-005   0.0000000000000000     
  -1.7516682112687086E-006   1.6114013549940092E-005   0.0000000000000000     
  -1.8200014222001113E-006   1.7111556061033376E-005   0.0000000000000000     
  -1.8767059524161059E-006   1.8120812234530139E-005   0.0000000000000000     
  -1.8377072936395674E-006   1.4156470549222696E-005   0.0000000000000000     
  -1.9276027241638697E-006   1.5130371819543908E-005   0.0000000000000000     
  -2.0060588288812475E-006   1.6115875326215770E-005   0.0000000000000000     
  -2.0730756077917016E-006   1.7112981069238281E-005   0.0000000000000000     
  -2.1286530608952317E-006   1.8121689048611441E-005   0.0000000000000000     
  -2.0990411124351536E-006   1.4159259242999773E-005   0.0000000000000000     
  -2.1865657548653501E-006   1.5132901315340454E-005   0.0000000000000000     
  -2.2629346414368379E-006   1.6118028343377670E-005   0.0000000000000000     
  -2.3281477721496172E-006   1.7114640327111412E-005   0.0000000000000000     
  -2.3822051470036871E-006   1.8122737266541688E-005   0.0000000000000000     
  -2.3641172036464358E-006   1.4162435596295190E-005   0.0000000000000000     
  -2.4485954117263394E-006   1.5135773188639931E-005   0.0000000000000000     
  -2.5222956489354800E-006   1.6120472601425789E-005   0.0000000000000000     
  -2.5852179152738573E-006   1.7116533834652773E-005   0.0000000000000000     
  -2.6373622107414726E-006   1.8123956888320871E-005   0.0000000000000000     
  -2.6329355672734144E-006   1.4165999609108945E-005   0.0000000000000000     
  -2.7136916947468363E-006   1.5138987439442327E-005   0.0000000000000000     
  -2.7841418513771732E-006   1.6123208100360126E-005   0.0000000000000000     
  -2.8442860371644236E-006   1.7118661591862350E-005   0.0000000000000000     
  -2.8941242521085886E-006   1.8125347913948993E-005   0.0000000000000000     
  -1.8767059524161059E-006   1.8120812234530139E-005   0.0000000000000000     
  -1.9213676191875927E-006   1.9137994869007356E-005   0.0000000000000000     
  -1.9535722397854706E-006   2.0159316763042027E-005   0.0000000000000000     
  -1.9733198142097409E-006   2.1184777916634140E-005   0.0000000000000000     
  -1.9806103424604032E-006   2.2214378329783701E-005   0.0000000000000000     
  -2.1286530608952317E-006   1.8121689048611441E-005   0.0000000000000000     
  -2.1724146501870127E-006   1.9138531157576244E-005   0.0000000000000000     
  -2.2039838376622202E-006   2.0160039289373668E-005   0.0000000000000000     
  -2.2233606233208554E-006   2.1186213444003720E-005   0.0000000000000000     
  -2.2305450071629170E-006   2.2217053621466402E-005   0.0000000000000000     
  -2.3822051470036871E-006   1.8122737266541688E-005   0.0000000000000000     
  -2.4247666568907701E-006   1.9139178065504749E-005   0.0000000000000000     
  -2.4554921927025872E-006   2.0160821627836846E-005   0.0000000000000000     
  -2.4743817544391401E-006   2.1187667953537979E-005   0.0000000000000000     
  -2.4814353421004261E-006   2.2219717042608156E-005   0.0000000000000000     
  -2.6373622107414726E-006   1.8123956888320871E-005   0.0000000000000000     
  -2.6784236392988641E-006   1.9139935592792876E-005   0.0000000000000000     
  -2.7080973049065712E-006   2.0161663778431558E-005   0.0000000000000000     
  -2.7263832075645936E-006   2.1189141445236911E-005   0.0000000000000000     
  -2.7332813472729313E-006   2.2222368593208952E-005   0.0000000000000000     
  -2.8941242521085886E-006   1.8125347913948993E-005   0.0000000000000000     
  -2.9333855974112954E-006   1.9140803739440623E-005   0.0000000000000000     
  -2.9617991742741722E-006   2.0162565741157800E-005   0.0000000000000000     
  -2.9793649826972178E-006   2.1190633919100523E-005   0.0000000000000000     
  -2.9860830226804327E-006   2.2225008273268794E-005   0.0000000000000000     
  -1.7055928279036958E-006   7.1028151317655373E-006   0.0000000000000000     
  -1.8425984903501187E-006   7.9012613271133449E-006   0.0000000000000000     
  -1.9744880404043305E-006   8.7256894051668618E-006   0.0000000000000000     
  -2.1012614780663298E-006   9.5760993659260855E-006   0.0000000000000000     
  -2.2229188033361188E-006   1.0452491209391021E-005   0.0000000000000000     
  -2.0140569675569210E-006   7.1093217384873376E-006   0.0000000000000000     
  -2.1474903843412658E-006   7.9088443002696883E-006   0.0000000000000000     
  -2.2754444614345797E-006   8.7337158100577044E-006   0.0000000000000000     
  -2.3979191988368608E-006   9.5839362678513810E-006   0.0000000000000000     
  -2.5149145965481102E-006   1.0459505673650725E-005   0.0000000000000000     
  -2.3355218137951490E-006   7.1181760511405934E-006   0.0000000000000000     
  -2.4639377950139352E-006   7.9181955399511569E-006   0.0000000000000000     
  -2.5866366726832561E-006   8.7430741786870364E-006   0.0000000000000000     
  -2.7036184468031122E-006   9.5928119673482269E-006   0.0000000000000000     
  -2.8148831173735026E-006   1.0467408905934735E-005   0.0000000000000000     
  -2.6699873666183789E-006   7.1293780697253031E-006   0.0000000000000000     
  -2.7919407223681265E-006   7.9293150461577457E-006   0.0000000000000000     
  -2.9080646741503616E-006   8.7537645110548510E-006   0.0000000000000000     
  -3.0183592219650835E-006   9.6027264644166198E-006   0.0000000000000000     
  -3.1228243658122946E-006   1.0476200906243054E-005   0.0000000000000000     
  -3.0174536260266117E-006   7.1429277942414693E-006   0.0000000000000000     
  -3.1314991664038401E-006   7.9422028188894564E-006   0.0000000000000000     
  -3.2397284658358952E-006   8.7657868071611532E-006   0.0000000000000000     
  -3.3421415243227772E-006   9.6136797590565614E-006   0.0000000000000000     
  -3.4387383418644868E-006   1.0485881674575681E-005   0.0000000000000000     
  -2.2229188033361188E-006   1.0452491209391021E-005   0.0000000000000000     
  -2.3378693028874626E-006   1.1351622572986735E-005   0.0000000000000000     
  -2.4445222633941262E-006   1.2270251094138292E-005   0.0000000000000000     
  -2.5428776848561099E-006   1.3208376772845697E-005   0.0000000000000000     
  -2.6329355672734144E-006   1.4165999609108945E-005   0.0000000000000000     
  -2.5149145965481102E-006   1.0459505673650725E-005   0.0000000000000000     
  -2.6250368062058584E-006   1.1357593580639414E-005   0.0000000000000000     
  -2.7268919794476331E-006   1.2275369542001133E-005   0.0000000000000000     
  -2.8204801162734352E-006   1.3212833557735887E-005   0.0000000000000000     
  -2.9058012166832642E-006   1.4169985627843671E-005   0.0000000000000000     
  -2.8148831173735026E-006   1.0467408905934735E-005   0.0000000000000000     
  -2.9191962094620993E-006   1.1364367484407062E-005   0.0000000000000000     
  -3.0153232481365741E-006   1.2281190192725716E-005   0.0000000000000000     
  -3.1032642333969279E-006   1.3217877030890693E-005   0.0000000000000000     
  -3.1830191652431597E-006   1.4174427998902001E-005   0.0000000000000000     
  -3.1228243658122946E-006   1.0476200906243054E-005   0.0000000000000000     
  -3.2203475126561853E-006   1.1371944284289682E-005   0.0000000000000000     
  -3.3098160694609496E-006   1.2287713046312041E-005   0.0000000000000000     
  -3.3912300362265880E-006   1.3223507192310124E-005   0.0000000000000000     
  -3.4645894129531001E-006   1.4179326722283937E-005   0.0000000000000000     
  -3.4387383418644868E-006   1.0485881674575681E-005   0.0000000000000000     
  -3.5284907157881164E-006   1.1380323980287274E-005   0.0000000000000000     
  -3.6103704434207592E-006   1.2294938102760105E-005   0.0000000000000000     
  -3.6843775247624161E-006   1.3229724041994173E-005   0.0000000000000000     
  -3.7505119598130858E-006   1.4184681797989480E-005   0.0000000000000000     
  -2.6329355672734144E-006   1.4165999609108945E-005   0.0000000000000000     
  -2.7136916947468363E-006   1.5138987439442327E-005   0.0000000000000000     
  -2.7841418513771732E-006   1.6123208100360126E-005   0.0000000000000000     
  -2.8442860371644236E-006   1.7118661591862350E-005   0.0000000000000000     
  -2.8941242521085886E-006   1.8125347913948993E-005   0.0000000000000000     
  -2.9058012166832642E-006   1.4169985627843671E-005   0.0000000000000000     
  -2.9821162247740960E-006   1.5142543094167450E-005   0.0000000000000000     
  -3.0486860846429031E-006   1.6126223298550187E-005   0.0000000000000000     
  -3.1055107962896869E-006   1.7121026240991890E-005   0.0000000000000000     
  -3.1525903597144477E-006   1.8126951921492548E-005   0.0000000000000000     
  -3.1830191652431597E-006   1.4174427998902001E-005   0.0000000000000000     
  -3.2541306226553695E-006   1.5146439179235105E-005   0.0000000000000000     
  -3.3161411846136561E-006   1.6129506654365476E-005   0.0000000000000000     
  -3.3690508511180215E-006   1.7123630424293117E-005   0.0000000000000000     
  -3.4128596221684632E-006   1.8128810489018028E-005   0.0000000000000000     
  -3.4645894129531001E-006   1.4179326722283937E-005   0.0000000000000000     
  -3.5297348883906569E-006   1.5150675694645288E-005   0.0000000000000000     
  -3.5865071512894325E-006   1.6133058167805983E-005   0.0000000000000000     
  -3.6349062016494245E-006   1.7126474141766032E-005   0.0000000000000000     
  -3.6749320394706344E-006   1.8130923616525429E-005   0.0000000000000000     
  -3.7505119598130858E-006   1.4184681797989480E-005   0.0000000000000000     
  -3.8089290219799606E-006   1.5155252640398004E-005   0.0000000000000000     
  -3.8597839846702311E-006   1.6136877838871722E-005   0.0000000000000000     
  -3.9030768478838987E-006   1.7129557393410641E-005   0.0000000000000000     
  -3.9388076116209625E-006   1.8133291304014755E-005   0.0000000000000000     
  -2.8941242521085886E-006   1.8125347913948993E-005   0.0000000000000000     
  -2.9333855974112954E-006   1.9140803739440623E-005   0.0000000000000000     
  -2.9617991742741722E-006   2.0162565741157800E-005   0.0000000000000000     
  -2.9793649826972178E-006   2.1190633919100523E-005   0.0000000000000000     
  -2.9860830226804327E-006   2.2225008273268794E-005   0.0000000000000000     
  -3.1525903597144477E-006   1.8126951921492548E-005   0.0000000000000000     
  -3.1897176724177472E-006   1.9141844387325951E-005   0.0000000000000000     
  -3.2166856319001484E-006   2.0163547685765866E-005   0.0000000000000000     
  -3.2334942381616513E-006   2.1192061816812309E-005   0.0000000000000000     
  -3.2401434912022550E-006   2.2227386780465270E-005   0.0000000000000000     
  -3.4128596221684632E-006   1.8128810489018028E-005   0.0000000000000000     
  -3.4474850055079027E-006   1.9143119418326803E-005   0.0000000000000000     
  -3.4728445088792589E-006   2.0164629782006051E-005   0.0000000000000000     
  -3.4889381322825329E-006   2.1193341580055763E-005   0.0000000000000000     
  -3.4957658757177237E-006   2.2229254812475949E-005   0.0000000000000000     
  -3.6749320394706344E-006   1.8130923616525429E-005   0.0000000000000000     
  -3.7066875966817619E-006   1.9144628832443194E-005   0.0000000000000000     
  -3.7302758052115044E-006   2.0165812029878351E-005   0.0000000000000000     
  -3.7456966650598637E-006   2.1194473208830896E-005   0.0000000000000000     
  -3.7529501762268392E-006   2.2230612369300839E-005   0.0000000000000000     
  -3.9388076116209625E-006   1.8133291304014755E-005   0.0000000000000000     
  -3.9673254459393231E-006   1.9146372629675111E-005   0.0000000000000000     
  -3.9889795208968830E-006   2.0167094429382762E-005   0.0000000000000000     
  -4.0037698364936431E-006   2.1195456703137703E-005   0.0000000000000000     
  -4.0116963927296008E-006   2.2231459450939931E-005   0.0000000000000000     
 </DataArray>
 <DataArray  type="Float64" Name="stress" NumberOfComponents="3" format="ascii">
   11983.936817748141       -27.112610084195239        125.32414479711214     
   11234.531522837609       -34.052263305935412       -59.777965567505369     
   10485.727388720807       -38.988047215324059       -52.385523871118657     
   9739.8020395461390       -34.327881317466108        11.732752675409683     
   8997.8894255491887       -16.291931493974062        79.190603348328082     
   11729.885401214495       -71.530919061992790        241.91358051377338     
   10992.345111562181       -10.136843713387861        49.755629424983141     
   10222.522616407809        6.6930450710333389        46.736044397099263     
   9436.9484424801522        7.7551082757763652        113.91020568356807     
   8642.6480686343311        5.9402603211951828        198.31471230645153     
   11427.494129917926       -139.29699868894068        331.42139313172629     
   10705.307979691434       -18.671476218441512        141.20015379343155     
   9923.7885409518240        23.661747630210357        133.71073692914609     
   9108.4745170574661        27.638878970554742        206.23183721508582     
   8271.2695845332091        12.600282848025017        308.08323657003780     
   11082.395033423018       -225.48069429227098        405.21865141119980     
   10378.592991729038       -53.001897306751289        220.38176565419982     
   9593.2450178373347        16.691540250343678        211.64583214991981     
   8757.2023486669968        28.423664415376606        290.65017021536732     
   7886.1573522873305        5.6965642482550720        409.87858029202533     
   10697.768551954372       -327.29791852783364        469.72666476981971     
   10015.672554251789       -108.66127658410915        291.21141023856302     
   9233.6706467223848       -10.651957554897763        282.86235645557764     
   8385.3984898797880        12.599411431152021        368.73336981535363     
   7489.3450857082362       -13.071384907528682        504.87051918067976     
   8997.8894255491887       -16.291931493974062        79.190603348328082     
   8246.4583029800815       -4.2530951900257605       -62.707974272760978     
   7490.9369026635322       -5.8485180442185083       -71.211690575032009     
   6734.0724780128694       -11.920688678828810        3.6872694953258818     
   5977.7476924082684       -16.194062493149886        130.32309663462573     
   8642.6480686343311        5.9402603211951828        198.31471230645153     
   7918.5620007648295        17.200795951115651        70.355282457177125     
   7177.9822945748010        10.292645765849102        67.642582575711998     
   6426.6018870111284       -5.4251417575583218        146.08460687627704     
   5668.1282894455571       -23.493176814252138        276.86485234463095     
   8271.2695845332091        12.600282848025017        308.08323657003780     
   7575.3339288033803        26.401801422842709        195.11928539451017     
   6851.8794551581441        17.111507667782917        199.58536636813034     
   6108.8410395183018       -5.6801974972183871        282.77141878061593     
   5351.4313628058053       -35.291173251131795        418.61584503653955     
   7886.1573522873305        5.6965642482550720        409.87858029202533     
   7218.8393903595916        24.680075428961572        312.53925141523979     
   6514.3232554353135        15.501402859592417        325.23836959352411     
   5782.1696498666897       -12.071758304816740        414.14250085560172     
   5028.7890528714543       -51.150853502295831        555.82160579589652     
   7489.3450857082362       -13.071384907528682        504.87051918067976     
   6850.8956972063552        13.206053775345936        423.45569963588582     
   6166.8506061574499        6.2724086021059975        445.16535841021295     
   5447.8687096035665       -24.029667150150317        540.56439991088484     
   4701.2723479173001       -70.658634354882452        688.71440344513360     
   5977.7476924082684       -16.194062493149886        130.32309663462573     
   5248.3292073683078       -12.438355988630065        11.857977735405262     
   4518.4600971855962       -10.184733293316640       -32.603919285525713     
   3789.5998865060315       -4.5681122541855075       -21.151030276332857     
   3063.0274803238485        8.6745237762631859        32.925653913151152     
   5668.1282894455571       -23.493176814252138        276.86485234463095     
   4969.4767946044722       -19.995849663236413        161.39051714809966     
   4266.9303272132420       -10.834531093707483        118.25504432170838     
   3562.7621197743720        7.8288245875160101        130.77727667379668     
   2858.8701854375163        39.627395551562472        186.56179047581182     
   5351.4313628058053       -35.291173251131795        418.61584503653955     
   4684.1818812835872       -31.030772470993270        307.75788550617614     
   4010.0033120231515       -14.177410349523825        267.34615203232073     
   3331.8627382925988        18.229897564307748        282.12444650269492     
   2652.2103633518873        69.273272051074059        340.63112775629168     
   5028.7890528714543       -51.150853502295831        555.82160579589652     
   4393.3685324691287       -45.219345466392497        451.11133896856956     
   3748.4182725985947       -19.968645151164992        414.76576425891921     
   3097.4814859419394        26.820243502342350        432.95627499270773     
   2443.4906066741701        97.749949534405346        495.18245911497758     
   4701.2723479173001       -70.658634354882452        688.71440344513360     
   4097.9240453113607       -62.250672645722716        591.59611531585938     
   3482.8935067966313       -27.970436380701130        560.60751400050526     
   2860.1870095911759        33.781455478417001        583.33729851431929     
   2233.1481997695250        125.19357159886204        650.26399270810009     
   3063.0274803238485        8.6745237762631859        32.925653913151152     
   2409.7642848679816        30.421284919354775       -9.8221132063297834     
   1745.8068327433939        16.520523833333868       -13.272181242320956     
   1072.7240593534464       -27.797974803970533        15.797396701915890     
   391.68528610017000       -98.636472985492048        72.089037433496046     
   2858.8701854375163        39.627395551562472        186.56179047581182     
   2232.5581860495081        61.891392896751427        145.17329026118432     
   1578.3072161661453       0.13199817113547851        154.92640367016077     
   898.56091451134876       -139.48887627887984        209.14248057524114     
   194.80091250150591       -353.68921112379593        302.92840001577309     
   2652.2103633518873        69.273272051074059        340.63112775629168     
   2061.7231013647383        94.990972306791150        296.85927952982507     
   1426.1492475007335       -11.703489175276047        316.02712970217840     
   748.99770290806782       -243.77826358194005        391.45543504672986     
   32.330054800936949       -598.41789449145165        518.50393891348972     
   2443.4906066741701        97.749949534405346        495.18245911497758     
   1897.5940045993871        129.82192074205500        445.26582525454216     
   1289.5785108351026       -18.912154708326966        470.03769576479050     
   624.17832283896428       -340.62297892521644        562.73006966920389     
  -95.727287001995592       -832.82252309001967        718.81565412634779     
   2233.1481997695250        125.19357159886204        650.26399270810009     
   1740.5036459519656        166.48545939048751        590.42269914233032     
   1168.8398739295526       -21.420430145917123        616.96577831270781     
   524.24656837713235       -429.97989577665533        722.96019847908053     
  -189.37111290739014       -1056.9030969197329        903.86354565442070     
   10697.768551954372       -327.29791852783364        469.72666476981971     
   10015.672554251789       -108.66127658410915        291.21141023856302     
   9233.6706467223848       -10.651957554897763        282.86235645557764     
   8385.3984898797880        12.599411431152021        368.73336981535363     
   7489.3450857082362       -13.071384907528682        504.87051918067976     
   10316.944128880086       -328.54402746704363        519.95262802505351     
   9647.5636924948903       -81.172334053080249        375.80064086699724     
   8866.7519649875212        30.158471964994078        381.24855227806779     
   8007.5472910952440        50.264767866942748        475.55288987749765     
   7089.3444371044825        5.9886988671892141        621.10496644294528     
   9906.4513612430364       -358.88892511509812        568.10932282397596     
   9250.4613703562100       -81.850650981401031        452.96796892674428     
   8474.0395092164308        46.284948812490711        471.24929310316134     
   7608.6563487022377        68.085785909875540        573.96295402020701     
   6673.9030066917503        10.485801220800568        728.93343596874172     
   9468.5133347622614       -412.69448914264558        615.90250838912618     
   8826.9095729729852       -106.08235827346653        525.01421775680808     
   8057.8957691382084        41.139182382343733        554.75530351999453     
   7190.7837052676732        68.420766546110372        665.38127442671293     
   6244.8131162634363        1.9847246170656945        829.39190993769012     
   9004.6789206354297       -486.03251956628901        664.52062352293069     
   8378.8229043155861       -150.39505667668027        593.67098768606195     
   7620.2061578641124        17.443928057140056        633.27549884168150     
   6755.6489073786333        53.240129862419963        750.99238546221568     
   5803.6281592070227       -18.158327048251749        923.37826722052409     
   7489.3450857082362       -13.071384907528682        504.87051918067976     
   6850.8956972063552        13.206053775345936        423.45569963588582     
   6166.8506061574499        6.2724086021059975        445.16535841021295     
   5447.8687096035665       -24.029667150150317        540.56439991088484     
   4701.2723479173001       -70.658634354882452        688.71440344513360     
   7089.3444371044825        5.9886988671892141        621.10496644294528     
   6477.2299509766144        25.578226875624750        545.49607354323200     
   5814.4297269880108        15.171164026365659        566.18888941093235     
   5111.8491213358975       -16.845248992805637        657.64544436200151     
   4377.1809268005472       -64.297903685503343        801.21133029907935     
   6673.9030066917503        10.485801220800568        728.93343596874172     
   6088.3971437515029        26.350543132543180        660.55716691511770     
   5447.9556414379476        14.750316489786883        681.78352062152067     
   4763.4592632350304       -17.101980970940986        770.66024740812259     
   4042.7900377215551       -63.751080078118548        910.73906213750456     
   6244.8131162634363        1.9847246170656945        829.39190993769012     
   5685.9308050189784        16.565484078045529        769.36035319677967     
   5068.6863909917083        5.7207123147436505        792.42953382489054     
   4403.7066881525470       -24.307618970203066        879.92441063528213     
   3698.8967898288370       -68.672972772817047        1017.5062606496220     
   5803.6281592070227       -18.158327048251749        923.37826722052409     
   5271.2000657344433       -2.8462256117766174        872.54967263801234     
   4677.7727647489392       -11.267404282940788        898.56626512212620     
   4033.5316694986409       -38.002788525349388        985.73246130238090     
   3346.2574431867624       -78.736080842150614        1121.7108943355295     
   4701.2723479173001       -70.658634354882452        688.71440344513360     
   4097.9240453113607       -62.250672645722716        591.59611531585938     
   3482.8935067966313       -27.970436380701130        560.60751400050526     
   2860.1870095911759        33.781455478417001        583.33729851431929     
   2233.1481997695250        125.19357159886204        650.26399270810009     
   4377.1809268005472       -64.297903685503343        801.21133029907935     
   3809.0119925053700       -50.956388922489623        704.03520443690343     
   3222.8830477613992       -17.592099289277712        677.14734115669251     
   2623.8121639245501        37.875778773114462        708.87513739519238     
   2015.9711844502312        117.88127939686717        790.24521859933270     
   4042.7900377215551       -63.751080078118548        910.73906213750456     
   3513.9629439777368       -43.414222517362532        813.88870695836636     
   2961.1076735066804       -8.9765700040887850        791.27791595402766     
   2390.2068968085096        42.089919842879908        832.03326134801102     
   1806.2643810086129        112.46526099507895        927.77333452379185     
   3698.8967898288370       -68.672972772817047        1017.5062606496220     
   3213.4121274695744       -39.378229053186715        921.29541270485538     
   2698.0876875890594       -1.9421202218817371        903.08997405806656     
   2159.8095031113821        46.565430541257228        952.86811073262959     
   1604.4020200105297        109.06085934553261        1062.8798995232094     
   3346.2574431867624       -78.736080842150614        1121.7108943355295     
   2907.9704626489147       -38.611875633393652        1026.3888004716141     
   2434.3290720997147        3.6879762494659190        1012.6717536160060     
   1933.0500457677497        51.441204134766508        1071.4350658614810     
   1410.7538968744448        107.78205042837527        1195.5960986212056     
   2233.1481997695250        125.19357159886204        650.26399270810009     
   1740.5036459519656        166.48545939048751        590.42269914233032     
   1168.8398739295526       -21.420430145917123        616.96577831270781     
   524.24656837713235       -429.97989577665533        722.96019847908053     
  -189.37111290739014       -1056.9030969197329        903.86354565442070     
   2015.9711844502312        117.88127939686717        790.24521859933270     
   1575.6808826730380        157.03498070154205        722.76230070080442     
   1055.1494590512950       -31.680403334026380        738.08037272350748     
   460.78772677292699       -440.41893024883876        829.69384647058678     
  -203.03525405195154       -1067.0472494357005        993.20311655797320     
   1806.2643810086129        112.46526099507895        927.77333452379185     
   1416.1417202892640        149.03727165412414        853.07081805381529     
   944.89876104759026       -40.943189865198519        857.48738363833809     
   399.14606283178591       -450.31592421075845        934.93604623371232     
  -216.39036523321113       -1077.0986929624742        1081.1651620703935     
   1604.4020200105297        109.06085934553261        1062.8798995232094     
   1262.1871096594118        142.58327296064761        981.36321752687024     
   838.29682143855609       -49.146001476740366        975.19227661938612     
   339.42847822375700       -459.63880547268258        1038.6877242519643     
  -229.43644645127961       -1087.0574275002907        1167.7496821916400     
   1410.7538968744448        107.78205042837527        1195.5960986212056     
   1114.1160170756718        137.76332564088958        1107.6543667527428     
   735.55207377901138       -56.226232515455138        1091.2005013327691     
   281.74179724846340       -468.35552505546036        1140.9498063384392     
  -242.17349770617679       -1096.9234530493588        1252.9566769217006     
   9004.6789206354297       -486.03251956628901        664.52062352293069     
   8378.8229043155861       -150.39505667668027        593.67098768606195     
   7620.2061578641124        17.443928057140056        633.27549884168150     
   6755.6489073786333        53.240129862419963        750.99238546221568     
   5803.6281592070227       -18.158327048251749        923.37826722052409     
   8582.8411971888581       -410.00985157780997        685.45907668906477     
   7937.2383752084879       -112.97466477300986        669.56355810667003     
   7171.1235467662673        35.896066837820854        735.60139692056521     
   6304.8295217165150        63.575220863735012        860.68648160309715     
   5352.8970887736496       -10.414063805187880        1027.3791179777634     
   8151.2086879591898       -363.59906219215327        707.58899751100444     
   7483.0145475889667       -98.048635964594723        740.01899805054336     
   6705.8593594371350        35.445993369852658        830.62818084733522     
   5834.6031664917928        57.025777539849059        963.45760813881816     
   4880.2071694654578       -18.191002530920287        1125.7500595535889     
   7711.3860219816761       -341.37593772653690        731.12066964922110     
   7017.7455064608148       -102.21161472183849        806.26261916830083     
   6226.0210088641061        18.423665691109591        919.64039330618220     
   5346.4750517511693        35.258132921813285        1060.3463669646574     
   4386.8518741528469       -40.289108483329073        1219.2440691343988     
   7264.6044240507135       -339.17850290205934        756.21544283082721     
   6542.7091782175994       -122.73363764873238        869.27671418255898     
   5732.9458459692805       -13.232415293774466        1003.7067604779834     
   4841.7377860998240      -0.29673900777015660        1152.2463815104495     
   3873.9725293039546       -75.649502542346454        1308.5255540009930     
   5803.6281592070227       -18.158327048251749        923.37826722052409     
   5271.2000657344433       -2.8462256117766174        872.54967263801234     
   4677.7727647489392       -11.267404282940788        898.56626512212620     
   4033.5316694986409       -38.002788525349388        985.73246130238090     
   3346.2574431867624       -78.736080842150614        1121.7108943355295     
   5352.8970887736496       -10.414063805187880        1027.3791179777634     
   4854.6866987608391        12.706322854188784        969.04293652420290     
   4289.4870399937772        7.4621090886084858        987.34740973741941     
   3667.6622314374176       -20.767309946989599        1068.5912418853595     
   2997.3601868666155       -67.639920887041399        1201.7928401772590     
   4880.2071694654578       -18.191002530920287        1125.7500595535889     
   4419.0082237833822        15.361148981743099        1061.0487151066457     
   3885.5067679397807        15.955121763076249        1072.5006509087045     
   3290.0506203130494       -11.157586327413355        1148.3737060658439     
   2641.0148767669048       -61.670356311936757        1279.0846428160598     
   4386.8518741528469       -40.289108483329073        1219.2440691343988     
   3965.2073926778967        5.9630368385257952        1149.0875388236718     
   3466.6511562714927        14.789622982293167        1154.3840729973217     
   2901.3385666945733       -8.7854100001468396        1225.3274226024482     
   2277.7353208888744       -60.566198402231862        1353.7578488999711     
   3873.9725293039546       -75.649502542346454        1308.5255540009930     
   3494.2259949263162       -14.725024058264580        1233.6295387803568     
   3033.6750587790848        4.4981973135505768        1233.3276305951063     
   2502.1276318380005       -13.286873272550224        1299.6844636150634     
   1908.0102799399090       -64.078990963045726        1425.9756424603181     
   3346.2574431867624       -78.736080842150614        1121.7108943355295     
   2907.9704626489147       -38.611875633393652        1026.3888004716141     
   2434.3290720997147        3.6879762494659190        1012.6717536160060     
   1933.0500457677497        51.441204134766508        1071.4350658614810     
   1410.7538968744448        107.78205042837527        1195.5960986212056     
   2997.3601868666155       -67.639920887041399        1201.7928401772590     
   2605.1743843831396       -27.942028206757527        1106.8842847650108     
   2173.1612663799833        9.5786455966137964        1095.0119450614368     
   1709.5649284902488        48.259100286817727        1158.0845095850545     
   1221.5663591221787        91.235631438144992        1289.7777501652265     
   2641.0148767669048       -61.670356311936757        1279.0846428160598     
   2297.3671110411565       -20.681277379358448        1184.7364057166435     
   1909.7472813484717        13.651824773552676        1174.7479241272631     
   1486.8402035347560        44.710961015711860        1242.0716526800888     
   1036.3356502759859        75.639393715333142        1381.1591844328166     
   2277.7353208888744       -60.566198402231862        1353.7578488999711     
   1984.9672187005567       -16.650881535486178        1260.0614632428051     
   1644.4305992870688        16.033690062309233        1251.9545968904340     
   1265.1622500178778        40.890953215216484        1323.4404597248085     
   855.30301484932863        61.067797468811733        1469.7616193837421     
   1908.0102799399090       -64.078990963045726        1425.9756424603181     
   1668.3778562588413       -15.678686819488121        1332.9714708711351     
   1377.5455013194544        16.847037751816231        1326.7048628538146     
   1044.8121675210298        36.891507767866699        1402.2340847896230     
   678.70687176298009        47.594430787121354        1555.6060244610064     
   1410.7538968744448        107.78205042837527        1195.5960986212056     
   1114.1160170756718        137.76332564088958        1107.6543667527428     
   735.55207377901138       -56.226232515455138        1091.2005013327691     
   281.74179724846340       -468.35552505546036        1140.9498063384392     
  -242.17349770617679       -1096.9234530493588        1252.9566769217006     
   1221.5663591221787        91.235631438144992        1289.7777501652265     
   968.97521280401850        119.88666626854453        1189.8675908467535     
   640.44488387318984       -52.960763281936835        1158.7665911268498     
   242.58805032979095       -422.31769219004121        1191.7168522308757     
  -219.24175654670080       -986.46875305855269        1285.0947718457046     
   1036.3356502759859        75.639393715333142        1381.1591844328166     
   826.25282651635723        102.65118685505607        1271.4213579874190     
   546.41483893676593       -49.418322692559684        1227.7269573389940     
   203.31446879454293       -376.33671297076529        1245.8748243418884     
  -197.55844149895080       -876.38858090106089        1322.6043258827385     
   855.30301484932863        61.067797468811733        1469.7616193837421     
   686.14055166746527        86.114810533738762        1352.3251538410209     
   453.59329756265646       -45.559402674865822        1298.0885504818805     
   163.98709483419526       -330.39276339890063        1303.4297750318974     
  -177.12355256294447       -766.68293657699064        1365.4853390326998     
   678.70687176298009        47.594430787121354        1555.6060244610064     
   548.82882590543124        70.335080977178990        1432.5884019320515     
   362.11123741496084       -41.344609727192662        1369.8583009122824     
   124.67192287563590       -284.46603381477280        1364.3877522841224     
  -157.93708973884773       -657.35182008689981        1413.7378112957006     
   7264.6044240507135       -339.17850290205934        756.21544283082721     
   6542.7091782175994       -122.73363764873238        869.27671418255898     
   5732.9458459692805       -13.232415293774466        1003.7067604779834     
   4841.7377860998240      -0.29673900777015660        1152.2463815104495     
   3873.9725293039546       -75.649502542346454        1308.5255540009930     
   6760.3208604174297       -101.94049265845615        960.55953415387637     
   6032.7988433087748       -10.513992133577858        1021.6096862905299     
   5219.5832302400077        19.798277457481618        1115.2225284764095     
   4326.8309699567153       -5.8828377535185155        1235.3701417915972     
   3359.5795642558469       -83.284548777060763        1376.7011327406442     
   6184.2232778251882        73.259357150118603        1136.6179916427641     
   5464.4288333384338        60.242206454297957        1155.6735969694037     
   4660.6839792888659        24.673319558747153        1215.9660489542644     
   3779.0837637771483       -31.142075936732681        1313.2268936117689     
   2824.9646763383166       -105.13385941456943        1443.6200783338797     
   5539.5604900747949        193.41286466229985        1287.8239950038342     
   4839.7002925274437        93.263372523242424        1273.4033898717917     
   4057.6047644835667        3.4217615981053768        1307.0078756432358     
   3199.4160571052985       -74.857771122619397        1386.4399839573828     
   2270.8459521673772       -140.32149237328122        1509.7162291491213     
   4828.9680144844115        264.19196398086660        1416.9626236928405     
   4160.3666111080220        91.660841954382704        1376.4137620121660     
   3411.5071092079243       -42.219211015156361        1389.2645703743083     
   2588.6338912286392       -135.96382110111381        1455.5556125441260     
   1697.8659022389379       -188.06369543115318        1575.3777635749752     
   3873.9725293039546       -75.649502542346454        1308.5255540009930     
   3494.2259949263162       -14.725024058264580        1233.6295387803568     
   3033.6750587790848        4.4981973135505768        1233.3276305951063     
   2502.1276318380005       -13.286873272550224        1299.6844636150634     
   1908.0102799399090       -64.078990963045726        1425.9756424603181     
   3359.5795642558469       -83.284548777060763        1376.7011327406442     
   3026.5124610060152        1.3924167919223009        1294.5455286437912     
   2607.0472378150048        32.868240192328358        1286.4435346450962     
   2110.6134745679010        15.710266641168801        1346.1535600679288     
   1545.5571978903297       -46.126966435308532        1468.2819238460172     
   2824.9646763383166       -105.13385941456943        1443.6200783338797     
   2540.7218977532793        4.8633582998489828        1353.9778139608181     
   2165.3088931591319        50.795769069579137        1337.7342630208357     
   1707.6019864754182        36.813725437551170        1390.2910690038686     
   1175.7098823164658       -33.407651912056622        1507.5895284965200     
   2270.8459521673772       -140.32149237328122        1509.7162291491213     
   2037.4502112906966       -3.6443968728752907        1412.2647273577043     
   1708.9241895057560        58.748824639594375        1387.4580664033890     
   1293.4426255727960        50.327636986360972        1432.2896097745622     
   798.73357978289027       -25.735149040975443        1544.0359174401272     
   1697.8659022389379       -188.06369543115318        1575.3777635749752     
   1517.2407035982119       -23.521996937546760        1469.7147348472579     
   1238.3234842778572        57.161358017686155        1435.8543858769472     
   868.46426402302552        56.538219259337779        1472.3304549237830     
   414.88120755420005       -22.932200473272246        1577.7521621851395     
   1908.0102799399090       -64.078990963045726        1425.9756424603181     
   1668.3778562588413       -15.678686819488121        1332.9714708711351     
   1377.5455013194544        16.847037751816231        1326.7048628538146     
   1044.8121675210298        36.891507767866699        1402.2340847896230     
   678.70687176298009        47.594430787121354        1555.6060244610064     
   1545.5571978903297       -46.126966435308532        1468.2819238460172     
   1356.1604343784641       -6.9761589536146289        1373.7407665820501     
   1113.9696294767712        16.417528075075211        1365.7004458747167     
   828.29979456696947        27.209610633992753        1440.3496809997355     
   507.85910784599031        28.366024146578951        1594.6132662071391     
   1175.7098823164658       -33.407651912056622        1507.5895284965200     
   1038.0576311878726       -1.8915608538308675        1411.7614074361593     
   846.33104657368926        13.729784446478220        1402.1402652479508     
   609.79776666304599        16.425989282153978        1476.0369296863457     
   337.29059768256690        9.0349327142945839        1631.2628995093310     
   798.73357978289027       -25.735149040975443        1544.0359174401272     
   714.27219651211135      -0.31424267690371721        1447.1255834412862     
   574.78238856453015        8.8500692567557167        1436.0822492064449     
   389.42236049180963        4.5824115775801033        1509.3286081389806     
   167.09304095524786       -10.369709916146618        1665.5698755731551     
   414.88120755420005       -22.932200473272246        1577.7521621851395     
   384.99967318375889       -2.1374877650920894        1479.9222075979003     
   299.47230928431560        1.8429161776234508        1467.5828146934834     
   167.28774792292219       -8.2801106868124421        1540.2569003205133     
  -2.6429242580976151       -29.819107430389590        1697.5489725145776     
   678.70687176298009        47.594430787121354        1555.6060244610064     
   548.82882590543124        70.335080977178990        1432.5884019320515     
   362.11123741496084       -41.344609727192662        1369.8583009122824     
   124.67192287563590       -284.46603381477280        1364.3877522841224     
  -157.93708973884773       -657.35182008689981        1413.7378112957006     
   507.85910784599031        28.366024146578951        1594.6132662071391     
   416.72731473175736        52.972559970340072        1462.6052851537663     
   277.01597378630834       -27.895867708717333        1389.7474141852992     
   94.779865159097042       -211.72179019814158        1373.6657632429124     
  -124.30274984387682       -496.77886535958066        1412.4324906266106     
   337.29059768256690        9.0349327142945839        1631.2628995093310     
   284.47886417521488        35.493255334741676        1492.8634746531936     
   191.47127854106998       -14.638388784808797        1412.4336986977630     
   64.243262736877952       -139.20044776751058        1388.2762668526625     
  -91.452235266200674       -336.44105822704341        1419.0025571914523     
   167.09304095524786       -10.369709916146618        1665.5698755731551     
   152.15338557654570        17.918495935132633        1523.3704492787685     
   105.52334536331719       -1.5581923761169918        1437.9253945993796     
   33.084631703082238       -66.895235681017141        1408.2277914493447     
  -59.385546005992971       -176.33839868984833        1433.4480109901938     
  -2.6429242580976151       -29.819107430389590        1697.5489725145776     
   19.820335259704130       0.26947181755503546        1554.1336392031180     
   19.218234366078633        11.358661669311116        1466.2307182132856     
   1.3264718792614842        5.2006120100073536        1433.5288592052661     
  -28.102682063289855       -16.470886748107908        1455.7688520227741     
   4828.9680144844115        264.19196398086660        1416.9626236928405     
   4160.3666111080220        91.660841954382704        1376.4137620121660     
   3411.5071092079243       -42.219211015156361        1389.2645703743083     
   2588.6338912286392       -135.96382110111381        1455.5556125441260     
   1697.8659022389379       -188.06369543115318        1575.3777635749752     
   4038.0729434129039        372.29604490352142        1573.8178372864861     
   3445.2468228019679        182.21500043263336        1476.1741268474059     
   2760.9103883044622        29.715333334902539        1446.5793625384390     
   1992.1538616785808       -82.437067778023447        1487.4111313470166     
   1146.2842528232677       -151.49723412064674        1600.9775830420406     
   3153.1160002868960        419.47884667634128        1711.8221337467994     
   2650.3416834055988        223.20681899594308        1564.5109604699230     
   2047.2506815587906        63.014218758988136        1497.4872223229688     
   1351.2921155626270       -57.142727784652152        1515.8298865242825     
   570.51525840910915       -133.31929119919414        1624.4776220944057     
   2176.3048648583781        410.83755112634304        1833.5404643876723     
   1777.3103324803167        218.23276099715480        1642.8400432999388     
   1271.6375763847407        60.115683202703394        1542.7298348434213     
   666.71668985853023       -58.489084485074471        1541.2099890507948     
  -29.039177621694620       -132.51388966616349        1646.1411686170757     
   1109.4652975974177        350.58754913168252        1941.0940547682703     
   827.55478128077721        170.33192104592160        1712.3577424965745     
   435.02811375700702        23.122754864547034        1582.9469181041075     
  -60.984945671358815       -85.076386930119469        1563.9015365524101     
  -652.01912821009023       -148.17116503572296        1666.2040117037793     
   1697.8659022389379       -188.06369543115318        1575.3777635749752     
   1517.2407035982119       -23.521996937546760        1469.7147348472579     
   1238.3234842778572        57.161358017686155        1435.8543858769472     
   868.46426402302552        56.538219259337779        1472.3304549237830     
   414.88120755420005       -22.932200473272246        1577.7521621851395     
   1146.2842528232677       -151.49723412064674        1600.9775830420406     
   1008.0350417229640       0.14240503263528126        1487.0084243524930     
   772.77301247306707        72.597916021688206        1443.8857531670440     
   446.96803874820318        67.325157295171309        1471.9831575185267     
   37.284289914196464       -14.092928406877784        1571.5743279272665     
   570.51525840910915       -133.31929119919414        1624.4776220944057     
   478.33288927006254        9.4312858556368724        1502.5893054559701     
   290.90415127159758        77.122713420578322        1450.5445265201613     
   13.833631693913949        70.283083951104260        1470.4892634528164     
  -346.79285269799419       -10.263769295870901        1564.3509313272980     
  -29.039177621694620       -132.51388966616349        1646.1411686170757     
  -71.613884304963022        4.9824924183252790        1516.6602180837956     
  -207.14829445361070        71.119578213034856        1455.9862374962186     
  -430.88430501657882        65.630838702879714        1467.9709676973703     
  -737.33628319041452       -11.326504034563072        1556.1811343964293     
  -652.01912821009023       -148.17116503572296        1666.2040117037793     
  -641.57585192627357       -12.622962604479710        1529.4059284713519     
  -721.25958722453686        54.943673647265655        1460.3548023656001     
  -887.13446814852352        53.573851318544598        1464.5429775483792     
  -1134.3327471723608       -17.168704417907236        1547.1592417474851     
   414.88120755420005       -22.932200473272246        1577.7521621851395     
   384.99967318375889       -2.1374877650920894        1479.9222075979003     
   299.47230928431560        1.8429161776234508        1467.5828146934834     
   167.28774792292219       -8.2801106868124421        1540.2569003205133     
  -2.6429242580976151       -29.819107430389590        1697.5489725145776     
   37.284289914196464       -14.092928406877784        1571.5743279272665     
   62.635965344510545        7.4236469885977865        1472.9145452616985     
   31.502338549395137        8.0466687355132382        1457.3451923856294     
  -47.605231333139386       -9.6964684727119206        1525.5417646411677     
  -166.05547379125818       -43.236738746838810        1678.0612428327813     
  -346.79285269799419       -10.263769295870901        1564.3509313272980     
  -266.19762882022303        12.991296290863218        1464.4367999479989     
  -242.54462692825965        11.193455609925053        1445.2450882562632     
  -267.86190031161669       -13.348020115056926        1508.5639146830042     
  -333.86641302652413       -58.200818650240713        1655.8914688398831     
  -737.33628319041452       -11.326504034563072        1556.1811343964293     
  -601.51274071694991        14.620865971289078        1454.5664521329720     
  -522.70730792069151        11.297845624442147        1431.3370873277963     
  -493.54116839423796       -19.243159155014553        1489.3566031755804     
  -506.14335779903780       -74.729469297760943        1631.0546108385247     
  -1134.3327471723608       -17.168704417907236        1547.1592417474851     
  -943.32056096414374        12.365662180046513        1443.3780460644566     
  -809.02333725584697        8.3739982612748349        1415.6742409383910     
  -724.70078655271732       -27.390114080429555        1467.9524289579876     
  -682.95306751845987       -92.840583310339724        1603.5654396433813     
  -2.6429242580976151       -29.819107430389590        1697.5489725145776     
   19.820335259704130       0.26947181755503546        1554.1336392031180     
   19.218234366078633        11.358661669311116        1466.2307182132856     
   1.3264718792614842        5.2006120100073536        1433.5288592052661     
  -28.102682063289855       -16.470886748107908        1455.7688520227741     
  -166.05547379125818       -43.236738746838810        1678.0612428327813     
  -108.63594111268527       -17.308520331915098        1530.7654800372982     
  -64.960393926763388        21.937909143950868        1440.2081464815933     
  -29.102139097948147        76.293343964286521        1406.8602105382654     
   4.8885431937992792        147.52994372597249        1431.1097576114209     
  -333.86641302652413       -58.200818650240713        1655.8914688398831     
  -240.09863326900518       -35.863744486292397        1507.5050715240857     
  -150.63541234256644        32.010924937732653        1417.0858882854370     
  -59.403964922027505        147.39200195013629        1385.8951814479803     
   39.692969053523719        312.07473438145337        1414.9716690959528     
  -506.14335779903780       -74.729469297760943        1631.0546108385247     
  -374.63076255380014       -55.414701897906944        1484.3591368611169     
  -237.85399493895045        41.563694235724199        1396.8720857401383     
  -89.603413747291540        218.48928279490289        1370.6430225245977     
   76.310595515639704        477.16348521744845        1407.3545864765356     
  -682.95306751845987       -92.840583310339724        1603.5654396433813     
  -512.29489904969603       -75.979761341177607        1461.3343511047510     
  -326.66316510484535        50.582246984091853        1379.5748549560233     
  -119.72487419602388        289.57788917177550        1361.1129769557713     
   114.74142258012401        642.79619623395070        1408.2585097530425     
   1109.4652975974177        350.58754913168252        1941.0940547682703     
   827.55478128077721        170.33192104592160        1712.3577424965745     
   435.02811375700702        23.122754864547034        1582.9469181041075     
  -60.984945671358815       -85.076386930119469        1563.9015365524101     
  -652.01912821009023       -148.17116503572296        1666.2040117037793     
   83.396768732963295        185.94667559071189        1818.3127106130426     
  -88.297448502271081        131.07058695019026        1626.0946424579934     
  -370.90009879094333        67.352968242410441        1522.2446846023295     
  -760.17177478285839       -2.3383809159947759        1518.7440699564988     
  -1250.4435766566849       -74.815622621329510        1627.6862065732382     
  -962.48409176646192        3.9633315111018419        1717.8370567475708     
  -1027.7202404996929        67.802319318759714        1554.5705366462621     
  -1203.3160996748263        85.241089320348465        1469.6745463592622     
  -1487.7779603088070        55.239096580321018        1475.7872514946378     
  -1878.1874828392390       -22.806527022678779        1585.8594233543190     
  -2028.0456587284652       -194.01389299821295        1638.7658575029677     
  -1990.4035662824854       -17.616361729886989        1497.4046686639617     
  -2061.8747627665352        78.610149418687342        1425.1516432918181     
  -2243.5477897968053        89.112597034458418        1435.0785133159491     
  -2535.1768784304954        8.7900206852214069        1540.7881486493566     
  -3113.1757193262360       -406.83530061411750        1580.3307932622138     
  -2976.0789975998023       -123.57804732209058        1454.2673726994262     
  -2946.2726752331578        49.062841154319472        1388.6013718387633     
  -3027.2530713994615        100.58191311981011        1396.6601827674860     
  -3221.3447900580850        20.819603510708248        1492.5307707634665     
  -652.01912821009023       -148.17116503572296        1666.2040117037793     
  -641.57585192627357       -12.622962604479710        1529.4059284713519     
  -721.25958722453686        54.943673647265655        1460.3548023656001     
  -887.13446814852352        53.573851318544598        1464.5429775483792     
  -1134.3327471723608       -17.168704417907236        1547.1592417474851     
  -1250.4435766566849       -74.815622621329510        1627.6862065732382     
  -1196.7895906488275        17.456207691283396        1483.8413204580722     
  -1226.6053171092362        58.195533562349567        1407.7325185286843     
  -1336.3254335545766        46.782892788776223        1406.6668258775451     
  -1521.3005457236177       -16.899026532252378        1487.6759487695454     
  -1878.1874828392390       -22.806527022678779        1585.8594233543190     
  -1775.6213560573060        32.062854207600481        1436.0694995257450     
  -1749.5305633501200        50.599281561224984        1354.0426751032896     
  -1796.6340075255471        32.852541359087354        1348.8460398188986     
  -1912.4553094939295       -20.667222885886758        1429.3407027606715     
  -2535.1768784304954        8.7900206852214069        1540.7881486493566     
  -2378.1763821142076        31.690786269842874        1386.1317480341158     
  -2290.2535634741253        32.385105553910421        1299.3153488642647     
  -2268.3313643805050        11.868589977830311        1291.1124583299602     
  -2308.0662300389104       -28.455474306267433        1372.1971819078437     
  -3221.3447900580850        20.819603510708248        1492.5307707634665     
  -3004.5512932356828        16.793412990700062        1334.0659708936009     
  -2848.9773893492843        3.7671973423359759        1243.5785265056284     
  -2751.6730212542525       -16.088121957977137        1233.4960820360366     
  -2708.3899284658100       -40.246793723892324        1316.2870247560368     
  -1134.3327471723608       -17.168704417907236        1547.1592417474851     
  -943.32056096414374        12.365662180046513        1443.3780460644566     
  -809.02333725584697        8.3739982612748349        1415.6742409383910     
  -724.70078655271732       -27.390114080429555        1467.9524289579876     
  -682.95306751845987       -92.840583310339724        1603.5654396433813     
  -1521.3005457236177       -16.899026532252378        1487.6759487695454     
  -1276.6531352968200        21.602924680992260        1384.2420750946758     
  -1088.1837605696503        19.995590059171036        1352.6214680483702     
  -950.04517493329763       -20.470276325487077        1397.6214669683222     
  -855.58562194912270       -98.065255805284835        1523.4230958874607     
  -1912.4553094939295       -20.667222885886758        1429.3407027606715     
  -1615.6207856201706        27.118311554903812        1325.2062264517538     
  -1374.1199442382119        28.263206285528099        1288.7216426251202     
  -1183.0104055685267       -16.562278832851916        1325.5439383931162     
  -1036.4209531649649       -106.04380336893809        1440.6591787174361     
  -2308.0662300389104       -28.455474306267433        1372.1971819078437     
  -1960.4747604412860        28.892588289081800        1266.3207140040770     
  -1667.0769450840635        33.130597757272426        1224.0190535636757     
  -1423.8366086531576       -15.727615077907217        1251.7515293078511     
  -1225.6865974758505       -116.84172932670276        1355.2902230807772     
  -2708.3899284658100       -40.246793723892324        1316.2870247560368     
  -2311.4571345142585        26.907222673351725        1207.6339181777264     
  -1967.2931227020263        34.552779248738602        1158.5567793752912     
  -1672.7592834605407       -18.026592630489858        1176.2753147205997     
  -1423.6072452522628       -130.52371771240104        1267.3325571118785     
  -682.95306751845987       -92.840583310339724        1603.5654396433813     
  -512.29489904969603       -75.979761341177607        1461.3343511047510     
  -326.66316510484535        50.582246984091853        1379.5748549560233     
  -119.72487419602388        289.57788917177550        1361.1129769557713     
   114.74142258012401        642.79619623395070        1408.2585097530425     
  -855.58562194912270       -98.065255805284835        1523.4230958874607     
  -647.21950869751731       -90.194838676520334        1384.5450753794689     
  -416.29636775884035        52.705080406817160        1308.7217037401892     
  -156.26022081322074        333.96788256298174        1299.4889489229636     
   139.21930978037091        755.44390753404321        1359.6975506003434     
  -1036.4209531649649       -106.04380336893809        1440.6591787174361     
  -787.90314021266852       -106.23131223929241        1307.1910320763093     
  -509.06845701730987        53.839989844033681        1239.4227724313214     
  -193.17187700461764        378.22284608264721        1241.5904494094439     
   166.15335912697969        868.82846747824749        1317.0637331336247     
  -1225.6865974758505       -116.84172932670276        1355.2902230807772     
  -934.54129377970025       -124.14733162667386        1229.2796349069181     
  -605.12083184833625        53.944666148706773        1171.6843795176578     
  -230.53288900645518        422.32087913738877        1187.4238351129823     
   195.54357061993170        982.94987606645645        1280.3570573525367     
  -1423.6072452522628       -130.52371771240104        1267.3325571118785     
  -1087.3280796645779       -144.00063301887465        1150.8182448748562     
  -704.59444104518366        52.976934872881912        1105.5128233712376     
  -268.41624464977809        466.24009864473521        1136.9954576485111     
   227.38994425904525        1097.8081332981074        1249.5775232574433     
  -3113.1757193262360       -406.83530061411750        1580.3307932622138     
  -2976.0789975998023       -123.57804732209058        1454.2673726994262     
  -2946.2726752331578        49.062841154319472        1388.6013718387633     
  -3027.2530713994615        100.58191311981011        1396.6601827674860     
  -3221.3447900580850        20.819603510708248        1492.5307707634665     
  -4126.5639507688475       -501.48053585533967        1398.3141423324321     
  -3906.5617361777636       -150.37834722314551        1288.4175191896754     
  -3790.2457857467275        70.280876006907874        1233.9833939177204     
  -3782.8390808302470        145.90660861990591        1248.8631874565640     
  -3888.5676862263767        62.055063138085870        1347.9019992299984     
  -5167.9546321008575       -618.90543504485618        1241.3857904454496     
  -4862.7093208671640       -200.74368768408021        1141.4014333321695     
  -4657.1673685021260        68.976278081831879        1092.2002633369318     
  -4558.1368712872309        171.42839119318546        1108.0795114506379     
  -4571.6491357418063        87.633965055993713        1204.5722155601989     
  -6237.3304249247831       -757.67272519388007        1108.1559700906589     
  -5844.6025234163853       -273.24763495255934        1012.2776759335034     
  -5547.2150166716447        46.395511206223773        962.64815860463830     
  -5353.4216969252229        178.10206494789009        973.94559717416121     
  -5270.9579713593039        98.167477195430820        1062.3329230849035     
  -7334.6762192892211       -916.52986118997364        997.41353591410996     
  -6852.3125596984264       -366.63251258778655        900.21618678789366     
  -6460.5471733721351        3.6506317236699033        844.78836892506229     
  -6168.9420665717371        166.78965955790864        846.13321246341388     
  -5986.8311599273347        94.213964638777270        920.99363854419050     
  -3221.3447900580850        20.819603510708248        1492.5307707634665     
  -3004.5512932356828        16.793412990700062        1334.0659708936009     
  -2848.9773893492843        3.7671973423359759        1243.5785265056284     
  -2751.6730212542525       -16.088121957977137        1233.4960820360366     
  -2708.3899284658100       -40.246793723892324        1316.2870247560368     
  -3888.5676862263767        62.055063138085870        1347.9019992299984     
  -3616.5330979602077        32.265983623745797        1204.4493662308421     
  -3395.9306795022917        4.4500257773561316        1124.3867458657930     
  -3224.1389966801462       -18.095142727407392        1121.1522434734629     
  -3097.3017804234919       -31.760501701784733        1208.4216516771467     
  -4571.6491357418063        87.633965055993713        1204.5722155601989     
  -4242.5562472585607        35.702993308666237        1075.6853761306306     
  -3955.1116718855737       -4.0682340442715486        1006.0446084140058     
  -3706.8682401887668       -27.101930485839830        1009.9856781211025     
  -3494.2376543432656       -28.537038834769646        1102.2963560748030     
  -5270.9579713593039        98.167477195430820        1062.3329230849035     
  -4883.0585192722483        27.425386088028517        947.65841564340781     
  -4526.9963765742123       -21.656308768805502        888.49498134260659     
  -4200.3524561750319       -43.093258631550725        899.97768121894683     
  -3899.6857171024831       -30.626227517443340        997.92042475977860     
  -5986.8311599273347        94.213964638777270        920.99363854419050     
  -5538.4445846665330        7.7298342397982651        820.26164106463682     
  -5112.0298743038802       -48.191454689373813        771.68444411831638     
  -4705.0565085157932       -66.054731733543576        791.11056903794156     
  -4314.1123566427823       -38.075667382475785        895.30273022382858     
  -2708.3899284658100       -40.246793723892324        1316.2870247560368     
  -2311.4571345142585        26.907222673351725        1207.6339181777264     
  -1967.2931227020263        34.552779248738602        1158.5567793752912     
  -1672.7592834605407       -18.026592630489858        1176.2753147205997     
  -1423.6072452522628       -130.52371771240104        1267.3325571118785     
  -3097.3017804234919       -31.760501701784733        1208.4216516771467     
  -2655.1393198817818        38.520418329064228        1095.2035534806930     
  -2263.0679786792625        46.883262514367516        1038.6013413774945     
  -1918.6733717547256       -7.8862618993923661        1046.6599436984732     
  -1618.3870618016565       -125.82945606153010        1126.7704933275006     
  -3494.2376543432656       -28.537038834769646        1102.2963560748030     
  -3007.1512994078348        45.577897577590988        983.61100009777442     
  -2567.2134756191508        55.340180902305406        918.65963873498390     
  -2172.7081226071996      -0.98355011891908362        916.28965518396615     
  -1820.7479143909247       -123.80184362986722        984.73942929197869     
  -3899.6857171024831       -30.626227517443340        997.92042475977860     
  -3367.9673881900994        47.992188443582336        872.88275393090510     
  -2880.1845975601159        59.814402830175368        798.76329695401103     
  -2435.2878497338165        2.5656748954093018        785.19299608158326     
  -2031.0670022318482       -124.55039396795109        841.25985570898047     
  -4314.1123566427823       -38.075667382475785        895.30273022382858     
  -3738.0451928861512        45.678900280109019        763.04437752545618     
  -3202.4242249346735        60.199699864466538        678.94310023082494     
  -2706.8288387646353        2.6477375658249684        653.39797318376543     
  -2249.7168649499727       -128.18326779325650        696.35201015814096     
  -1423.6072452522628       -130.52371771240104        1267.3325571118785     
  -1087.3280796645779       -144.00063301887465        1150.8182448748562     
  -704.59444104518366        52.976934872881912        1105.5128233712376     
  -268.41624464977809        466.24009864473521        1136.9954576485111     
   227.38994425904525        1097.8081332981074        1249.5775232574433     
  -1618.3870618016565       -125.82945606153010        1126.7704933275006     
  -1237.3912111677664       -147.51387983186095        1022.6695753711522     
  -807.82608772340132        44.607789825498742        990.42928983052684     
  -322.92380415627667        457.05516838543736        1036.0115791444839     
   223.12560114945975        1091.9705426394812        1163.9331544227380     
  -1820.7479143909247       -123.80184362986722        984.73942929197869     
  -1393.9794407491399       -153.13167689518662        893.01342158376076     
  -916.30665952940421        34.628047779040230        873.91558105542026     
  -381.23109488077216        446.72745453652271        933.78523496755383     
   216.62056318668698        1085.4607435248990        1077.3338043567976     
  -2031.0670022318482       -124.55039396795109        841.25985570898047     
  -1557.4027601238508       -160.94624194150333        761.86129435866656     
  -1030.2584743804707        22.971098923543536        755.97633467006244     
  -443.45533974089790        435.22179193887689        830.31721672206879     
   207.87483037082870        1078.2787359546958        989.77947305956593     
  -2249.7168649499727       -128.18326779325650        696.35201015814096     
  -1727.9689726633119       -171.04914170690228        629.22462328260031     
  -1149.9031446419349        9.5705448410544136        636.61617358074261     
  -509.71366800181511        422.50304352832029        725.60831538012064     
   196.88840270158298        1070.4245199278669        901.27016053109435     
  -7334.6762192892211       -916.52986118997364        997.41353591410996     
  -6852.3125596984264       -366.63251258778655        900.21618678789366     
  -6460.5471733721351        3.6506317236699033        844.78836892506229     
  -6168.9420665717371        166.78965955790864        846.13321246341388     
  -5986.8311599273347        94.213964638777270        920.99363854419050     
  -8301.7130123376228       -698.98982169021792        749.29383440239451     
  -7790.1308312612891       -263.45312707924177        675.55048289329341     
  -7347.8393956126229        28.662405411955206        632.14353822532883     
  -6982.9347203864090        154.35626243025899        633.40241121127519     
  -6703.4722981406785        89.555974330725348        695.63548286590276     
  -9285.6130261048856       -517.16220079792174        504.54505600586333     
  -8744.1098363091751       -186.59762014721491        453.54195896544951     
  -8252.4128347213355        33.592824513578762        422.85471248890076     
  -7816.9148606462795        125.18850647928912        426.02734029934209     
  -7444.0901773207561        68.995122704919595        478.77716873885316     
  -10285.980376633079       -368.23318354426874        261.71014173446400     
  -9714.2933120463731       -134.32886970823347        233.15525000656632     
  -9174.5946649014095        19.458361736702500        216.18883046071397     
  -8671.3841421110319        79.865276132579766        223.48926425113063     
  -8209.2975058468473        32.877628131248457        270.05798065005661     
  -11302.464266748369       -249.70941722061480        19.497975427715907     
  -10700.720368662200       -105.09352605538652        13.464523611685546     
  -10114.680214766429       -12.823448858115626        11.484183601910770     
  -9546.7997925740729        18.914189327789700        25.315387238774740     
  -8999.6582659363557       -18.477824335173409        69.145889298928950     
  -5986.8311599273347        94.213964638777270        920.99363854419050     
  -5538.4445846665330        7.7298342397982651        820.26164106463682     
  -5112.0298743038802       -48.191454689373813        771.68444411831638     
  -4705.0565085157932       -66.054731733543576        791.11056903794156     
  -4314.1123566427823       -38.075667382475785        895.30273022382858     
  -6703.4722981406785        89.555974330725348        695.63548286590276     
  -6184.2596403512962        19.183254995994503        605.88312233707813     
  -5681.9616185238319       -27.618274971449864        567.82303642014801     
  -5194.4092085863567       -43.932094851553302        598.18664756614294     
  -4718.6717145381244       -22.434258818165290        714.82990327996265     
  -7444.0901773207561        68.995122704919595        478.77716873885316     
  -6850.4172271463694        17.057458984924779        397.85169172682362     
  -6268.0832003067935       -17.929414766964328        368.19809278727899     
  -5695.2382148416054       -29.740476707040671        407.42462950488488     
  -5129.4248625476139       -11.640544421389677        534.49005852563062     
  -8209.2975058468473        32.877628131248457        270.05798065005661     
  -7537.6129006426718        1.5450797218195476        195.93110887067806     
  -6871.1482529847299       -19.070886139757022        172.66823545123242     
  -6208.3238585439040       -23.537459291153937        218.75030609461126     
  -5547.1410475903658       -5.8285055519834259        354.25060766319422     
  -8999.6582659363557       -18.477824335173409        69.145889298928950     
  -8246.4933126431006       -27.174793140076417       -9.8256780903604082E-002
  -7491.8644292851022       -30.991995062418482       -18.899287629527233     
  -6734.4060800559691       -25.377644080997470        32.093309711787875     
  -5972.5566633317339       -5.1264014492821843        174.08035418692265     
  -4314.1123566427823       -38.075667382475785        895.30273022382858     
  -3738.0451928861512        45.678900280109019        763.04437752545618     
  -3202.4242249346735        60.199699864466538        678.94310023082494     
  -2706.8288387646353        2.6477375658249684        653.39797318376543     
  -2249.7168649499727       -128.18326779325650        696.35201015814096     
  -4718.6717145381244       -22.434258818165290        714.82990327996265     
  -4107.3557776592388        41.032356427491777        584.50902805340309     
  -3527.4252523007422        50.348602745708376        501.74422077449998     
  -2978.4420810550018        3.8491247229964074        477.81401754169889     
  -2459.0160954085395       -98.700211242497062        523.59745695186496     
  -5129.4248625476139       -11.640544421389677        534.49005852563062     
  -4480.7475154348704        33.324241330810537        406.40324470103377     
  -3854.2795337854695        38.790999033200933        325.52071113812866     
  -3249.5020805186041        4.4416047842171338        303.97034126975433     
  -2665.1517445605018       -68.834510281847429        353.54101316568438     
  -5547.1410475903658       -5.8285055519834259        354.25060766319422     
  -4858.9434496590166        22.384931769331388        228.71898180594968     
  -4183.6380089867298        25.354112849287731        150.28161521261873     
  -3520.5660501803918        4.2688556393195540        131.88858126795870     
  -2868.5703881512127       -38.714937927595656        186.21354208918737     
  -5972.5566633317339       -5.1264014492821843        174.08035418692265     
  -5242.6420202155714        8.0505764247020579        51.448467481878261     
  -4516.1347497562301        9.8696454426815308       -23.964257464578584     
  -3792.1808562659849        3.1774578970039329       -38.410027335740885     
  -3069.7131526382723       -8.4686958571807054        21.645530406202109     
  -2249.7168649499727       -128.18326779325650        696.35201015814096     
  -1727.9689726633119       -171.04914170690228        629.22462328260031     
  -1149.9031446419349        9.5705448410544136        636.61617358074261     
  -509.71366800181511        422.50304352832029        725.60831538012064     
   196.88840270158298        1070.4245199278669        901.27016053109435     
  -2459.0160954085395       -98.700211242497062        523.59745695186496     
  -1889.3870021647194       -132.08277674916872        475.67809079463649     
  -1275.1651693457741        9.7846363040036408        487.42007370838451     
  -611.98552261997202        334.96618182281782        565.53710153397242     
   103.21024289782443        846.29860064226943        715.00334332201044     
  -2665.1517445605018       -68.834510281847429        353.54101316568438     
  -2057.8482215685208       -95.536748965825723        320.08662094541296     
  -1417.7173030056708        4.7518202531636575        331.51386839528936     
  -741.59859574150914        239.24965704197393        394.23186947328048     
  -27.370565254531186        611.10188685270271        513.25216823069684     
  -2868.5703881512127       -38.714937927595656        186.21354208918737     
  -2233.6997191941200       -61.513565992619306        162.47635602302805     
  -1577.8221267172876       -5.6065354642101966        168.90550328318483     
  -898.71176009200644        135.30579377381093        211.68604504179009     
  -194.85402175576323        364.83437855826980        296.01663525716577     
  -3069.7131526382723       -8.4686958571807054        21.645530406202109     
  -2417.2861503135819       -30.115016897862006        2.8732550614687069     
  -1755.7413908797791       -21.368814241481687      -0.39710112276468362     
  -1083.4837615714371        23.086954663383949        17.893059331315836     
  -399.24012660585862        107.49607575897460        63.296744401243672     
 </DataArray>
 <DataArray  type="Float64" Name="VM" NumberOfComponents="1" format="ascii">
   11999.479612692612     
   11252.072677302829     
   10505.667503887964     
   9757.0324337837501     
   9007.0908730027331     
   11773.272451725497     
   10997.754696287029     
   10219.498344280304     
   9435.1363580843499     
   8646.5049309487367     
   11512.096325060071     
   10717.446707015484     
   9914.6840790489368     
   9101.6986668849895     
   8282.1847849973146     
   11218.814278400800     
   10412.194349747799     
   9591.9176611994244     
   8757.5065894214531     
   7915.2124156965756     
   10895.534072150438     
   10083.066597467969     
   9251.9823325731613     
   8403.4105211934420     
   7546.7237599940954     
   9007.0908730027331     
   8249.3007263563359     
   7494.8778561839563     
   6740.0437544105762     
   5990.1156975471567     
   8646.5049309487367     
   7910.9142363854207     
   7173.7982887482367     
   6434.2931709437289     
   5700.1188596792526     
   8282.1847849973146     
   7569.7155384133584     
   6852.0655162718758     
   6131.2763402221435     
   5417.8998759892493     
   7915.2124156965756     
   7226.8341685894793     
   6530.9269335848039     
   5832.4929982575613     
   5145.4227788044545     
   7546.7237599940954     
   6883.4887335952417     
   6211.7567019297921     
   5539.6201119845318     
   4884.8871434530920     
   5990.1156975471567     
   5254.5995664322163     
   4523.9135420889052     
   3792.0629719693939     
   3059.2310445491394     
   5700.1188596792526     
   4987.3448902278597     
   4277.2648690703718     
   3566.0553923338716     
   2857.5925869496268     
   5417.8998759892493     
   4729.9071170827610     
   4043.7112803559348     
   3358.5241892107620     
   2683.9113255180823     
   5145.4227788044545     
   4484.7409536296855     
   3826.4841624012670     
   3174.0178136999066     
   2544.9886674588861     
   4884.8871434530920     
   4254.6343023376321     
   3629.2685117681158     
   3017.6210577138168     
   2447.7700656113257     
   3059.2310445491394     
   2394.7589981095175     
   1737.7575302548112     
   1087.2340431204918     
   466.23112320595658     
   2857.5925869496268     
   2216.5731017427547     
   1600.8909781812531     
   1040.8793625919491     
   712.20733024449726     
   2683.9113255180823     
   2080.4462610275987     
   1533.0848020281296     
   1123.7111875750159     
   1088.5931729623310     
   2544.9886674588861     
   1991.5201240132674     
   1533.1553801974742     
   1291.5988023026443     
   1474.1509629629159     
   2447.7700656113257     
   1952.7157221881939     
   1591.7357988729082     
   1501.0486353926399     
   1844.9028664057878     
   10895.534072150438     
   10083.066597467969     
   9251.9823325731613     
   8403.4105211934420     
   7546.7237599940954     
   10523.682811537165     
   9710.2455054666352     
   8876.3079952943881     
   8024.9170907528724     
   7167.5448098661418     
   10138.547239226355     
   9324.7215144036018     
   8490.3177269216030     
   7639.8001398880242     
   6787.1306114352146     
   9740.0550555471491     
   8926.8631246640598     
   8094.6366042774716     
   7249.0171392492439     
   6406.9472748476010     
   9328.5475736984790     
   8517.3212458727357     
   7690.1257091986072     
   6853.7525294634625     
   6028.7391705470845     
   7546.7237599940954     
   6883.4887335952417     
   6211.7567019297921     
   5539.6201119845318     
   4884.8871434530920     
   7167.5448098661418     
   6533.1603321103485     
   5889.0849138613230     
   5245.4635795560589     
   4622.8897273684943     
   6787.1306114352146     
   6182.0586273432527     
   5567.2763071318641     
   4955.2046245068323     
   4369.7007493253923     
   6406.9472748476010     
   5831.9498795617501     
   5248.4713639641031     
   4671.5166686149332     
   4128.7437131549395     
   6028.7391705470845     
   5484.9421193202243     
   4935.2462297596612     
   4397.6258194196334     
   3904.0767710801529     
   4884.8871434530920     
   4254.6343023376321     
   3629.2685117681158     
   3017.6210577138168     
   2447.7700656113257     
   4622.8897273684943     
   4023.9606256003326     
   3437.9597823397953     
   2879.9232278594241     
   2390.3667222150289     
   4369.7007493253923     
   3806.5234555268630     
   3266.9836308221243     
   2773.2823509655486     
   2377.8956105672632     
   4128.7437131549395     
   3605.6153895143498     
   3119.5569326655523     
   2700.0455327652830     
   2408.3529002719679     
   3904.0767710801529     
   3424.9798819304810     
   2998.9174924216468     
   2661.5427022671015     
   2477.5269268770362     
   2447.7700656113257     
   1952.7157221881939     
   1591.7357988729082     
   1501.0486353926399     
   1844.9028664057878     
   2390.3667222150289     
   1956.3101088850481     
   1667.9506884590703     
   1635.3621732132283     
   1980.5358440995290     
   2377.8956105672632     
   1999.9502603473586     
   1771.7367248266144     
   1778.8086099669254     
   2116.7538657125369     
   2408.3529002719679     
   2079.1105825517425     
   1897.1968153709852     
   1928.4995693893743     
   2252.9630048373260     
   2477.5269268770362     
   2188.0227362377495     
   2039.0466318153860     
   2082.3040237434852     
   2388.7119077503012     
   9328.5475736984790     
   8517.3212458727357     
   7690.1257091986072     
   6853.7525294634625     
   6028.7391705470845     
   8874.7891793199651     
   8078.0052747852851     
   7265.8251125331599     
   6447.9787403579121     
   5645.8732419105681     
   8428.5363946274065     
   7640.7921039748317     
   6841.1943288475650     
   6041.3471143095339     
   5263.7884057208285     
   7988.6235263694416     
   7206.0164127457874     
   6417.6464738736295     
   5636.5357393262793     
   4886.9728083382033     
   7554.4094762873920     
   6774.3666457849604     
   5997.0814295796536     
   5237.0675746050065     
   4521.4121108523123     
   6028.7391705470845     
   5484.9421193202243     
   4935.2462297596612     
   4397.6258194196334     
   3904.0767710801529     
   5645.8732419105681     
   5130.6521822959166     
   4614.3592027133736     
   4117.5243448118608     
   3677.5538808730280     
   5263.7884057208285     
   4778.8556925873490     
   4299.5577231409934     
   3849.3574926372894     
   3471.2832945599175     
   4886.9728083382033     
   4434.0125239607041     
   3995.5508096611293     
   3598.2793094228414     
   3290.5442051644286     
   4521.4121108523123     
   4102.0495131881244     
   3708.4834717449917     
   3370.6978201333482     
   3141.1928176403358     
   3904.0767710801529     
   3424.9798819304810     
   2998.9174924216468     
   2661.5427022671015     
   2477.5269268770362     
   3677.5538808730280     
   3245.9338634201381     
   2880.8087715140809     
   2620.2897385930614     
   2525.8024203267851     
   3471.2832945599175     
   3088.1445720180368     
   2785.9195199098504     
   2602.7755911103300     
   2593.0922035036629     
   3290.5442051644286     
   2955.7889367529165     
   2716.6548773364575     
   2608.6505802540605     
   2676.4974696893173     
   3141.1928176403358     
   2853.1258810030017     
   2674.9103254465899     
   2636.8978057916256     
   2773.1454867001667     
   2477.5269268770362     
   2188.0227362377495     
   2039.0466318153860     
   2082.3040237434852     
   2388.7119077503012     
   2525.8024203267851     
   2254.8776505744213     
   2115.4462838256859     
   2144.8117839430320     
   2399.8579383478259     
   2593.0922035036629     
   2336.2260110795128     
   2202.2612690126502     
   2217.2264267375076     
   2425.2412104535456     
   2676.4974696893173     
   2430.1168117526490     
   2298.6060195554569     
   2299.3518282597938     
   2465.1629775807260     
   2773.1454867001667     
   2534.6571310334698     
   2403.6099031538574     
   2390.9393041072935     
   2519.7617156289102     
   7554.4094762873920     
   6774.3666457849604     
   5997.0814295796536     
   5237.0675746050065     
   4521.4121108523123     
   7012.0969969646339     
   6291.9997044507400     
   5556.2816861865658     
   4829.6348781901024     
   4154.4470461649053     
   6455.4344267738306     
   5791.4736238994237     
   5103.2646099279382     
   4424.2318043244723     
   3813.2131833657140     
   5884.5720848998035     
   5276.8076321648023     
   4644.8996477888631     
   4030.8827115951572     
   3511.8099650071476     
   5304.3665188055829     
   4755.9703400175467     
   4192.1787290107568     
   3664.3414909605995     
   3268.4658182924204     
   4521.4121108523123     
   4102.0495131881244     
   3708.4834717449917     
   3370.6978201333482     
   3141.1928176403358     
   4154.4470461649053     
   3766.0469760575797     
   3417.1475634068606     
   3139.7716434311424     
   2988.2640508584500     
   3813.2131833657140     
   3455.8215716587974     
   3154.3229317601381     
   2941.6193454565841     
   2870.7431205835792     
   3511.8099650071476     
   3184.6690413152714     
   2932.3362154477268     
   2786.5375225493140     
   2794.8763658030066     
   3268.4658182924204     
   2969.5867344901917     
   2766.0371785036004     
   2685.4415336462012     
   2765.8763705314182     
   3141.1928176403358     
   2853.1258810030017     
   2674.9103254465899     
   2636.8978057916256     
   2773.1454867001667     
   2988.2640508584500     
   2740.4692413220905     
   2611.1917521593841     
   2624.5199195967771     
   2805.8321345588711     
   2870.7431205835792     
   2656.8292356542966     
   2569.5985629713496     
   2626.4351602819611     
   2844.9701441993652     
   2794.8763658030066     
   2606.3243633547636     
   2551.9331757397099     
   2642.7456975376672     
   2890.0050783404263     
   2765.8763705314182     
   2592.2116948507255     
   2559.4009283337246     
   2673.3149587847529     
   2940.3800599293436     
   2773.1454867001667     
   2534.6571310334698     
   2403.6099031538574     
   2390.9393041072935     
   2519.7617156289102     
   2805.8321345588711     
   2563.5981149083482     
   2424.7550919278674     
   2394.7336364046218     
   2487.0436380150745     
   2844.9701441993652     
   2599.6182366328308     
   2454.5030502323489     
   2411.3024761990910     
   2476.1850864048047     
   2890.0050783404263     
   2642.4832908885924     
   2492.8277821289098     
   2440.7169658683988     
   2487.6634664829844     
   2940.3800599293436     
   2691.9104150753760     
   2539.6412391126751     
   2482.9492298374516     
   2521.5842294706226     
   5304.3665188055829     
   4755.9703400175467     
   4192.1787290107568     
   3664.3414909605995     
   3268.4658182924204     
   4729.9034462019363     
   4220.4765706521148     
   3717.4242907089297     
   3282.8152282194023     
   3033.1445000601243     
   4193.6192726084964     
   3718.2847689129135     
   3285.3621087588176     
   2966.4276369192271     
   2887.2313758009386     
   3754.5431813577338     
   3303.8402562044398     
   2946.9096846184502     
   2759.1506768189402     
   2853.7514522922311     
   3502.6273774151214     
   3060.9488722527644     
   2774.3265686872178     
   2709.8215484547577     
   2946.0449130488028     
   3268.4658182924204     
   2969.5867344901917     
   2766.0371785036004     
   2685.4415336462012     
   2765.8763705314182     
   3033.1445000601243     
   2765.7861953960664     
   2607.8276554539279     
   2583.4906926496237     
   2722.4348988238576     
   2887.2313758009386     
   2645.3173477882465     
   2525.9406348752186     
   2547.7784112335689     
   2731.0058101078394     
   2853.7514522922311     
   2627.9811339972553     
   2534.2431771565480     
   2585.1623306143988     
   2792.9448277705715     
   2946.0449130488028     
   2724.1379934032325     
   2638.3273673275285     
   2696.6763490410240     
   2906.6536911103099     
   2765.8763705314182     
   2592.2116948507255     
   2559.4009283337246     
   2673.3149587847529     
   2940.3800599293436     
   2722.4348988238576     
   2551.8513201838723     
   2524.3551031179509     
   2642.6751037386016     
   2910.3148872429942     
   2731.0058101078394     
   2551.1200729802117     
   2515.5254316746173     
   2625.9565867122128     
   2884.6754563054246     
   2792.9448277705715     
   2591.9329997399077     
   2534.8439025354528     
   2624.6914422631398     
   2864.4299953606014     
   2906.6536911103099     
   2674.2647448047805     
   2583.3629852307722     
   2640.2168115919148     
   2850.5972817703118     
   2940.3800599293436     
   2691.9104150753760     
   2539.6412391126751     
   2482.9492298374516     
   2521.5842294706226     
   2910.3148872429942     
   2653.2903892720551     
   2495.7413198151144     
   2438.5764011670708     
   2483.0008438661321     
   2884.6754563054246     
   2620.6940584211029     
   2460.2713163343642     
   2407.5143331833251     
   2468.4030205559848     
   2864.4299953606014     
   2594.7302532168178     
   2433.5042687583968     
   2389.8390342537955     
   2477.7079055302652     
   2850.5972817703118     
   2576.0025622494891     
   2415.6719738666943     
   2385.5281771259129     
   2510.4129709749254     
   3502.6273774151214     
   3060.9488722527644     
   2774.3265686872178     
   2709.8215484547577     
   2946.0449130488028     
   3153.5388337593508     
   2822.9595277418771     
   2668.1025406811682     
   2737.8531140502937     
   3069.8112258339438     
   3127.7945007681501     
   2894.9190875360237     
   2835.0727452443016     
   2971.9626785061600     
   3321.1630126678338     
   3437.1212021527508     
   3263.9876300115525     
   3242.3391240339110     
   3379.3086760927022     
   3683.9608689085271     
   4010.3820877804001     
   3853.4686292260367     
   3822.5807587397608     
   3915.4621417334401     
   4138.5392517955379     
   2946.0449130488028     
   2724.1379934032325     
   2638.3273673275285     
   2696.6763490410240     
   2906.6536911103099     
   3069.8112258339438     
   2838.8125411914307     
   2743.0754284481827     
   2790.4490946771698     
   2988.0548212630074     
   3321.1630126678338     
   3065.5631681272303     
   2941.4685391770281     
   2957.3897201613131     
   3122.0877371524712     
   3683.9608689085271     
   3390.6012974901860     
   3222.5985494393794     
   3189.5617374684202     
   3303.1920372672057     
   4138.5392517955379     
   3797.0071381565767     
   3573.0773391582975     
   3477.3886388505648     
   3525.0285662485853     
   2906.6536911103099     
   2674.2647448047805     
   2583.3629852307722     
   2640.2168115919148     
   2850.5972817703118     
   2988.0548212630074     
   2721.4458883341381     
   2587.4808413301735     
   2596.8431747347308     
   2760.4699084127806     
   3122.0877371524712     
   2814.8345353587029     
   2628.7357953851110     
   2579.0298133981614     
   2683.6550203585866     
   3303.1920372672057     
   2951.5493745213398     
   2707.4235655872762     
   2589.5579092339035     
   2623.5821027018328     
   3525.0285662485853     
   3127.4417686260772     
   2822.4409654198489     
   2630.4306256460386     
   2583.8488636827747     
   2850.5972817703118     
   2576.0025622494891     
   2415.6719738666943     
   2385.5281771259129     
   2510.4129709749254     
   2760.4699084127806     
   2473.7719255137263     
   2310.0387265947643     
   2292.1937709069753     
   2455.8577771497830     
   2683.6550203585866     
   2382.1464372655587     
   2213.1344526386438     
   2208.6354259276004     
   2417.0398647272582     
   2623.5821027018328     
   2303.5069880949845     
   2126.0896371069211     
   2135.1312097404216     
   2393.7754283350687     
   2583.8488636827747     
   2240.4442643316374     
   2050.1372987461305     
   2071.9192886064711     
   2385.7054122289369     
   4010.3820877804001     
   3853.4686292260367     
   3822.5807587397608     
   3915.4621417334401     
   4138.5392517955379     
   4590.9115204166728     
   4435.8127845903082     
   4382.3999545227480     
   4422.9039390525859     
   4562.5249799968451     
   5339.9850045920475     
   5159.3093977997642     
   5059.0418008119150     
   5027.0184117892777     
   5065.6954053978534     
   6199.7203654157129     
   5975.8796331210569     
   5814.7387983392264     
   5700.0008551027831     
   5629.8956610470977     
   7134.3923172191226     
   6856.2011196545973     
   6625.9542972884483     
   6423.4262662593674     
   6241.7749522492522     
   4138.5392517955379     
   3797.0071381565767     
   3573.0773391582975     
   3477.3886388505648     
   3525.0285662485853     
   4562.5249799968451     
   4189.1691977641603     
   3916.6584768922880     
   3756.0625005346751     
   3725.1528632716763     
   5065.6954053978534     
   4650.0889515637482     
   4320.0939607858008     
   4086.7293266645015     
   3969.3787576676586     
   5629.8956610470977     
   5164.6008401269655     
   4771.2050001558491     
   4460.2343425401077     
   4251.6572672811672     
   6241.7749522492522     
   5721.5143891937696     
   5260.7324908138762     
   4869.1576815482831     
   4566.5581580968756     
   3525.0285662485853     
   3127.4417686260772     
   2822.4409654198489     
   2630.4306256460386     
   2583.8488636827747     
   3725.1528632716763     
   3279.0148182959683     
   2909.6138859809398     
   2636.8029226938856     
   2498.0400725442169     
   3969.3787576676586     
   3476.2864834105062     
   3044.2608657440205     
   2690.2202108142051     
   2452.3811177027728     
   4251.6572672811672     
   3713.8816095777079     
   3222.6365004813542     
   2790.4239416143741     
   2451.7198468364691     
   4566.5581580968756     
   3986.5434132614291     
   3440.1774805299087     
   2935.1121067796944     
   2498.7995576631301     
   2583.8488636827747     
   2240.4442643316374     
   2050.1372987461305     
   2071.9192886064711     
   2385.7054122289369     
   2498.0400725442169     
   2123.1872637519555     
   1906.1633491699858     
   1918.5236981302203     
   2250.0576170423128     
   2452.3811177027728     
   2036.0708474330879     
   1778.6883468476592     
   1769.4839807348249     
   2114.7011028935535     
   2451.7198468364691     
   1985.4588447335825     
   1673.3580072697803     
   1627.0685650227983     
   1980.0859032008989     
   2498.7995576631301     
   1976.6987249783269     
   1596.6259719760258     
   1494.3877352426441     
   1846.8035165743031     
   7134.3923172191226     
   6856.2011196545973     
   6625.9542972884483     
   6423.4262662593674     
   6241.7749522492522     
   8080.1322119533061     
   7750.6333260769998     
   7443.1840248390990     
   7146.0939479374019     
   6855.4083242796733     
   9080.2860684443476     
   8687.9080532167791     
   8301.6315415901736     
   7914.7277831568417     
   7524.6612908600709     
   10117.056156849307     
   9656.2784171181283     
   9191.9693921435610     
   8720.1872826823110     
   8239.0741377468621     
   11179.752324720937     
   10648.588099031425     
   10108.294161865137     
   9556.3715191119845     
   8991.2312666917314     
   6241.7749522492522     
   5721.5143891937696     
   5260.7324908138762     
   4869.1576815482831     
   4566.5581580968756     
   6855.4083242796733     
   6282.1455411341167     
   5752.8943695500739     
   5275.3291435828578     
   4867.5919626545019     
   7524.6612908600709     
   6893.4908253802823     
   6291.5431265299749     
   5724.0919110771620     
   5206.5789625065290     
   8239.0741377468621     
   7546.0203974227206     
   6868.1472090959669     
   6208.1612465945200     
   5578.0782273140112     
   8991.2312666917314     
   8232.9395542485709     
   7476.4882701949946     
   6721.9830300962612     
   5977.6043330674565     
   4566.5581580968756     
   3986.5434132614291     
   3440.1774805299087     
   2935.1121067796944     
   2498.7995576631301     
   4867.5919626545019     
   4250.3578715698704     
   3657.6094124923316     
   3093.1400141423605     
   2576.0938204753779     
   5206.5789625065290     
   4552.2540686558132     
   3914.6363841322359     
   3294.0720101797870     
   2701.7200706488175     
   5578.0782273140112     
   4886.2599979597162     
   4204.4376488526950     
   3530.1014317799377     
   2867.6061172083464     
   5977.6043330674565     
   5247.4286358730578     
   4521.2681842062730     
   3794.3538617895551     
   3065.7168294203461     
   2498.7995576631301     
   1976.6987249783269     
   1596.6259719760258     
   1494.3877352426441     
   1846.8035165743031     
   2576.0938204753779     
   2004.1164039169839     
   1533.4125212712597     
   1284.9979440989744     
   1474.1832770848650     
   2701.7200706488175     
   2086.7756897152790     
   1531.7917624945965     
   1118.4330047077649     
   1086.8322007601219     
   2867.6061172083464     
   2221.4840125565256     
   1601.9660384062322     
   1040.2039889492085     
   710.66110387171159     
   3065.7168294203461     
   2402.3753662283707     
   1745.1552421778022     
   1095.6481617121594     
   475.27283264129073     
 </DataArray>
 <DataArray  type="Float64" Name="strain" NumberOfComponents="3" format="ascii">
   1.9986784334622335E-007  -6.0371560923477298E-008   5.4307129412081928E-009
   1.8741245336382316E-007  -5.6740195335953632E-008  -2.5903785079252326E-009
   1.7495706338142340E-007  -5.3078437730526097E-008  -2.2700393677484752E-009
   1.6250167339902299E-007  -4.9271141553021803E-008   5.0841928260108628E-010
   1.5004628341662302E-007  -4.5260979319312178E-008   3.4315928117608835E-009
   1.9585574461555152E-007  -5.9841608990439008E-008   1.0482921822263513E-008
   1.8325643607793662E-007  -5.5130672953034032E-008   2.1560772750826029E-009
   1.7034191171477497E-007  -5.1001062330855153E-008   2.0252285905409680E-009
   1.5724369849995698E-007  -4.7055490407804486E-008   4.9361089129546165E-009
   1.4401443317563288E-007  -4.3114236004485073E-008   8.5936375332795665E-009
   1.9115472049207681E-007  -5.9459087294405307E-008   1.4361593702374807E-008
   1.7851515704261610E-007  -5.3837731168764524E-008   6.1186733310487009E-009
   1.6527816694437935E-007  -4.9224580244255613E-008   5.7941319335963305E-009
   1.5166971422277168E-007  -4.5081724602444757E-008   8.9367129459870519E-009
   1.3779149166131338E-007  -4.1146343208532302E-008   1.3350273584701637E-008
   1.8583398736184496E-007  -5.9169986738652933E-008   1.7559474894485325E-008
   1.7324155934868437E-007  -5.2776329913757701E-008   9.5498765116819920E-009
   1.5980395926270386E-007  -4.7688032751680946E-008   9.1713193931631925E-009
   1.4581125415570642E-007  -4.3312284003078709E-008   1.2594840709332584E-008
   1.3140747305021423E-007  -3.9335844023965731E-008   1.7761405145987766E-008
   1.7993263212521203E-007  -5.8943808068569084E-008   2.0354822140025520E-008
   1.6747118228711701E-007  -5.1889384047660756E-008   1.2619161110337732E-008
   1.5394777056648090E-007  -4.6345885859526885E-008   1.2257368779741699E-008
   1.3969364444084072E-007  -4.1717002258879748E-008   1.5978446025331992E-008
   1.2488777501967491E-007  -3.7664581843666655E-008   2.1877722497829457E-008
   1.5004628341662302E-007  -4.5260979319312178E-008   3.4315928117608835E-009
   1.3746223719228482E-007  -4.1303176434734167E-008  -2.7173455518196424E-009
   1.2487819096794663E-007  -3.7552159814054631E-008  -3.0858399249180538E-009
   1.1229414474360864E-007  -3.3869040534711501E-008   1.5978167813078820E-010
   9.9710098519270235E-008  -3.0158639503593843E-008   5.6473341875004488E-009
   1.4401443317563288E-007  -4.3114236004485073E-008   8.5936375332795665E-009
   1.3189002936632491E-007  -3.9306130071305553E-008   3.0487289064776755E-009
   1.1958157501408411E-007  -3.5718367376776518E-008   2.9311785782808533E-009
   1.0713715715897326E-007  -3.2223428464348280E-008   6.3303329646386721E-009
   9.4586270708163878E-008  -2.8732194394131985E-008   1.1997476934934007E-008
   1.3779149166131338E-007  -4.1146343208532302E-008   1.3350273584701637E-008
   1.2612355647294212E-007  -3.7436639620302854E-008   8.4551690337621075E-009
   1.1411243338096349E-007  -3.3974205481327676E-008   8.6486992092856486E-009
   1.0184241831279111E-007  -3.0638875155878478E-008   1.2253428147160025E-008
   8.9366978579685746E-008  -2.7345343034881225E-008   1.8140019951583380E-008
   1.3140747305021423E-007  -3.9335844023965731E-008   1.7761405145987766E-008
   1.2019058946218171E-007  -3.5682862361315263E-008   1.3543367561327059E-008
   1.0849454724295726E-007  -3.2313259562850025E-008   1.4093662682386046E-008
   9.6429852955968918E-008  -2.9112044221080394E-008   1.7946175037076075E-008
   8.4068905148702387E-008  -2.5996459489395534E-008   2.4085602917822184E-008
   1.2488777501967491E-007  -3.7664581843666655E-008   2.1877722497829457E-008
   1.1411556468456252E-007  -3.4034377589776008E-008   1.8349746984221719E-008
   1.0274948139294696E-007  -3.0729712887418815E-008   1.9290498864442561E-008
   9.0917960162476862E-008  -2.7639838000520339E-008   2.3424457329471678E-008
   7.8707832303729410E-008  -2.4684005645501207E-008   2.9844290815955790E-008
   9.9710098519270235E-008  -3.0158639503593843E-008   5.6473341875004488E-009
   8.7534345236081611E-008  -2.6448951969985373E-008   5.1384570186756135E-010
   7.5358591952893198E-008  -2.2762046040816596E-008  -1.4128365023727808E-009
   6.3182838669704785E-008  -1.9024134636766582E-008  -9.1654464530775723E-010
   5.1007085386516161E-008  -1.5170562005348189E-008   1.4267783362365499E-009
   9.4586270708163878E-008  -2.8732194394131985E-008   1.1997476934934007E-008
   8.2924592491724052E-008  -2.5180648134076302E-008   6.9935890764176525E-009
   7.1169678109022581E-008  -2.1515227154294669E-008   5.1243852539406964E-009
   5.9340224539968620E-008  -1.7683330189079928E-008   5.6670153225311892E-009
   4.7449699446200795E-008  -1.3633894334661540E-008   8.0843442539518450E-009
   8.9366978579685746E-008  -2.7345343034881225E-008   1.8140019951583380E-008
   7.8224851883748083E-008  -2.3938088947601156E-008   1.3336175038600966E-008
   6.6904275585466810E-008  -2.0286306732607821E-008   1.1584999921400564E-008
   5.5439896150388442E-008  -1.6355482065391200E-008   1.2225392681783448E-008
   4.3857139695609418E-008  -1.2106497282574869E-008   1.4760682202772640E-008
   8.4068905148702387E-008  -2.5996459489395534E-008   2.4085602917822184E-008
   7.3448905601817449E-008  -2.2720498420118853E-008   1.9548158021971348E-008
   6.2573481102399069E-008  -1.9074902115512390E-008   1.7973183117886499E-008
   5.1490590214853946E-008  -1.5040403371337325E-008   1.8761438583017336E-008
   4.0236093696897479E-008  -1.0588287207797429E-008   2.1457906561649028E-008
   7.8707832303729410E-008  -2.4684005645501207E-008   2.9844290815955790E-008
   6.8609987451751294E-008  -2.1527131437318853E-008   2.5635831663687241E-008
   5.8188077295180691E-008  -1.7880641473661507E-008   2.4292992273355229E-008
   4.7500876215794187E-008  -1.3737910789982265E-008   2.5277949602287168E-008
   3.6593168804831108E-008  -9.0791814721999234E-009   2.8178106350684336E-008
   5.1007085386516161E-008  -1.5170562005348189E-008   1.4267783362365499E-009
   4.0010631656536255E-008  -1.1541800009017328E-008  -4.2562490560762398E-010
   2.9014177926556561E-008  -8.4536920998280724E-009  -5.7512785383390810E-010
   1.8017724196577290E-008  -5.8269198768334065E-009   6.8455385708302192E-010
   7.0212704665969603E-009  -3.6023676469257174E-009   3.1238582887848287E-009
   4.7449699446200795E-008  -1.3633894334661540E-008   8.0843442539518450E-009
   3.6899846136341378E-008  -1.0131267715301684E-008   6.2908425779846535E-009
   2.6304460278580080E-008  -7.8893361113118024E-009   6.7134774923736333E-009
   1.5673459623250212E-008  -6.8176191772047416E-009   9.0628408249271162E-009
   5.0151279306440787E-009  -6.8688247479041292E-009   1.3126897334016834E-008
   4.3857139695609418E-008  -1.2106497282574869E-008   1.4760682202772640E-008
   3.3887096827878351E-008  -8.7254326350438401E-009   1.2863902112959087E-008
   2.3827671570888604E-008  -7.3258043904249338E-009   1.3694508953761064E-008
   1.3702186366377496E-008  -7.8079595742393390E-009   1.6963068852024962E-008
   3.5309237191395407E-009  -1.0135281848862212E-008   2.2468504019584555E-008
   4.0236093696897479E-008  -1.0588287207797429E-008   2.1457906561649028E-008
   3.0977457139612844E-008  -7.3242713439626862E-009   1.9294852427696827E-008
   2.1587535954126680E-008  -6.7630951326476289E-009   2.0368300149807588E-008
   1.2106086941942155E-008  -8.7979412629484296E-009   2.4384969685665504E-008
   2.5686578320835052E-009  -1.3401738949823683E-008   3.1148678345475073E-008
   3.6593168804831108E-008  -9.0791814721999234E-009   2.8178106350684336E-008
   2.8175966802246989E-008  -5.9277605732517037E-009   2.5584983629500982E-008
   1.9587766716222130E-008  -6.2012065387463824E-009   2.6735183726884007E-008
   1.0887342285168815E-008  -9.7875644381632496E-009   3.1328275267426823E-008
   2.1283302694754955E-009  -1.6668196050791931E-008   3.9167420311691565E-008
   1.7993263212521203E-007  -5.8943808068569084E-008   2.0354822140025520E-008
   1.6747118228711701E-007  -5.1889384047660756E-008   1.2619161110337732E-008
   1.5394777056648090E-007  -4.6345885859526885E-008   1.2257368779741699E-008
   1.3969364444084072E-007  -4.1717002258879748E-008   1.5978446025331992E-008
   1.2488777501967491E-007  -3.7664581843666655E-008   2.1877722497829457E-008
   1.7359178895200334E-007  -5.7060454435517834E-008   2.2531280547752320E-008
   1.6119858987851357E-007  -4.9590690696692458E-008   1.6284694437569880E-008
   1.4762840705663373E-007  -4.3831118625521042E-008   1.6520770598716271E-008
   1.3320779767891937E-007  -3.9199990324360518E-008   2.0607291894691564E-008
   1.1812579712407210E-007  -3.5346910537735925E-008   2.6914548545860961E-008
   1.6690196731295944E-007  -5.5513738891466819E-008   2.4618070655705627E-008
   1.5458360942751049E-007  -4.7616484368137727E-008   1.9628611986825586E-008
   1.4100256707621139E-007  -4.1598781732540642E-008   2.0420802701136992E-008
   1.2647051021548793E-007  -3.6908518645013262E-008   2.4871728007542304E-008
   1.1117928777209184E-007  -3.3194751679778745E-008   3.1587115558645477E-008
   1.5987202802508426E-007  -5.4220808159522070E-008   2.6689108696862135E-008
   1.4764557134091708E-007  -4.5902587169422704E-008   2.2750616102795018E-008
   1.3409256690705844E-007  -3.9603825805985323E-008   2.4039396485866431E-008
   1.1950429125506402E-007  -3.4813572417236537E-008   2.8833188558490894E-008
   1.0407029498130528E-007  -3.1190986837699418E-008   3.5940316097299903E-008
   1.5250814460842194E-007  -5.3123936595948638E-008   2.8795893685993664E-008
   1.4039902368864315E-007  -4.4400698799522596E-008   2.5725742799729352E-008
   1.2691621632411616E-007  -3.7810298655034892E-008   2.7441938283139532E-008
   1.1232794780699846E-007  -3.2890909039186167E-008   3.2543003370029347E-008
   9.6817927622024985E-008  -2.9320779580172644E-008   4.0013058246222711E-008
   1.2488777501967491E-007  -3.7664581843666655E-008   2.1877722497829457E-008
   1.1411556468456252E-007  -3.4034377589776008E-008   1.8349746984221719E-008
   1.0274948139294696E-007  -3.0729712887418815E-008   1.9290498864442561E-008
   9.0917960162476862E-008  -2.7639838000520339E-008   2.3424457329471678E-008
   7.8707832303729410E-008  -2.4684005645501207E-008   2.9844290815955790E-008
   1.1812579712407210E-007  -3.5346910537735925E-008   2.6914548545860961E-008
   1.0782594138189878E-007  -3.1959845973622653E-008   2.3638163186873387E-008
   9.6831306296335033E-008  -2.8819295901167299E-008   2.4534851874473734E-008
   8.5281711600562314E-008  -2.5839999756559580E-008   2.8497969255686730E-008
   7.3274504965103305E-008  -2.2957536362094459E-008   3.4719157646293440E-008
   1.1117928777209184E-007  -3.3194751679778745E-008   3.1587115558645477E-008
   1.0134153301352899E-007  -3.0002809999881792E-008   2.8624143899655102E-008
   9.0725509108183531E-008  -2.6993939599026624E-008   2.9543952560265894E-008
   7.9476497625438560E-008  -2.4102329332357506E-008   3.3395277387685314E-008
   6.7698589362416514E-008  -2.1276468189909752E-008   3.9465359359291863E-008
   1.0407029498130528E-007  -3.1190986837699418E-008   3.5940316097299903E-008
   9.4682685996592744E-008  -2.8153562623794133E-008   3.3338948638527120E-008
   8.4449502954954764E-008  -2.5248086749712815E-008   3.4338613132411922E-008
   7.3516649564060144E-008  -2.2423660423599457E-008   3.8130057794195561E-008
   6.1991644694344706E-008  -1.9639033495357807E-008   4.4091937961483621E-008
   9.6817927622024985E-008  -2.9320779580172644E-008   4.0013058246222711E-008
   8.7867565556966263E-008  -2.6403437422201824E-008   3.7810485814313869E-008
   7.8019216433897016E-008  -2.3576653895127040E-008   3.8937871488625471E-008
   6.7415541767604089E-008  -2.0801038156249025E-008   4.2715073323103175E-008
   5.6164637790656797E-008  -1.8043555229969657E-008   4.8607472087872943E-008
   7.8707832303729410E-008  -2.4684005645501207E-008   2.9844290815955790E-008
   6.8609987451751294E-008  -2.1527131437318853E-008   2.5635831663687241E-008
   5.8188077295180691E-008  -1.7880641473661507E-008   2.4292992273355229E-008
   4.7500876215794187E-008  -1.3737910789982265E-008   2.5277949602287168E-008
   3.6593168804831108E-008  -9.0791814721999234E-009   2.8178106350684336E-008
   7.3274504965103305E-008  -2.2957536362094459E-008   3.4719157646293440E-008
   6.3738315153035285E-008  -1.9894333111235010E-008   3.0508192192265818E-008
   5.3802677959136370E-008  -1.6407616893628290E-008   2.9343051450123340E-008
   4.3540823838210264E-008  -1.2487797840070843E-008   3.0717922620458336E-008
   3.3010113343852855E-008  -8.1151679323033707E-009   3.4243959472637750E-008
   6.7698589362416514E-008  -2.1276468189909752E-008   3.9465359359291863E-008
   5.8783120178882429E-008  -1.8293385095178059E-008   3.5268510634862542E-008
   4.9396677408465117E-008  -1.4955147867601549E-008   3.4288709691341198E-008
   3.9626332014260759E-008  -1.1249535819994549E-008   3.6054774658413813E-008
   2.9542080045168151E-008  -7.1569008884584141E-009   4.0203511162697645E-008
   6.1991644694344706E-008  -1.9639033495357807E-008   4.4091937961483621E-008
   5.3753759936425508E-008  -1.6723364454900984E-008   3.9922801217210402E-008
   4.4977838727593733E-008  -1.3522807108309993E-008   3.9133898875849550E-008
   3.5763997899150081E-008  -1.0022957006535957E-008   4.1290951465080615E-008
   2.6194729370114501E-008  -6.2043291109604388E-009   4.6058128979339072E-008
   5.6164637790656797E-008  -1.8043555229969657E-008   4.8607472087872943E-008
   4.8659233755648876E-008  -1.5183383573801133E-008   4.4476848020436615E-008
   4.0553711320414582E-008  -1.2110179089674142E-008   4.3882442656693590E-008
   3.1960294742121998E-008  -8.8078968265926411E-009   4.6428852853997508E-008
   2.2973654695765535E-008  -5.2574019772326356E-009   5.1809164273585577E-008
   3.6593168804831108E-008  -9.0791814721999234E-009   2.8178106350684336E-008
   2.8175966802246989E-008  -5.9277605732517037E-009   2.5584983629500982E-008
   1.9587766716222130E-008  -6.2012065387463824E-009   2.6735183726884007E-008
   1.0887342285168815E-008  -9.7875644381632496E-009   3.1328275267426823E-008
   2.1283302694754955E-009  -1.6668196050791931E-008   3.9167420311691565E-008
   3.3010113343852855E-008  -8.1151679323033707E-009   3.4243959472637750E-008
   2.5476173141042925E-008  -5.2611547350061557E-009   3.1319699697034859E-008
   1.7744226334191717E-008  -5.8037540174902489E-009   3.1983482818018658E-008
   9.8818900974596441E-009  -9.6442541380119470E-009   3.5953400013725427E-008
   1.9513153463126431E-009  -1.6768944553668583E-008   4.3038801717512172E-008
   2.9542080045168151E-008  -7.1569008884584141E-009   4.0203511162697645E-008
   2.2857175646550443E-008  -4.5967540738775841E-009   3.6966402115665331E-008
   1.5953028633452497E-008  -5.4068803029912604E-009   3.7157786624327986E-008
   8.9040140015835572E-009  -9.5009957176715694E-009   4.0513895336794201E-008
   1.7789873775921850E-009  -1.6869693056541848E-008   4.6850490356383716E-008
   2.6194729370114501E-008  -6.2043291109604388E-009   4.6058128979339072E-008
   2.0323535462853628E-008  -3.9345476656195993E-009   4.2525739426164377E-008
   1.4217343698026304E-008  -5.0105841318051201E-009   4.2258331986840066E-008
   7.9553353310926953E-009  -9.3577891489968267E-009   4.5009801384251788E-008
   1.6113463633134594E-009  -1.6970441559415112E-008   5.0602486228304398E-008
   2.2973654695765535E-008  -5.2574019772326356E-009   5.1809164273585577E-008
   1.7879783656390083E-008  -3.2745246580301993E-009   4.7998355892618852E-008
   1.2540332392227465E-008  -4.6148642441526429E-009   4.7285355057753334E-008
   7.0374742460850255E-009  -9.2146344038333231E-009   4.9441158274665696E-008
   1.4483923034771812E-009  -1.7071190062291765E-008   5.4294789333273689E-008
   1.5250814460842194E-007  -5.3123936595948638E-008   2.8795893685993664E-008
   1.4039902368864315E-007  -4.4400698799522596E-008   2.5725742799729352E-008
   1.2691621632411616E-007  -3.7810298655034892E-008   2.7441938283139532E-008
   1.1232794780699846E-007  -3.2890909039186167E-008   3.2543003370029347E-008
   9.6817927622024985E-008  -2.9320779580172644E-008   4.0013058246222711E-008
   1.4509740254437002E-007  -4.9747703512241121E-008   2.9703226656526142E-008
   1.3285217957733985E-007  -4.1569102955592600E-008   2.9014420851289036E-008
   1.1933924544524869E-007  -3.5257349953200988E-008   3.1876060533224492E-008
   1.0476261592428991E-007  -3.0464560594186989E-008   3.7296414202800875E-008
   8.9267021798586763E-008  -2.6938053173954713E-008   4.4519761779036409E-008
   1.3767147344361393E-007  -4.6816027809665168E-008   3.0662189892143524E-008
   1.2520715230630576E-007  -3.9049216670688083E-008   3.2067489915523547E-008
   1.1158709269043632E-007  -3.2938530241021469E-008   3.5993887836717858E-008
   9.6958257220497307E-008  -2.8222586206794817E-008   4.1749829686015453E-008
   8.1427741170412222E-008  -2.4704219222842624E-008   4.8782502580655525E-008
   1.3022998005499396E-007  -4.4246529072017333E-008   3.1681895684799584E-008
   1.1747348318128944E-007  -3.6792254444334715E-008   3.4938046830626369E-008
   1.0367489848594621E-007  -3.0823043949468699E-008   3.9851083709934564E-008
   8.8931626864577102E-008  -2.6144739710058965E-008   4.5948342568468486E-008
   7.3315643444964097E-008  -2.2605744512153054E-008   5.2833909662490616E-008
   1.2277263291535552E-007  -4.1975997168621225E-008   3.2769335856002515E-008
   1.0965882115853699E-007  -3.4759106518566873E-008   3.7668657614577558E-008
   9.5615259509290219E-008  -2.8885269484742642E-008   4.3493959620712615E-008
   8.0697113463369252E-008  -2.4213634580628621E-008   4.9930676532119479E-008
   6.4944456334444304E-008  -2.0630687688892211E-008   5.6702774006709694E-008
   9.6817927622024985E-008  -2.9320779580172644E-008   4.0013058246222711E-008
   8.7867565556966263E-008  -2.6403437422201824E-008   3.7810485814313869E-008
   7.8019216433897016E-008  -2.3576653895127040E-008   3.8937871488625471E-008
   6.7415541767604089E-008  -2.0801038156249025E-008   4.2715073323103175E-008
   5.6164637790656797E-008  -1.8043555229969657E-008   4.8607472087872943E-008
   8.9267021798586763E-008  -2.6938053173954713E-008   4.4519761779036409E-008
   8.0847913365076374E-008  -2.4061661446234382E-008   4.1991860582715461E-008
   7.1454140121119905E-008  -2.1323066715158745E-008   4.2785054421954842E-008
   6.1231540407025246E-008  -1.8684432989636915E-008   4.6305620481698918E-008
   5.0294202718878800E-008  -1.6114132949117104E-008   5.2077689741014553E-008
   8.1427741170412222E-008  -2.4704219222842624E-008   4.8782502580655525E-008
   7.3573331318147656E-008  -2.1839021969221193E-008   4.5978777654621316E-008
   6.4678670523514299E-008  -1.9161615143647632E-008   4.6475028206043868E-008
   5.4889964936854557E-008  -1.6636212873688802E-008   4.9762860596186564E-008
   4.4325266394341430E-008  -1.4232913655700137E-008   5.5427001188695926E-008
   7.3315643444964097E-008  -2.2605744512153054E-008   5.2833909662490616E-008
   6.6056974693772320E-008  -1.9726653016080722E-008   4.9793793349025782E-008
   5.7703571156280084E-008  -1.7086762064985913E-008   5.0023309829883945E-008
   4.8399569828243621E-008  -1.4653116333475312E-008   5.3097521646106091E-008
   3.8265086340159068E-008  -1.2398113244481571E-008   5.8662840118998748E-008
   6.4944456334444304E-008  -2.0630687688892211E-008   5.6702774006709694E-008
   5.8310725035729921E-008  -1.7716547042269323E-008   5.3457280013815461E-008
   5.0538759993083661E-008  -1.5093405338669582E-008   5.3444197325787942E-008
   4.1768561563662764E-008  -1.2732086047065841E-008   5.6319660089986082E-008
   3.2120566287147042E-008  -1.0608034582416972E-008   6.1792277839947120E-008
   5.6164637790656797E-008  -1.8043555229969657E-008   4.8607472087872943E-008
   4.8659233755648876E-008  -1.5183383573801133E-008   4.4476848020436615E-008
   4.0553711320414582E-008  -1.2110179089674142E-008   4.3882442656693590E-008
   3.1960294742121998E-008  -8.8078968265926411E-009   4.6428852853997508E-008
   2.2973654695765535E-008  -5.2574019772326356E-009   5.1809164273585577E-008
   5.0294202718878800E-008  -1.6114132949117104E-008   5.2077689741014553E-008
   4.3559283214086116E-008  -1.3491572392028323E-008   4.7964985673150468E-008
   3.6171461211683319E-008  -1.0706162238623020E-008   4.7450517619328932E-008
   2.8251453306736724E-008  -7.7435063043376155E-009   5.0183662082019033E-008
   1.9903261161512252E-008  -4.5872379383084759E-009   5.5890369173826482E-008
   4.4325266394341430E-008  -1.4232913655700137E-008   5.5427001188695926E-008
   3.8392858237582736E-008  -1.1831523511528424E-008   5.1338577581054551E-008
   3.1760862231940098E-008  -9.3212059938498136E-009   5.0905743378848072E-008
   2.4557115253834042E-008  -6.6890183340785827E-009   5.3823104949470516E-008
   1.6894063869356430E-008  -3.9210216894577100E-009   5.9850231325422052E-008
   3.8265086340159068E-008  -1.2398113244481571E-008   5.8662840118998748E-008
   3.3166041386020043E-008  -1.0202350785760887E-008   5.4602663407188217E-008
   2.7327008204472933E-008  -7.9549248287301895E-009   5.4251365865252144E-008
   2.0881582734221880E-008  -5.6442953631691139E-009   5.7349086588075037E-008
   1.3949711260144752E-008  -3.2587184497664472E-009   6.3689670173295494E-008
   3.2120566287147042E-008  -1.0608034582416972E-008   6.1792277839947120E-008
   2.7884691038411467E-008  -8.6032007282856764E-009   5.7762097071082521E-008
   2.2874856499898495E-008  -6.6069435440670026E-009   5.7490544056998629E-008
   1.7229078586511163E-008  -4.6092023748073708E-009   6.0763477007550329E-008
   1.1073809042114060E-008  -2.6002938456962110E-009   6.7409594393310275E-008
   2.2973654695765535E-008  -5.2574019772326356E-009   5.1809164273585577E-008
   1.7879783656390083E-008  -3.2745246580301993E-009   4.7998355892618852E-008
   1.2540332392227465E-008  -4.6148642441526429E-009   4.7285355057753334E-008
   7.0374742460850255E-009  -9.2146344038333231E-009   4.9441158274665696E-008
   1.4483923034771812E-009  -1.7071190062291765E-008   5.4294789333273689E-008
   1.9903261161512252E-008  -4.5872379383084759E-009   5.5890369173826482E-008
   1.5550153548724251E-008  -2.8467649595443500E-009   5.1560928936692653E-008
   1.0938885214296182E-008  -4.0849038073982296E-009   5.0213218948830159E-008
   6.1547226331133887E-009  -8.2515684548163077E-009   5.1641063596671286E-008
   1.2783144895144163E-009  -1.5344937101575707E-008   5.5687440113313866E-008
   1.6894063869356430E-008  -3.9210216894577100E-009   5.9850231325422052E-008
   1.3257624507664007E-008  -2.4204110183308516E-009   5.5094925512788158E-008
   9.3540055957422308E-009  -3.5557129062264912E-009   5.3201501484689741E-008
   5.2702580447628753E-009  -7.2888508934854700E-009   5.3987909054815162E-008
   1.0893022128561249E-009  -1.3618684140856262E-008   5.7312854121585338E-008
   1.3949711260144752E-008  -3.2587184497664472E-009   6.3689670173295494E-008
   1.1005101808455727E-008  -1.9954559161083469E-009   5.8600756666444237E-008
   7.7876853060852706E-009  -3.0272898657277129E-009   5.6250503854214823E-008
   4.3850820642310913E-009  -6.3264815308193198E-009   5.6481956918048893E-008
   8.8135547350254517E-010  -1.1892431180135122E-008   5.9171031358083656E-008
   1.1073809042114060E-008  -2.6002938456962110E-009   6.7409594393310275E-008
   8.7954716935379593E-009  -1.5718927799075063E-009   6.2078830750388898E-008
   6.2419103388853107E-009  -2.4996330158613484E-009   5.9360526372865570E-008
   3.5001955503344624E-009  -5.3644601779577265E-009   5.9123469265645308E-008
   6.5447427145370366E-010  -1.0166178219420759E-008   6.1261971822813691E-008
   1.2277263291535552E-007  -4.1975997168621225E-008   3.2769335856002515E-008
   1.0965882115853699E-007  -3.4759106518566873E-008   3.7668657614577558E-008
   9.5615259509290219E-008  -2.8885269484742642E-008   4.3493959620712615E-008
   8.0697113463369252E-008  -2.4213634580628621E-008   4.9930676532119479E-008
   6.4944456334444304E-008  -2.0630687688892211E-008   5.6702774006709694E-008
   1.1318171680358278E-007  -3.5500612513061425E-008   4.1624246480001311E-008
   1.0059921734914746E-007  -3.0339227418770172E-008   4.4269753072589628E-008
   8.6894062450046045E-008  -2.5767944860242007E-008   4.8326309567311078E-008
   7.2143263688046174E-008  -2.1732202145675549E-008   5.3532706144302544E-008
   5.6409415481482752E-008  -1.8185973634230249E-008   5.9657049085427913E-008
   1.0270409117800255E-007  -2.9700127103290631E-008   4.9253446304519780E-008
   9.0772602856702411E-008  -2.6318107392453872E-008   5.0079189202007490E-008
   7.7554699723687363E-008  -2.2892197903798545E-008   5.2691862121351454E-008
   6.3140439775969476E-008  -1.9414453417831288E-008   5.6906498723176653E-008
   4.7608413902711455E-008  -1.5877054371934405E-008   6.2556870061134789E-008
   9.1358943844601747E-008  -2.4474254706002312E-008   5.5805706450166151E-008
   8.0195354679507854E-008  -2.2644111920583180E-008   5.5180813561110973E-008
   6.7609637266735587E-008  -2.0230994462449412E-008   5.6637007944540222E-008
   5.3697889807368072E-008  -1.7244709804236816E-008   6.0079065971486587E-008
   3.8549039997989358E-008  -1.3692921300391573E-008   6.5421036596461926E-008
   7.9161840421502527E-008  -1.9741640672740946E-008   6.1401713693356422E-008
   6.8881139308695117E-008  -1.9274152356300399E-008   5.9644596353860527E-008
   5.7069547875207849E-008  -1.7761189062958894E-008   6.0201464716220024E-008
   4.3823717292649554E-008  -1.5209233141161759E-008   6.3074076543578799E-008
   2.9238083514471398E-008  -1.1623724435047242E-008   6.8266369754915599E-008
   6.4944456334444304E-008  -2.0630687688892211E-008   5.6702774006709694E-008
   5.8310725035729921E-008  -1.7716547042269323E-008   5.3457280013815461E-008
   5.0538759993083661E-008  -1.5093405338669582E-008   5.3444197325787942E-008
   4.1768561563662764E-008  -1.2732086047065841E-008   5.6319660089986082E-008
   3.2120566287147042E-008  -1.0608034582416972E-008   6.1792277839947120E-008
   5.6409415481482752E-008  -1.8185973634230249E-008   5.9657049085427913E-008
   5.0434912266140637E-008  -1.5109355358498037E-008   5.6096972907897618E-008
   4.3286446095955106E-008  -1.2487432185869552E-008   5.5745886501287504E-008
   3.5098339909592511E-008  -1.0291229595486694E-008   5.8333320936276914E-008
   2.5989921463682036E-008  -8.4965687633734564E-009   6.3625550033327410E-008
   4.7608413902711455E-008  -1.5877054371934405E-008   6.2556870061134789E-008
   4.2321048171055406E-008  -1.2622553517102245E-008   5.8672371938302117E-008
   3.5834502707304311E-008  -9.9799483146360104E-009   5.7968484730902879E-008
   2.8275964480735885E-008  -7.9244478417512391E-009   6.0245946323500979E-008
   1.9762202964834713E-008  -6.4353436101166056E-009   6.5328879568182528E-008
   3.8549039997989358E-008  -1.3692921300391573E-008   6.5421036596461926E-008
   3.3975725505875989E-008  -1.0247991004334738E-008   6.1198138185500521E-008
   2.8188325701897960E-008  -7.5654738702022072E-009   6.0123182877480195E-008
   2.1305738907948131E-008  -5.6284191780912981E-009   6.2065883090231026E-008
   1.3440902074919715E-008  -4.4225870495973756E-009   6.6908223089072179E-008
   2.9238083514471398E-008  -1.1623724435047242E-008   6.8266369754915599E-008
   2.5404955044657936E-008  -7.9782368002835076E-009   6.3687638510047842E-008
   2.0352917947875860E-008  -5.2389281210945185E-009   6.2220356721334375E-008
   1.4191713304087068E-008  -3.4000176657928305E-009   6.3800986380030602E-008
   7.0293477949363622E-009  -2.4566093789922045E-009   6.8369260361356046E-008
   3.2120566287147042E-008  -1.0608034582416972E-008   6.1792277839947120E-008
   2.7884691038411467E-008  -8.6032007282856764E-009   5.7762097071082521E-008
   2.2874856499898495E-008  -6.6069435440670026E-009   5.7490544056998629E-008
   1.7229078586511163E-008  -4.6092023748073708E-009   6.0763477007550329E-008
   1.1073809042114060E-008  -2.6002938456962110E-009   6.7409594393310275E-008
   2.5989921463682036E-008  -8.4965687633734564E-009   6.3625550033327410E-008
   2.2637554701075807E-008  -6.8970714877858975E-009   5.9528766551888845E-008
   1.8484072850904144E-008  -5.2962226794659359E-009   5.9180352654571058E-008
   1.3668948522946195E-008  -3.6880054622683017E-009   6.2415152843321873E-008
   8.3224883433669439E-009  -2.0665284701203022E-009   6.9099908202309360E-008
   1.9762202964834713E-008  -6.4353436101166056E-009   6.5328879568182528E-008
   1.7310418324067032E-008  -5.2218141701698776E-009   6.1176327655566906E-008
   1.4036868520662430E-008  -4.0028254920938095E-009   6.0759411494077869E-008
   1.0081166164639997E-008  -2.7752223452793305E-009   6.3961600286408315E-008
   5.5763352978046419E-009  -1.5358707765079249E-009   7.0688058978737679E-008
   1.3440902074919715E-008  -4.4225870495973756E-009   6.6908223089072179E-008
   1.1906107821919709E-008  -3.5765983605089522E-009   6.2708775282455736E-008
   9.5354561297917242E-009  -2.7264107885433890E-009   6.2230230798945943E-008
   6.4674606169755930E-009  -1.8707382761660463E-009   6.5404239686022494E-008
   2.8367325655015309E-009  -1.0082937033786829E-009   7.2174694608170051E-008
   7.0293477949363622E-009  -2.4566093789922045E-009   6.8369260361356046E-008
   6.4273486585547761E-009  -1.9606231620036629E-009   6.4129962329242342E-008
   4.9819905738504765E-009  -1.4666462767945205E-009   6.3595255303384285E-008
   2.8295296854827653E-009  -9.7444058439481835E-010   6.6744465680555581E-008
   1.0504679951698771E-010  -4.8377050254933842E-010   7.3560455475631699E-008
   1.1073809042114060E-008  -2.6002938456962110E-009   6.7409594393310275E-008
   8.7954716935379593E-009  -1.5718927799075063E-009   6.2078830750388898E-008
   6.2419103388853107E-009  -2.4996330158613484E-009   5.9360526372865570E-008
   3.5001955503344624E-009  -5.3644601779577265E-009   5.9123469265645308E-008
   6.5447427145370366E-010  -1.0166178219420759E-008   6.1261971822813691E-008
   8.3224883433669439E-009  -2.0665284701203022E-009   6.9099908202309360E-008
   6.6805924456775896E-009  -1.2007605741531189E-009   6.3379562356663209E-008
   4.7564122349820591E-009  -1.8500109974101639E-009   6.0222387948029631E-008
   2.6382733703089918E-009  -4.0025958290978446E-009   5.9525516407192869E-008
   4.1218182939995677E-010  -7.6581340067736277E-009   6.1205407927153124E-008
   5.5763352978046419E-009  -1.5358707765079249E-009   7.0688058978737679E-008
   4.5638481262465400E-009  -8.3084006529704653E-010   6.4690750568305056E-008
   3.2643799196085437E-009  -1.2013295391188298E-009   6.1205460276903063E-008
   1.7667232844521855E-009  -2.6412237764762329E-009   6.0158638230282040E-008
   1.5800137003187269E-010  -5.1500897941197206E-009   6.1490110811629596E-008
   2.8367325655015309E-009  -1.0082937033786829E-009   7.2174694608170051E-008
   2.4462972799334318E-009  -4.6212532896385125E-010   6.6012719468746640E-008
   1.7665133846025381E-009  -5.5358659975186908E-010   6.2310100432639785E-008
   8.8588670678978954E-010  -1.2803437531990301E-009   6.1023204296138271E-008
  -1.0806710665064124E-010  -2.6420455814675075E-009   6.2116080476241731E-008
   1.0504679951698771E-010  -4.8377050254933842E-010   7.3560455475631699E-008
   3.2899156190729366E-010  -9.4610479339270062E-011   6.7345791032135116E-008
   2.6351059775475496E-010   9.3219855991458775E-011   6.3536664455909046E-008
  -3.8951953956786982E-012   8.0044507437148474E-011   6.2119583898894868E-008
  -3.8602360064762471E-010  -1.3400136881868254E-010   6.3083316920986882E-008
   7.9161840421502527E-008  -1.9741640672740946E-008   6.1401713693356422E-008
   6.8881139308695117E-008  -1.9274152356300399E-008   5.9644596353860527E-008
   5.7069547875207849E-008  -1.7761189062958894E-008   6.0201464716220024E-008
   4.3823717292649554E-008  -1.5209233141161759E-008   6.3074076543578799E-008
   2.9238083514471398E-008  -1.1623724435047242E-008   6.8266369754915599E-008
   6.5439735499030798E-008  -1.3985430635339165E-008   6.8198772949081062E-008
   5.6509705377869640E-008  -1.4189317440132620E-008   6.3967545496720924E-008
   4.5866596471733189E-008  -1.3309296385940602E-008   6.2685105709999023E-008
   3.3614749700199802E-008  -1.1334720438026630E-008   6.4454482358370724E-008
   1.9862223717657695E-008  -8.2563751661271178E-009   6.9375695265155092E-008
   5.0454539104733221E-008  -8.7742658901621227E-009   7.4178959129027975E-008
   4.3056327295113598E-008  -9.5315947670956077E-009   6.7795474953696661E-008
   3.3805773598851568E-008  -9.1860164284774849E-009   6.4891112967328650E-008
   2.2807248898300377E-008  -7.7088393742240047E-009   6.5685961749385574E-008
   1.0175184096147789E-008  -5.0745644786987816E-009   7.0394030290757576E-008
   3.4217559992007914E-008  -4.0342318055195043E-009   7.9453420123465804E-008
   2.8530675069686173E-008  -5.2493389791156699E-009   7.1189735209664010E-008
   2.0893381190398828E-008  -5.3562598285453133E-009   6.6851626176548257E-008
   1.1404390253400876E-008  -4.3084015240438923E-009   6.6785766192201104E-008
   1.7858315463590705E-010  -2.0633689396609183E-009   7.1332783973406611E-008
   1.6738150547631883E-008   2.9579933087428676E-010   8.4114075706625049E-008
   1.2940920082783347E-008  -1.2989085556385267E-009   7.4202168841518226E-008
   7.1348547882940484E-009  -1.7897613210425846E-009   6.8594366451177992E-008
  -5.9103382653871616E-010  -1.1130150538118638E-009   6.7769066583937768E-008
  -1.0126129644989555E-008   7.9057622378840168E-010   7.2202173840497101E-008
   2.9238083514471398E-008  -1.1623724435047242E-008   6.8266369754915599E-008
   2.5404955044657936E-008  -7.9782368002835076E-009   6.3687638510047842E-008
   2.0352917947875860E-008  -5.2389281210945185E-009   6.2220356721334375E-008
   1.4191713304087068E-008  -3.4000176657928305E-009   6.3800986380030602E-008
   7.0293477949363622E-009  -2.4566093789922045E-009   6.8369260361356046E-008
   1.9862223717657695E-008  -8.2563751661271178E-009   6.9375695265155092E-008
   1.6799872003552890E-008  -5.0378017914042318E-009   6.4437031721941365E-008
   1.2516560627776011E-008  -2.6538997953371991E-009   6.2568382637238574E-008
   7.1128415259941967E-009  -1.1127542388214945E-009   6.3785936825802826E-008
   6.9186947393766336E-010  -4.2130358968561207E-010   6.8101554210181545E-008
   1.0175184096147789E-008  -5.0745644786987816E-009   7.0394030290757576E-008
   7.9250583918895241E-009  -2.2344763487563646E-009   6.5112203236425374E-008
   4.4627889540904012E-009  -1.6914219934834916E-010   6.2856929482540322E-008
  -1.2085489152362214E-010   1.1022165740488346E-009   6.3721201416288708E-008
  -5.7285620318205485E-009   1.5629014418921226E-009   6.7788540357516247E-008
   1.7858315463590705E-010  -2.0633689396609183E-009   7.1332783973406611E-008
  -1.2184772005076768E-009   4.4111096183023645E-010   6.5721942783631141E-008
  -3.8080694652920192E-009   2.2210677758186344E-009   6.3092736958169470E-008
  -7.5095592771240464E-009   3.2482688367975564E-009   6.3612075266886048E-008
  -1.2232305533000761E-008   3.4979063487093551E-009   6.7434515823845270E-008
  -1.0126129644989555E-008   7.9057622378840168E-010   7.2202173840497101E-008
  -1.0629816052415495E-008   2.9974965495567062E-009   6.6274256900425249E-008
  -1.2295711488645277E-008   4.5220258302437786E-009   6.3282041435842669E-008
  -1.5053443725734783E-008   5.3285698627183621E-009   6.3463529027096429E-008
  -1.8819702264116477E-008   5.3855186622300165E-009   6.7043567142391022E-008
   7.0293477949363622E-009  -2.4566093789922045E-009   6.8369260361356046E-008
   6.4273486585547761E-009  -1.9606231620036629E-009   6.4129962329242342E-008
   4.9819905738504765E-009  -1.4666462767945205E-009   6.3595255303384285E-008
   2.8295296854827653E-009  -9.7444058439481835E-010   6.6744465680555581E-008
   1.0504679951698771E-010  -4.8377050254933842E-010   7.3560455475631699E-008
   6.9186947393766336E-010  -4.2130358968561207E-010   6.8101554210181545E-008
   1.0068145207988534E-009  -1.8945237691258957E-010   6.3826296961340275E-008
   4.8480563214568612E-010  -2.3400547155088381E-011   6.3151625003377277E-008
  -7.4493817985543020E-010   7.6418348787164958E-011   6.6106809801117269E-008
  -2.5514075361201087E-009   1.0966505650897729E-010   7.2715987189420529E-008
  -5.7285620318205485E-009   1.5629014418921226E-009   6.7788540357516247E-008
  -4.5015836284580331E-009   1.5475097489488355E-009   6.3458927997746617E-008
  -4.0983777268539530E-009   1.3992807281400491E-009   6.2627287157771405E-008
  -4.3976249046183267E-009   1.1168424996404680E-009   6.5371102969596851E-008
  -5.2734361238575320E-009   6.9931842096194200E-010   7.1755296983061606E-008
  -1.2232305533000761E-008   3.4979063487093551E-009   6.7434515823845270E-008
  -1.0098316675138945E-008   3.2512448031062343E-009   6.3031212925762124E-008
  -8.7682776934670685E-009   2.8018339666774931E-009   6.2024607117537844E-008
  -8.1294703441288934E-009   2.1469865227209474E-009   6.4538786137608481E-008
  -8.0620752834951599E-009   1.2852256340325070E-009   7.0679033136336075E-008
  -1.8819702264116477E-008   5.3855186622300165E-009   6.7043567142391022E-008
  -1.5783837660302630E-008   4.9226971744881616E-009   6.2546381996126458E-008
  -1.3525592278903824E-008   4.1846833239671487E-009   6.1345883773996947E-008
  -1.1941395872143142E-008   3.1670020314230944E-009   6.3611271921512796E-008
  -1.0918348208755966E-008   1.8674222824199702E-009   6.9487835717879855E-008
   1.0504679951698771E-010  -4.8377050254933842E-010   7.3560455475631699E-008
   3.2899156190729366E-010  -9.4610479339270062E-011   6.7345791032135116E-008
   2.6351059775475496E-010   9.3219855991458775E-011   6.3536664455909046E-008
  -3.8951953956786982E-012   8.0044507437148474E-011   6.2119583898894868E-008
  -3.8602360064762471E-010  -1.3400136881868254E-010   6.3083316920986882E-008
  -2.5514075361201087E-009   1.0966505650897729E-010   7.2715987189420529E-008
  -1.7240564168851791E-009   2.5470436669817477E-010   6.6333170801616255E-008
  -1.1923627778324776E-009   6.9043378869966483E-010   6.2409019680869041E-008
  -8.6650237145390172E-010   1.4170664282278495E-009   6.0963942456658164E-008
  -6.5617399873320789E-010   2.4343896794638787E-009   6.2014756163161579E-008
  -5.2734361238575320E-009   6.9931842096194200E-010   7.1755296983061606E-008
  -3.8223251653852911E-009   6.0276409157348604E-010   6.5325219766043718E-008
  -2.6706448303981038E-009   1.2866924773417096E-009   6.1407055159035600E-008
  -1.7270260917844732E-009   2.7535531904457422E-009   6.0055457862745813E-008
  -8.9882418768187168E-010   5.0027807277566044E-009   6.1315438994157955E-008
  -8.0620752834951599E-009   1.2852256340325070E-009   7.0679033136336075E-008
  -5.9667725330738011E-009   9.4957544780388484E-010   6.4322229263981731E-008
  -4.1720517201611287E-009   1.8819982119568223E-009   6.0531123715405997E-008
  -2.5858366430960400E-009   4.0895051153181723E-009   5.9394530976065896E-008
  -1.1139741674932471E-009   7.5711717760459419E-009   6.0985365413983211E-008
  -1.0918348208755966E-008   1.8674222824199702E-009   6.9487835717879855E-008
  -8.1583495107890457E-009   1.2951451395621868E-009   6.3324488547872546E-008
  -5.6972973200012158E-009   2.4763532752590910E-009   5.9781577048094345E-008
  -3.4433040157926091E-009   5.4249225238430451E-009   5.8981562334750085E-008
  -1.3016239381676867E-009   1.0139562824331891E-008   6.1024535422631840E-008
   1.6738150547631883E-008   2.9579933087428676E-010   8.4114075706625049E-008
   1.2940920082783347E-008  -1.2989085556385267E-009   7.4202168841518226E-008
   7.1348547882940484E-009  -1.7897613210425846E-009   6.8594366451177992E-008
  -5.9103382653871616E-010  -1.1130150538118638E-009   6.7769066583937768E-008
  -1.0126129644989555E-008   7.9057622378840168E-010   7.2202173840497101E-008
   4.6021276759582865E-010   2.6821274161803821E-009   7.8793550793231843E-008
  -2.1269770764554693E-009   2.6259970250145262E-009   7.0464101173179708E-008
  -6.5184331543944408E-009   2.9770499646615573E-009   6.5963936332767614E-008
  -1.2657837675134332E-008   3.7618858586477118E-009   6.5812243031448284E-008
  -2.0466648164504768E-008   5.0052908395945990E-009   7.0533068951506992E-008
  -1.6061218186996543E-008   4.8784759840173405E-009   7.4439605792394736E-008
  -1.7467682271588680E-008   6.2686398578111260E-009   6.7364723254671357E-008
  -2.0481473774515514E-008   7.4372653203799395E-009   6.3685897008901366E-008
  -2.5072494821381722E-008   8.3595414112160524E-009   6.3950780898100971E-008
  -3.1189092078873926E-008   9.0108286304848832E-009   6.8720575012020487E-008
  -3.2830691513816693E-008   6.9066634103387771E-009   7.1013187158461937E-008
  -3.3085310962725321E-008   9.6584118025809773E-009   6.4887535642105011E-008
  -3.4757630126535692E-008   1.1619542970810799E-008   6.1756571209312119E-008
  -3.7838026148452383E-008   1.2702948899558335E-008   6.2186735577024458E-008
  -4.2296898077267701E-008   1.2822384736906168E-008   6.6767486441472124E-008
  -4.9852085485700014E-008   8.7852902530625564E-009   6.8481001041362597E-008
  -4.8983426390052921E-008   1.2820760865964169E-008   6.3018252816975139E-008
  -4.9349858792990898E-008   1.5549077395404447E-008   6.0172726113013072E-008
  -5.0957127422256745E-008   1.6812630575660810E-008   6.0521941253257731E-008
  -5.3793177851854958E-008   1.6453717342135562E-008   6.4676333399750218E-008
  -1.0126129644989555E-008   7.9057622378840168E-010   7.2202173840497101E-008
  -1.0629816052415495E-008   2.9974965495567062E-009   6.6274256900425249E-008
  -1.2295711488645277E-008   4.5220258302437786E-009   6.3282041435842669E-008
  -1.5053443725734783E-008   5.3285698627183621E-009   6.3463529027096429E-008
  -1.8819702264116477E-008   5.3855186622300165E-009   6.7043567142391022E-008
  -2.0466648164504768E-008   5.0052908395945990E-009   7.0533068951506992E-008
  -2.0033774215936875E-008   6.2748847480988614E-009   6.4299790553183129E-008
  -2.0734399619632352E-008   7.1029521449186738E-009   6.1001742469576322E-008
  -2.2506005023186827E-008   7.4613420475858209E-009   6.0955562454693618E-008
  -2.5270513962732366E-008   7.3248522864138814E-009   6.4465957780013628E-008
  -3.1189092078873926E-008   9.0108286304848832E-009   6.8720575012020487E-008
  -2.9754003538659771E-008   9.4124876837465397E-009   6.2229678312782287E-008
  -2.9411839130308128E-008   9.5909741761043516E-009   5.8675182587809220E-008
  -3.0108162832221226E-008   9.5307123936125266E-009   5.8449995058818940E-008
  -3.1770919043802725E-008   9.2178228327048685E-009   6.1938097119629100E-008
  -4.2296898077267701E-008   1.2822384736906168E-008   6.6767486441472124E-008
  -3.9794726966586008E-008   1.2419061681735086E-008   6.0065709081478356E-008
  -3.8332818252338306E-008   1.1991019576602466E-008   5.6303665117451469E-008
  -3.7864865689564230E-008   1.1539466654866362E-008   5.5948206527631605E-008
  -3.8325493129117172E-008   1.1066073245090096E-008   5.9461877882673226E-008
  -5.3793177851854958E-008   1.6453717342135562E-008   6.4676333399750218E-008
  -5.0159821952214878E-008   1.5302646682690081E-008   5.7809525405389370E-008
  -4.7501792475866416E-008   1.4307673569118688E-008   5.3888402815243895E-008
  -4.5780776411114323E-008   1.3490229740304977E-008   5.3451496888228255E-008
  -4.4938598172477376E-008   1.2871169746930846E-008   5.7039104406094930E-008
  -1.8819702264116477E-008   5.3855186622300165E-009   6.7043567142391022E-008
  -1.5783837660302630E-008   4.9226971744881616E-009   6.2546381996126458E-008
  -1.3525592278903824E-008   4.1846833239671487E-009   6.1345883773996947E-008
  -1.1941395872143142E-008   3.1670020314230944E-009   6.3611271921512796E-008
  -1.0918348208755966E-008   1.8674222824199702E-009   6.9487835717879855E-008
  -2.5270513962732366E-008   7.3248522864138814E-009   6.4465957780013628E-008
  -2.1385566878351958E-008   6.7433144211673042E-009   5.9983823254102614E-008
  -1.8236373959790028E-008   5.7741786371677693E-009   5.8613596948762704E-008
  -1.5731734867260858E-008   4.4090546025750372E-009   6.0563596901960628E-008
  -1.3769434086792288E-008   2.6435071796575331E-009   6.6015000821789962E-008
  -3.1770919043802725E-008   9.2178228327048685E-009   6.1938097119629100E-008
  -2.7062604651444032E-008   8.5300757873492505E-009   5.7425603146242664E-008
  -2.3043315102064507E-008   7.3416531592831948E-009   5.5844604513755209E-008
  -1.9634028698644522E-008   5.6390140472951033E-009   5.7440237330368369E-008
  -1.6743463535904728E-008   3.4147080430091905E-009   6.2428564411088902E-008
  -3.8325493129117172E-008   1.1066073245090096E-008   5.9461877882673226E-008
  -3.2819042282133510E-008   1.0283916940357794E-008   5.4873897606843337E-008
  -2.7950268740187419E-008   8.8875613547081912E-009   5.3040825654425952E-008
  -2.3651972068829758E-008   6.8570561253006685E-009   5.4242566270006885E-008
  -1.9843901311297327E-008   4.1810708319342064E-009   5.8729243000167015E-008
  -4.4938598172477376E-008   1.2871169746930846E-008   5.7039104406094930E-008
  -3.8658821688604396E-008   1.2005739383793819E-008   5.2330803121034808E-008
  -3.2960982607944134E-008   1.0412345267655776E-008   5.0204127106262614E-008
  -2.7789188427856563E-008   8.0633532067945385E-009   5.0971930304559324E-008
  -2.3074168832309039E-008   4.9426409310546297E-009   5.4917744141514734E-008
  -1.0918348208755966E-008   1.8674222824199702E-009   6.9487835717879855E-008
  -8.1583495107890457E-009   1.2951451395621868E-009   6.3324488547872546E-008
  -5.6972973200012158E-009   2.4763532752590910E-009   5.9781577048094345E-008
  -3.4433040157926091E-009   5.4249225238430451E-009   5.8981562334750085E-008
  -1.3016239381676867E-009   1.0139562824331891E-008   6.1024535422631840E-008
  -1.3769434086792288E-008   2.6435071796575331E-009   6.6015000821789962E-008
  -1.0336017618242687E-008   1.7328502322122477E-009   5.9996953266443656E-008
  -7.2017981980147590E-009   2.9598998455744878E-009   5.6711273828741531E-008
  -4.2741764263685880E-009   6.3474324801158001E-009   5.6311187786661756E-008
  -1.4568977079973673E-009   1.1894635243332198E-008   5.8920227192681550E-008
  -1.6743463535904728E-008   3.4147080430091905E-009   6.2428564411088902E-008
  -1.2600562442348012E-008   2.1689938304084687E-009   5.6644944723306736E-008
  -8.7536742328419991E-009   3.4426754491537774E-009   5.3708320138690597E-008
  -5.1106455138235303E-009   7.2695734864005415E-009   5.3802252807742565E-008
  -1.5749196852749097E-009   1.3649707662335893E-008   5.7072761769123734E-008
  -1.9843901311297327E-008   4.1810708319342064E-009   5.8729243000167015E-008
  -1.4954951571528303E-008   2.6035842751206037E-009   5.3268784179299785E-008
  -1.0355070528215804E-008   3.9246819283867938E-009   5.0772989779098510E-008
  -5.9538192124611973E-009   8.1913457639887563E-009   5.1455032854895898E-008
  -1.6556898700000870E-009   1.5404780081341283E-008   5.5482139151943253E-008
  -2.3074168832309039E-008   4.9426409310546297E-009   5.4917744141514734E-008
  -1.7402131495981927E-008   3.0366298480083125E-009   4.9868790611243764E-008
  -1.2008125358450805E-008   4.4059211197739506E-009   4.7905555679420300E-008
  -6.8048045707199778E-009   9.1127495339944777E-009   4.9269803164768810E-008
  -1.6992082621731160E-009   1.7159852500339896E-008   5.4148359341155882E-008
  -4.9852085485700014E-008   8.7852902530625564E-009   6.8481001041362597E-008
  -4.8983426390052921E-008   1.2820760865964169E-008   6.3018252816975139E-008
  -4.9349858792990898E-008   1.5549077395404447E-008   6.0172726113013072E-008
  -5.0957127422256745E-008   1.6812630575660810E-008   6.0521941253257731E-008
  -5.3793177851854958E-008   1.6453717342135562E-008   6.4676333399750218E-008
  -6.6268663166870763E-008   1.2274810822921911E-008   6.0593612834405395E-008
  -6.4357470533513664E-008   1.7026502893836392E-008   5.5831425831552598E-008
  -6.3522167475813335E-008   2.0122576862182103E-008   5.3472613736434549E-008
  -6.3776851056936977E-008   2.1345972214482999E-008   5.4117404789784443E-008
  -6.5119736752796719E-008   2.0477089483433318E-008   5.8409086633299931E-008
  -8.3038050026456679E-008   1.5524682576423351E-008   5.3793384252636153E-008
  -8.0041436909365654E-008   2.0967818476267814E-008   4.9460728777727350E-008
  -7.7964337532111273E-008   2.4435441477207833E-008   4.7328678077933711E-008
  -7.6826089810753118E-008   2.5647824209655917E-008   4.8016778829527649E-008
  -7.6632322087643410E-008   2.4318811762975591E-008   5.2198129340941951E-008
  -1.0016714345611032E-007   1.8558773371392579E-008   4.8020092037261885E-008
  -9.6043803882176963E-008   2.4668885367872603E-008   4.3865365957118481E-008
  -9.2685561167225198E-008   2.8509333603461951E-008   4.1714753539534329E-008
  -9.0114205273493172E-008   2.9735476233757616E-008   4.2204309210880321E-008
  -8.8340136908632226E-008   2.7990914476720368E-008   4.6034426667012483E-008
  -1.1766195434887048E-007   2.1397883409946546E-008   4.3221253222944768E-008
  -1.1237204676536817E-007   2.8151020922029024E-008   3.9009368094142061E-008
  -1.0769403938148728E-007   3.2363579728921845E-008   3.6607495986752700E-008
  -1.0364964940731851E-007   3.3624537992157166E-008   3.6665772540081269E-008
  -1.0025158915531612E-007   3.1504388543616289E-008   3.9909724336914921E-008
  -5.3793177851854958E-008   1.6453717342135562E-008   6.4676333399750218E-008
  -5.0159821952214878E-008   1.5302646682690081E-008   5.7809525405389370E-008
  -4.7501792475866416E-008   1.4307673569118688E-008   5.3888402815243895E-008
  -4.5780776411114323E-008   1.3490229740304977E-008   5.3451496888228255E-008
  -4.4938598172477376E-008   1.2871169746930846E-008   5.7039104406094930E-008
  -6.5119736752796719E-008   2.0477089483433318E-008   5.8409086633299931E-008
  -6.0436881550788857E-008   1.8620431883530134E-008   5.2192805870003161E-008
  -5.6621094787258307E-008   1.7053820493800724E-008   4.8723425654184362E-008
  -5.3645174231032065E-008   1.5819109271277273E-008   4.8583263883850062E-008
  -5.1462893831882610E-008   1.4957167207087714E-008   5.2364938239343022E-008
  -7.6632322087643410E-008   2.4318811762975591E-008   5.2198129340941951E-008
  -7.0887785754186007E-008   2.1807831124770575E-008   4.6613032965660658E-008
  -6.5898186694538203E-008   1.9707754458690008E-008   4.3595266364606920E-008
  -6.1645627684050248E-008   1.8082642359513171E-008   4.3766046051914442E-008
  -5.8094609044880580E-008   1.6995570957803500E-008   4.7766175429908137E-008
  -8.8340136908632226E-008   2.7990914476720368E-008   4.6034426667012483E-008
  -8.1521435584977625E-008   2.4872382364495054E-008   4.1065198011214340E-008
  -7.5341658065726187E-008   2.2274043403390973E-008   3.8501449191512954E-008
  -6.9790407976426110E-008   2.0283541303682647E-008   3.8999032852821029E-008
  -6.4841630814120847E-008   1.8987991460221698E-008   4.3243218406257074E-008
  -1.0025158915531612E-007   3.1504388543616289E-008   3.9909724336914921E-008
  -9.2346058915641210E-008   2.7821053493995969E-008   3.5544671112800929E-008
  -8.4959540631617791E-008   2.4756958460029835E-008   3.3439659245127041E-008
  -7.8087334816595490E-008   2.2424370347019904E-008   3.4281457991644134E-008
  -7.1711494273800665E-008   2.0935967326839318E-008   3.8796451643032573E-008
  -4.4938598172477376E-008   1.2871169746930846E-008   5.7039104406094930E-008
  -3.8658821688604396E-008   1.2005739383793819E-008   5.2330803121034808E-008
  -3.2960982607944134E-008   1.0412345267655776E-008   5.0204127106262614E-008
  -2.7789188427856563E-008   8.0633532067945385E-009   5.0971930304559324E-008
  -2.3074168832309039E-008   4.9426409310546297E-009   5.4917744141514734E-008
  -5.1462893831882610E-008   1.4957167207087714E-008   5.2364938239343022E-008
  -4.4444924089675015E-008   1.3917703571559980E-008   4.7458820650830031E-008
  -3.7952215957226210E-008   1.2096727601969105E-008   4.5006058126358097E-008
  -3.1938458219748469E-008   9.4619291604504232E-009   4.5355264226933841E-008
  -2.6343970416386625E-008   5.9947777079827813E-009   4.8826721377525031E-008
  -5.8094609044880580E-008   1.6995570957803500E-008   4.7766175429908137E-008
  -5.0347077811351872E-008   1.5795388123332359E-008   4.2623143337570224E-008
  -4.3063592164830709E-008   1.3758403726467511E-008   3.9808584345182637E-008
  -3.6206884292858727E-008   1.0847148111054012E-008   3.9705885057971866E-008
  -2.9726789355032742E-008   7.0403755114568364E-009   4.2672041935985743E-008
  -6.4841630814120847E-008   1.8987991460221698E-008   4.3243218406257074E-008
  -5.6372750745386232E-008   1.7639706748343534E-008   3.7824919337005889E-008
  -4.8302148640152812E-008   1.5397829701636835E-008   3.4613076201340477E-008
  -4.0600959203373991E-008   1.2219200496925904E-008   3.4025029830201941E-008
  -3.3228364734024381E-008   8.0794951116933888E-009   3.6454593747389153E-008
  -7.1711494273800665E-008   2.0935967326839318E-008   3.8796451643032573E-008
  -6.2529147716169739E-008   1.9451540969099242E-008   3.3065256359436434E-008
  -5.3674735581566893E-008   1.7015449455747809E-008   2.9420867676669081E-008
  -4.5127052667239717E-008   1.3578273153253594E-008   2.8313912171296502E-008
  -3.6854364743533267E-008   9.1121965281955899E-009   3.0175253773519443E-008
  -2.3074168832309039E-008   4.9426409310546297E-009   5.4917744141514734E-008
  -1.7402131495981927E-008   3.0366298480083125E-009   4.9868790611243764E-008
  -1.2008125358450805E-008   4.4059211197739506E-009   4.7905555679420300E-008
  -6.8048045707199778E-009   9.1127495339944777E-009   4.9269803164768810E-008
  -1.6992082621731160E-009   1.7159852500339896E-008   5.4148359341155882E-008
  -2.6343970416386625E-008   5.9947777079827813E-009   4.8826721377525031E-008
  -1.9885617453636804E-008   3.7283913919744830E-009   4.4315681599416595E-008
  -1.3686807077850848E-008   4.7825936023753186E-009   4.2918602559322829E-008
  -7.6673392445317984E-009   9.2322051605386727E-009   4.4893835096260969E-008
  -1.7410926940397438E-009   1.7083881038244055E-008   5.0437103358318647E-008
  -2.9726789355032742E-008   7.0403755114568364E-009   4.2672041935985743E-008
  -2.2467332294676402E-008   4.4177025888259229E-009   3.8697248268629636E-008
  -1.5444917897718605E-008   5.1586674272976914E-009   3.7869675179068211E-008
  -8.5874888540288168E-009   9.3516130500125730E-009   4.0464026848594002E-008
  -1.8169609978463788E-009   1.7007909576148214E-008   4.6684464855461228E-008
  -3.3228364734024381E-008   8.0794951116933888E-009   3.6454593747389153E-008
  -2.5151981459023330E-008   5.1045764349275316E-009   3.3013989422208887E-008
  -1.7285830067625564E-008   5.5341440206280793E-009   3.2758974502369372E-008
  -9.5670312887093492E-009   9.4709732310191049E-009   3.5980412724622983E-008
  -1.9268131735930014E-009   1.6931938114057456E-008   4.2890443832581190E-008
  -3.6854364743533267E-008   9.1121965281955899E-009   3.0175253773519443E-008
  -2.7944237169187355E-008   5.7890258348681887E-009   2.7266400342246014E-008
  -1.9212905134904186E-008   5.9090248038939145E-009   2.7586700855165514E-008
  -1.0607743017671852E-008   9.5902857321477478E-009   3.1443026999805226E-008
  -2.0706492212796181E-009   1.6855966651956533E-008   3.9055040289680756E-008
  -1.1766195434887048E-007   2.1397883409946546E-008   4.3221253222944768E-008
  -1.1237204676536817E-007   2.8151020922029024E-008   3.9009368094142061E-008
  -1.0769403938148728E-007   3.2363579728921845E-008   3.6607495986752700E-008
  -1.0364964940731851E-007   3.3624537992157166E-008   3.6665772540081269E-008
  -1.0025158915531612E-007   3.1504388543616289E-008   3.9909724336914921E-008
  -1.3486693443050927E-007   2.9858734700184477E-008   3.2469399490770429E-008
  -1.2851824821895861E-007   3.4559768704985752E-008   2.9273854258709380E-008
  -1.2260730195393683E-007   3.7216903734929037E-008   2.7392886656430916E-008
  -1.1715402665192479E-007   3.7487277975769695E-008   2.7447437819155258E-008
  -1.1217231817399827E-007   3.5009961062882149E-008   3.0144204257522455E-008
  -1.5217440609775847E-007   3.7808695117225730E-008   2.1863619093587410E-008
  -1.4480217583775018E-007   4.0610588845758963E-008   1.9653484888502813E-008
  -1.3770817803459017E-007   4.1821944582166325E-008   1.8323704207852367E-008
  -1.3090785687650112E-007   4.1171049411219551E-008   1.8461184746304823E-008
  -1.2441314523553722E-007   3.8370369598352446E-008   2.0747010645350303E-008
  -1.6959184035949661E-007   4.5292682157427577E-008   1.1340772808493440E-008
  -1.6123324418556505E-007   4.6332652065094644E-008   1.0103394166951207E-008
  -1.5300720289037367E-007   4.6197279353452085E-008   9.3681826532976062E-009
  -1.4492239541584676E-007   4.4688008646098149E-008   9.6845347842156611E-009
  -1.3698601323810372E-007   4.1594447998088385E-008   1.1702512494835786E-008
  -1.8712585735970309E-007   5.2350497713398272E-008   8.4491226853435601E-010
  -1.7781987184742639E-007   5.1752043075721221E-008   5.8346268983970704E-010
  -1.6851388633514990E-007   5.0359676926196883E-008   4.9764795608280002E-010
  -1.5920790082287352E-007   4.8049235451666860E-008   1.0970001136802387E-009
  -1.4990191531059671E-007   4.4690327590762209E-008   2.9963218696202543E-009
  -1.0025158915531612E-007   3.1504388543616289E-008   3.9909724336914921E-008
  -9.2346058915641210E-008   2.7821053493995969E-008   3.5544671112800929E-008
  -8.4959540631617791E-008   2.4756958460029835E-008   3.3439659245127041E-008
  -7.8087334816595490E-008   2.2424370347019904E-008   3.4281457991644134E-008
  -7.1711494273800665E-008   2.0935967326839318E-008   3.8796451643032573E-008
  -1.1217231817399827E-007   3.5009961062882149E-008   3.0144204257522455E-008
  -1.0316691028083490E-007   3.1241019118356388E-008   2.6254935301273388E-008
  -9.4561268933873294E-008   2.7949503509761665E-008   2.4605664911539748E-008
  -8.6353826335514844E-008   2.5239844462072563E-008   2.5921421394532862E-008
  -7.8532357281544596E-008   2.3219454259054542E-008   3.0975962475465051E-008
  -1.2441314523553722E-007   3.8370369598352446E-008   2.0747010645350303E-008
  -1.1425890774736411E-007   3.4536377118813924E-008   1.7240239974829024E-008
  -1.0437840626461173E-007   3.1041592422084561E-008   1.5955250687448757E-008
  -9.4771934530491555E-008   2.7980516462424014E-008   1.7655067278545011E-008
  -8.5432211653686617E-008   2.5453115239048239E-008   2.3161235869443993E-008
  -1.3698601323810372E-007   4.1594447998088385E-008   1.1702512494835786E-008
  -1.2563460707598696E-007   3.7713815831910345E-008   8.4903480510627165E-009
  -1.1442378311904672E-007   3.4037893162594366E-008   7.4822902028867382E-009
  -1.0335437701260929E-007   3.0649328304533621E-008   9.4791799307664877E-009
  -9.2423208265412844E-008   2.7638563478752104E-008   1.5350859665405083E-008
  -1.4990191531059671E-007   4.4690327590762209E-008   2.9963218696202543E-009
  -1.3730568124501794E-007   4.0779553344214223E-008  -4.2577938391561771E-012
  -1.2470944717943960E-007   3.6942788895385202E-008  -8.1896913061284671E-010
  -1.1211321311386116E-007   3.3249069665596552E-008   1.3907100875108078E-009
  -9.9516979048282500E-008   2.9777343292503971E-008   7.5434820147666479E-009
  -7.1711494273800665E-008   2.0935967326839318E-008   3.8796451643032573E-008
  -6.2529147716169739E-008   1.9451540969099242E-008   3.3065256359436434E-008
  -5.3674735581566893E-008   1.7015449455747809E-008   2.9420867676669081E-008
  -4.5127052667239717E-008   1.3578273153253594E-008   2.8313912171296502E-008
  -3.6854364743533267E-008   9.1121965281955899E-009   3.0175253773519443E-008
  -7.8532357281544596E-008   2.3219454259054542E-008   3.0975962475465051E-008
  -6.8661091409791437E-008   2.1220651495421054E-008   2.5328724548980800E-008
  -5.9042163885407579E-008   1.8476269640598851E-008   2.1742249566894998E-008
  -4.9659946974531680E-008   1.4956362483991616E-008   2.0705274093473620E-008
  -4.0490100533929845E-008   1.0650076956334413E-008   2.2689223134580817E-008
  -8.5432211653686617E-008   2.5453115239048239E-008   2.3161235869443993E-008
  -7.4845746463901892E-008   2.2959141599354527E-008   1.7610807270378131E-008
  -6.4431947224923826E-008   1.9917914319480697E-008   1.4105897482652242E-008
  -5.4180576032564484E-008   1.6321537148996636E-008   1.3172048121689355E-008
  -4.4075023191265790E-008   1.2178516884771717E-008   1.5320110570512990E-008
  -9.2423208265412844E-008   2.7638563478752104E-008   1.5350859665405083E-008
  -8.1094315486496936E-008   2.4667799444450607E-008   9.9111558782578193E-009
  -6.9854070714025270E-008   2.1340758592421780E-008   6.5122033258801447E-009
  -5.8697445114536456E-008   1.7673977844890615E-008   5.7151718549448770E-009
  -4.7615931779548901E-008   1.3697602975296136E-008   8.0692534905314529E-009
  -9.9516979048282500E-008   2.9777343292503971E-008   7.5434820147666479E-009
  -8.7417619885716376E-008   2.6347386374822894E-008   2.2294335908813914E-009
  -7.5318260723150570E-008   2.2745167839492508E-008  -1.0384511567984054E-009
  -6.3218901560584765E-008   1.9013861912946655E-008  -1.6644345178821050E-009
  -5.1119542398018641E-008   1.5207420832238352E-008   9.3797298426875805E-010
  -3.6854364743533267E-008   9.1121965281955899E-009   3.0175253773519443E-008
  -2.7944237169187355E-008   5.7890258348681887E-009   2.7266400342246014E-008
  -1.9212905134904186E-008   5.9090248038939145E-009   2.7586700855165514E-008
  -1.0607743017671852E-008   9.5902857321477478E-009   3.1443026999805226E-008
  -2.0706492212796181E-009   1.6855966651956533E-008   3.9055040289680756E-008
  -4.0490100533929845E-008   1.0650076956334413E-008   2.2689223134580817E-008
  -3.0829369485666146E-008   7.2455553983374511E-009   2.0612717267767582E-008
  -2.1301676003949586E-008   6.5389031184622647E-009   2.1121536527363328E-008
  -1.1874589619446957E-008   8.6426973101468239E-009   2.4506607733138806E-008
  -2.5113222882476067E-009   1.3588925462882035E-008   3.0983478210620454E-008
  -4.4075023191265790E-008   1.2178516884771717E-008   1.5320110570512990E-008
  -3.3819786614646215E-008   8.6969619584121740E-009   1.3870420240967896E-008
  -2.3652380818027000E-008   7.1677835192477489E-009   1.4365600963795873E-008
  -1.3556224880901690E-008   7.6954872627404453E-009   1.7083381010508821E-008
  -3.5116855218390332E-009   1.0321884273817701E-008   2.2240927289996864E-008
  -4.7615931779548901E-008   1.3697602975296136E-008   8.0692534905314529E-009
  -3.6920760823272237E-008   1.0143272496093613E-008   7.0406420943312155E-009
  -2.6269002767967076E-008   7.7956683758496011E-009   7.3192384756046760E-009
  -1.5655058303735826E-008   6.7486553633568806E-009   9.1730619518109047E-009
  -5.0717389220540696E-009   7.0548430847499797E-009   1.2827387527810516E-008
  -5.1119542398018641E-008   1.5207420832238352E-008   9.3797298426875805E-010
  -4.0137527420737057E-008   1.1584513803270210E-008   1.2450771933031064E-010
  -2.9155512443455579E-008   8.4225600503742016E-009  -1.7207715319802957E-011
  -1.8173497466174207E-008   5.8022013855802527E-009   7.7536590435701952E-010
  -7.1914824888925174E-009   3.7878018956788700E-009   2.7428589240538926E-009
 </DataArray>
 </PointData>
 </Piece>
 </UnstructuredGrid>
 </VTKFile>
