 <VTKFile type="UnstructuredGrid"  version="0.1"   >
 <UnstructuredGrid>
 <Piece  NumberOfPoints="           800 "  NumberOfCells="          512 ">
 <Points>
 <DataArray  type="Float64" NumberOfComponents="3"  format="ascii" >
  -5.0000000000000000        0.0000000000000000        0.0000000000000000     
  -4.6875000000000000        0.0000000000000000        0.0000000000000000     
  -4.3750000000000009        0.0000000000000000        0.0000000000000000     
  -4.0625000000000000        0.0000000000000000        0.0000000000000000     
  -3.7500000000000004        0.0000000000000000        0.0000000000000000     
  -5.0000000000000000       0.12499999999999999        0.0000000000000000     
  -4.6875000000000000       0.12499999999999999        0.0000000000000000     
  -4.3750000000000000       0.12500000000000000        0.0000000000000000     
  -4.0625000000000000       0.12499999999999997        0.0000000000000000     
  -3.7500000000000004       0.12500000000000000        0.0000000000000000     
  -5.0000000000000000       0.25000000000000000        0.0000000000000000     
  -4.6875000000000000       0.25000000000000000        0.0000000000000000     
  -4.3750000000000000       0.24999999999999997        0.0000000000000000     
  -4.0625000000000000       0.24999999999999997        0.0000000000000000     
  -3.7500000000000000       0.25000000000000000        0.0000000000000000     
  -5.0000000000000000       0.37500000000000000        0.0000000000000000     
  -4.6875000000000000       0.37500000000000000        0.0000000000000000     
  -4.3750000000000000       0.37500000000000000        0.0000000000000000     
  -4.0625000000000000       0.37500000000000000        0.0000000000000000     
  -3.7500000000000000       0.37500000000000000        0.0000000000000000     
  -5.0000000000000009       0.50000000000000000        0.0000000000000000     
  -4.6875000000000000       0.50000000000000011        0.0000000000000000     
  -4.3750000000000009       0.49999999999999994        0.0000000000000000     
  -4.0625000000000000       0.50000000000000000        0.0000000000000000     
  -3.7500000000000000       0.49999999999999994        0.0000000000000000     
  -3.7500000000000004        0.0000000000000000        0.0000000000000000     
  -3.4375000000000000        0.0000000000000000        0.0000000000000000     
  -3.1249999999999996        0.0000000000000000        0.0000000000000000     
  -2.8125000000000000        0.0000000000000000        0.0000000000000000     
  -2.5000000000000004        0.0000000000000000        0.0000000000000000     
  -3.7500000000000004       0.12500000000000000        0.0000000000000000     
  -3.4374999999999996       0.12499999999999999        0.0000000000000000     
  -3.1250000000000000       0.12499999999999999        0.0000000000000000     
  -2.8125000000000000       0.12499999999999999        0.0000000000000000     
  -2.5000000000000000       0.12500000000000000        0.0000000000000000     
  -3.7500000000000000       0.25000000000000000        0.0000000000000000     
  -3.4374999999999996       0.24999999999999994        0.0000000000000000     
  -3.1250000000000004       0.24999999999999994        0.0000000000000000     
  -2.8125000000000000       0.25000000000000000        0.0000000000000000     
  -2.5000000000000000       0.24999999999999997        0.0000000000000000     
  -3.7500000000000000       0.37500000000000000        0.0000000000000000     
  -3.4375000000000000       0.37500000000000000        0.0000000000000000     
  -3.1249999999999996       0.37500000000000000        0.0000000000000000     
  -2.8125000000000000       0.37500000000000000        0.0000000000000000     
  -2.5000000000000004       0.37500000000000006        0.0000000000000000     
  -3.7500000000000000       0.49999999999999994        0.0000000000000000     
  -3.4375000000000009       0.50000000000000011        0.0000000000000000     
  -3.1249999999999996       0.50000000000000011        0.0000000000000000     
  -2.8125000000000004       0.50000000000000000        0.0000000000000000     
  -2.5000000000000004       0.50000000000000011        0.0000000000000000     
  -2.5000000000000004        0.0000000000000000        0.0000000000000000     
  -2.1875000000000000        0.0000000000000000        0.0000000000000000     
  -1.8750000000000004        0.0000000000000000        0.0000000000000000     
  -1.5625000000000002        0.0000000000000000        0.0000000000000000     
  -1.2500000000000002        0.0000000000000000        0.0000000000000000     
  -2.5000000000000000       0.12500000000000000        0.0000000000000000     
  -2.1875000000000000       0.12499999999999999        0.0000000000000000     
  -1.8750000000000000       0.12499999999999999        0.0000000000000000     
  -1.5625000000000002       0.12500000000000000        0.0000000000000000     
  -1.2500000000000000       0.12500000000000000        0.0000000000000000     
  -2.5000000000000000       0.24999999999999997        0.0000000000000000     
  -2.1874999999999996       0.24999999999999994        0.0000000000000000     
  -1.8750000000000004       0.24999999999999997        0.0000000000000000     
  -1.5624999999999998       0.24999999999999994        0.0000000000000000     
  -1.2499999999999998       0.24999999999999997        0.0000000000000000     
  -2.5000000000000004       0.37500000000000006        0.0000000000000000     
  -2.1875000000000000       0.37500000000000000        0.0000000000000000     
  -1.8749999999999996       0.37500000000000000        0.0000000000000000     
  -1.5625000000000000       0.37500000000000000        0.0000000000000000     
  -1.2500000000000002       0.37500000000000006        0.0000000000000000     
  -2.5000000000000004       0.50000000000000011        0.0000000000000000     
  -2.1875000000000009       0.50000000000000011        0.0000000000000000     
  -1.8750000000000002       0.50000000000000000        0.0000000000000000     
  -1.5624999999999998       0.50000000000000000        0.0000000000000000     
  -1.2500000000000002       0.50000000000000011        0.0000000000000000     
  -1.2500000000000002        0.0000000000000000        0.0000000000000000     
 -0.93749999999999989        0.0000000000000000        0.0000000000000000     
 -0.62500000000000022        0.0000000000000000        0.0000000000000000     
 -0.31250000000000006        0.0000000000000000        0.0000000000000000     
   0.0000000000000000        0.0000000000000000        0.0000000000000000     
  -1.2500000000000000       0.12500000000000000        0.0000000000000000     
 -0.93749999999999989       0.12499999999999999        0.0000000000000000     
 -0.62499999999999989       0.12499999999999999        0.0000000000000000     
 -0.31250000000000000       0.12500000000000000        0.0000000000000000     
   0.0000000000000000       0.12500000000000000        0.0000000000000000     
  -1.2499999999999998       0.24999999999999997        0.0000000000000000     
 -0.93749999999999989       0.24999999999999994        0.0000000000000000     
 -0.62499999999999989       0.24999999999999997        0.0000000000000000     
 -0.31249999999999994       0.24999999999999994        0.0000000000000000     
   0.0000000000000000       0.24999999999999997        0.0000000000000000     
  -1.2500000000000002       0.37500000000000006        0.0000000000000000     
 -0.93750000000000011       0.37500000000000000        0.0000000000000000     
 -0.62500000000000000       0.37500000000000000        0.0000000000000000     
 -0.31250000000000000       0.37500000000000000        0.0000000000000000     
   0.0000000000000000       0.37500000000000006        0.0000000000000000     
  -1.2500000000000002       0.50000000000000011        0.0000000000000000     
 -0.93750000000000022       0.50000000000000011        0.0000000000000000     
 -0.62500000000000011       0.50000000000000000        0.0000000000000000     
 -0.31250000000000000       0.50000000000000000        0.0000000000000000     
   0.0000000000000000       0.50000000000000011        0.0000000000000000     
   0.0000000000000000        0.0000000000000000        0.0000000000000000     
  0.31249999999999994        0.0000000000000000        0.0000000000000000     
  0.62500000000000022        0.0000000000000000        0.0000000000000000     
  0.93750000000000011        0.0000000000000000        0.0000000000000000     
   1.2500000000000002        0.0000000000000000        0.0000000000000000     
   0.0000000000000000       0.12500000000000000        0.0000000000000000     
  0.31249999999999994       0.12499999999999999        0.0000000000000000     
  0.62499999999999989       0.12499999999999999        0.0000000000000000     
  0.93750000000000000       0.12500000000000000        0.0000000000000000     
   1.2500000000000000       0.12500000000000000        0.0000000000000000     
   0.0000000000000000       0.24999999999999997        0.0000000000000000     
  0.31249999999999989       0.24999999999999994        0.0000000000000000     
  0.62500000000000011       0.24999999999999997        0.0000000000000000     
  0.93749999999999989       0.24999999999999994        0.0000000000000000     
   1.2500000000000000       0.24999999999999997        0.0000000000000000     
   0.0000000000000000       0.37500000000000006        0.0000000000000000     
  0.31250000000000000       0.37500000000000000        0.0000000000000000     
  0.62500000000000000       0.37500000000000000        0.0000000000000000     
  0.93750000000000022       0.37500000000000000        0.0000000000000000     
   1.2500000000000002       0.37500000000000006        0.0000000000000000     
   0.0000000000000000       0.50000000000000011        0.0000000000000000     
  0.31250000000000011       0.50000000000000011        0.0000000000000000     
  0.62500000000000011       0.50000000000000000        0.0000000000000000     
  0.93750000000000000       0.50000000000000000        0.0000000000000000     
   1.2500000000000000       0.50000000000000011        0.0000000000000000     
   1.2500000000000002        0.0000000000000000        0.0000000000000000     
   1.5624999999999998        0.0000000000000000        0.0000000000000000     
   1.8750000000000004        0.0000000000000000        0.0000000000000000     
   2.1875000000000004        0.0000000000000000        0.0000000000000000     
   2.5000000000000004        0.0000000000000000        0.0000000000000000     
   1.2500000000000000       0.12500000000000000        0.0000000000000000     
   1.5624999999999998       0.12499999999999999        0.0000000000000000     
   1.8750000000000000       0.12499999999999999        0.0000000000000000     
   2.1875000000000000       0.12500000000000000        0.0000000000000000     
   2.5000000000000000       0.12500000000000000        0.0000000000000000     
   1.2500000000000000       0.24999999999999997        0.0000000000000000     
   1.5624999999999998       0.24999999999999994        0.0000000000000000     
   1.8750000000000002       0.24999999999999997        0.0000000000000000     
   2.1874999999999996       0.24999999999999994        0.0000000000000000     
   2.4999999999999996       0.24999999999999997        0.0000000000000000     
   1.2500000000000002       0.37500000000000006        0.0000000000000000     
   1.5625000000000000       0.37500000000000000        0.0000000000000000     
   1.8749999999999996       0.37500000000000000        0.0000000000000000     
   2.1875000000000004       0.37500000000000000        0.0000000000000000     
   2.5000000000000004       0.37500000000000006        0.0000000000000000     
   1.2500000000000000       0.50000000000000011        0.0000000000000000     
   1.5625000000000004       0.50000000000000011        0.0000000000000000     
   1.8750000000000000       0.50000000000000000        0.0000000000000000     
   2.1875000000000004       0.50000000000000000        0.0000000000000000     
   2.5000000000000004       0.50000000000000011        0.0000000000000000     
   2.5000000000000004        0.0000000000000000        0.0000000000000000     
   2.8125000000000000        0.0000000000000000        0.0000000000000000     
   3.1249999999999996        0.0000000000000000        0.0000000000000000     
   3.4375000000000004        0.0000000000000000        0.0000000000000000     
   3.7500000000000000        0.0000000000000000        0.0000000000000000     
   2.5000000000000000       0.12500000000000000        0.0000000000000000     
   2.8125000000000000       0.12499999999999999        0.0000000000000000     
   3.1250000000000000       0.12499999999999999        0.0000000000000000     
   3.4375000000000000       0.12500000000000000        0.0000000000000000     
   3.7500000000000000       0.12500000000000000        0.0000000000000000     
   2.4999999999999996       0.24999999999999997        0.0000000000000000     
   2.8125000000000000       0.24999999999999997        0.0000000000000000     
   3.1250000000000013       0.24999999999999997        0.0000000000000000     
   3.4374999999999996       0.24999999999999994        0.0000000000000000     
   3.7500000000000004       0.25000000000000000        0.0000000000000000     
   2.5000000000000004       0.37500000000000006        0.0000000000000000     
   2.8125000000000000       0.37500000000000000        0.0000000000000000     
   3.1249999999999996       0.37500000000000000        0.0000000000000000     
   3.4375000000000009       0.37500000000000000        0.0000000000000000     
   3.7500000000000000       0.37500000000000000        0.0000000000000000     
   2.5000000000000004       0.50000000000000011        0.0000000000000000     
   2.8125000000000000       0.50000000000000000        0.0000000000000000     
   3.1249999999999996       0.50000000000000000        0.0000000000000000     
   3.4375000000000000       0.50000000000000000        0.0000000000000000     
   3.7500000000000009       0.50000000000000011        0.0000000000000000     
   3.7500000000000000        0.0000000000000000        0.0000000000000000     
   4.0625000000000000        0.0000000000000000        0.0000000000000000     
   4.3750000000000000        0.0000000000000000        0.0000000000000000     
   4.6875000000000009        0.0000000000000000        0.0000000000000000     
   5.0000000000000000        0.0000000000000000        0.0000000000000000     
   3.7500000000000000       0.12500000000000000        0.0000000000000000     
   4.0625000000000000       0.12499999999999997        0.0000000000000000     
   4.3750000000000000       0.12499999999999997        0.0000000000000000     
   4.6875000000000000       0.12499999999999999        0.0000000000000000     
   5.0000000000000000       0.12499999999999999        0.0000000000000000     
   3.7500000000000004       0.25000000000000000        0.0000000000000000     
   4.0625000000000009       0.25000000000000006        0.0000000000000000     
   4.3750000000000018       0.25000000000000006        0.0000000000000000     
   4.6874999999999991       0.24999999999999994        0.0000000000000000     
   5.0000000000000000       0.25000000000000000        0.0000000000000000     
   3.7500000000000000       0.37500000000000000        0.0000000000000000     
   4.0625000000000000       0.37500000000000000        0.0000000000000000     
   4.3750000000000009       0.37500000000000000        0.0000000000000000     
   4.6875000000000000       0.37500000000000000        0.0000000000000000     
   5.0000000000000000       0.37500000000000000        0.0000000000000000     
   3.7500000000000009       0.50000000000000011        0.0000000000000000     
   4.0625000000000000       0.50000000000000000        0.0000000000000000     
   4.3750000000000000       0.50000000000000000        0.0000000000000000     
   4.6875000000000009       0.50000000000000011        0.0000000000000000     
   5.0000000000000009       0.50000000000000000        0.0000000000000000     
  -5.0000000000000009       0.50000000000000000        0.0000000000000000     
  -4.6875000000000000       0.50000000000000011        0.0000000000000000     
  -4.3750000000000009       0.49999999999999994        0.0000000000000000     
  -4.0625000000000000       0.50000000000000000        0.0000000000000000     
  -3.7500000000000000       0.49999999999999994        0.0000000000000000     
  -4.9999999999999991       0.62500000000000000        0.0000000000000000     
  -4.6875000000000000       0.62500000000000000        0.0000000000000000     
  -4.3750000000000009       0.62499999999999989        0.0000000000000000     
  -4.0625000000000009       0.62500000000000011        0.0000000000000000     
  -3.7500000000000000       0.62500000000000000        0.0000000000000000     
  -5.0000000000000000       0.75000000000000000        0.0000000000000000     
  -4.6875000000000009       0.75000000000000011        0.0000000000000000     
  -4.3750000000000000       0.74999999999999989        0.0000000000000000     
  -4.0624999999999991       0.75000000000000000        0.0000000000000000     
  -3.7500000000000000       0.75000000000000000        0.0000000000000000     
  -5.0000000000000000       0.87499999999999989        0.0000000000000000     
  -4.6875000000000000       0.87500000000000000        0.0000000000000000     
  -4.3750000000000009       0.87500000000000011        0.0000000000000000     
  -4.0625000000000009       0.87499999999999989        0.0000000000000000     
  -3.7499999999999996       0.87499999999999989        0.0000000000000000     
  -5.0000000000000018        1.0000000000000000        0.0000000000000000     
  -4.6875000000000000        1.0000000000000002        0.0000000000000000     
  -4.3750000000000009        1.0000000000000000        0.0000000000000000     
  -4.0625000000000009        1.0000000000000000        0.0000000000000000     
  -3.7500000000000009        1.0000000000000000        0.0000000000000000     
  -3.7500000000000000       0.49999999999999994        0.0000000000000000     
  -3.4375000000000009       0.50000000000000011        0.0000000000000000     
  -3.1249999999999996       0.50000000000000011        0.0000000000000000     
  -2.8125000000000004       0.50000000000000000        0.0000000000000000     
  -2.5000000000000004       0.50000000000000011        0.0000000000000000     
  -3.7500000000000000       0.62500000000000000        0.0000000000000000     
  -3.4375000000000000       0.62500000000000000        0.0000000000000000     
  -3.1250000000000000       0.62500000000000000        0.0000000000000000     
  -2.8125000000000004       0.62500000000000011        0.0000000000000000     
  -2.5000000000000000       0.62500000000000000        0.0000000000000000     
  -3.7500000000000000       0.75000000000000000        0.0000000000000000     
  -3.4374999999999996       0.74999999999999989        0.0000000000000000     
  -3.1250000000000004       0.74999999999999989        0.0000000000000000     
  -2.8125000000000000       0.74999999999999989        0.0000000000000000     
  -2.5000000000000000       0.75000000000000000        0.0000000000000000     
  -3.7499999999999996       0.87499999999999989        0.0000000000000000     
  -3.4375000000000009       0.87500000000000022        0.0000000000000000     
  -3.1250000000000000       0.87500000000000022        0.0000000000000000     
  -2.8124999999999996       0.87499999999999978        0.0000000000000000     
  -2.5000000000000004       0.87500000000000011        0.0000000000000000     
  -3.7500000000000009        1.0000000000000000        0.0000000000000000     
  -3.4375000000000009        1.0000000000000000        0.0000000000000000     
  -3.1249999999999996        1.0000000000000000        0.0000000000000000     
  -2.8125000000000009        1.0000000000000000        0.0000000000000000     
  -2.5000000000000004        1.0000000000000002        0.0000000000000000     
  -2.5000000000000004       0.50000000000000011        0.0000000000000000     
  -2.1875000000000009       0.50000000000000011        0.0000000000000000     
  -1.8750000000000002       0.50000000000000000        0.0000000000000000     
  -1.5624999999999998       0.50000000000000000        0.0000000000000000     
  -1.2500000000000002       0.50000000000000011        0.0000000000000000     
  -2.5000000000000000       0.62500000000000000        0.0000000000000000     
  -2.1875000000000000       0.62500000000000000        0.0000000000000000     
  -1.8749999999999998       0.62500000000000011        0.0000000000000000     
  -1.5625000000000002       0.62500000000000000        0.0000000000000000     
  -1.2500000000000000       0.62500000000000000        0.0000000000000000     
  -2.5000000000000000       0.75000000000000000        0.0000000000000000     
  -2.1875000000000000       0.74999999999999989        0.0000000000000000     
  -1.8749999999999996       0.74999999999999978        0.0000000000000000     
  -1.5625000000000000       0.75000000000000000        0.0000000000000000     
  -1.2500000000000000       0.75000000000000000        0.0000000000000000     
  -2.5000000000000004       0.87500000000000011        0.0000000000000000     
  -2.1875000000000004       0.87500000000000022        0.0000000000000000     
  -1.8750000000000002       0.87499999999999989        0.0000000000000000     
  -1.5625000000000002       0.87500000000000011        0.0000000000000000     
  -1.2500000000000002       0.87500000000000011        0.0000000000000000     
  -2.5000000000000004        1.0000000000000002        0.0000000000000000     
  -2.1875000000000004        1.0000000000000000        0.0000000000000000     
  -1.8749999999999998        1.0000000000000002        0.0000000000000000     
  -1.5625000000000002        1.0000000000000000        0.0000000000000000     
  -1.2500000000000002        1.0000000000000002        0.0000000000000000     
  -1.2500000000000002       0.50000000000000011        0.0000000000000000     
 -0.93750000000000022       0.50000000000000011        0.0000000000000000     
 -0.62500000000000011       0.50000000000000000        0.0000000000000000     
 -0.31250000000000000       0.50000000000000000        0.0000000000000000     
   0.0000000000000000       0.50000000000000011        0.0000000000000000     
  -1.2500000000000000       0.62500000000000000        0.0000000000000000     
 -0.93750000000000000       0.62500000000000000        0.0000000000000000     
 -0.62500000000000000       0.62500000000000011        0.0000000000000000     
 -0.31249999999999994       0.62500000000000000        0.0000000000000000     
   0.0000000000000000       0.62500000000000000        0.0000000000000000     
  -1.2500000000000000       0.75000000000000000        0.0000000000000000     
 -0.93750000000000000       0.74999999999999989        0.0000000000000000     
 -0.62499999999999978       0.74999999999999978        0.0000000000000000     
 -0.31249999999999994       0.75000000000000000        0.0000000000000000     
   0.0000000000000000       0.75000000000000000        0.0000000000000000     
  -1.2500000000000002       0.87500000000000011        0.0000000000000000     
 -0.93750000000000033       0.87500000000000022        0.0000000000000000     
 -0.62500000000000011       0.87499999999999989        0.0000000000000000     
 -0.31250000000000006       0.87500000000000011        0.0000000000000000     
   0.0000000000000000       0.87500000000000011        0.0000000000000000     
  -1.2500000000000002        1.0000000000000002        0.0000000000000000     
 -0.93750000000000011        1.0000000000000000        0.0000000000000000     
 -0.62500000000000000        1.0000000000000002        0.0000000000000000     
 -0.31250000000000000        1.0000000000000000        0.0000000000000000     
   0.0000000000000000        1.0000000000000002        0.0000000000000000     
   0.0000000000000000       0.50000000000000011        0.0000000000000000     
  0.31250000000000011       0.50000000000000011        0.0000000000000000     
  0.62500000000000011       0.50000000000000000        0.0000000000000000     
  0.93750000000000000       0.50000000000000000        0.0000000000000000     
   1.2500000000000000       0.50000000000000011        0.0000000000000000     
   0.0000000000000000       0.62500000000000000        0.0000000000000000     
  0.31250000000000000       0.62500000000000000        0.0000000000000000     
  0.62500000000000000       0.62500000000000011        0.0000000000000000     
  0.93750000000000011       0.62500000000000000        0.0000000000000000     
   1.2500000000000000       0.62500000000000000        0.0000000000000000     
   0.0000000000000000       0.75000000000000000        0.0000000000000000     
  0.31249999999999994       0.74999999999999989        0.0000000000000000     
  0.62499999999999978       0.74999999999999978        0.0000000000000000     
  0.93750000000000000       0.75000000000000000        0.0000000000000000     
   1.2500000000000000       0.75000000000000000        0.0000000000000000     
   0.0000000000000000       0.87500000000000011        0.0000000000000000     
  0.31250000000000000       0.87500000000000022        0.0000000000000000     
  0.62500000000000022       0.87499999999999989        0.0000000000000000     
  0.93750000000000011       0.87500000000000011        0.0000000000000000     
   1.2500000000000002       0.87500000000000011        0.0000000000000000     
   0.0000000000000000        1.0000000000000002        0.0000000000000000     
  0.31250000000000000        1.0000000000000000        0.0000000000000000     
  0.62499999999999989        1.0000000000000002        0.0000000000000000     
  0.93750000000000022        1.0000000000000000        0.0000000000000000     
   1.2500000000000002        1.0000000000000002        0.0000000000000000     
   1.2500000000000000       0.50000000000000011        0.0000000000000000     
   1.5625000000000004       0.50000000000000011        0.0000000000000000     
   1.8750000000000000       0.50000000000000000        0.0000000000000000     
   2.1875000000000004       0.50000000000000000        0.0000000000000000     
   2.5000000000000004       0.50000000000000011        0.0000000000000000     
   1.2500000000000000       0.62500000000000000        0.0000000000000000     
   1.5625000000000000       0.62500000000000000        0.0000000000000000     
   1.8750000000000000       0.62500000000000011        0.0000000000000000     
   2.1875000000000000       0.62500000000000000        0.0000000000000000     
   2.5000000000000004       0.62500000000000000        0.0000000000000000     
   1.2500000000000000       0.75000000000000000        0.0000000000000000     
   1.5624999999999998       0.74999999999999989        0.0000000000000000     
   1.8750000000000000       0.74999999999999978        0.0000000000000000     
   2.1874999999999996       0.75000000000000000        0.0000000000000000     
   2.5000000000000000       0.75000000000000000        0.0000000000000000     
   1.2500000000000002       0.87500000000000011        0.0000000000000000     
   1.5625000000000004       0.87500000000000022        0.0000000000000000     
   1.8750000000000000       0.87499999999999989        0.0000000000000000     
   2.1875000000000000       0.87500000000000011        0.0000000000000000     
   2.5000000000000004       0.87500000000000011        0.0000000000000000     
   1.2500000000000002        1.0000000000000002        0.0000000000000000     
   1.5625000000000004        1.0000000000000000        0.0000000000000000     
   1.8750000000000000        1.0000000000000002        0.0000000000000000     
   2.1875000000000004        1.0000000000000000        0.0000000000000000     
   2.5000000000000004        1.0000000000000002        0.0000000000000000     
   2.5000000000000004       0.50000000000000011        0.0000000000000000     
   2.8125000000000000       0.50000000000000000        0.0000000000000000     
   3.1249999999999996       0.50000000000000000        0.0000000000000000     
   3.4375000000000000       0.50000000000000000        0.0000000000000000     
   3.7500000000000009       0.50000000000000011        0.0000000000000000     
   2.5000000000000004       0.62500000000000000        0.0000000000000000     
   2.8125000000000000       0.62500000000000000        0.0000000000000000     
   3.1250000000000000       0.62500000000000011        0.0000000000000000     
   3.4375000000000000       0.62500000000000000        0.0000000000000000     
   3.7500000000000000       0.62500000000000000        0.0000000000000000     
   2.5000000000000000       0.75000000000000000        0.0000000000000000     
   2.8125000000000000       0.75000000000000011        0.0000000000000000     
   3.1250000000000009       0.75000000000000000        0.0000000000000000     
   3.4374999999999996       0.75000000000000000        0.0000000000000000     
   3.7500000000000000       0.75000000000000011        0.0000000000000000     
   2.5000000000000004       0.87500000000000011        0.0000000000000000     
   2.8124999999999996       0.87499999999999989        0.0000000000000000     
   3.1250000000000000       0.87500000000000011        0.0000000000000000     
   3.4375000000000004       0.87500000000000011        0.0000000000000000     
   3.7500000000000000       0.87499999999999989        0.0000000000000000     
   2.5000000000000004        1.0000000000000002        0.0000000000000000     
   2.8125000000000004        1.0000000000000002        0.0000000000000000     
   3.1250000000000000        1.0000000000000000        0.0000000000000000     
   3.4375000000000009        1.0000000000000000        0.0000000000000000     
   3.7500000000000004        1.0000000000000002        0.0000000000000000     
   3.7500000000000009       0.50000000000000011        0.0000000000000000     
   4.0625000000000000       0.50000000000000000        0.0000000000000000     
   4.3750000000000000       0.50000000000000000        0.0000000000000000     
   4.6875000000000009       0.50000000000000011        0.0000000000000000     
   5.0000000000000009       0.50000000000000000        0.0000000000000000     
   3.7500000000000000       0.62500000000000000        0.0000000000000000     
   4.0625000000000000       0.62500000000000000        0.0000000000000000     
   4.3750000000000009       0.62500000000000022        0.0000000000000000     
   4.6875000000000000       0.62500000000000000        0.0000000000000000     
   4.9999999999999991       0.62500000000000000        0.0000000000000000     
   3.7500000000000000       0.75000000000000011        0.0000000000000000     
   4.0625000000000009       0.75000000000000011        0.0000000000000000     
   4.3750000000000000       0.74999999999999978        0.0000000000000000     
   4.6875000000000000       0.75000000000000000        0.0000000000000000     
   5.0000000000000000       0.75000000000000000        0.0000000000000000     
   3.7500000000000000       0.87499999999999989        0.0000000000000000     
   4.0625000000000000       0.87499999999999989        0.0000000000000000     
   4.3750000000000018       0.87500000000000022        0.0000000000000000     
   4.6875000000000009       0.87500000000000000        0.0000000000000000     
   5.0000000000000000       0.87499999999999989        0.0000000000000000     
   3.7500000000000004        1.0000000000000002        0.0000000000000000     
   4.0625000000000009        1.0000000000000002        0.0000000000000000     
   4.3750000000000009        1.0000000000000000        0.0000000000000000     
   4.6875000000000009        1.0000000000000002        0.0000000000000000     
   5.0000000000000018        1.0000000000000000        0.0000000000000000     
  -5.0000000000000018        1.0000000000000000        0.0000000000000000     
  -4.6875000000000000        1.0000000000000002        0.0000000000000000     
  -4.3750000000000009        1.0000000000000000        0.0000000000000000     
  -4.0625000000000009        1.0000000000000000        0.0000000000000000     
  -3.7500000000000009        1.0000000000000000        0.0000000000000000     
  -5.0000000000000000        1.1250000000000000        0.0000000000000000     
  -4.6875000000000000        1.1250000000000000        0.0000000000000000     
  -4.3750000000000009        1.1250000000000000        0.0000000000000000     
  -4.0625000000000009        1.1250000000000002        0.0000000000000000     
  -3.7500000000000000        1.1250000000000000        0.0000000000000000     
  -5.0000000000000000        1.2500000000000000        0.0000000000000000     
  -4.6875000000000000        1.2500000000000000        0.0000000000000000     
  -4.3750000000000018        1.2500000000000000        0.0000000000000000     
  -4.0625000000000009        1.2500000000000000        0.0000000000000000     
  -3.7499999999999991        1.2500000000000002        0.0000000000000000     
  -5.0000000000000009        1.3750000000000002        0.0000000000000000     
  -4.6875000000000009        1.3750000000000000        0.0000000000000000     
  -4.3750000000000009        1.3750000000000000        0.0000000000000000     
  -4.0625000000000000        1.3750000000000002        0.0000000000000000     
  -3.7500000000000000        1.3750000000000000        0.0000000000000000     
  -5.0000000000000000        1.5000000000000002        0.0000000000000000     
  -4.6875000000000000        1.5000000000000002        0.0000000000000000     
  -4.3750000000000000        1.5000000000000000        0.0000000000000000     
  -4.0625000000000000        1.5000000000000002        0.0000000000000000     
  -3.7500000000000013        1.5000000000000002        0.0000000000000000     
  -3.7500000000000009        1.0000000000000000        0.0000000000000000     
  -3.4375000000000009        1.0000000000000000        0.0000000000000000     
  -3.1249999999999996        1.0000000000000000        0.0000000000000000     
  -2.8125000000000009        1.0000000000000000        0.0000000000000000     
  -2.5000000000000004        1.0000000000000002        0.0000000000000000     
  -3.7500000000000000        1.1250000000000000        0.0000000000000000     
  -3.4375000000000000        1.1249999999999998        0.0000000000000000     
  -3.1250000000000000        1.1250000000000000        0.0000000000000000     
  -2.8125000000000004        1.1250000000000002        0.0000000000000000     
  -2.5000000000000000        1.1250000000000000        0.0000000000000000     
  -3.7499999999999991        1.2500000000000002        0.0000000000000000     
  -3.4375000000000004        1.2500000000000002        0.0000000000000000     
  -3.1250000000000009        1.2500000000000000        0.0000000000000000     
  -2.8125000000000000        1.2500000000000002        0.0000000000000000     
  -2.5000000000000000        1.2500000000000000        0.0000000000000000     
  -3.7500000000000000        1.3750000000000000        0.0000000000000000     
  -3.4375000000000000        1.3750000000000000        0.0000000000000000     
  -3.1249999999999996        1.3750000000000000        0.0000000000000000     
  -2.8125000000000004        1.3750000000000000        0.0000000000000000     
  -2.4999999999999996        1.3749999999999998        0.0000000000000000     
  -3.7500000000000013        1.5000000000000002        0.0000000000000000     
  -3.4375000000000000        1.5000000000000000        0.0000000000000000     
  -3.1250000000000000        1.5000000000000002        0.0000000000000000     
  -2.8125000000000004        1.4999999999999998        0.0000000000000000     
  -2.5000000000000000        1.5000000000000000        0.0000000000000000     
  -2.5000000000000004        1.0000000000000002        0.0000000000000000     
  -2.1875000000000004        1.0000000000000000        0.0000000000000000     
  -1.8749999999999998        1.0000000000000002        0.0000000000000000     
  -1.5625000000000002        1.0000000000000000        0.0000000000000000     
  -1.2500000000000002        1.0000000000000002        0.0000000000000000     
  -2.5000000000000000        1.1250000000000000        0.0000000000000000     
  -2.1875000000000000        1.1249999999999998        0.0000000000000000     
  -1.8749999999999998        1.1250000000000002        0.0000000000000000     
  -1.5625000000000002        1.1250000000000000        0.0000000000000000     
  -1.2500000000000002        1.1250000000000000        0.0000000000000000     
  -2.5000000000000000        1.2500000000000000        0.0000000000000000     
  -2.1875000000000000        1.2500000000000002        0.0000000000000000     
  -1.8750000000000004        1.2499999999999998        0.0000000000000000     
  -1.5625000000000000        1.2500000000000002        0.0000000000000000     
  -1.2500000000000000        1.2500000000000000        0.0000000000000000     
  -2.4999999999999996        1.3749999999999998        0.0000000000000000     
  -2.1875000000000004        1.3750000000000000        0.0000000000000000     
  -1.8749999999999998        1.3749999999999998        0.0000000000000000     
  -1.5625000000000000        1.3750000000000000        0.0000000000000000     
  -1.2499999999999998        1.3749999999999998        0.0000000000000000     
  -2.5000000000000000        1.5000000000000000        0.0000000000000000     
  -2.1875000000000000        1.5000000000000000        0.0000000000000000     
  -1.8750000000000002        1.5000000000000007        0.0000000000000000     
  -1.5625000000000002        1.4999999999999996        0.0000000000000000     
  -1.2500000000000000        1.5000000000000000        0.0000000000000000     
  -1.2500000000000002        1.0000000000000002        0.0000000000000000     
 -0.93750000000000011        1.0000000000000000        0.0000000000000000     
 -0.62500000000000000        1.0000000000000002        0.0000000000000000     
 -0.31250000000000000        1.0000000000000000        0.0000000000000000     
   0.0000000000000000        1.0000000000000002        0.0000000000000000     
  -1.2500000000000002        1.1250000000000000        0.0000000000000000     
 -0.93750000000000000        1.1249999999999998        0.0000000000000000     
 -0.62500000000000000        1.1250000000000002        0.0000000000000000     
 -0.31250000000000000        1.1250000000000000        0.0000000000000000     
   0.0000000000000000        1.1250000000000000        0.0000000000000000     
  -1.2500000000000000        1.2500000000000000        0.0000000000000000     
 -0.93750000000000000        1.2500000000000002        0.0000000000000000     
 -0.62500000000000011        1.2499999999999998        0.0000000000000000     
 -0.31250000000000006        1.2500000000000002        0.0000000000000000     
   0.0000000000000000        1.2500000000000000        0.0000000000000000     
  -1.2499999999999998        1.3749999999999998        0.0000000000000000     
 -0.93750000000000011        1.3750000000000000        0.0000000000000000     
 -0.62500000000000000        1.3749999999999998        0.0000000000000000     
 -0.31249999999999994        1.3750000000000000        0.0000000000000000     
   0.0000000000000000        1.3749999999999998        0.0000000000000000     
  -1.2500000000000000        1.5000000000000000        0.0000000000000000     
 -0.93750000000000000        1.5000000000000000        0.0000000000000000     
 -0.62500000000000000        1.5000000000000007        0.0000000000000000     
 -0.31250000000000000        1.4999999999999996        0.0000000000000000     
   0.0000000000000000        1.5000000000000000        0.0000000000000000     
   0.0000000000000000        1.0000000000000002        0.0000000000000000     
  0.31250000000000000        1.0000000000000000        0.0000000000000000     
  0.62499999999999989        1.0000000000000002        0.0000000000000000     
  0.93750000000000022        1.0000000000000000        0.0000000000000000     
   1.2500000000000002        1.0000000000000002        0.0000000000000000     
   0.0000000000000000        1.1250000000000000        0.0000000000000000     
  0.31249999999999989        1.1249999999999998        0.0000000000000000     
  0.62500000000000000        1.1250000000000002        0.0000000000000000     
  0.93750000000000011        1.1250000000000000        0.0000000000000000     
   1.2500000000000000        1.1250000000000000        0.0000000000000000     
   0.0000000000000000        1.2500000000000000        0.0000000000000000     
  0.31250000000000006        1.2500000000000002        0.0000000000000000     
  0.62500000000000011        1.2499999999999998        0.0000000000000000     
  0.93750000000000022        1.2500000000000002        0.0000000000000000     
   1.2500000000000000        1.2500000000000000        0.0000000000000000     
   0.0000000000000000        1.3749999999999998        0.0000000000000000     
  0.31250000000000006        1.3750000000000000        0.0000000000000000     
  0.62499999999999989        1.3749999999999998        0.0000000000000000     
  0.93749999999999989        1.3750000000000000        0.0000000000000000     
   1.2499999999999998        1.3749999999999998        0.0000000000000000     
   0.0000000000000000        1.5000000000000000        0.0000000000000000     
  0.31249999999999994        1.5000000000000000        0.0000000000000000     
  0.62500000000000011        1.5000000000000007        0.0000000000000000     
  0.93750000000000000        1.4999999999999996        0.0000000000000000     
   1.2500000000000000        1.5000000000000000        0.0000000000000000     
   1.2500000000000002        1.0000000000000002        0.0000000000000000     
   1.5625000000000004        1.0000000000000000        0.0000000000000000     
   1.8750000000000000        1.0000000000000002        0.0000000000000000     
   2.1875000000000004        1.0000000000000000        0.0000000000000000     
   2.5000000000000004        1.0000000000000002        0.0000000000000000     
   1.2500000000000000        1.1250000000000000        0.0000000000000000     
   1.5624999999999998        1.1249999999999998        0.0000000000000000     
   1.8750000000000000        1.1250000000000002        0.0000000000000000     
   2.1875000000000000        1.1250000000000000        0.0000000000000000     
   2.5000000000000004        1.1250000000000000        0.0000000000000000     
   1.2500000000000000        1.2500000000000000        0.0000000000000000     
   1.5624999999999998        1.2500000000000002        0.0000000000000000     
   1.8750000000000004        1.2499999999999998        0.0000000000000000     
   2.1875000000000000        1.2500000000000002        0.0000000000000000     
   2.5000000000000000        1.2500000000000000        0.0000000000000000     
   1.2499999999999998        1.3749999999999998        0.0000000000000000     
   1.5625000000000000        1.3750000000000000        0.0000000000000000     
   1.8749999999999998        1.3749999999999998        0.0000000000000000     
   2.1874999999999996        1.3750000000000000        0.0000000000000000     
   2.4999999999999996        1.3749999999999998        0.0000000000000000     
   1.2500000000000000        1.5000000000000000        0.0000000000000000     
   1.5625000000000004        1.5000000000000000        0.0000000000000000     
   1.8750000000000000        1.5000000000000007        0.0000000000000000     
   2.1875000000000004        1.4999999999999996        0.0000000000000000     
   2.5000000000000000        1.5000000000000000        0.0000000000000000     
   2.5000000000000004        1.0000000000000002        0.0000000000000000     
   2.8125000000000004        1.0000000000000002        0.0000000000000000     
   3.1250000000000000        1.0000000000000000        0.0000000000000000     
   3.4375000000000009        1.0000000000000000        0.0000000000000000     
   3.7500000000000004        1.0000000000000002        0.0000000000000000     
   2.5000000000000004        1.1250000000000000        0.0000000000000000     
   2.8124999999999996        1.1249999999999998        0.0000000000000000     
   3.1250000000000000        1.1250000000000002        0.0000000000000000     
   3.4375000000000000        1.1249999999999998        0.0000000000000000     
   3.7500000000000000        1.1250000000000000        0.0000000000000000     
   2.5000000000000000        1.2500000000000000        0.0000000000000000     
   2.8124999999999996        1.2500000000000002        0.0000000000000000     
   3.1250000000000009        1.2500000000000000        0.0000000000000000     
   3.4375000000000004        1.2500000000000002        0.0000000000000000     
   3.7499999999999996        1.2500000000000002        0.0000000000000000     
   2.4999999999999996        1.3749999999999998        0.0000000000000000     
   2.8125000000000004        1.3750000000000002        0.0000000000000000     
   3.1249999999999996        1.3749999999999998        0.0000000000000000     
   3.4375000000000000        1.3750000000000002        0.0000000000000000     
   3.7500000000000004        1.3750000000000000        0.0000000000000000     
   2.5000000000000000        1.5000000000000000        0.0000000000000000     
   2.8125000000000004        1.5000000000000000        0.0000000000000000     
   3.1250000000000000        1.5000000000000004        0.0000000000000000     
   3.4375000000000000        1.4999999999999996        0.0000000000000000     
   3.7500000000000004        1.5000000000000002        0.0000000000000000     
   3.7500000000000004        1.0000000000000002        0.0000000000000000     
   4.0625000000000009        1.0000000000000002        0.0000000000000000     
   4.3750000000000009        1.0000000000000000        0.0000000000000000     
   4.6875000000000009        1.0000000000000002        0.0000000000000000     
   5.0000000000000018        1.0000000000000000        0.0000000000000000     
   3.7500000000000000        1.1250000000000000        0.0000000000000000     
   4.0625000000000000        1.1250000000000000        0.0000000000000000     
   4.3750000000000009        1.1250000000000004        0.0000000000000000     
   4.6875000000000009        1.1250000000000000        0.0000000000000000     
   5.0000000000000000        1.1250000000000000        0.0000000000000000     
   3.7499999999999996        1.2500000000000002        0.0000000000000000     
   4.0625000000000009        1.2500000000000002        0.0000000000000000     
   4.3750000000000009        1.2500000000000002        0.0000000000000000     
   4.6875000000000000        1.2499999999999998        0.0000000000000000     
   5.0000000000000000        1.2500000000000000        0.0000000000000000     
   3.7500000000000004        1.3750000000000000        0.0000000000000000     
   4.0625000000000009        1.3750000000000002        0.0000000000000000     
   4.3750000000000027        1.3750000000000004        0.0000000000000000     
   4.6875000000000000        1.3750000000000000        0.0000000000000000     
   5.0000000000000009        1.3750000000000002        0.0000000000000000     
   3.7500000000000004        1.5000000000000002        0.0000000000000000     
   4.0625000000000009        1.5000000000000000        0.0000000000000000     
   4.3750000000000000        1.4999999999999996        0.0000000000000000     
   4.6875000000000009        1.5000000000000002        0.0000000000000000     
   5.0000000000000000        1.5000000000000002        0.0000000000000000     
  -5.0000000000000000        1.5000000000000002        0.0000000000000000     
  -4.6875000000000000        1.5000000000000002        0.0000000000000000     
  -4.3750000000000000        1.5000000000000000        0.0000000000000000     
  -4.0625000000000000        1.5000000000000002        0.0000000000000000     
  -3.7500000000000013        1.5000000000000002        0.0000000000000000     
  -5.0000000000000000        1.6250000000000000        0.0000000000000000     
  -4.6875000000000000        1.6250000000000000        0.0000000000000000     
  -4.3750000000000009        1.6250000000000000        0.0000000000000000     
  -4.0625000000000000        1.6250000000000000        0.0000000000000000     
  -3.7500000000000000        1.6250000000000000        0.0000000000000000     
  -5.0000000000000000        1.7499999999999998        0.0000000000000000     
  -4.6875000000000000        1.7499999999999998        0.0000000000000000     
  -4.3750000000000000        1.7500000000000002        0.0000000000000000     
  -4.0625000000000009        1.7500000000000000        0.0000000000000000     
  -3.7499999999999987        1.7499999999999998        0.0000000000000000     
  -5.0000000000000000        1.8750000000000000        0.0000000000000000     
  -4.6875000000000000        1.8750000000000000        0.0000000000000000     
  -4.3750000000000000        1.8750000000000000        0.0000000000000000     
  -4.0625000000000000        1.8750000000000000        0.0000000000000000     
  -3.7500000000000000        1.8750000000000000        0.0000000000000000     
  -5.0000000000000000        2.0000000000000000        0.0000000000000000     
  -4.6875000000000000        2.0000000000000000        0.0000000000000000     
  -4.3750000000000009        2.0000000000000000        0.0000000000000000     
  -4.0625000000000000        2.0000000000000000        0.0000000000000000     
  -3.7500000000000004        2.0000000000000000        0.0000000000000000     
  -3.7500000000000013        1.5000000000000002        0.0000000000000000     
  -3.4375000000000000        1.5000000000000000        0.0000000000000000     
  -3.1250000000000000        1.5000000000000002        0.0000000000000000     
  -2.8125000000000004        1.4999999999999998        0.0000000000000000     
  -2.5000000000000000        1.5000000000000000        0.0000000000000000     
  -3.7500000000000000        1.6250000000000000        0.0000000000000000     
  -3.4375000000000000        1.6250000000000000        0.0000000000000000     
  -3.1250000000000000        1.6250000000000000        0.0000000000000000     
  -2.8125000000000000        1.6250000000000000        0.0000000000000000     
  -2.5000000000000000        1.6250000000000000        0.0000000000000000     
  -3.7499999999999987        1.7499999999999998        0.0000000000000000     
  -3.4375000000000004        1.7500000000000004        0.0000000000000000     
  -3.1250000000000004        1.7500000000000000        0.0000000000000000     
  -2.8125000000000000        1.7500000000000000        0.0000000000000000     
  -2.5000000000000004        1.7500000000000007        0.0000000000000000     
  -3.7500000000000000        1.8750000000000000        0.0000000000000000     
  -3.4375000000000000        1.8749999999999998        0.0000000000000000     
  -3.1250000000000000        1.8750000000000002        0.0000000000000000     
  -2.8125000000000000        1.8750000000000000        0.0000000000000000     
  -2.5000000000000000        1.8749999999999998        0.0000000000000000     
  -3.7500000000000004        2.0000000000000000        0.0000000000000000     
  -3.4375000000000000        2.0000000000000000        0.0000000000000000     
  -3.1249999999999996        2.0000000000000000        0.0000000000000000     
  -2.8125000000000000        2.0000000000000000        0.0000000000000000     
  -2.5000000000000004        2.0000000000000004        0.0000000000000000     
  -2.5000000000000000        1.5000000000000000        0.0000000000000000     
  -2.1875000000000000        1.5000000000000000        0.0000000000000000     
  -1.8750000000000002        1.5000000000000007        0.0000000000000000     
  -1.5625000000000002        1.4999999999999996        0.0000000000000000     
  -1.2500000000000000        1.5000000000000000        0.0000000000000000     
  -2.5000000000000000        1.6250000000000000        0.0000000000000000     
  -2.1875000000000000        1.6250000000000000        0.0000000000000000     
  -1.8750000000000004        1.6250000000000002        0.0000000000000000     
  -1.5625000000000000        1.6250000000000000        0.0000000000000000     
  -1.2500000000000000        1.6250000000000000        0.0000000000000000     
  -2.5000000000000004        1.7500000000000007        0.0000000000000000     
  -2.1875000000000000        1.7500000000000004        0.0000000000000000     
  -1.8750000000000007        1.7500000000000002        0.0000000000000000     
  -1.5625000000000000        1.7500000000000004        0.0000000000000000     
  -1.2500000000000002        1.7500000000000007        0.0000000000000000     
  -2.5000000000000000        1.8749999999999998        0.0000000000000000     
  -2.1875000000000000        1.8749999999999996        0.0000000000000000     
  -1.8750000000000002        1.8750000000000007        0.0000000000000000     
  -1.5625000000000004        1.8749999999999998        0.0000000000000000     
  -1.2500000000000002        1.8749999999999998        0.0000000000000000     
  -2.5000000000000004        2.0000000000000004        0.0000000000000000     
  -2.1875000000000000        2.0000000000000000        0.0000000000000000     
  -1.8750000000000004        2.0000000000000004        0.0000000000000000     
  -1.5625000000000002        2.0000000000000004        0.0000000000000000     
  -1.2500000000000002        2.0000000000000004        0.0000000000000000     
  -1.2500000000000000        1.5000000000000000        0.0000000000000000     
 -0.93750000000000000        1.5000000000000000        0.0000000000000000     
 -0.62500000000000000        1.5000000000000007        0.0000000000000000     
 -0.31250000000000000        1.4999999999999996        0.0000000000000000     
   0.0000000000000000        1.5000000000000000        0.0000000000000000     
  -1.2500000000000000        1.6250000000000000        0.0000000000000000     
 -0.93750000000000000        1.6250000000000000        0.0000000000000000     
 -0.62500000000000011        1.6250000000000002        0.0000000000000000     
 -0.31249999999999994        1.6250000000000000        0.0000000000000000     
   0.0000000000000000        1.6250000000000000        0.0000000000000000     
  -1.2500000000000002        1.7500000000000007        0.0000000000000000     
 -0.93750000000000011        1.7500000000000004        0.0000000000000000     
 -0.62500000000000022        1.7500000000000002        0.0000000000000000     
 -0.31250000000000000        1.7500000000000004        0.0000000000000000     
   0.0000000000000000        1.7500000000000007        0.0000000000000000     
  -1.2500000000000002        1.8749999999999998        0.0000000000000000     
 -0.93750000000000000        1.8749999999999996        0.0000000000000000     
 -0.62500000000000011        1.8750000000000007        0.0000000000000000     
 -0.31250000000000006        1.8749999999999998        0.0000000000000000     
   0.0000000000000000        1.8749999999999998        0.0000000000000000     
  -1.2500000000000002        2.0000000000000004        0.0000000000000000     
 -0.93749999999999989        2.0000000000000000        0.0000000000000000     
 -0.62500000000000022        2.0000000000000004        0.0000000000000000     
 -0.31250000000000006        2.0000000000000004        0.0000000000000000     
   0.0000000000000000        2.0000000000000004        0.0000000000000000     
   0.0000000000000000        1.5000000000000000        0.0000000000000000     
  0.31249999999999994        1.5000000000000000        0.0000000000000000     
  0.62500000000000011        1.5000000000000007        0.0000000000000000     
  0.93750000000000000        1.4999999999999996        0.0000000000000000     
   1.2500000000000000        1.5000000000000000        0.0000000000000000     
   0.0000000000000000        1.6250000000000000        0.0000000000000000     
  0.31249999999999994        1.6250000000000000        0.0000000000000000     
  0.62500000000000011        1.6250000000000002        0.0000000000000000     
  0.93750000000000000        1.6250000000000000        0.0000000000000000     
   1.2500000000000000        1.6250000000000000        0.0000000000000000     
   0.0000000000000000        1.7500000000000007        0.0000000000000000     
  0.31250000000000000        1.7500000000000004        0.0000000000000000     
  0.62500000000000022        1.7500000000000002        0.0000000000000000     
  0.93750000000000011        1.7500000000000004        0.0000000000000000     
   1.2500000000000002        1.7500000000000007        0.0000000000000000     
   0.0000000000000000        1.8749999999999998        0.0000000000000000     
  0.31249999999999994        1.8749999999999996        0.0000000000000000     
  0.62500000000000011        1.8750000000000007        0.0000000000000000     
  0.93750000000000011        1.8749999999999998        0.0000000000000000     
   1.2500000000000000        1.8749999999999998        0.0000000000000000     
   0.0000000000000000        2.0000000000000004        0.0000000000000000     
  0.31249999999999994        2.0000000000000000        0.0000000000000000     
  0.62500000000000022        2.0000000000000004        0.0000000000000000     
  0.93750000000000011        2.0000000000000004        0.0000000000000000     
   1.2500000000000002        2.0000000000000004        0.0000000000000000     
   1.2500000000000000        1.5000000000000000        0.0000000000000000     
   1.5625000000000004        1.5000000000000000        0.0000000000000000     
   1.8750000000000000        1.5000000000000007        0.0000000000000000     
   2.1875000000000004        1.4999999999999996        0.0000000000000000     
   2.5000000000000000        1.5000000000000000        0.0000000000000000     
   1.2500000000000000        1.6250000000000000        0.0000000000000000     
   1.5625000000000000        1.6250000000000000        0.0000000000000000     
   1.8750000000000004        1.6250000000000002        0.0000000000000000     
   2.1875000000000000        1.6250000000000000        0.0000000000000000     
   2.5000000000000000        1.6250000000000000        0.0000000000000000     
   1.2500000000000002        1.7500000000000007        0.0000000000000000     
   1.5624999999999998        1.7500000000000004        0.0000000000000000     
   1.8750000000000007        1.7500000000000002        0.0000000000000000     
   2.1875000000000000        1.7500000000000004        0.0000000000000000     
   2.5000000000000009        1.7500000000000007        0.0000000000000000     
   1.2500000000000000        1.8749999999999998        0.0000000000000000     
   1.5624999999999998        1.8749999999999996        0.0000000000000000     
   1.8750000000000004        1.8750000000000007        0.0000000000000000     
   2.1875000000000009        1.8749999999999998        0.0000000000000000     
   2.5000000000000004        1.8749999999999998        0.0000000000000000     
   1.2500000000000002        2.0000000000000004        0.0000000000000000     
   1.5624999999999998        2.0000000000000000        0.0000000000000000     
   1.8750000000000004        2.0000000000000004        0.0000000000000000     
   2.1875000000000004        2.0000000000000004        0.0000000000000000     
   2.5000000000000004        2.0000000000000004        0.0000000000000000     
   2.5000000000000000        1.5000000000000000        0.0000000000000000     
   2.8125000000000004        1.5000000000000000        0.0000000000000000     
   3.1250000000000000        1.5000000000000004        0.0000000000000000     
   3.4375000000000000        1.4999999999999996        0.0000000000000000     
   3.7500000000000004        1.5000000000000002        0.0000000000000000     
   2.5000000000000000        1.6250000000000000        0.0000000000000000     
   2.8125000000000000        1.6250000000000000        0.0000000000000000     
   3.1250000000000000        1.6250000000000000        0.0000000000000000     
   3.4375000000000000        1.6250000000000000        0.0000000000000000     
   3.7500000000000000        1.6250000000000000        0.0000000000000000     
   2.5000000000000009        1.7500000000000007        0.0000000000000000     
   2.8125000000000004        1.7499999999999998        0.0000000000000000     
   3.1250000000000004        1.7500000000000002        0.0000000000000000     
   3.4375000000000004        1.7500000000000004        0.0000000000000000     
   3.7500000000000004        1.7500000000000002        0.0000000000000000     
   2.5000000000000004        1.8749999999999998        0.0000000000000000     
   2.8125000000000004        1.8750000000000002        0.0000000000000000     
   3.1250000000000000        1.8750000000000000        0.0000000000000000     
   3.4375000000000004        1.8749999999999996        0.0000000000000000     
   3.7500000000000004        1.8750000000000002        0.0000000000000000     
   2.5000000000000004        2.0000000000000004        0.0000000000000000     
   2.8125000000000000        2.0000000000000000        0.0000000000000000     
   3.1249999999999996        2.0000000000000000        0.0000000000000000     
   3.4375000000000004        2.0000000000000004        0.0000000000000000     
   3.7500000000000000        2.0000000000000000        0.0000000000000000     
   3.7500000000000004        1.5000000000000002        0.0000000000000000     
   4.0625000000000009        1.5000000000000000        0.0000000000000000     
   4.3750000000000000        1.4999999999999996        0.0000000000000000     
   4.6875000000000009        1.5000000000000002        0.0000000000000000     
   5.0000000000000000        1.5000000000000002        0.0000000000000000     
   3.7500000000000000        1.6250000000000000        0.0000000000000000     
   4.0625000000000009        1.6250000000000004        0.0000000000000000     
   4.3750000000000000        1.6250000000000000        0.0000000000000000     
   4.6875000000000000        1.6250000000000000        0.0000000000000000     
   5.0000000000000000        1.6250000000000000        0.0000000000000000     
   3.7500000000000004        1.7500000000000002        0.0000000000000000     
   4.0625000000000000        1.7499999999999998        0.0000000000000000     
   4.3750000000000000        1.7500000000000002        0.0000000000000000     
   4.6875000000000000        1.7499999999999998        0.0000000000000000     
   5.0000000000000000        1.7499999999999998        0.0000000000000000     
   3.7500000000000004        1.8750000000000002        0.0000000000000000     
   4.0624999999999991        1.8750000000000000        0.0000000000000000     
   4.3750000000000000        1.8750000000000000        0.0000000000000000     
   4.6875000000000000        1.8750000000000000        0.0000000000000000     
   5.0000000000000000        1.8750000000000000        0.0000000000000000     
   3.7500000000000000        2.0000000000000000        0.0000000000000000     
   4.0625000000000000        2.0000000000000000        0.0000000000000000     
   4.3750000000000000        2.0000000000000000        0.0000000000000000     
   4.6875000000000009        2.0000000000000000        0.0000000000000000     
   5.0000000000000000        2.0000000000000000        0.0000000000000000     
 </DataArray>
 </Points>
 <Cells>
 <DataArray  type="Int32"  Name="connectivity"  format="ascii">
           0           1           6           5
           1           2           7           6
           2           3           8           7
           3           4           9           8
           5           6          11          10
           6           7          12          11
           7           8          13          12
           8           9          14          13
          10          11          16          15
          11          12          17          16
          12          13          18          17
          13          14          19          18
          15          16          21          20
          16          17          22          21
          17          18          23          22
          18          19          24          23
          25          26          31          30
          26          27          32          31
          27          28          33          32
          28          29          34          33
          30          31          36          35
          31          32          37          36
          32          33          38          37
          33          34          39          38
          35          36          41          40
          36          37          42          41
          37          38          43          42
          38          39          44          43
          40          41          46          45
          41          42          47          46
          42          43          48          47
          43          44          49          48
          50          51          56          55
          51          52          57          56
          52          53          58          57
          53          54          59          58
          55          56          61          60
          56          57          62          61
          57          58          63          62
          58          59          64          63
          60          61          66          65
          61          62          67          66
          62          63          68          67
          63          64          69          68
          65          66          71          70
          66          67          72          71
          67          68          73          72
          68          69          74          73
          75          76          81          80
          76          77          82          81
          77          78          83          82
          78          79          84          83
          80          81          86          85
          81          82          87          86
          82          83          88          87
          83          84          89          88
          85          86          91          90
          86          87          92          91
          87          88          93          92
          88          89          94          93
          90          91          96          95
          91          92          97          96
          92          93          98          97
          93          94          99          98
         100         101         106         105
         101         102         107         106
         102         103         108         107
         103         104         109         108
         105         106         111         110
         106         107         112         111
         107         108         113         112
         108         109         114         113
         110         111         116         115
         111         112         117         116
         112         113         118         117
         113         114         119         118
         115         116         121         120
         116         117         122         121
         117         118         123         122
         118         119         124         123
         125         126         131         130
         126         127         132         131
         127         128         133         132
         128         129         134         133
         130         131         136         135
         131         132         137         136
         132         133         138         137
         133         134         139         138
         135         136         141         140
         136         137         142         141
         137         138         143         142
         138         139         144         143
         140         141         146         145
         141         142         147         146
         142         143         148         147
         143         144         149         148
         150         151         156         155
         151         152         157         156
         152         153         158         157
         153         154         159         158
         155         156         161         160
         156         157         162         161
         157         158         163         162
         158         159         164         163
         160         161         166         165
         161         162         167         166
         162         163         168         167
         163         164         169         168
         165         166         171         170
         166         167         172         171
         167         168         173         172
         168         169         174         173
         175         176         181         180
         176         177         182         181
         177         178         183         182
         178         179         184         183
         180         181         186         185
         181         182         187         186
         182         183         188         187
         183         184         189         188
         185         186         191         190
         186         187         192         191
         187         188         193         192
         188         189         194         193
         190         191         196         195
         191         192         197         196
         192         193         198         197
         193         194         199         198
         200         201         206         205
         201         202         207         206
         202         203         208         207
         203         204         209         208
         205         206         211         210
         206         207         212         211
         207         208         213         212
         208         209         214         213
         210         211         216         215
         211         212         217         216
         212         213         218         217
         213         214         219         218
         215         216         221         220
         216         217         222         221
         217         218         223         222
         218         219         224         223
         225         226         231         230
         226         227         232         231
         227         228         233         232
         228         229         234         233
         230         231         236         235
         231         232         237         236
         232         233         238         237
         233         234         239         238
         235         236         241         240
         236         237         242         241
         237         238         243         242
         238         239         244         243
         240         241         246         245
         241         242         247         246
         242         243         248         247
         243         244         249         248
         250         251         256         255
         251         252         257         256
         252         253         258         257
         253         254         259         258
         255         256         261         260
         256         257         262         261
         257         258         263         262
         258         259         264         263
         260         261         266         265
         261         262         267         266
         262         263         268         267
         263         264         269         268
         265         266         271         270
         266         267         272         271
         267         268         273         272
         268         269         274         273
         275         276         281         280
         276         277         282         281
         277         278         283         282
         278         279         284         283
         280         281         286         285
         281         282         287         286
         282         283         288         287
         283         284         289         288
         285         286         291         290
         286         287         292         291
         287         288         293         292
         288         289         294         293
         290         291         296         295
         291         292         297         296
         292         293         298         297
         293         294         299         298
         300         301         306         305
         301         302         307         306
         302         303         308         307
         303         304         309         308
         305         306         311         310
         306         307         312         311
         307         308         313         312
         308         309         314         313
         310         311         316         315
         311         312         317         316
         312         313         318         317
         313         314         319         318
         315         316         321         320
         316         317         322         321
         317         318         323         322
         318         319         324         323
         325         326         331         330
         326         327         332         331
         327         328         333         332
         328         329         334         333
         330         331         336         335
         331         332         337         336
         332         333         338         337
         333         334         339         338
         335         336         341         340
         336         337         342         341
         337         338         343         342
         338         339         344         343
         340         341         346         345
         341         342         347         346
         342         343         348         347
         343         344         349         348
         350         351         356         355
         351         352         357         356
         352         353         358         357
         353         354         359         358
         355         356         361         360
         356         357         362         361
         357         358         363         362
         358         359         364         363
         360         361         366         365
         361         362         367         366
         362         363         368         367
         363         364         369         368
         365         366         371         370
         366         367         372         371
         367         368         373         372
         368         369         374         373
         375         376         381         380
         376         377         382         381
         377         378         383         382
         378         379         384         383
         380         381         386         385
         381         382         387         386
         382         383         388         387
         383         384         389         388
         385         386         391         390
         386         387         392         391
         387         388         393         392
         388         389         394         393
         390         391         396         395
         391         392         397         396
         392         393         398         397
         393         394         399         398
         400         401         406         405
         401         402         407         406
         402         403         408         407
         403         404         409         408
         405         406         411         410
         406         407         412         411
         407         408         413         412
         408         409         414         413
         410         411         416         415
         411         412         417         416
         412         413         418         417
         413         414         419         418
         415         416         421         420
         416         417         422         421
         417         418         423         422
         418         419         424         423
         425         426         431         430
         426         427         432         431
         427         428         433         432
         428         429         434         433
         430         431         436         435
         431         432         437         436
         432         433         438         437
         433         434         439         438
         435         436         441         440
         436         437         442         441
         437         438         443         442
         438         439         444         443
         440         441         446         445
         441         442         447         446
         442         443         448         447
         443         444         449         448
         450         451         456         455
         451         452         457         456
         452         453         458         457
         453         454         459         458
         455         456         461         460
         456         457         462         461
         457         458         463         462
         458         459         464         463
         460         461         466         465
         461         462         467         466
         462         463         468         467
         463         464         469         468
         465         466         471         470
         466         467         472         471
         467         468         473         472
         468         469         474         473
         475         476         481         480
         476         477         482         481
         477         478         483         482
         478         479         484         483
         480         481         486         485
         481         482         487         486
         482         483         488         487
         483         484         489         488
         485         486         491         490
         486         487         492         491
         487         488         493         492
         488         489         494         493
         490         491         496         495
         491         492         497         496
         492         493         498         497
         493         494         499         498
         500         501         506         505
         501         502         507         506
         502         503         508         507
         503         504         509         508
         505         506         511         510
         506         507         512         511
         507         508         513         512
         508         509         514         513
         510         511         516         515
         511         512         517         516
         512         513         518         517
         513         514         519         518
         515         516         521         520
         516         517         522         521
         517         518         523         522
         518         519         524         523
         525         526         531         530
         526         527         532         531
         527         528         533         532
         528         529         534         533
         530         531         536         535
         531         532         537         536
         532         533         538         537
         533         534         539         538
         535         536         541         540
         536         537         542         541
         537         538         543         542
         538         539         544         543
         540         541         546         545
         541         542         547         546
         542         543         548         547
         543         544         549         548
         550         551         556         555
         551         552         557         556
         552         553         558         557
         553         554         559         558
         555         556         561         560
         556         557         562         561
         557         558         563         562
         558         559         564         563
         560         561         566         565
         561         562         567         566
         562         563         568         567
         563         564         569         568
         565         566         571         570
         566         567         572         571
         567         568         573         572
         568         569         574         573
         575         576         581         580
         576         577         582         581
         577         578         583         582
         578         579         584         583
         580         581         586         585
         581         582         587         586
         582         583         588         587
         583         584         589         588
         585         586         591         590
         586         587         592         591
         587         588         593         592
         588         589         594         593
         590         591         596         595
         591         592         597         596
         592         593         598         597
         593         594         599         598
         600         601         606         605
         601         602         607         606
         602         603         608         607
         603         604         609         608
         605         606         611         610
         606         607         612         611
         607         608         613         612
         608         609         614         613
         610         611         616         615
         611         612         617         616
         612         613         618         617
         613         614         619         618
         615         616         621         620
         616         617         622         621
         617         618         623         622
         618         619         624         623
         625         626         631         630
         626         627         632         631
         627         628         633         632
         628         629         634         633
         630         631         636         635
         631         632         637         636
         632         633         638         637
         633         634         639         638
         635         636         641         640
         636         637         642         641
         637         638         643         642
         638         639         644         643
         640         641         646         645
         641         642         647         646
         642         643         648         647
         643         644         649         648
         650         651         656         655
         651         652         657         656
         652         653         658         657
         653         654         659         658
         655         656         661         660
         656         657         662         661
         657         658         663         662
         658         659         664         663
         660         661         666         665
         661         662         667         666
         662         663         668         667
         663         664         669         668
         665         666         671         670
         666         667         672         671
         667         668         673         672
         668         669         674         673
         675         676         681         680
         676         677         682         681
         677         678         683         682
         678         679         684         683
         680         681         686         685
         681         682         687         686
         682         683         688         687
         683         684         689         688
         685         686         691         690
         686         687         692         691
         687         688         693         692
         688         689         694         693
         690         691         696         695
         691         692         697         696
         692         693         698         697
         693         694         699         698
         700         701         706         705
         701         702         707         706
         702         703         708         707
         703         704         709         708
         705         706         711         710
         706         707         712         711
         707         708         713         712
         708         709         714         713
         710         711         716         715
         711         712         717         716
         712         713         718         717
         713         714         719         718
         715         716         721         720
         716         717         722         721
         717         718         723         722
         718         719         724         723
         725         726         731         730
         726         727         732         731
         727         728         733         732
         728         729         734         733
         730         731         736         735
         731         732         737         736
         732         733         738         737
         733         734         739         738
         735         736         741         740
         736         737         742         741
         737         738         743         742
         738         739         744         743
         740         741         746         745
         741         742         747         746
         742         743         748         747
         743         744         749         748
         750         751         756         755
         751         752         757         756
         752         753         758         757
         753         754         759         758
         755         756         761         760
         756         757         762         761
         757         758         763         762
         758         759         764         763
         760         761         766         765
         761         762         767         766
         762         763         768         767
         763         764         769         768
         765         766         771         770
         766         767         772         771
         767         768         773         772
         768         769         774         773
         775         776         781         780
         776         777         782         781
         777         778         783         782
         778         779         784         783
         780         781         786         785
         781         782         787         786
         782         783         788         787
         783         784         789         788
         785         786         791         790
         786         787         792         791
         787         788         793         792
         788         789         794         793
         790         791         796         795
         791         792         797         796
         792         793         798         797
         793         794         799         798
 </DataArray>
 <DataArray  type="Int32"  Name="offsets"  format="ascii"> 
           4
           8
          12
          16
          20
          24
          28
          32
          36
          40
          44
          48
          52
          56
          60
          64
          68
          72
          76
          80
          84
          88
          92
          96
         100
         104
         108
         112
         116
         120
         124
         128
         132
         136
         140
         144
         148
         152
         156
         160
         164
         168
         172
         176
         180
         184
         188
         192
         196
         200
         204
         208
         212
         216
         220
         224
         228
         232
         236
         240
         244
         248
         252
         256
         260
         264
         268
         272
         276
         280
         284
         288
         292
         296
         300
         304
         308
         312
         316
         320
         324
         328
         332
         336
         340
         344
         348
         352
         356
         360
         364
         368
         372
         376
         380
         384
         388
         392
         396
         400
         404
         408
         412
         416
         420
         424
         428
         432
         436
         440
         444
         448
         452
         456
         460
         464
         468
         472
         476
         480
         484
         488
         492
         496
         500
         504
         508
         512
         516
         520
         524
         528
         532
         536
         540
         544
         548
         552
         556
         560
         564
         568
         572
         576
         580
         584
         588
         592
         596
         600
         604
         608
         612
         616
         620
         624
         628
         632
         636
         640
         644
         648
         652
         656
         660
         664
         668
         672
         676
         680
         684
         688
         692
         696
         700
         704
         708
         712
         716
         720
         724
         728
         732
         736
         740
         744
         748
         752
         756
         760
         764
         768
         772
         776
         780
         784
         788
         792
         796
         800
         804
         808
         812
         816
         820
         824
         828
         832
         836
         840
         844
         848
         852
         856
         860
         864
         868
         872
         876
         880
         884
         888
         892
         896
         900
         904
         908
         912
         916
         920
         924
         928
         932
         936
         940
         944
         948
         952
         956
         960
         964
         968
         972
         976
         980
         984
         988
         992
         996
        1000
        1004
        1008
        1012
        1016
        1020
        1024
        1028
        1032
        1036
        1040
        1044
        1048
        1052
        1056
        1060
        1064
        1068
        1072
        1076
        1080
        1084
        1088
        1092
        1096
        1100
        1104
        1108
        1112
        1116
        1120
        1124
        1128
        1132
        1136
        1140
        1144
        1148
        1152
        1156
        1160
        1164
        1168
        1172
        1176
        1180
        1184
        1188
        1192
        1196
        1200
        1204
        1208
        1212
        1216
        1220
        1224
        1228
        1232
        1236
        1240
        1244
        1248
        1252
        1256
        1260
        1264
        1268
        1272
        1276
        1280
        1284
        1288
        1292
        1296
        1300
        1304
        1308
        1312
        1316
        1320
        1324
        1328
        1332
        1336
        1340
        1344
        1348
        1352
        1356
        1360
        1364
        1368
        1372
        1376
        1380
        1384
        1388
        1392
        1396
        1400
        1404
        1408
        1412
        1416
        1420
        1424
        1428
        1432
        1436
        1440
        1444
        1448
        1452
        1456
        1460
        1464
        1468
        1472
        1476
        1480
        1484
        1488
        1492
        1496
        1500
        1504
        1508
        1512
        1516
        1520
        1524
        1528
        1532
        1536
        1540
        1544
        1548
        1552
        1556
        1560
        1564
        1568
        1572
        1576
        1580
        1584
        1588
        1592
        1596
        1600
        1604
        1608
        1612
        1616
        1620
        1624
        1628
        1632
        1636
        1640
        1644
        1648
        1652
        1656
        1660
        1664
        1668
        1672
        1676
        1680
        1684
        1688
        1692
        1696
        1700
        1704
        1708
        1712
        1716
        1720
        1724
        1728
        1732
        1736
        1740
        1744
        1748
        1752
        1756
        1760
        1764
        1768
        1772
        1776
        1780
        1784
        1788
        1792
        1796
        1800
        1804
        1808
        1812
        1816
        1820
        1824
        1828
        1832
        1836
        1840
        1844
        1848
        1852
        1856
        1860
        1864
        1868
        1872
        1876
        1880
        1884
        1888
        1892
        1896
        1900
        1904
        1908
        1912
        1916
        1920
        1924
        1928
        1932
        1936
        1940
        1944
        1948
        1952
        1956
        1960
        1964
        1968
        1972
        1976
        1980
        1984
        1988
        1992
        1996
        2000
        2004
        2008
        2012
        2016
        2020
        2024
        2028
        2032
        2036
        2040
        2044
        2048
 </DataArray>
 <DataArray  type="UInt8"  Name="types"  format="ascii">
 9
 9
 9
 9
 9
 9
 9
 9
 9
 9
 9
 9
 9
 9
 9
 9
 9
 9
 9
 9
 9
 9
 9
 9
 9
 9
 9
 9
 9
 9
 9
 9
 9
 9
 9
 9
 9
 9
 9
 9
 9
 9
 9
 9
 9
 9
 9
 9
 9
 9
 9
 9
 9
 9
 9
 9
 9
 9
 9
 9
 9
 9
 9
 9
 9
 9
 9
 9
 9
 9
 9
 9
 9
 9
 9
 9
 9
 9
 9
 9
 9
 9
 9
 9
 9
 9
 9
 9
 9
 9
 9
 9
 9
 9
 9
 9
 9
 9
 9
 9
 9
 9
 9
 9
 9
 9
 9
 9
 9
 9
 9
 9
 9
 9
 9
 9
 9
 9
 9
 9
 9
 9
 9
 9
 9
 9
 9
 9
 9
 9
 9
 9
 9
 9
 9
 9
 9
 9
 9
 9
 9
 9
 9
 9
 9
 9
 9
 9
 9
 9
 9
 9
 9
 9
 9
 9
 9
 9
 9
 9
 9
 9
 9
 9
 9
 9
 9
 9
 9
 9
 9
 9
 9
 9
 9
 9
 9
 9
 9
 9
 9
 9
 9
 9
 9
 9
 9
 9
 9
 9
 9
 9
 9
 9
 9
 9
 9
 9
 9
 9
 9
 9
 9
 9
 9
 9
 9
 9
 9
 9
 9
 9
 9
 9
 9
 9
 9
 9
 9
 9
 9
 9
 9
 9
 9
 9
 9
 9
 9
 9
 9
 9
 9
 9
 9
 9
 9
 9
 9
 9
 9
 9
 9
 9
 9
 9
 9
 9
 9
 9
 9
 9
 9
 9
 9
 9
 9
 9
 9
 9
 9
 9
 9
 9
 9
 9
 9
 9
 9
 9
 9
 9
 9
 9
 9
 9
 9
 9
 9
 9
 9
 9
 9
 9
 9
 9
 9
 9
 9
 9
 9
 9
 9
 9
 9
 9
 9
 9
 9
 9
 9
 9
 9
 9
 9
 9
 9
 9
 9
 9
 9
 9
 9
 9
 9
 9
 9
 9
 9
 9
 9
 9
 9
 9
 9
 9
 9
 9
 9
 9
 9
 9
 9
 9
 9
 9
 9
 9
 9
 9
 9
 9
 9
 9
 9
 9
 9
 9
 9
 9
 9
 9
 9
 9
 9
 9
 9
 9
 9
 9
 9
 9
 9
 9
 9
 9
 9
 9
 9
 9
 9
 9
 9
 9
 9
 9
 9
 9
 9
 9
 9
 9
 9
 9
 9
 9
 9
 9
 9
 9
 9
 9
 9
 9
 9
 9
 9
 9
 9
 9
 9
 9
 9
 9
 9
 9
 9
 9
 9
 9
 9
 9
 9
 9
 9
 9
 9
 9
 9
 9
 9
 9
 9
 9
 9
 9
 9
 9
 9
 9
 9
 9
 9
 9
 9
 9
 9
 9
 9
 9
 9
 9
 9
 9
 9
 9
 9
 9
 9
 9
 9
 9
 9
 9
 9
 9
 9
 9
 9
 9
 9
 9
 9
 9
 9
 9
 9
 9
 9
 9
 9
 9
 9
 9
 9
 9
 9
 9
 9
 9
 9
 9
 9
 9
 9
 9
 9
 9
 9
 9
 9
 9
 9
 9
 9
 9
 9
 9
 9
 9
 9
 9
 9
 9
 9
 9
 9
 9
 9
 9
 9
 9
 </DataArray>
 </Cells> 
 <PointData>
 <DataArray  type="Float64" Name="disp" NumberOfComponents="3" format="ascii">
   1.7568193742828701E-006   2.1465139686279114E-006   0.0000000000000000     
   1.8495875933840183E-006   2.3839062992084491E-006   0.0000000000000000     
   1.9404060867877126E-006   2.6327745495693213E-006   0.0000000000000000     
   2.0292735542493752E-006   2.8928746401587609E-006   0.0000000000000000     
   2.1161886955244302E-006   3.1639624914250040E-006   0.0000000000000000     
   1.6645430934388760E-006   2.1355491163986916E-006   0.0000000000000000     
   1.7526724752930712E-006   2.3731668877665863E-006   0.0000000000000000     
   1.8389494633918062E-006   2.6222624606839936E-006   0.0000000000000000     
   1.9233729374178855E-006   2.8825910237979282E-006   0.0000000000000000     
   2.0059417770541165E-006   3.1539077657554103E-006   0.0000000000000000     
   1.5729485448502429E-006   2.1251447113611048E-006   0.0000000000000000     
   1.6564395099526018E-006   2.3629778852193199E-006   0.0000000000000000     
   1.7381752474998342E-006   2.6122896952185196E-006   0.0000000000000000     
   1.8181548746307431E-006   2.8728350090383457E-006   0.0000000000000000     
   1.8963775084841305E-006   3.1443686943584420E-006   0.0000000000000000     
   1.4819996281740391E-006   2.1153011936529081E-006   0.0000000000000000     
   1.5608525984557666E-006   2.3533392625818332E-006   0.0000000000000000     
   1.6380473912569791E-006   2.6028560755104018E-006   0.0000000000000000     
   1.7135833854396721E-006   2.8636064596569264E-006   0.0000000000000000     
   1.7874599598658417E-006   3.1353452422397216E-006   0.0000000000000000     
   1.3916602430673324E-006   2.1060190034118569E-006   0.0000000000000000     
   1.4658756418957266E-006   2.3442509908693116E-006   0.0000000000000000     
   1.5385298468084229E-006   2.5939614238971417E-006   0.0000000000000000     
   1.6096224893963959E-006   2.8549052394305833E-006   0.0000000000000000     
   1.6791532012506202E-006   3.1268373744048717E-006   0.0000000000000000     
   2.1161886955244302E-006   3.1639624914250040E-006   0.0000000000000000     
   2.2011504493425159E-006   3.4457939438862585E-006   0.0000000000000000     
   2.2841587103301324E-006   3.7381245183406390E-006   0.0000000000000000     
   2.3652136120879958E-006   4.0407096556562338E-006   0.0000000000000000     
   2.4443152882168227E-006   4.3533047967011319E-006   0.0000000000000000     
   2.0059417770541165E-006   3.1539077657554103E-006   0.0000000000000000     
   2.0866550635582201E-006   3.4359679344418773E-006   0.0000000000000000     
   2.1655126844875819E-006   3.7285270146964715E-006   0.0000000000000000     
   2.2425147289745023E-006   4.0313405505967565E-006   0.0000000000000000     
   2.3176612861512824E-006   4.3441640862202965E-006   0.0000000000000000     
   1.8963775084841305E-006   3.1443686943584420E-006   0.0000000000000000     
   1.9728424182060220E-006   3.4266457386369167E-006   0.0000000000000000     
   2.0475494809713395E-006   3.7194216084457612E-006   0.0000000000000000     
   2.1204987259622301E-006   4.0224518901354310E-006   0.0000000000000000     
   2.1916901823608372E-006   4.3354921700563815E-006   0.0000000000000000     
   1.7874599598658417E-006   3.1353452422397216E-006   0.0000000000000000     
   1.8596765926849589E-006   3.4178273776059854E-006   0.0000000000000000     
   1.9302331591963857E-006   3.7108083286184559E-006   0.0000000000000000     
   1.9991296339869593E-006   4.0140436852687559E-006   0.0000000000000000     
   2.0663659916435187E-006   4.3272890375485055E-006   0.0000000000000000     
   1.6791532012506202E-006   3.1268373744048717E-006   0.0000000000000000     
   1.7471216663940677E-006   3.4095128724836899E-006   0.0000000000000000     
   1.8135277785776990E-006   3.7026872042445040E-006   0.0000000000000000     
   1.8783714839844749E-006   4.0061159469932305E-006   0.0000000000000000     
   1.9416527287973553E-006   4.3195546780357848E-006   0.0000000000000000     
   2.4443152882168227E-006   4.3533047967011319E-006   0.0000000000000000     
   2.5214638475680946E-006   4.6756654633655292E-006   0.0000000000000000     
   2.5966592999963648E-006   5.0075475016280505E-006   0.0000000000000000     
   2.6699016306069510E-006   5.3487068384894247E-006   0.0000000000000000     
   2.7411908245051733E-006   5.6988994009503855E-006   0.0000000000000000     
   2.3176612861512824E-006   4.3441640862202965E-006   0.0000000000000000     
   2.3909524242997839E-006   4.6667532241367303E-006   0.0000000000000000     
   2.4623881283001258E-006   4.9988638008840141E-006   0.0000000000000000     
   2.5319683621819891E-006   5.3402517114921789E-006   0.0000000000000000     
   2.5996930899750519E-006   5.6906728509912555E-006   0.0000000000000000     
   2.1916901823608372E-006   4.3354921700563815E-006   0.0000000000000000     
   2.2611238698481806E-006   4.6582980839893750E-006   0.0000000000000000     
   2.3287997701007650E-006   4.9906254654363986E-006   0.0000000000000000     
   2.3947178552939668E-006   5.3322301973297344E-006   0.0000000000000000     
   2.4588780976031640E-006   5.6828681626016786E-006   0.0000000000000000     
   2.0663659916435187E-006   4.3272890375485055E-006   0.0000000000000000     
   2.1319422098942072E-006   4.6503000244779530E-006   0.0000000000000000     
   2.1958582790323994E-006   4.9828324811918305E-006   0.0000000000000000     
   2.2581141924927795E-006   5.3246422918535043E-006   0.0000000000000000     
   2.3187099437100301E-006   5.6754853406263274E-006   0.0000000000000000     
   1.9416527287973553E-006   4.3195546780357848E-006   0.0000000000000000     
   2.0033714701187847E-006   4.6427590271569454E-006   0.0000000000000000     
   2.0635277087291488E-006   4.9754848340569442E-006   0.0000000000000000     
   2.1221214563283192E-006   5.3174879909148847E-006   0.0000000000000000     
   2.1791527246161689E-006   5.6685243899098619E-006   0.0000000000000000     
   2.7411908245051733E-006   5.6988994009503855E-006   0.0000000000000000     
   2.8105268713735756E-006   6.0578811064653598E-006   0.0000000000000000     
   2.8779097792036132E-006   6.4254078343035645E-006   0.0000000000000000     
   2.9433395605639624E-006   6.8012354541879069E-006   0.0000000000000000     
   3.0068162280233037E-006   7.1851198358412995E-006   0.0000000000000000     
   2.5996930899750519E-006   5.6906728509912555E-006   0.0000000000000000     
   2.6655622884762993E-006   6.0498831104462960E-006   0.0000000000000000     
   2.7295759855519255E-006   6.4176383650624419E-006   0.0000000000000000     
   2.7917342218354276E-006   6.7936944860798587E-006   0.0000000000000000     
   2.8520370379603015E-006   7.1778073447387064E-006   0.0000000000000000     
   2.4588780976031640E-006   5.6828681626016786E-006   0.0000000000000000     
   2.5212804796542854E-006   6.0422952416264746E-006   0.0000000000000000     
   2.5819250258754715E-006   6.4102673045462086E-006   0.0000000000000000     
   2.6408117711454112E-006   6.7865402189449179E-006   0.0000000000000000     
   2.6979407503427983E-006   7.1708698524066492E-006   0.0000000000000000     
   2.3187099437100301E-006   5.6754853406263274E-006   0.0000000000000000     
   2.3776455291531459E-006   6.0351175078790069E-006   0.0000000000000000     
   2.4349209574283741E-006   6.4032946588016151E-006   0.0000000000000000     
   2.4905362401762780E-006   6.7797726547895821E-006   0.0000000000000000     
   2.5444913890374159E-006   7.1643073572383217E-006   0.0000000000000000     
   2.1791527246161689E-006   5.6685243899098619E-006   0.0000000000000000     
   2.2346215212184898E-006   6.0283499170769903E-006   0.0000000000000000     
   2.2885278374647617E-006   6.3967204338754238E-006   0.0000000000000000     
   2.3408716606103897E-006   6.7733917956203367E-006   0.0000000000000000     
   2.3916529779107750E-006   7.1581198576269023E-006   0.0000000000000000     
   3.0068162280233037E-006   7.1851198358412995E-006   0.0000000000000000     
   3.0683397845995573E-006   7.5768168301666075E-006   0.0000000000000000     
   3.1279101951076142E-006   7.9760822127865235E-006   0.0000000000000000     
   3.1855274148116032E-006   8.3826717405036930E-006   0.0000000000000000     
   3.2411913989756552E-006   8.7963411701207598E-006   0.0000000000000000     
   2.8520370379603015E-006   7.1778073447387064E-006   0.0000000000000000     
   2.9104844544775301E-006   7.5697327979957287E-006   0.0000000000000000     
   2.9670764116080363E-006   7.9692266456740026E-006   0.0000000000000000     
   3.0218128294902265E-006   8.3760446733131825E-006   0.0000000000000000     
   3.0746936282625079E-006   8.7899426664529211E-006   0.0000000000000000     
   2.6979407503427983E-006   7.1708698524066492E-006   0.0000000000000000     
   2.7533119806203566E-006   7.5630120627762635E-006   0.0000000000000000     
   2.8069254082269494E-006   7.9627226689418876E-006   0.0000000000000000     
   2.8587809616854694E-006   8.3697574800524650E-006   0.0000000000000000     
   2.9088785695188143E-006   8.7838723052569480E-006   0.0000000000000000     
   2.5444913890374159E-006   7.1643073572383217E-006   0.0000000000000000     
   2.5967864071333744E-006   7.5566546217051359E-006   0.0000000000000000     
   2.6474212635098448E-006   7.9565702803948266E-006   0.0000000000000000     
   2.6963959186935454E-006   8.3638101596740980E-006   0.0000000000000000     
   2.7437103332111926E-006   8.7781300859096241E-006   0.0000000000000000     
   2.3916529779107750E-006   7.1581198576269023E-006   0.0000000000000000     
   2.4408717781219186E-006   7.5506604719792673E-006   0.0000000000000000     
   2.4885280560022155E-006   7.9507694778374931E-006   0.0000000000000000     
   2.5346218078106637E-006   8.3582027111306286E-006   0.0000000000000000     
   2.5791530298062559E-006   8.7727160077877144E-006   0.0000000000000000     
   3.2411913989756552E-006   8.7963411701207598E-006   0.0000000000000000     
   3.2949021259780842E-006   9.2168463080067401E-006   0.0000000000000000     
   3.3466596666539447E-006   9.6439431587961281E-006   0.0000000000000000     
   3.3964641149524700E-006   1.0077387776689777E-005   0.0000000000000000     
   3.4443155648228967E-006   1.0516936215888552E-005   0.0000000000000000     
   3.0746936282625079E-006   8.7899426664529211E-006   0.0000000000000000     
   3.1257187647137831E-006   9.2106764419742388E-006   0.0000000000000000     
   3.1748883422349404E-006   9.6380019421236333E-006   0.0000000000000000     
   3.2222025008673626E-006   1.0071675140488968E-005   0.0000000000000000     
   3.2676613806524319E-006   1.0511452010658103E-005   0.0000000000000000     
   2.9088785695188143E-006   8.7838723052569480E-006   0.0000000000000000     
   2.9572181926887527E-006   9.2048229706323563E-006   0.0000000000000000     
   3.0037999219125535E-006   9.6323653699680320E-006   0.0000000000000000     
   3.0486238803463570E-006   1.0066255413981363E-005   0.0000000000000000     
   3.0916901911463093E-006   1.0506249013389775E-005   0.0000000000000000     
   2.7437103332111926E-006   8.7781300859096241E-006   0.0000000000000000     
   2.7893644861145634E-006   9.1992858922881024E-006   0.0000000000000000     
   2.8333584305556871E-006   9.6270334392762617E-006   0.0000000000000000     
   2.8756922382116505E-006   1.0061128594160845E-005   0.0000000000000000     
   2.9163659807595412E-006   1.0501327224228579E-005   0.0000000000000000     
   2.5791530298062559E-006   8.7727160077877144E-006   0.0000000000000000     
   2.6221217212027871E-006   9.1940652052484649E-006   0.0000000000000000     
   2.6635278930332489E-006   9.6220061469952904E-006   0.0000000000000000     
   2.7033715592854345E-006   1.0056294678021276E-005   0.0000000000000000     
   2.7416527339471369E-006   1.0496686643319506E-005   0.0000000000000000     
   3.4443155648228967E-006   1.0516936215888552E-005   0.0000000000000000     
   3.4902140426010939E-006   1.0962344397568240E-005   0.0000000000000000     
   3.5341593041694669E-006   1.1413367710804357E-005   0.0000000000000000     
   3.5761510377970524E-006   1.1869761411647353E-005   0.0000000000000000     
   3.6161889317528856E-006   1.2331280756147664E-005   0.0000000000000000     
   3.2676613806524319E-006   1.0511452010658103E-005   0.0000000000000000     
   3.3112650423334201E-006   1.0957088445367065E-005   0.0000000000000000     
   3.3530132294611560E-006   1.1408340013944578E-005   0.0000000000000000     
   3.3929056062883588E-006   1.1864962204867515E-005   0.0000000000000000     
   3.4309418370677458E-006   1.2326710506612761E-005   0.0000000000000000     
   3.0916901911463093E-006   1.0506249013389775E-005   0.0000000000000000     
   3.1329989144834783E-006   1.0952102038763093E-005   0.0000000000000000     
   3.1725498585886455E-006   1.1403570200080824E-005   0.0000000000000000     
   3.2103427687075153E-006   1.1860409167174897E-005   0.0000000000000000     
   3.2463773900857975E-006   1.2322374609877256E-005   0.0000000000000000     
   2.9163659807595412E-006   1.0501327224228579E-005   0.0000000000000000     
   2.9553796980588438E-006   1.0947385184620758E-005   0.0000000000000000     
   2.9927333026986290E-006   1.1399058281896872E-005   0.0000000000000000     
   3.0284266754503636E-006   1.1856102310470981E-005   0.0000000000000000     
   3.0624596970855123E-006   1.2318273064757124E-005   0.0000000000000000     
   2.7416527339471369E-006   1.0496686643319506E-005   0.0000000000000000     
   2.7783714320670902E-006   1.0942937889804499E-005   0.0000000000000000     
   2.8135276729378076E-006   1.1394804272076506E-005   0.0000000000000000     
   2.8471214769127456E-006   1.1852041646657219E-005   0.0000000000000000     
   2.8791528643453595E-006   1.2314405870068337E-005   0.0000000000000000     
   3.6161889317528856E-006   1.2331280756147664E-005   0.0000000000000000     
   3.6542729872247240E-006   1.2797681372314237E-005   0.0000000000000000     
   3.6904044570751986E-006   1.3268720375989980E-005   0.0000000000000000     
   3.7245849070856578E-006   1.3744155254976295E-005   0.0000000000000000     
   3.7568159030374519E-006   1.4223743497074588E-005   0.0000000000000000     
   3.4309418370677458E-006   1.2326710506612761E-005   0.0000000000000000     
   3.4671218732530243E-006   1.2793340496461963E-005   0.0000000000000000     
   3.5014468151018694E-006   1.3264608106915836E-005   0.0000000000000000     
   3.5339180500729467E-006   1.3740269359279863E-005   0.0000000000000000     
   3.5645369656249202E-006   1.4220080274859516E-005   0.0000000000000000     
   3.2463773900857975E-006   1.2322374609877256E-005   0.0000000000000000     
   3.2806536722114324E-006   1.2789222069847678E-005   0.0000000000000000     
   3.3131723815412951E-006   1.3260706576057392E-005   0.0000000000000000     
   3.3439344887744901E-006   1.3736583029305468E-005   0.0000000000000000     
   3.3729409646101300E-006   1.4216606330390998E-005   0.0000000000000000     
   3.0624596970855123E-006   1.2318273064757124E-005   0.0000000000000000     
   3.0948323400547433E-006   1.2785326073360497E-005   0.0000000000000000     
   3.1255449435255264E-006   1.3257015801650895E-005   0.0000000000000000     
   3.1545979383445308E-006   1.3733096449189249E-005   0.0000000000000000     
   3.1819917553584271E-006   1.4213322215536499E-005   0.0000000000000000     
   2.8791528643453595E-006   1.2314405870068337E-005   0.0000000000000000     
   2.9096218327377526E-006   1.2781652487889548E-005   0.0000000000000000     
   2.9385282881866209E-006   1.3253535801932627E-005   0.0000000000000000     
   2.9658721139373082E-006   1.3729809803067346E-005   0.0000000000000000     
   2.9916531932351558E-006   1.4210228482163481E-005   0.0000000000000000     
   1.3916602430673324E-006   2.1060190034118569E-006   0.0000000000000000     
   1.4658756418957266E-006   2.3442509908693116E-006   0.0000000000000000     
   1.5385298468084229E-006   2.5939614238971417E-006   0.0000000000000000     
   1.6096224893963959E-006   2.8549052394305833E-006   0.0000000000000000     
   1.6791532012506202E-006   3.1268373744048717E-006   0.0000000000000000     
   1.3018943794220708E-006   2.0972985102105022E-006   0.0000000000000000     
   1.3714726182595520E-006   2.3357130398280957E-006   0.0000000000000000     
   1.4395866169080141E-006   2.5856055846611289E-006   0.0000000000000000     
   1.5062362275715610E-006   2.8467312297272713E-006   0.0000000000000000     
   1.5714213024542960E-006   3.1188450600441898E-006   0.0000000000000000     
   1.2126663880697255E-006   2.0891398013605729E-006   0.0000000000000000     
   1.2776078131099687E-006   2.3277253741291608E-006   0.0000000000000000     
   1.3411819067442660E-006   2.5777884898643079E-006   0.0000000000000000     
   1.4033887271114990E-006   2.8390843822791142E-006   0.0000000000000000     
   1.4642283323505488E-006   3.1113682850866769E-006   0.0000000000000000     
   1.1239407100766474E-006   2.0815428936085919E-006   0.0000000000000000     
   1.1842455889036135E-006   2.3202879571746399E-006   0.0000000000000000     
   1.2432799721143590E-006   2.5705100935135106E-006   0.0000000000000000     
   1.3010441366814663E-006   2.8319646664092758E-006   0.0000000000000000     
   1.3575383595775183E-006   3.1044070396460110E-006   0.0000000000000000     
   1.0356817865091878E-006   2.0745078037010831E-006   0.0000000000000000     
   1.0913503080971252E-006   2.3134007523666682E-006   0.0000000000000000     
   1.1458450688154735E-006   2.5637703496155687E-006   0.0000000000000000     
   1.1991666049467180E-006   2.8253720514409239E-006   0.0000000000000000     
   1.2513154527733469E-006   3.0979613138358699E-006   0.0000000000000000     
   1.6791532012506202E-006   3.1268373744048717E-006   0.0000000000000000     
   1.7471216663940677E-006   3.4095128724836899E-006   0.0000000000000000     
   1.8135277785776990E-006   3.7026872042445040E-006   0.0000000000000000     
   1.8783714839844749E-006   4.0061159469932305E-006   0.0000000000000000     
   1.9416527287973553E-006   4.3195546780357848E-006   0.0000000000000000     
   1.5714213024542960E-006   3.1188450600441898E-006   0.0000000000000000     
   1.6351417114291933E-006   3.4017022410610554E-006   0.0000000000000000     
   1.6973973950447020E-006   3.6950582599530542E-006   0.0000000000000000     
   1.7581883115181413E-006   3.9986686843268766E-006   0.0000000000000000     
   1.8175144190668308E-006   4.3122890817892084E-006   0.0000000000000000     
   1.4642283323505488E-006   3.1113682850866769E-006   0.0000000000000000     
   1.5237007706734151E-006   3.3943954877547969E-006   0.0000000000000000     
   1.5818060505845834E-006   3.6879215027700675E-006   0.0000000000000000     
   1.6385441706616583E-006   3.9917018983737890E-006   0.0000000000000000     
   1.6939151294822444E-006   4.3054922428072530E-006   0.0000000000000000     
   1.3575383595775183E-006   3.1044070396460110E-006   0.0000000000000000     
   1.4127628797066211E-006   3.3875926136380438E-006   0.0000000000000000     
   1.4667177836989759E-006   3.6812769353207050E-006   0.0000000000000000     
   1.5194031201163100E-006   3.9852155882595866E-006   0.0000000000000000     
   1.5708189375203502E-006   4.2991641560202782E-006   0.0000000000000000     
   1.2513154527733469E-006   3.0979613138358699E-006   0.0000000000000000     
   1.3022920741086964E-006   3.3812936197839230E-006   0.0000000000000000     
   1.3520966328895097E-006   3.6751245602301235E-006   0.0000000000000000     
   1.4007292185833805E-006   3.9792097531098882E-006   0.0000000000000000     
   1.4481899206579015E-006   4.2933048163586318E-006   0.0000000000000000     
   1.9416527287973553E-006   4.3195546780357848E-006   0.0000000000000000     
   2.0033714701187847E-006   4.6427590271569454E-006   0.0000000000000000     
   2.0635277087291488E-006   4.9754848340569442E-006   0.0000000000000000     
   2.1221214563283192E-006   5.3174879909148847E-006   0.0000000000000000     
   2.1791527246161689E-006   5.6685243899098619E-006   0.0000000000000000     
   1.8175144190668308E-006   4.3122890817892084E-006   0.0000000000000000     
   1.8753756853513870E-006   4.6356750755704037E-006   0.0000000000000000     
   1.9317721158056182E-006   4.9685825113954839E-006   0.0000000000000000     
   1.9867037253066308E-006   5.3107672906131313E-006   0.0000000000000000     
   2.0401705287315305E-006   5.6619853145720344E-006   0.0000000000000000     
   1.6939151294822444E-006   4.3054922428072530E-006   0.0000000000000000     
   1.7479189270156957E-006   4.6290481612206400E-006   0.0000000000000000     
   1.8005555687983672E-006   4.9621255063996559E-006   0.0000000000000000     
   1.8518250617583617E-006   5.3044801880388876E-006   0.0000000000000000     
   1.9017274128237839E-006   5.6558681158329264E-006   0.0000000000000000     
   1.5708189375203502E-006   4.2991641560202782E-006   0.0000000000000000     
   1.6209652756839458E-006   4.6228782775995343E-006   0.0000000000000000     
   1.6698421392244434E-006   4.9561138137187861E-006   0.0000000000000000     
   1.7174495239703144E-006   5.2986266805306422E-006   0.0000000000000000     
   1.7637874257500282E-006   5.6501727941876982E-006   0.0000000000000000     
   1.4481899206579015E-006   4.2933048163586318E-006   0.0000000000000000     
   1.4944788119283688E-006   4.6171654181989572E-006   0.0000000000000000     
   1.5395958986008924E-006   4.9505474280021997E-006   0.0000000000000000     
   1.5835411702292859E-006   5.2932067654268803E-006   0.0000000000000000     
   1.6263146163673608E-006   5.6448993501315158E-006   0.0000000000000000     
   2.1791527246161689E-006   5.6685243899098619E-006   0.0000000000000000     
   2.2346215212184898E-006   6.0283499170769903E-006   0.0000000000000000     
   2.2885278374647617E-006   6.3967204338754238E-006   0.0000000000000000     
   2.3408716606103897E-006   6.7733917956203367E-006   0.0000000000000000     
   2.3916529779107750E-006   7.1581198576269023E-006   0.0000000000000000     
   2.0401705287315305E-006   5.6619853145720344E-006   0.0000000000000000     
   2.0921725342298481E-006   6.0219924763025080E-006   0.0000000000000000     
   2.1427097230408135E-006   6.3905446355613942E-006   0.0000000000000000     
   2.1917820696760797E-006   6.7673976437871729E-006   0.0000000000000000     
   2.2393895486473025E-006   7.1523073524183179E-006   0.0000000000000000     
   1.9017274128237839E-006   5.6558681158329264E-006   0.0000000000000000     
   1.9502626231024370E-006   6.0160451894735482E-006   0.0000000000000000     
   1.9974306704209273E-006   6.3847672686413349E-006   0.0000000000000000     
   2.0432315267855621E-006   6.7617902030140433E-006   0.0000000000000000     
   2.0876651642026465E-006   7.1468698422694461E-006   0.0000000000000000     
   1.7637874257500282E-006   5.6501727941876982E-006   0.0000000000000000     
   1.8088558368853932E-006   6.0105080597170879E-006   0.0000000000000000     
   1.8526547356715608E-006   6.3793883376440633E-006   0.0000000000000000     
   1.8951840968970206E-006   6.7565694773684102E-006   0.0000000000000000     
   1.9364438953502628E-006   7.1418073282899083E-006   0.0000000000000000     
   1.6263146163673608E-006   5.6448993501315158E-006   0.0000000000000000     
   1.6679162246278502E-006   6.0053810901600841E-006   0.0000000000000000     
   1.7083459748591658E-006   6.3744078470983961E-006   0.0000000000000000     
   1.7476038449686397E-006   6.7517354709177172E-006   0.0000000000000000     
   1.7856898128636035E-006   7.1371198115893204E-006   0.0000000000000000     
   2.3916529779107750E-006   7.1581198576269023E-006   0.0000000000000000     
   2.4408717781219186E-006   7.5506604719792673E-006   0.0000000000000000     
   2.4885280560022155E-006   7.9507694778374931E-006   0.0000000000000000     
   2.5346218078106637E-006   8.3582027111306286E-006   0.0000000000000000     
   2.5791530298062559E-006   8.7727160077877144E-006   0.0000000000000000     
   2.2393895486473025E-006   7.1523073524183179E-006   0.0000000000000000     
   2.2855321420012776E-006   7.5450296105432414E-006   0.0000000000000000     
   2.3302098619253787E-006   7.9453202578500849E-006   0.0000000000000000     
   2.3734227281421193E-006   8.3529351316769417E-006   0.0000000000000000     
   2.4151707603740150E-006   8.7676300693618875E-006   0.0000000000000000     
   2.0876651642026465E-006   7.1468698422694461E-006   0.0000000000000000     
   2.1307315644265572E-006   7.5397620333322589E-006   0.0000000000000000     
   2.1724307482039464E-006   7.9402226121150229E-006   0.0000000000000000     
   2.2127627460295360E-006   8.3480074117772351E-006   0.0000000000000000     
   2.2517275883980463E-006   8.7628722654783848E-006   0.0000000000000000     
   1.9364438953502628E-006   7.1418073282899083E-006   0.0000000000000000     
   1.9764341153628143E-006   7.5348577360291918E-006   0.0000000000000000     
   2.0151547794383588E-006   7.9354765310902744E-006   0.0000000000000000     
   2.0526059196236196E-006   8.3434195401980378E-006   0.0000000000000000     
   2.0887875679653208E-006   8.7584425900773379E-006   0.0000000000000000     
   1.7856898128636035E-006   7.1371198115893204E-006   0.0000000000000000     
   1.8226038647751035E-006   7.5303167143168877E-006   0.0000000000000000     
   1.8583460202290527E-006   7.9310820052338031E-006   0.0000000000000000     
   1.8929163070750777E-006   8.3391715057058647E-006   0.0000000000000000     
   1.9263147531628058E-006   8.7543410370988749E-006   0.0000000000000000     
   2.5791530298062559E-006   8.7727160077877144E-006   0.0000000000000000     
   2.6221217212027871E-006   9.1940652052484649E-006   0.0000000000000000     
   2.6635278930332489E-006   9.6220061469952904E-006   0.0000000000000000     
   2.7033715592854345E-006   1.0056294678021276E-005   0.0000000000000000     
   2.7416527339471369E-006   1.0496686643319506E-005   0.0000000000000000     
   2.4151707603740150E-006   8.7676300693618875E-006   0.0000000000000000     
   2.4554539706020652E-006   9.1891609093068745E-006   0.0000000000000000     
   2.4942723398412123E-006   9.6172834941693319E-006   0.0000000000000000     
   2.5316258413648807E-006   1.0051753667670552E-005   0.0000000000000000     
   2.5675144484464964E-006   1.0492327273531840E-005   0.0000000000000000     
   2.2517275883980463E-006   8.7628722654783848E-006   0.0000000000000000     
   2.2893252927093385E-006   9.1845730102024928E-006   0.0000000000000000     
   2.3255558239838247E-006   9.6128654982316931E-006   0.0000000000000000     
   2.3604191341470585E-006   1.0047505585672638E-005   0.0000000000000000     
   2.3939151751245890E-006   1.0488249128631997E-005   0.0000000000000000     
   2.0887875679653208E-006   8.7584425900773379E-006   0.0000000000000000     
   2.1236997423586175E-006   9.1803015151609173E-006   0.0000000000000000     
   2.1573424040924060E-006   9.6087521807129603E-006   0.0000000000000000     
   2.1897155003040135E-006   1.0043550459705529E-005   0.0000000000000000     
   2.2208189781307721E-006   1.0484452225110681E-005   0.0000000000000000     
   1.9263147531628058E-006   8.7543410370988749E-006   0.0000000000000000     
   1.9585413743839121E-006   9.1763464314077287E-006   0.0000000000000000     
   1.9895961387982686E-006   9.6049435631437117E-006   0.0000000000000000     
   2.0194790025077926E-006   1.0039888317447206E-005   0.0000000000000000     
   2.0481899216144041E-006   1.0480936579458592E-005   0.0000000000000000     
   2.7416527339471369E-006   1.0496686643319506E-005   0.0000000000000000     
   2.7783714320670902E-006   1.0942937889804499E-005   0.0000000000000000     
   2.8135276729378076E-006   1.1394804272076506E-005   0.0000000000000000     
   2.8471214769127456E-006   1.1852041646657219E-005   0.0000000000000000     
   2.8791528643453595E-006   1.2314405870068337E-005   0.0000000000000000     
   2.5675144484464964E-006   1.0492327273531840E-005   0.0000000000000000     
   2.6019381592094950E-006   1.0938760157539084E-005   0.0000000000000000     
   2.6348970711773459E-006   1.1390808173736554E-005   0.0000000000000000     
   2.6663913067235258E-006   1.1848227178233122E-005   0.0000000000000000     
   2.6964209882215152E-006   1.2310773027137655E-005   0.0000000000000000     
   2.3939151751245890E-006   1.0488249128631997E-005   0.0000000000000000     
   2.4260439369621611E-006   1.0934851976490610E-005   0.0000000000000000     
   2.4568055621862837E-006   1.1387069951726109E-005   0.0000000000000000     
   2.4862002314436586E-006   1.1844658870090299E-005   0.0000000000000000     
   2.5142281253809906E-006   1.2307374547335009E-005   0.0000000000000000     
   2.2208189781307721E-006   1.0484452225110681E-005   0.0000000000000000     
   2.2506528264948931E-006   1.0931213331685512E-005   0.0000000000000000     
   2.2792172014581306E-006   1.1383589561327312E-005   0.0000000000000000     
   2.3065123008671203E-006   1.1841336677718401E-005   0.0000000000000000     
   2.3325383225685006E-006   1.2304210444541102E-005   0.0000000000000000     
   2.0481899216144041E-006   1.0480936579458592E-005   0.0000000000000000     
   2.0757288889775002E-006   1.0927844208150220E-005   0.0000000000000000     
   2.1020960444863958E-006   1.1380366957822316E-005   0.0000000000000000     
   2.1272915647878857E-006   1.1838260556607065E-005   0.0000000000000000     
   2.1513156265287622E-006   1.2301280732636659E-005   0.0000000000000000     
   2.8791528643453595E-006   1.2314405870068337E-005   0.0000000000000000     
   2.9096218327377526E-006   1.2781652487889548E-005   0.0000000000000000     
   2.9385282881866209E-006   1.3253535801932627E-005   0.0000000000000000     
   2.9658721139373082E-006   1.3729809803067346E-005   0.0000000000000000     
   2.9916531932351558E-006   1.4210228482163481E-005   0.0000000000000000     
   2.6964209882215152E-006   1.2310773027137655E-005   0.0000000000000000     
   2.7249861221205137E-006   1.2778201317170230E-005   0.0000000000000000     
   2.7520862511726123E-006   1.3250266607495815E-005   0.0000000000000000     
   2.7777208022056193E-006   1.3726723197890561E-005   0.0000000000000000     
   2.8018892020473523E-006   1.4207325388130653E-005   0.0000000000000000     
   2.5142281253809906E-006   1.2307374547335009E-005   0.0000000000000000     
   2.5408892436841182E-006   1.2774972656323078E-005   0.0000000000000000     
   2.5661828621954401E-006   1.3247208298361522E-005   0.0000000000000000     
   2.5901080757964957E-006   1.3723836431868384E-005   0.0000000000000000     
   2.6126639793688217E-006   1.4204612015261712E-005   0.0000000000000000     
   2.3325383225685006E-006   1.2304210444541102E-005   0.0000000000000000     
   2.3572952488149130E-006   1.2771966623314887E-005   0.0000000000000000     
   2.3807821994830286E-006   1.3244360966907788E-005   0.0000000000000000     
   2.4029980788555182E-006   1.3721149226024967E-005   0.0000000000000000     
   2.4239417912150594E-006   1.4202087151371607E-005   0.0000000000000000     
   2.1513156265287622E-006   1.2301280732636659E-005   0.0000000000000000     
   2.1741681888992505E-006   1.2769183336112473E-005   0.0000000000000000     
   2.1958483412632957E-006   1.3241724705512637E-005   0.0000000000000000     
   2.2163549555282740E-006   1.3718661301384470E-005   0.0000000000000000     
   2.2356869036015620E-006   1.4199749584275282E-005   0.0000000000000000     
   1.0356817865091878E-006   2.0745078037010831E-006   0.0000000000000000     
   1.0913503080971252E-006   2.3134007523666682E-006   0.0000000000000000     
   1.1458450688154735E-006   2.5637703496155687E-006   0.0000000000000000     
   1.1991666049467180E-006   2.8253720514409239E-006   0.0000000000000000     
   1.2513154527733469E-006   3.0979613138358699E-006   0.0000000000000000     
   9.4785407123576951E-007   2.0680345220110479E-006   0.0000000000000000     
   9.9888631009775541E-007   2.3070637433354257E-006   0.0000000000000000     
   1.0488414276621374E-006   2.5575692426986632E-006   0.0000000000000000     
   1.0977202712781574E-006   2.8193065268541421E-006   0.0000000000000000     
   1.1455236882950572E-006   3.0920311025552417E-006   0.0000000000000000     
   8.6042206933310530E-007   2.0621229334174079E-006   0.0000000000000000     
   9.0681784211520926E-007   2.3012769946232927E-006   0.0000000000000000     
   9.5223317953827720E-007   2.5519068793763678E-006   0.0000000000000000     
   9.9666923786928453E-007   2.8137681627567041E-006   0.0000000000000000     
   1.0401271733752091E-006   3.0866164198443849E-006   0.0000000000000000     
   7.7335029867997994E-007   2.0567728964255641E-006   0.0000000000000000     
   8.1510912830980708E-007   2.2960405910006989E-006   0.0000000000000000     
   8.5598443034516656E-007   2.5467833967835980E-006   0.0000000000000000     
   8.9597759761924866E-007   2.8087570494133064E-006   0.0000000000000000     
   9.3509002296524462E-007   3.0817172845288650E-006   0.0000000000000000     
   6.8660327715517754E-007   2.0519842695409152E-006   0.0000000000000000     
   7.2372439284186840E-007   2.2913546172380711E-006   0.0000000000000000     
   7.6005928598408038E-007   2.5421989320552790E-006   0.0000000000000000     
   7.9560944342719800E-007   2.8042732770886402E-006   0.0000000000000000     
   8.3037635201660545E-007   3.0773337154342549E-006   0.0000000000000000     
   1.2513154527733469E-006   3.0979613138358699E-006   0.0000000000000000     
   1.3022920741086964E-006   3.3812936197839230E-006   0.0000000000000000     
   1.3520966328895097E-006   3.6751245602301235E-006   0.0000000000000000     
   1.4007292185833805E-006   3.9792097531098882E-006   0.0000000000000000     
   1.4481899206579015E-006   4.2933048163586318E-006   0.0000000000000000     
   1.1455236882950572E-006   3.0920311025552417E-006   0.0000000000000000     
   1.1922524028398356E-006   3.3754985041419485E-006   0.0000000000000000     
   1.2379066461505220E-006   3.6694643763006604E-006   0.0000000000000000     
   1.2824865262429007E-006   3.9736843913043775E-006   0.0000000000000000     
   1.3259921511327583E-006   4.2879142214261015E-006   0.0000000000000000     
   1.0401271733752091E-006   3.0866164198443849E-006   0.0000000000000000     
   1.0826079683814587E-006   3.3702072521671429E-006   0.0000000000000000     
   1.1241119094471655E-006   3.6642963670433459E-006   0.0000000000000000     
   1.1646391091898937E-006   3.9686394982390212E-006   0.0000000000000000     
   1.2041896802272078E-006   4.2829923795201959E-006   0.0000000000000000     
   9.3509002296524462E-007   3.0817172845288650E-006   0.0000000000000000     
   9.7332288659528996E-007   3.3654198461909049E-006   0.0000000000000000     
   1.0106765182372987E-006   3.6596205121463850E-006   0.0000000000000000     
   1.0471510349981307E-006   3.9640750685638568E-006   0.0000000000000000     
   1.0827465539846436E-006   4.2785393016118610E-006   0.0000000000000000     
   8.3037635201660545E-007   3.0773337154342549E-006   0.0000000000000000     
   8.6436127334305571E-007   3.3611362685446377E-006   0.0000000000000000     
   8.9756456797878108E-007   3.6554367912979874E-006   0.0000000000000000     
   9.2998637124138173E-007   3.9599910969289157E-006   0.0000000000000000     
   9.6162681844845875E-007   4.2745549986720395E-006   0.0000000000000000     
   1.4481899206579015E-006   4.2933048163586318E-006   0.0000000000000000     
   1.4944788119283688E-006   4.6171654181989572E-006   0.0000000000000000     
   1.5395958986008924E-006   4.9505474280021997E-006   0.0000000000000000     
   1.5835411702292859E-006   5.2932067654268803E-006   0.0000000000000000     
   1.6263146163673608E-006   5.6448993501315158E-006   0.0000000000000000     
   1.3259921511327583E-006   4.2879142214261015E-006   0.0000000000000000     
   1.3684236097515116E-006   4.6119095802587146E-006   0.0000000000000000     
   1.4097809146931049E-006   4.9454263466746378E-006   0.0000000000000000     
   1.4500640594671118E-006   5.2882204408661666E-006   0.0000000000000000     
   1.4892730375831081E-006   5.6400477830256020E-006   0.0000000000000000     
   1.2041896802272078E-006   4.2829923795201959E-006   0.0000000000000000     
   1.2427637168771707E-006   4.6071107760103182E-006   0.0000000000000000     
   1.2803612402598376E-006   4.9407505782625246E-006   0.0000000000000000     
   1.3169822531957641E-006   5.2836677081873706E-006   0.0000000000000000     
   1.3526267585055051E-006   5.6356180876954165E-006   0.0000000000000000     
   1.0827465539846436E-006   4.2785393016118610E-006   0.0000000000000000     
   1.1174631744594524E-006   4.6027690214332035E-006   0.0000000000000000     
   1.1513009243081907E-006   4.9365201340677030E-006   0.0000000000000000     
   1.1842598135722487E-006   5.2795485695294383E-006   0.0000000000000000     
   1.2163398522930161E-006   5.6316102578324884E-006   0.0000000000000000     
   9.6162681844845875E-007   4.2745549986720395E-006   0.0000000000000000     
   9.9248602365246507E-007   4.5988843325068048E-006   0.0000000000000000     
   1.0225640158452641E-006   4.9327350253920184E-006   0.0000000000000000     
   1.0518608027535723E-006   5.2758630270313178E-006   0.0000000000000000     
   1.0803763921041041E-006   5.6280242871283431E-006   0.0000000000000000     
   1.6263146163673608E-006   5.6448993501315158E-006   0.0000000000000000     
   1.6679162246278502E-006   6.0053810901600841E-006   0.0000000000000000     
   1.7083459748591658E-006   6.3744078470983961E-006   0.0000000000000000     
   1.7476038449686397E-006   6.7517354709177172E-006   0.0000000000000000     
   1.7856898128636035E-006   7.1371198115893204E-006   0.0000000000000000     
   1.4892730375831081E-006   5.6400477830256020E-006   0.0000000000000000     
   1.5274078399234958E-006   6.0006642817491180E-006   0.0000000000000000     
   1.5644684468619934E-006   6.3698257992484251E-006   0.0000000000000000     
   1.6004548361451457E-006   6.7472881861390996E-006   0.0000000000000000     
   1.6353669855194987E-006   7.1328072930367255E-006   0.0000000000000000     
   1.3526267585055051E-006   5.6356180876954165E-006   0.0000000000000000     
   1.3872947545442181E-006   5.9963576267092225E-006   0.0000000000000000     
   1.4209862218054721E-006   6.3656421871993563E-006   0.0000000000000000     
   1.4537011363174364E-006   6.7432276191483904E-006   0.0000000000000000     
   1.4854394741082833E-006   7.1288697725388947E-006   0.0000000000000000     
   1.2163398522930161E-006   5.6316102578324884E-006   0.0000000000000000     
   1.2475410448064564E-006   5.9924611150850348E-006   0.0000000000000000     
   1.2778633726268245E-006   6.3618570017716718E-006   0.0000000000000000     
   1.3073068115629510E-006   6.7395537644710996E-006   0.0000000000000000     
   1.3358713374236665E-006   7.1253072497620227E-006   0.0000000000000000     
   1.0803763921041041E-006   5.6280242871283431E-006   0.0000000000000000     
   1.1081107870266471E-006   5.9889747369211962E-006   0.0000000000000000     
   1.1350639722632745E-006   6.3584702337858519E-006   0.0000000000000000     
   1.1612359279591301E-006   6.7362666166327415E-006   0.0000000000000000     
   1.1866266342593582E-006   7.1221197243723031E-006   0.0000000000000000     
   1.7856898128636035E-006   7.1371198115893204E-006   0.0000000000000000     
   1.8226038647751035E-006   7.5303167143168877E-006   0.0000000000000000     
   1.8583460202290527E-006   7.9310820052338031E-006   0.0000000000000000     
   1.8929163070750777E-006   8.3391715057058647E-006   0.0000000000000000     
   1.9263147531628058E-006   8.7543410370988749E-006   0.0000000000000000     
   1.6353669855194987E-006   7.1328072930367255E-006   0.0000000000000000     
   1.6692048799171625E-006   7.5261389653922843E-006   0.0000000000000000     
   1.7019685330125080E-006   7.9270390279983493E-006   0.0000000000000000     
   1.7336579656654711E-006   8.3352633004828934E-006   0.0000000000000000     
   1.7642731987359871E-006   8.7505676024738918E-006   0.0000000000000000     
   1.4854394741082833E-006   7.1288697725388947E-006   0.0000000000000000     
   1.5162012171974413E-006   7.5223244925085894E-006   0.0000000000000000     
   1.5459863715693699E-006   7.9233476048157676E-006   0.0000000000000000     
   1.5747949491997875E-006   8.3316949303738747E-006   0.0000000000000000     
   1.6026269620644117E-006   8.7471222900963464E-006   0.0000000000000000     
   1.3358713374236665E-006   7.1253072497620227E-006   0.0000000000000000     
   1.3635569303130676E-006   7.5188733004330789E-006   0.0000000000000000     
   1.3903635875163229E-006   7.9200077441126907E-006   0.0000000000000000     
   1.4162913106138693E-006   8.3284664046391978E-006   0.0000000000000000     
   1.4413401011861429E-006   8.7440051058509647E-006   0.0000000000000000     
   1.1866266342593582E-006   7.1221197243723031E-006   0.0000000000000000     
   1.2112360729611708E-006   7.5157853939330389E-006   0.0000000000000000     
   1.2350642324700538E-006   7.9170194543157428E-006   0.0000000000000000     
   1.2581111028435606E-006   8.3255777325392674E-006   0.0000000000000000     
   1.2803766741392450E-006   8.7412160556224826E-006   0.0000000000000000     
   1.9263147531628058E-006   8.7543410370988749E-006   0.0000000000000000     
   1.9585413743839121E-006   9.1763464314077287E-006   0.0000000000000000     
   1.9895961387982686E-006   9.6049435631437117E-006   0.0000000000000000     
   2.0194790025077926E-006   1.0039888317447206E-005   0.0000000000000000     
   2.0481899216144041E-006   1.0480936579458592E-005   0.0000000000000000     
   1.7642731987359871E-006   8.7505676024738918E-006   0.0000000000000000     
   1.7938142455672139E-006   9.1727077646297725E-006   0.0000000000000000     
   1.8222810894352085E-006   9.6014396617308199E-006   0.0000000000000000     
   1.8496737060992472E-006   1.0036519179587766E-005   0.0000000000000000     
   1.8759920713186083E-006   1.0477702204011353E-005   0.0000000000000000     
   1.6026269620644117E-006   8.7471222900963464E-006   0.0000000000000000     
   1.6294824204824329E-006   9.1693855143589069E-006   0.0000000000000000     
   1.6553613281469307E-006   9.5982404713863578E-006   0.0000000000000000     
   1.6802636870944589E-006   1.0033443038865794E-005   0.0000000000000000     
   1.7041894993615688E-006   1.0474749094484290E-005   0.0000000000000000     
   1.4413401011861429E-006   8.7440051058509647E-006   0.0000000000000000     
   1.4655099656514554E-006   9.1663796785882265E-006   0.0000000000000000     
   1.4888009297796175E-006   9.5953459816986930E-006   0.0000000000000000     
   1.5112130241783151E-006   1.0030659881031967E-005   0.0000000000000000     
   1.5327462794552347E-006   1.0472077242437650E-005   0.0000000000000000     
   1.2803766741392450E-006   8.7412160556224826E-006   0.0000000000000000     
   1.3018609475961715E-006   9.1636902553108356E-006   0.0000000000000000     
   1.3225639691794508E-006   9.5927561822561880E-006   0.0000000000000000     
   1.3424857960357050E-006   1.0028169691836989E-005   0.0000000000000000     
   1.3616264853115559E-006   1.0469686639431688E-005   0.0000000000000000     
   2.0481899216144041E-006   1.0480936579458592E-005   0.0000000000000000     
   2.0757288889775002E-006   1.0927844208150220E-005   0.0000000000000000     
   2.1020960444863958E-006   1.1380366957822316E-005   0.0000000000000000     
   2.1272915647878857E-006   1.1838260556607065E-005   0.0000000000000000     
   2.1513156265287622E-006   1.2301280732636659E-005   0.0000000000000000     
   1.8759920713186083E-006   1.0477702204011353E-005   0.0000000000000000     
   1.9012361851795894E-006   1.0924744594873347E-005   0.0000000000000000     
   1.9254061450765709E-006   1.1377402108289670E-005   0.0000000000000000     
   1.9485020727309496E-006   1.1835430474437257E-005   0.0000000000000000     
   1.9705240898641266E-006   1.2298585423493062E-005   0.0000000000000000     
   1.7041894993615688E-006   1.0474749094484290E-005   0.0000000000000000     
   1.7271387742699795E-006   1.0921914496692278E-005   0.0000000000000000     
   1.7491115502820716E-006   1.1374695026993543E-005   0.0000000000000000     
   1.7701078731453910E-006   1.1832846447655214E-005   0.0000000000000000     
   1.7901277886074840E-006   1.2296124520944417E-005   0.0000000000000000     
   1.5327462794552347E-006   1.0472077242437650E-005   0.0000000000000000     
   1.5534007150172896E-006   1.0919353922406573E-005   0.0000000000000000     
   1.5731763054682969E-006   1.1372245739994514E-005   0.0000000000000000     
   1.5920730142113046E-006   1.1830508504898486E-005   0.0000000000000000     
   1.6100908046493568E-006   1.2293898026815503E-005   0.0000000000000000     
   1.3616264853115559E-006   1.0469686639431688E-005   0.0000000000000000     
   1.3799860661901390E-006   1.0917062880815805E-005   0.0000000000000000     
   1.3975644560006480E-006   1.1370054273353159E-005   0.0000000000000000     
   1.4143615441087891E-006   1.1828416674804629E-005   0.0000000000000000     
   1.4303772198802694E-006   1.2291905942931102E-005   0.0000000000000000     
   2.1513156265287622E-006   1.2301280732636659E-005   0.0000000000000000     
   2.1741681888992505E-006   1.2769183336112473E-005   0.0000000000000000     
   2.1958483412632957E-006   1.3241724705512637E-005   0.0000000000000000     
   2.2163549555282740E-006   1.3718661301384470E-005   0.0000000000000000     
   2.2356869036015620E-006   1.4199749584275282E-005   0.0000000000000000     
   1.9705240898641266E-006   1.2298585423493062E-005   0.0000000000000000     
   1.9914721314242154E-006   1.2766622883829379E-005   0.0000000000000000     
   2.0113453852661936E-006   1.3239299576599914E-005   0.0000000000000000     
   2.0301428524717498E-006   1.3716372421153699E-005   0.0000000000000000     
   2.0478635341225775E-006   1.4197598336839789E-005   0.0000000000000000     
   1.7901277886074840E-006   1.2296124520944417E-005   0.0000000000000000     
   1.8091712082798475E-006   1.2764285240166124E-005   0.0000000000000000     
   1.8272375072297825E-006   1.3237085522776636E-005   0.0000000000000000     
   1.8443259263885394E-006   1.3714282517270089E-005   0.0000000000000000     
   1.8604357066873695E-006   1.4195633372140638E-005   0.0000000000000000     
   1.6100908046493568E-006   1.2293898026815503E-005   0.0000000000000000     
   1.6272295674569210E-006   1.2762170349969949E-005   0.0000000000000000     
   1.6434889023941564E-006   1.3235082456695632E-005   0.0000000000000000     
   1.6588683364926395E-006   1.3712391563853736E-005   0.0000000000000000     
   1.6733673967839536E-006   1.4193854888305441E-005   0.0000000000000000     
   1.4303772198802694E-006   1.2291905942931102E-005   0.0000000000000000     
   1.4456113569462123E-006   1.2760278158088102E-005   0.0000000000000000     
   1.4600637659994038E-006   1.3233290291009726E-005   0.0000000000000000     
   1.4737342419980477E-006   1.3710699535024720E-005   0.0000000000000000     
   1.4866225799003458E-006   1.4192263083461814E-005   0.0000000000000000     
   6.8660327715517754E-007   2.0519842695409152E-006   0.0000000000000000     
   7.2372439284186840E-007   2.2913546172380711E-006   0.0000000000000000     
   7.6005928598408038E-007   2.5421989320552790E-006   0.0000000000000000     
   7.9560944342719800E-007   2.8042732770886402E-006   0.0000000000000000     
   8.3037635201660545E-007   3.0773337154342549E-006   0.0000000000000000     
   6.0014536867310491E-007   2.0477571793732428E-006   0.0000000000000000     
   6.3262781285271344E-007   2.2872192049031041E-006   0.0000000000000000     
   6.6442184980379541E-007   2.5381535886839870E-006   0.0000000000000000     
   6.9552887153256166E-007   2.8003169066847273E-006   0.0000000000000000     
   7.2595027004522397E-007   3.0734657348741591E-006   0.0000000000000000     
   5.1394032129065767E-007   2.0440928249498478E-006   0.0000000000000000     
   5.4178337740766848E-007   2.2836346727525566E-006   0.0000000000000000     
   5.6903621494309649E-007   2.5346473355929253E-006   0.0000000000000000     
   5.9569999153588941E-007   2.7968878816528810E-006   0.0000000000000000     
   6.2177586482499509E-007   3.0701133791143528E-006   0.0000000000000000     
   4.2795172910035381E-007   2.0409926734024097E-006   0.0000000000000000     
   4.5115502855306025E-007   2.2806013863404581E-006   0.0000000000000000     
   4.7386647198827104E-007   2.5316801080629562E-006   0.0000000000000000     
   4.9608691637801066E-007   2.7939861160817411E-006   0.0000000000000000     
   5.1781721869430415E-007   3.0672766879086492E-006   0.0000000000000000     
   3.4214318619471089E-007   2.0384581918626096E-006   0.0000000000000000     
   3.6070670833521586E-007   2.2781197112208311E-006   0.0000000000000000     
   3.7887671152560628E-007   2.5292518413749423E-006   0.0000000000000000     
   3.9665375899975518E-007   2.7916115240599496E-006   0.0000000000000000     
   4.1403841399153590E-007   3.0649557010108607E-006   0.0000000000000000     
   8.3037635201660545E-007   3.0773337154342549E-006   0.0000000000000000     
   8.6436127334305571E-007   3.3611362685446377E-006   0.0000000000000000     
   8.9756456797878108E-007   3.6554367912979874E-006   0.0000000000000000     
   9.2998637124138173E-007   3.9599910969289157E-006   0.0000000000000000     
   9.6162681844845875E-007   4.2745549986720395E-006   0.0000000000000000     
   7.2595027004522397E-007   3.0734657348741591E-006   0.0000000000000000     
   7.5568723500048502E-007   3.3573565212128602E-006   0.0000000000000000     
   7.8474014666701687E-007   3.6517452016283799E-006   0.0000000000000000     
   8.1310918296598353E-007   3.9563875840400077E-006   0.0000000000000000     
   8.4079452181854859E-007   4.2710394763670371E-006   0.0000000000000000     
   6.2177586482499509E-007   3.0701133791143528E-006   0.0000000000000000     
   6.4726483999931948E-007   3.3540806847925641E-006   0.0000000000000000     
   6.7216731244760017E-007   3.6485458100358975E-006   0.0000000000000000     
   6.9648352510853370E-007   3.9532645548260281E-006   0.0000000000000000     
   7.2021372092081651E-007   4.2679927191446326E-006   0.0000000000000000     
   5.1781721869430415E-007   3.0672766879086492E-006   0.0000000000000000     
   5.3905814728530342E-007   3.3513088595338570E-006   0.0000000000000000     
   5.5981011600367070E-007   3.6458387008608964E-006   0.0000000000000000     
   5.8007345007819533E-007   3.9506220402716403E-006   0.0000000000000000     
   5.9984847473766706E-007   4.2654147061479653E-006   0.0000000000000000     
   4.1403841399153590E-007   3.0649557010108607E-006   0.0000000000000000     
   4.3103121580418195E-007   3.3490411456868460E-006   0.0000000000000000     
   4.4763260801836857E-007   3.6436239584437335E-006   0.0000000000000000     
   4.6384301028413134E-007   3.9484600713615112E-006   0.0000000000000000     
   4.7966284225150603E-007   4.2633054165201719E-006   0.0000000000000000     
   9.6162681844845875E-007   4.2745549986720395E-006   0.0000000000000000     
   9.9248602365246507E-007   4.5988843325068048E-006   0.0000000000000000     
   1.0225640158452641E-006   4.9327350253920184E-006   0.0000000000000000     
   1.0518608027535723E-006   5.2758630270313178E-006   0.0000000000000000     
   1.0803763921041041E-006   5.6280242871283431E-006   0.0000000000000000     
   8.4079452181854859E-007   4.2710394763670371E-006   0.0000000000000000     
   8.6779630973825563E-007   4.5954567157217467E-006   0.0000000000000000     
   8.9411456760816929E-007   4.9293952559883918E-006   0.0000000000000000     
   9.1974928490373218E-007   5.2726110802442060E-006   0.0000000000000000     
   9.4470045110038916E-007   5.6248601715664369E-006   0.0000000000000000     
   7.2021372092081651E-007   4.2679927191446326E-006   0.0000000000000000     
   7.4335809451062500E-007   4.5924861396133936E-006   0.0000000000000000     
   7.6591664725405925E-007   4.9265007994140494E-006   0.0000000000000000     
   7.8788933221469951E-007   5.2697927183683323E-006   0.0000000000000000     
   8.0927610245612613E-007   5.6221179162979897E-006   0.0000000000000000     
   5.9984847473766706E-007   4.2654147061479653E-006   0.0000000000000000     
   6.1913544389131166E-007   4.5899725632282946E-006   0.0000000000000000     
   6.3793432617009911E-007   4.9240516216772932E-006   0.0000000000000000     
   6.5624501888543509E-007   5.2674079280161721E-006   0.0000000000000000     
   6.7406741934872612E-007   5.6197975287661535E-006   0.0000000000000000     
   4.7966284225150603E-007   4.2633054165201719E-006   0.0000000000000000     
   4.9509242380205547E-007   4.5879159456129955E-006   0.0000000000000000     
   5.1013167574345386E-007   4.9220476887864293E-006   0.0000000000000000     
   5.2478041911490198E-007   5.2654566958002123E-006   0.0000000000000000     
   5.3903847495560114E-007   5.6178990164140846E-006   0.0000000000000000     
   1.0803763921041041E-006   5.6280242871283431E-006   0.0000000000000000     
   1.1081107870266471E-006   5.9889747369211962E-006   0.0000000000000000     
   1.1350639722632745E-006   6.3584702337858519E-006   0.0000000000000000     
   1.1612359279591301E-006   6.7362666166327415E-006   0.0000000000000000     
   1.1866266342593582E-006   7.1221197243723031E-006   0.0000000000000000     
   9.4470045110038916E-007   5.6248601715664369E-006   0.0000000000000000     
   9.6896805611061733E-007   5.9858984868984042E-006   0.0000000000000000     
   9.9255209159502920E-007   6.3554818786477770E-006   0.0000000000000000     
   1.0154525496512703E-006   6.7333661730882962E-006   0.0000000000000000     
   1.0376694223769875E-006   7.1193071964937177E-006   0.0000000000000000     
   8.0927610245612613E-007   5.6221179162979897E-006   0.0000000000000000     
   8.3007692132174073E-007   5.9832323782415756E-006   0.0000000000000000     
   8.5029179327423075E-007   6.3528919501049182E-006   0.0000000000000000     
   8.6992073305610297E-007   6.7308524430106478E-006   0.0000000000000000     
   8.8896375540986654E-007   7.1168696680814110E-006   0.0000000000000000     
   6.7406741934872612E-007   5.6197975287661535E-006   0.0000000000000000     
   6.9140145051277885E-007   5.9809764288116791E-006   0.0000000000000000     
   7.0824713789600505E-007   6.3507004664901380E-006   0.0000000000000000     
   7.2460453265821622E-007   6.7287254385021438E-006   0.0000000000000000     
   7.4047368595922488E-007   7.1148071415483128E-006   0.0000000000000000     
   5.3903847495560114E-007   5.6178990164140846E-006   0.0000000000000000     
   5.5290571153649267E-007   5.9791306564696894E-006   0.0000000000000000     
   5.6638218605547797E-007   6.3489074461363109E-006   0.0000000000000000     
   5.7946800294219815E-007   6.7269851716651358E-006   0.0000000000000000     
   5.9216326662629412E-007   7.1131196193073534E-006   0.0000000000000000     
   1.1866266342593582E-006   7.1221197243723031E-006   0.0000000000000000     
   1.2112360729611708E-006   7.5157853939330389E-006   0.0000000000000000     
   1.2350642324700538E-006   7.9170194543157428E-006   0.0000000000000000     
   1.2581111028435606E-006   8.3255777325392674E-006   0.0000000000000000     
   1.2803766741392450E-006   8.7412160556224826E-006   0.0000000000000000     
   1.0376694223769875E-006   7.1193071964937177E-006   0.0000000000000000     
   1.0592026993601797E-006   7.5130607757201879E-006   0.0000000000000000     
   1.0800523601502584E-006   7.9143827399534941E-006   0.0000000000000000     
   1.1002183817869876E-006   8.3230289189618125E-006   0.0000000000000000     
   1.1197007413101319E-006   8.7387551425133394E-006   0.0000000000000000     
   8.8896375540986654E-007   7.1168696680814110E-006   0.0000000000000000     
   9.0742086581372621E-007   7.5106994402840504E-006   0.0000000000000000     
   9.2529203268867850E-007   7.9120975899622562E-006   0.0000000000000000     
   9.4257721519141613E-007   8.3208199513039163E-006   0.0000000000000000     
   9.5927637247863303E-007   8.7366223584969224E-006   0.0000000000000000     
   7.4047368595922488E-007   7.1148071415483128E-006   0.0000000000000000     
   7.5585462914674104E-007   7.5087013800585936E-006   0.0000000000000000     
   7.7074731432006515E-007   7.9101639893802795E-006   0.0000000000000000     
   7.8515167376639482E-007   8.3189508125899866E-006   0.0000000000000000     
   7.9906763977292829E-007   8.7348176927643371E-006   0.0000000000000000     
   5.9216326662629412E-007   7.1131196193073534E-006   0.0000000000000000     
   6.0446804618415620E-007   7.5070665874777856E-006   0.0000000000000000     
   6.1638226927917083E-007   7.9085819232458129E-006   0.0000000000000000     
   6.2790582822147309E-007   8.3174214858444411E-006   0.0000000000000000     
   6.3903861532119822E-007   8.7333411345066860E-006   0.0000000000000000     
   1.2803766741392450E-006   8.7412160556224826E-006   0.0000000000000000     
   1.3018609475961715E-006   9.1636902553108356E-006   0.0000000000000000     
   1.3225639691794508E-006   9.5927561822561880E-006   0.0000000000000000     
   1.3424857960357050E-006   1.0028169691836989E-005   0.0000000000000000     
   1.3616264853115559E-006   1.0469686639431688E-005   0.0000000000000000     
   1.1197007413101319E-006   8.7387551425133394E-006   0.0000000000000000     
   1.1384994327587929E-006   9.1613172435699209E-006   0.0000000000000000     
   1.1566145181694208E-006   9.5904710678680640E-006   0.0000000000000000     
   1.1740460765778029E-006   1.0025972464337936E-005   0.0000000000000000     
   1.1907941870197262E-006   1.0467577281909712E-005   0.0000000000000000     
   9.5927637247863303E-007   8.7366223584969224E-006   0.0000000000000000     
   9.7538948726283146E-007   9.1592606466089746E-006   0.0000000000000000     
   9.9091663647974962E-007   9.5884906542269429E-006   0.0000000000000000     
   1.0058579206209340E-006   1.0024068220817503E-005   0.0000000000000000     
   1.0202134401779327E-006   1.0465749185847343E-005   0.0000000000000000     
   7.9906763977292829E-007   8.7348176927643371E-006   0.0000000000000000     
   8.1249517715212175E-007   9.1575204687215562E-006   0.0000000000000000     
   8.2543438081746690E-007   9.5868149622462885E-006   0.0000000000000000     
   8.3788537820771128E-007   1.0022456990864775E-005   0.0000000000000000     
   8.4984829676160540E-007   1.0464202372103254E-005   0.0000000000000000     
   6.3903861532119822E-007   8.7333411345066860E-006   0.0000000000000000     
   6.4978056847049920E-007   9.1560967142012483E-006   0.0000000000000000     
   6.6013180788960134E-007   9.5854440128395830E-006   0.0000000000000000     
   6.7009249938074644E-007   1.0021138804068829E-005   0.0000000000000000     
   6.7966280874617727E-007   1.0462936861536128E-005   0.0000000000000000     
   1.3616264853115559E-006   1.0469686639431688E-005   0.0000000000000000     
   1.3799860661901390E-006   1.0917062880815805E-005   0.0000000000000000     
   1.3975644560006480E-006   1.1370054273353159E-005   0.0000000000000000     
   1.4143615441087891E-006   1.1828416674804629E-005   0.0000000000000000     
   1.4303772198802694E-006   1.2291905942931102E-005   0.0000000000000000     
   1.1907941870197262E-006   1.0467577281909712E-005   0.0000000000000000     
   1.2068588877202402E-006   1.0915041377698825E-005   0.0000000000000000     
   1.2222400536614369E-006   1.1368120641561799E-005   0.0000000000000000     
   1.2369375190146702E-006   1.1826570971540408E-005   0.0000000000000000     
   1.2509511179512955E-006   1.2290148265676437E-005   0.0000000000000000     
   1.0202134401779327E-006   1.0465749185847343E-005   0.0000000000000000     
   1.0339832441916774E-006   1.0913289406751655E-005   0.0000000000000000     
   1.0471671759006461E-006   1.1366444812839740E-005   0.0000000000000000     
   1.0597650270927006E-006   1.1824971351389418E-005   0.0000000000000000     
   1.0717765895557059E-006   1.2288624969678512E-005   0.0000000000000000     
   8.4984829676160540E-007   1.0464202372103254E-005   0.0000000000000000     
   8.6132320135162752E-007   1.0911806958649581E-005   0.0000000000000000     
   8.7230990658517137E-007   1.1365026743838025E-005   0.0000000000000000     
   8.8280816450336152E-007   1.1823617756164467E-005   0.0000000000000000     
   8.9281772714732135E-007   1.2287336024124786E-005   0.0000000000000000     
   6.7966280874617727E-007   1.0462936861536128E-005   0.0000000000000000     
   6.8884282494726669E-007   1.0910594024067905E-005   0.0000000000000000     
   6.9763232958191032E-007   1.1363866391207706E-005   0.0000000000000000     
   7.0603102740713411E-007   1.1822510127678365E-005   0.0000000000000000     
   7.1403862317996325E-007   1.2286281398202709E-005   0.0000000000000000     
   1.4303772198802694E-006   1.2291905942931102E-005   0.0000000000000000     
   1.4456113569462123E-006   1.2760278158088102E-005   0.0000000000000000     
   1.4600637659994038E-006   1.3233290291009726E-005   0.0000000000000000     
   1.4737342419980477E-006   1.3710699535024720E-005   0.0000000000000000     
   1.4866225799003458E-006   1.4192263083461814E-005   0.0000000000000000     
   1.2509511179512955E-006   1.2290148265676437E-005   0.0000000000000000     
   1.2642807119202472E-006   1.2758608625397873E-005   0.0000000000000000     
   1.2769262714807900E-006   1.3231708965677521E-005   0.0000000000000000     
   1.2888877944697723E-006   1.3709206404874392E-005   0.0000000000000000     
   1.3001652787240396E-006   1.4190858061347508E-005   0.0000000000000000     
   1.0717765895557059E-006   1.2288624969678512E-005   0.0000000000000000     
   1.0832017162785535E-006   1.2757161776896644E-005   0.0000000000000000     
   1.0940405050542610E-006   1.3230338529880654E-005   0.0000000000000000     
   1.1042931148768756E-006   1.3707912147379170E-005   0.0000000000000000     
   1.1139597047404449E-006   1.4189639548140835E-005   0.0000000000000000     
   8.9281772714732135E-007   1.2287336024124786E-005   0.0000000000000000     
   9.0233844110241033E-007   1.2755937653611849E-005   0.0000000000000000     
   9.1137053113093404E-007   1.3229179060106545E-005   0.0000000000000000     
   9.1991431653943264E-007   1.3706816736486716E-005   0.0000000000000000     
   9.2797011663444776E-007   1.4188607175630241E-005   0.0000000000000000     
   7.1403862317996325E-007   1.2286281398202709E-005   0.0000000000000000     
   7.2165495747309701E-007   1.2754936296570916E-005   0.0000000000000000     
   7.2888041412192724E-007   1.3228230632842596E-005   0.0000000000000000     
   7.3571551277751849E-007   1.3705920146144696E-005   0.0000000000000000     
   7.4216077309093584E-007   1.4187760575604177E-005   0.0000000000000000     
 </DataArray>
 <DataArray  type="Float64" Name="stress" NumberOfComponents="3" format="ascii">
   17999.251347835405        2.2094303741114345        4.4153712043002715E-003
   17624.461460418592       0.31817375764057942        2.9671987818424901E-002
   17249.794766356128      -0.33028181538429635        1.7918898540356866E-002
   16875.096084168465      -0.25320794303752336       -4.9837233462835979E-003
   16500.210232376219        3.2123776461048692E-002  -1.3175704650724108E-002
   17098.903659025538        1.0141426535819846        145.75545803683477     
   16743.079400054678       0.10678141068819968        146.02419372755818     
   16387.225236015991      -0.18326038784834964        146.16670061495873     
   16031.261308149587      -0.12217860791679414        146.22252982376315     
   15675.107757695556        2.3830883800656011E-002   146.23123247855884     
   16198.735869039188        8.4090703161564306E-002   284.14931023597484     
   15861.761965112626       -9.9136021502999938E-002   284.56929082978877     
   15524.667903364072      -0.11785765287277172        284.81332188651953     
   15187.428524453484       -5.5938657580554718E-002   284.92850491341545     
   14850.018669040748        2.7564971578613040E-003   284.96194141769058     
   15298.740707403234      -0.58290661912451469        415.13628919088376     
   14980.515862432225      -0.29756648711463640        415.64375624253768     
   14662.136434760225      -0.12997370266657526        415.95542718059403     
   14343.611341167145       -5.0405666065671539E-002   416.11981332595695     
   14024.949498433120       -2.9139776836927922E-002   416.18542599952349     
   14398.910903644435      -0.98903045523366018        538.66671212357642     
   14099.347798853345      -0.48649793384538498        539.22638291396845     
   13799.644496564242      -0.21550862954973127        539.59066096476909     
   13499.823366377606      -0.10149720712706767        539.80332684176233     
   13199.906777894066       -6.9898331418698945E-002   539.90816111089214     
   16500.210232376219        3.2123776461048692E-002  -1.3175704650724108E-002
   16125.162877534594       0.15243803365046915       -3.7308451091342754E-003
   15750.098027133841       0.12892930216094101        5.3714604767007793E-003
   15375.038011098601        3.6030664246936794E-002   8.6329936948011318E-003
   15000.005159353494       -5.1824798020788876E-002   5.5553592305752854E-004
   15675.107757695556        2.3830883800656011E-002   146.23123247855884     
   15318.827446369261        7.7283300506678643E-002   146.23717814559438     
   14962.543756680829        6.2429837807030708E-002   146.25151579911767     
   14606.267611063427        1.5678606192523148E-002   146.26396567631048     
   14250.009931950013       -2.6562284407191328E-002   146.26424801428985     
   14850.018669040748        2.7564971578613040E-003   284.96194141769058     
   14512.514093987411        1.8896813275205204E-002   284.97754910088992     
   14175.009358715703        1.5826494795874169E-002   285.00036829118005     
   13837.507507726348        3.6938774765076232E-003   285.01918443539807     
   13500.011585520073       -7.3527029344404582E-003   285.02278298049845     
   14024.949498433120       -2.9139776836927922E-002   416.18542599952349     
   13706.220965593775       -2.3277865327145264E-002   416.21947147481973     
   13387.488987916453       -1.2634322899430117E-002   416.25128008531789     
   13068.752261529229       -1.5553892226307653E-003   416.27254924203402     
   12750.009482560068        5.6126955141735380E-003   416.27497635580335     
   13199.906777894066       -6.9898331418698945E-002   539.90816111089214     
   12899.946206392353       -4.9797174971899949E-002   539.96503472104632     
   12599.976798960744       -2.4706212369892455E-002   540.00360233008303     
   12299.996432913818       -1.7010615965773468E-003   540.02232006715815     
   12000.002985566225        1.2142659442815784E-002   540.01964406146124     
   15000.005159353494       -5.1824798020788876E-002   5.5553592305752854E-004
   14625.001251945305       -8.1185068439481256E-002  -6.7564964181971599E-003
   14250.008531203417       -6.3723855277203256E-002  -2.5861983128737942E-003
   13875.020020476650       -2.2696662493217445E-002   5.4869446556275250E-003
   13500.028743113386        1.8641004488927138E-002   9.8834464457758994E-003
   14250.009931950013       -2.6562284407191328E-002   146.26424801428985     
   13893.766071372096       -3.9753223922161851E-002   146.25663827035481     
   13537.521890311949       -3.0991433060080453E-002   146.25179980336884     
   13181.274074628351       -1.1324049203722097E-002   146.24903470246861     
   12825.019310180480        8.2017915428878041E-003   146.24764505707307     
   13500.011585520073       -7.3527029344404582E-003   285.02278298049845     
   13162.518000748632       -1.1042241180803103E-002   285.01330416769542     
   12825.020674271560       -9.3963729159440845E-003   285.00250456054204     
   12487.518918900951       -4.7057243818926509E-003   284.99359408925937     
   12150.012047449058        7.3907849809984327E-004   284.98978268413606     
   12750.009482560068        5.6126955141735380E-003   416.27497635580335     
   12431.261703494476        6.3469058459304506E-003   416.26319500110469     
   12112.511448871795        3.0310621841636021E-003   416.25013650306306     
   11793.759622900545       -1.3208069954089297E-003   416.23994489887878     
   11475.007129789343       -3.6946729892406438E-003   416.23676422582827     
   12000.002985566225        1.2142659442815784E-002   540.01964406146124     
   11700.001843029029        1.3813242539526982E-002   540.00626457581143     
   11400.000779902197        8.2606090550143563E-003   539.99530406031693     
   11100.001256233667        3.5158547052560607E-004   539.98886692514225     
   10800.004732071367       -5.0470018136365979E-003   539.98905758043463     
   13500.028743113386        1.8641004488927138E-002   9.8834464457758994E-003
   13125.031913923591        4.2216903724693111E-002   3.7235823432239831E-003
   12750.031924626675        4.7215157806931529E-002  -8.6138362761104710E-003
   12375.029563935777        3.6264810581997153E-002  -1.7820489903041966E-002
   12000.025620563665        1.1994904763469094E-002  -1.4588059525609626E-002
   12825.019310180480        8.2017915428878041E-003   146.24764505707307     
   12468.762876652525        2.0671815266723570E-002   146.24643033475567     
   12112.512103904064        2.6005665757566021E-002   146.24569309720383     
   11756.266753056410        2.3407080802371638E-002   146.24699007488158     
   11400.026585231199        1.2079799181719864E-002   146.25187799833483     
   12150.012047449058        7.3907849809984327E-004   284.98978268413606     
   11812.505960685585        6.5422074890193471E-003   284.99264876139353     
   11475.006451789312        1.1949197953072144E-002   284.99951149965455     
   11137.512672186343        1.4131470225947851E-002   285.00719197239607     
   10800.023773302439        1.0260443490551552E-002   285.01251125342031     
   11475.007129789343       -3.6946729892406438E-003   416.23676422582827     
   11156.256470269858       -1.5806444635018124E-003   416.24239074400793     
   10837.508848685877        3.2098769715958042E-003   416.25259225450975     
   10518.763224664013        7.2089800987669150E-003   416.26247010614304     
   10200.018557831174        6.9487545802076056E-003   416.26712564763068     
   10800.004732071367       -5.0470018136365979E-003   539.98905758043463     
   10500.009709652020       -5.1054669397672114E-003   539.99566816428921     
   10200.013174996337       -2.0481774668041908E-003   540.00468624541043     
   9900.0143138280364        1.4106123685451166E-003   540.01250937959787     
   9600.0123118707961        2.5566481035639299E-003   540.01553512286773     
   12000.025620563665        1.1994904763469094E-002  -1.4588059525609626E-002
   11625.015520863855       -2.2502592613818706E-002   2.7168356081479429E-003
   11249.997423006685       -5.5029658074545296E-002   2.1705276584129331E-002
   10874.976213432918       -6.9298156041440961E-002   3.0652133346760407E-002
   10499.956778582509       -4.9019952908565756E-002   1.7832275432425208E-002
   11400.026585231199        1.2079799181719864E-002   146.25187799833483     
   11043.779385629141       -1.0133747925010539E-002   146.25818041719546     
   10687.515882048612       -3.5582470595727500E-002   146.26144546440509     
   10331.240249506232       -5.0349646642189327E-002   146.25981674549229     
   9974.9566630197696       -4.0518550263641373E-002   146.25143786545789     
   10800.023773302439        1.0260443490551552E-002   285.01251125342031     
   10462.528371974460       -3.5739046297749155E-003   285.01138599685748     
   10125.017826489864       -2.2143427754144795E-002   285.00474559379961     
   9787.4954004515439       -3.4569449578157219E-002   284.99693022278115     
   9449.9643574621241       -2.9973294766023173E-002   284.99228006265821     
   10200.018557831174        6.9487545802076056E-003   416.26712564763068     
   9881.2689476793239       -8.8272984748982708E-004   416.26232739943140     
   9562.5106220806138       -1.2502802796461765E-002   416.25168604269948     
   9243.7457332315425       -2.0737475943406025E-002   416.24206616748774     
   8924.9764333287931       -1.8412760284718388E-002   416.24033236392273     
   9600.0123118707961        2.5566481035639299E-003   540.01553512286773     
   9300.0075805238230       -1.1988907363047474E-004   540.01099844942826     
   9000.0016345700515       -4.4508722803584533E-003   540.00234718934132     
   8699.9953148086406       -7.6336377114785137E-003   539.99529818178098     
   8399.9894620389787       -6.8655207192023227E-003   539.99556826627327     
   10499.956778582509       -4.9019952908565756E-002   1.7832275432425208E-002
   10124.955475902352        1.5950540318044659E-002  -1.2866165425667988E-002
   9749.9760247961403        9.3632102372339432E-002  -3.9025438590860925E-002
   9375.0043546401266       0.13712265420645053       -4.4576246028657777E-002
   9000.0263948105039        9.9520116272742598E-002  -1.3449289477329840E-002
   9974.9566630197696       -4.0518550263641373E-002   146.25143786545789     
   9618.6899007757274        6.1358214529718680E-003   146.24200892755957     
   9262.4543594170755        6.7233325867618987E-002   146.23968275232775     
   8906.2386416443715       0.10478296506471452        146.24628202105703     
   8550.0313501584787        8.0793741924026108E-002   146.26362941529621     
   9449.9643574621241       -2.9973294766023173E-002   284.99228006265821     
   9112.4465406949548        2.1729754366788256E-003   284.99696483391955     
   8774.9559806548568        4.6355071203379339E-002   285.00947154388871     
   8437.4842219408565        7.4388322668255569E-002   285.02261630168931     
   8100.0228091521349        5.8088060453883372E-002   285.02921521613843     
   8924.9764333287931       -1.8412760284718388E-002   416.24033236392273     
   8606.2153674683577        1.0535454248383758E-003   416.25189094787652     
   8287.4702493290079        2.7805585053556570E-002   416.27027156241400     
   7968.7358339820339        4.4360262875215994E-002   416.28452378830519     
   7650.0068764990547        3.3234484350487037E-002   416.28369720641933     
   8399.9894620389787       -6.8655207192023227E-003   539.99556826627327     
   8099.9863529038794       -2.3092701894711354E-004   540.00667666384743     
   7799.9865262584690        8.3931119643239072E-003   540.02201343403624     
   7499.9882162203567        1.3120321650148981E-002   540.03210167376199     
   7199.9896569068687        8.0644263998692622E-003   540.02746447979905     
   9000.0263948105039        9.9520116272742598E-002  -1.3449289477329840E-002
   8624.9943760300848       -4.8588771730010194E-002   3.5404144294119554E-002
   8249.8969225294695      -0.21530557739788492        6.0831104219214588E-002
   7874.7745539480911      -0.26556483619287974        4.5598392960711810E-002
   7499.6677899278939       -6.4301074754894216E-002  -2.7527187190023610E-002
   8550.0313501584787        8.0793741924026108E-002   146.26362941529621     
   8193.7782756412798       -3.3179697862124158E-002   146.27646746454315     
   7837.4547330572013      -0.16716843333824727        146.27286524977310     
   7481.0936115316890      -0.21154204624781414        146.25963528041322     
   7124.7278001900231       -5.6670119002774300E-002   146.24359006571353     
   8100.0228091521349        5.8088060453883372E-002   285.02921521613843     
   7762.5288880447397       -2.4461856004108995E-002   285.01797739023704     
   7424.9814789007478      -0.12226248050183131        284.99676083441568     
   7087.4049381079894      -0.15412585351486996        284.98710501891469     
   6749.8236220545105       -3.8864014951286663E-002   285.01054941416982     
   7650.0068764990547        3.3234484350487037E-002   416.28369720641933     
   7331.2613535165874       -1.7893163215376262E-002   416.26046706451342     
   7012.4906859092634       -7.6529965503596031E-002   416.23277401351953     
   6693.7097951050500       -9.2937829314905684E-002   416.22756573922334     
   6374.9336025326102       -1.7378659029418486E-002   416.27178992741403     
   7199.9896569068687        8.0644263998692622E-003   540.02746447979905     
   6899.9908123327950       -8.9315368591087463E-003   540.00446963032175     
   6599.9958799320757       -2.5913134163602081E-002   539.98116094267334     
   6300.0094439508875       -2.7599544880558824E-002   539.98057557219943     
   6000.0360886352037        1.2900510057534120E-003   540.02575067428302     
   7499.6677899278939       -6.4301074754894216E-002  -2.7527187190023610E-002
   7124.7658689607897       0.41847673980100808       -9.1139098860646806E-002
   6750.0606360234860       0.55478125680929224       -6.8884314379896117E-002
   6375.2965204779803      -0.50728965092275757        3.5423705293060298E-002
   6000.2179516866927       -3.6196381074375950       0.21797149765973475     
   7124.7278001900231       -5.6670119002774300E-002   146.24359006571353     
   6768.5320589752300       0.32855458850508512        146.24033374873730     
   6412.5214760638901       0.44300009541620966        146.22194232360454     
   6056.4894329326426      -0.40206200966053984        146.12993607621578     
   5700.2293110570699       -2.8953601413800243        145.90583529208931     
   6749.8236220545105       -3.8864014951286663E-002   285.01054941416982     
   6412.3627612216424       0.24881288470987784        285.04133990433849     
   6075.0339680613552       0.35546793074649941        284.97812826568878     
   5737.6911719180025      -0.20580106278430321        284.72906280644571     
   5400.1883021359881       -1.9218962803424802        284.20229183527954     
   6374.9336025326102       -1.7378659029418486E-002   416.27178992741403     
   6056.2202514546216       0.16793435574436444        416.31169453292290     
   5737.5686528273682       0.28334700414598046        416.20627612481292     
   5418.9048796185252        8.2435844976316730E-002   415.85160530960843     
   5100.1550047957517      -0.68122256253286650        415.14375269392315     
   6000.0360886352037        1.2900510057534120E-003   540.02575067428302     
   5700.0668054285643        7.4601727948902408E-002   540.05121279930950     
   5400.0960711743091       0.21779955990382405        539.91298851425995     
   5100.1336982188786       0.46359136846899673        539.51636499911592     
   4800.1894989079683       0.84468497282000499        538.76662943397002     
   14398.910903644435      -0.98903045523366018        538.66671212357642     
   14099.347798853345      -0.48649793384538498        539.22638291396845     
   13799.644496564242      -0.21550862954973127        539.59066096476909     
   13499.823366377606      -0.10149720712706767        539.80332684176233     
   13199.906777894066       -6.9898331418698945E-002   539.90816111089214     
   13499.204952083393       -1.2483464049519171        654.74814703567483     
   13218.259341952882      -0.66728722103471227        655.34173906993249     
   12937.209974608275      -0.33749604414333589        655.74516560903919     
   12656.080838736270      -0.17901058496408950        655.99695177415094     
   12374.895923023852      -0.11186855361120251        656.13562268658632     
   12599.578402562254       -1.4758034115875489        763.41726007987279     
   12337.233911661202      -0.84673550153956967        764.02714445501636     
   12074.825961439843      -0.46640754316877064        764.44695743262616     
   11812.377115502564      -0.25960752119999597        764.71505987896228     
   11549.909937453969      -0.15112342070324303        764.86981266049168     
   11700.019567890198       -1.6749076324272210        864.66801570531948     
   11456.250993348311       -1.0309971645360747        865.28051929552419     
   11212.468933492368      -0.60930019630404786        865.69649182691001     
   10968.691482675786      -0.34950221620101729        865.95922110069341     
   10724.936735252122      -0.19128871239672662        866.11199491813773     
   10800.516760876422       -1.8491652246652848        958.49437836102823     
   10575.290072384232       -1.2262265987205865        959.09978381768326     
   10350.115367199254      -0.77323107352412990        959.49422418335871     
   10125.003226255250      -0.45490887007963465        959.73100538388690     
   9899.9642304860463      -0.23599020865458442        959.86343334506148     
   13199.906777894066       -6.9898331418698945E-002   539.90816111089214     
   12899.946206392353       -4.9797174971899949E-002   539.96503472104632     
   12599.976798960744       -2.4706212369892455E-002   540.00360233008303     
   12299.996432913818       -1.7010615965773468E-003   540.02232006715815     
   12000.002985566225        1.2142659442815784E-002   540.01964406146124     
   12374.895923023852      -0.11186855361120251        656.13562268658632     
   12093.686263175205       -6.6541831834456389E-002   656.21200326527673     
   11812.466347716070       -2.8659562438861030E-002   656.25484293328998     
   11531.235344566534       -9.9534536320788902E-004   656.26955356840369     
   11249.992421646290        1.3677218388238543E-002   656.26154704837643     
   11549.909937453969      -0.15112342070324303        764.86981266049168     
   11287.437138210924       -7.9525910316078807E-002   764.95702079837122     
   11024.957151488907       -3.0976330231624161E-002   765.00285869116158     
   10762.471125090611       -1.6486715248902328E-003   765.01624127160551     
   10499.980206818573        1.2283074361675972E-002   765.00608347233140     
   10724.936735252122      -0.19128871239672662        866.11199491813773     
   10481.196309919425       -8.9505884184291062E-002   866.20049567237311     
   10237.452307115464       -3.0727464953088202E-002   866.24752408509221     
   9993.7085438032627       -2.2302446946014243E-003   866.26204545028156     
   9749.9688369456744        8.7089861617641873E-003   866.25302506198386     
   9899.9642304860463      -0.23599020865458442        959.86343334506148     
   9674.9612567204385       -9.7238227584057313E-002   959.94283623931858     
   9449.9549114319598       -2.6983915726759733E-002   959.98871359638918     
   9224.9523700215468       -1.3092700896777387E-003   960.00662837804725     
   8999.9608078902056        3.7037127840449102E-003   960.00214354608670     
   12000.002985566225        1.2142659442815784E-002   540.01964406146124     
   11700.001843029029        1.3813242539526982E-002   540.00626457581143     
   11400.000779902197        8.2606090550143563E-003   539.99530406031693     
   11100.001256233667        3.5158547052560607E-004   539.98886692514225     
   10800.004732071367       -5.0470018136365979E-003   539.98905758043463     
   11249.992421646290        1.3677218388238543E-002   656.26154704837643     
   10968.743098502629        1.5625488042587676E-002   656.24754174029829     
   10687.494392008288        1.0107907574820274E-002   656.24019084334623     
   10406.247716071213        1.8375035083408875E-003   656.23880848353042     
   10125.004484599347       -4.4726978662765760E-003   656.24270878664129     
   10499.980206818573        1.2283074361675972E-002   765.00608347233140     
   10237.486434000964        1.4937841606297297E-002   764.99208795357004     
   9974.9918783415142        1.0549149613325426E-002   764.98667826122391     
   9712.4977392062210        3.1148851389843912E-003   764.98785065650259     
   9450.0052159610259       -3.3670654188426852E-003   764.99360140055546     
   9749.9688369456744        8.7089861617641873E-003   866.25302506198386     
   9506.2309403468316        1.1477549838218692E-002   866.23990593711903     
   9262.4906074501978        8.7948996119848744E-003   866.23492144053751     
   9018.7486546776909        3.3824420956989343E-003   866.23622238835219     
   8775.0058984513635       -2.0384161330184725E-003   866.24195959657629     
   8999.9608078902056        3.7037127840449102E-003   960.00214354608670     
   8774.9757083632048        4.9718601121639949E-003   959.99099841241923     
   8549.9879478826442        4.0557221323069825E-003   959.98507550800957     
   8324.9977915246818        1.8388859111837519E-003   959.98415262343701     
   8100.0055043654829       -7.9506129350193078E-004   959.98800754911281     
   10800.004732071367       -5.0470018136365979E-003   539.98905758043463     
   10500.009709652020       -5.1054669397672114E-003   539.99566816428921     
   10200.013174996337       -2.0481774668041908E-003   540.00468624541043     
   9900.0143138280364        1.4106123685451166E-003   540.01250937959787     
   9600.0123118707961        2.5566481035639299E-003   540.01553512286773     
   10125.004484599347       -4.4726978662765760E-003   656.24270878664129     
   9843.7615459599074       -6.4111943693205831E-003   656.24926814000344     
   9562.5145196916255       -5.6625789843565144E-003   656.25548333073152     
   9281.2629764593621       -3.6579688357960549E-003   656.26009908458377     
   9000.0064869283015       -1.8284800389665179E-003   656.26186012714140     
   9450.0052159610259       -3.3670654188426852E-003   764.99360140055546     
   9187.5115999193713       -6.7506820391827205E-003   765.00007435331418     
   8925.0132864162333       -7.8765398211544380E-003   765.00486779299911     
   8662.5101308499161       -7.2266443530679680E-003   765.00815960815339     
   8400.0019886185546       -5.2830019067187095E-003   765.01012768715873     
   8775.0058984513635       -2.0384161330184725E-003   866.24195959657629     
   8531.2608061743176       -5.8435371656742063E-003   866.24824353314716     
   8287.5113275839503       -8.1343356723664328E-003   866.25288215178409     
   8043.7575026036484       -8.7777336088947777E-003   866.25657249683434     
   7799.9993711568204       -7.6406531206885120E-003   866.26001161294937     
   8100.0055043654829       -7.9506129350193078E-004   959.98800754911281     
   7875.0100993689039       -3.4093660083271971E-003   959.99393240838003     
   7650.0104956084224       -5.8802425983230933E-003   959.99956892657053     
   7425.0068173247519       -7.7935553745192010E-003   960.00521929737101     
   7199.9991887586893       -8.7351683650922496E-003   960.01118571437064     
   9600.0123118707961        2.5566481035639299E-003   540.01553512286773     
   9300.0075805238230       -1.1988907363047474E-004   540.01099844942826     
   9000.0016345700515       -4.4508722803584533E-003   540.00234718934132     
   8699.9953148086406       -7.6336377114785137E-003   539.99529818178098     
   8399.9894620389787       -6.8655207192023227E-003   539.99556826627327     
   9000.0064869283015       -1.8284800389665179E-003   656.26186012714140     
   8718.7494116503767       -1.0641493781804456E-004   656.25970866934415     
   8437.4961927378263        1.8477918201824650E-003   656.25545938348046     
   8156.2465231954156        3.0108227924756648E-003   656.25216568730707     
   7875.0000960276584        2.3593595828970138E-003   656.25288099835939     
   8400.0019886185546       -5.2830019067187095E-003   765.01012768715873     
   8137.4947548280597       -1.1115521442661702E-003   765.01048216766890     
   7874.9938025903675        4.4817851066909498E-003   765.00950180540781     
   7612.4982043127429        8.4050341706642939E-003   765.00821741628647     
   7350.0070324022590        7.5662185608962318E-003   765.00765981618326     
   7799.9993711568204       -7.6406531206885120E-003   866.26001161294937     
   7556.2428367764569       -3.3672854997348622E-003   866.26288464847141     
   7312.4930957175875        3.0405844336200971E-003   866.26417807840517     
   7068.7491269865814        8.1796446775115328E-003   866.26354093677503     
   6825.0099095899950        8.6465836197930912E-003   866.26062225775854     
   7199.9991887586893       -8.7351683650922496E-003   960.01118571437064     
   6974.9928842156760       -7.1055980779419770E-003   960.01648181582834     
   6749.9927037093767       -2.8863334696325182E-003   960.01919182582594     
   6524.9980600427361        1.9653018284770951E-003   960.01822381674685     
   6300.0083660185464        5.4919838426030765E-003   960.01248586096415     
   8399.9894620389787       -6.8655207192023227E-003   539.99556826627327     
   8099.9863529038794       -2.3092701894711354E-004   540.00667666384743     
   7799.9865262584690        8.3931119643239072E-003   540.02201343403624     
   7499.9882162203567        1.3120321650148981E-002   540.03210167376199     
   7199.9896569068687        8.0644263998692622E-003   540.02746447979905     
   7875.0000960276584        2.3593595828970138E-003   656.25288099835939     
   7593.7519421729976       -1.8064277137455065E-003   656.25944510947193     
   7312.4980447997586       -8.0122694830606633E-003   656.26790056335574     
   7031.2395252574497       -1.2520334053078841E-002   656.27260490205117     
   6749.9775048957090       -1.1592789400765469E-002   656.26791566782254     
   7350.0070324022590        7.5662185608962318E-003   765.00765981618326     
   7087.5116513120274       -1.6776836223471037E-003   765.00914759846785     
   6825.0057481438034       -1.5227532082917605E-002   765.01176134692014     
   6562.4918792772223       -2.4562061383676337E-002   765.01317486320909     
   6299.9726010917639       -2.1160006645004614E-002   765.01106194883403     
   6825.0099095899950        8.6465836197930912E-003   866.26062225775854     
   6581.2660584265759        3.2873657301024650E-004   866.25691580410830     
   6337.5105618624721       -1.2975003570772969E-002   866.25446389931153     
   6093.7459591048619       -2.2800612576929780E-002   866.25373841841429     
   5849.9747893613294       -2.0684065453906442E-002   866.25521123666124     
   6300.0083660185464        5.4919838426030765E-003   960.01248586096415     
   6075.0157416225056        4.3862648981303209E-003   960.00388139978145     
   5850.0134115270757       -9.7701340860112396E-004   959.99687633476321     
   5625.0024455654020       -7.0317406068625132E-003   959.99422242884884     
   5399.9839135708544       -1.0211805521066708E-002   959.99867144498558     
   7199.9896569068687        8.0644263998692622E-003   540.02746447979905     
   6899.9908123327950       -8.9315368591087463E-003   540.00446963032175     
   6599.9958799320757       -2.5913134163602081E-002   539.98116094267334     
   6300.0094439508875       -2.7599544880558824E-002   539.98057557219943     
   6000.0360886352037        1.2900510057534120E-003   540.02575067428302     
   6749.9775048957090       -1.1592789400765469E-002   656.26791566782254     
   6468.7279856881123        3.9825976455176715E-004   656.25204053898790     
   6187.5035751599480        1.7765880894103248E-002   656.23675819137668     
   5906.3003029882475        2.7275664147737189E-002   656.23678266263687     
   5625.1141988499267        1.5693199165752958E-002   656.26682799082892     
   6299.9726010917639       -2.1160006645004614E-002   765.01106194883403     
   6037.4728298207983        4.8419753579764802E-003   765.00314149519306     
   5775.0104058158786        3.9720954835502198E-002   764.99327285371783     
   5512.5772716328156        5.6618784706870429E-002   764.98834051563199     
   5250.1653698277923        2.8677318786094474E-002   764.99522897213717     
   5849.9747893613294       -2.0684065453906442E-002   866.25521123666124     
   5606.2243375730777        4.0974634609938221E-003   866.25516502274115     
   5362.5150777985818        3.9563857218354315E-002   866.24926687260700     
   5118.8393329216105        6.0124728336631961E-002   866.23706530214145     
   4875.1894258251814        4.0189686786106904E-002   866.21810882720251     
   5399.9839135708544       -1.0211805521066708E-002   959.99867144498558     
   5174.9815017866840       -2.1374238590396999E-003   960.00550364518881     
   4950.0162970071106        1.6906358392589027E-002   960.00330219089858     
   4725.0854698912190        3.7488404937903397E-002   959.98477319344806     
   4500.1861910983826        5.0177580178115022E-002   959.94262276458210     
   6000.0360886352037        1.2900510057534120E-003   540.02575067428302     
   5700.0668054285643        7.4601727948902408E-002   540.05121279930950     
   5400.0960711743091       0.21779955990382405        539.91298851425995     
   5100.1336982188786       0.46359136846899673        539.51636499911592     
   4800.1894989079683       0.84468497282000499        538.76662943397002     
   5625.1141988499267        1.5693199165752958E-002   656.26682799082892     
   5343.8822866217761       -4.3273114956718928E-003   656.26947606358897     
   5062.5990719646106       0.17147428128669162        656.12863853731028     
   4781.3468072309206       0.81727248594779667        655.77102410206476     
   4500.2077447736365        2.2072418120526436        655.12334144821466     
   5250.1653698277923        2.8677318786094474E-002   764.99522897213717     
   4987.6735265821972       -3.3904652572573468E-002   764.97989419837768     
   4725.0862716134870       0.16475011480838475        764.87119970694630     
   4462.5241027835573        1.0263011603503855        764.62039129609411     
   4200.1075179529053        2.9524080193480131        764.17871476343942     
   4875.1894258251814        4.0189686786106904E-002   866.21810882720251     
   4631.4432531673438       -1.3311939075720147E-002   866.18802513839307     
   4387.5668622640960       0.20038470526560559        866.12867525147271     
   4143.6848019866829        1.0964425239039883        866.01895766992845     
   3899.9216212067440        3.0900244226165796        865.83777089673310     
   4500.1861910983826        5.0177580178115022E-002   959.94262276458210     
   4275.1941942353060        5.8269187052928828E-002   959.89942681834179     
   4050.0500360583883       0.28113569370884761        959.88906839874824     
   3824.8481219508290        1.0334617109426745        959.92121431221926     
   3599.6828572960544        2.6299318502553888        960.00553136527981     
   10800.516760876422       -1.8491652246652848        958.49437836102823     
   10575.290072384232       -1.2262265987205865        959.09978381768326     
   10350.115367199254      -0.77323107352412990        959.49422418335871     
   10125.003226255250      -0.45490887007963465        959.73100538388690     
   9899.9642304860463      -0.23599020865458442        959.86343334506148     
   9901.0334855697565       -2.0475028431201281        1044.9025700784496     
   9694.3368238926523       -1.4075928763500087        1045.4720005451866     
   9487.7582523980473      -0.91635248271722958        1045.8265780998033     
   9281.3052241408623      -0.54893814575871147        1046.0256921567302     
   9074.9851921759746      -0.28050634902092497        1046.1287321303816     
   9001.4840916851463       -2.3335934427436769        1123.9194817048542     
   8813.3632709478934       -1.5543606843648377        1124.3918644478715     
   8625.3986755221795      -0.99438775263797652        1124.6791961807789     
   8437.6064458345172      -0.59987322575034341        1124.8339893450841     
   8250.0027223112502      -0.31701568265771130        1124.9087563822709     
   8101.7831605306801       -2.7330626310467778        1195.5700809130701     
   7932.3284208455971       -1.6788278339267890        1195.8687444209575     
   7763.0252578988111       -1.0107504848228928        1196.0513623275895     
   7593.9103147385886      -0.60668708931234505        1196.1506096398089     
   7425.0202344132840      -0.34449415291373953        1196.1991613644827     
   7201.8452734144921       -3.2715360157139912        1259.8793353758047     
   7051.1912808813777       -1.7932921366182200        1259.9120093597660     
   6900.6266208549132      -0.96885428146288177        1259.9423604415415     
   6750.2202542553405      -0.56835271578347601        1259.9702657316686     
   6600.0411420034716      -0.36191770370896847        1259.9956023408477     
   9899.9642304860463      -0.23599020865458442        959.86343334506148     
   9674.9612567204385       -9.7238227584057313E-002   959.94283623931858     
   9449.9549114319598       -2.6983915726759733E-002   959.98871359638918     
   9224.9523700215468       -1.3092700896777387E-003   960.00662837804725     
   8999.9608078902056        3.7037127840449102E-003   960.00214354608670     
   9074.9851921759746      -0.28050634902092497        1046.1287321303816     
   8868.7279706127447      -0.10842335569941497        1046.1915859034614     
   8662.4648002462473       -2.5299809381976957E-002   1046.2316892559897     
   8456.2052741608404        8.4123765509502846E-004   1046.2507534491592     
   8249.9589854405567        1.9767321768995316E-003   1046.2504897437902     
   8250.0027223112502      -0.31701568265771130        1124.9087563822709     
   8062.4924293592003      -0.12876595509032995        1124.9531857531797     
   7874.9760244209401       -3.2964755956072622E-002   1124.9822333020866     
   7687.4629474765852        1.8545151278885896E-003   1124.9963125455101     
   7499.9626385062893        7.1584587976758485E-003   1124.9958370000438     
   7425.0202344132840      -0.34449415291373953        1196.1991613644827     
   7256.2520900261106      -0.15902890546067283        1196.2263906668322     
   7087.4830033741191       -5.1652930314048717E-002   1196.2410005265117     
   6918.7196905463461        2.0735829366458347E-005   1196.2446606721303     
   6749.9688676317455        1.8379056150479300E-002   1196.2390408323190     
   6600.0411420034716      -0.36191770370896847        1259.9956023408477     
   6450.0044096795245      -0.19997508709820977        1260.0099555225966     
   6299.9801565240414       -8.3038506723369210E-002   1260.0086457213347     
   6149.9698039477089       -6.3699270592678658E-003   1259.9971528340909     
   5999.9747733611075        3.4768687212817895E-002   1259.9809567579068     
   8999.9608078902056        3.7037127840449102E-003   960.00214354608670     
   8774.9757083632048        4.9718601121639949E-003   959.99099841241923     
   8549.9879478826442        4.0557221323069825E-003   959.98507550800957     
   8324.9977915246818        1.8388859111837519E-003   959.98415262343701     
   8100.0055043654829       -7.9506129350193078E-004   959.98800754911281     
   8249.9589854405567        1.9767321768995316E-003   1046.2504897437902     
   8043.7218553828570        1.1529866178534576E-003   1046.2417204191602     
   7837.4834372420564        1.8950286676044925E-004   1046.2350960540475     
   7631.2437720380194       -7.7698623226751806E-004   1046.2320703589178     
   7425.0029007904741       -1.6097482648547157E-003   1046.2340970442826     
   7499.9626385062893        7.1584587976758485E-003   1124.9958370000438     
   7312.4714878364748        6.0498726465993968E-003   1124.9883906548334     
   7124.9800191030154        2.0759191907018248E-003   1124.9824518891990     
   6937.4888722498354       -2.6302551223125192E-003   1124.9797758047312     
   6749.9986872213603       -5.9355021217015747E-003   1124.9821175033303     
   6749.9688676317455        1.8379056150479300E-002   1196.2390408323190     
   6581.2251801940292        1.9834859873299138E-002   1196.2309573278594     
   6412.4801709707444        1.0458222410761664E-002   1196.2265679702944     
   6243.7359018112684       -2.8780250863746915E-003   1196.2265547240404     
   6074.9944345652957       -1.3301050270683845E-002   1196.2315995535919     
   5999.9747733611075        3.4768687212817895E-002   1259.9809567579068     
   5849.9835069251249        4.2680288909423325E-002   1259.9693686463863     
   5699.9863703506662        2.6079664351300380E-002   1259.9668692542368     
   5549.9876703734153       -6.7740092094936699E-004   1259.9716928799578     
   5399.9917137290995       -2.3235121177776819E-002   1259.9820738221820     
   8100.0055043654829       -7.9506129350193078E-004   959.98800754911281     
   7875.0100993689039       -3.4093660083271971E-003   959.99393240838003     
   7650.0104956084224       -5.8802425983230933E-003   959.99956892657053     
   7425.0068173247519       -7.7935553745192010E-003   960.00521929737101     
   7199.9991887586893       -8.7351683650922496E-003   960.01118571437064     
   7425.0029007904741       -1.6097482648547157E-003   1046.2340970442826     
   7218.7592014837192       -2.6713328597907093E-003   1046.2397739638154     
   7012.5110516116893       -4.3259241788291547E-003   1046.2465514904284     
   6806.2584914584804       -6.4392418798888684E-003   1046.2541621131957     
   6600.0015613086207       -8.8770043207659910E-003   1046.2623383212760     
   6749.9986872213603       -5.9355021217015747E-003   1124.9821175033303     
   6562.5071241866108       -7.0656956900165824E-003   1124.9882382812280     
   6375.0112300106703       -7.2910559524643759E-003   1124.9955474228620     
   6187.5107246815960       -7.5449561370533047E-003   1125.0037720121788     
   6000.0053281878236       -8.7607679952270701E-003   1125.0126391331885     
   6074.9944345652957       -1.3301050270683845E-002   1196.2315995535919     
   5906.2537366525212       -1.6631701708092805E-002   1196.2392377349324     
   5737.5098431616489       -1.5131931139649168E-002   1196.2467405533582     
   5568.7619174453612       -1.1590563065738024E-002   1196.2543939871580     
   5400.0091228565379       -8.7964211941198300E-003   1196.2624840147778     
   5399.9917137290995       -2.3235121177776819E-002   1259.9820738221820     
   5249.9989080561390       -3.1408598736334170E-002   1259.9926846991227     
   5100.0057034209385       -2.8204842664308671E-002   1260.0003147113398     
   4950.0104702013468       -1.9055926829196324E-002   1260.0063730310596     
   4800.0115787749746       -9.3939259177204804E-003   1260.0122688304723     
   7199.9991887586893       -8.7351683650922496E-003   960.01118571437064     
   6974.9928842156760       -7.1055980779419770E-003   960.01648181582834     
   6749.9927037093767       -2.8863334696325182E-003   960.01919182582594     
   6524.9980600427361        1.9653018284770951E-003   960.01822381674685     
   6300.0083660185464        5.4919838426030765E-003   960.01248586096415     
   6600.0015613086207       -8.8770043207659910E-003   1046.2623383212760     
   6393.7448430757013       -1.0162450906591403E-002   1046.2694668505453     
   6187.4928922879226       -8.9067724447886576E-003   1046.2731280556166     
   5981.2457096517101       -5.1076142360670929E-003   1046.2718448537428     
   5775.0032958731645        1.2373773934086785E-003   1046.2641401621333     
   6000.0053281878236       -8.7607679952270701E-003   1125.0126391331885     
   5812.4986610593378       -1.0373273310960940E-002   1125.0205494601330     
   5624.9947769182409       -1.0373613424462746E-002   1125.0248913145258     
   5437.4940453907457       -7.5297009927908221E-003   1125.0238732514133     
   5249.9968361030551       -6.0944856363676081E-004   1125.0157038258290     
   5400.0091228565379       -8.7964211941198300E-003   1196.2624840147778     
   5231.2535675458739       -7.9692506999435864E-003   1196.2700701389667     
   5062.4982638044021       -7.3149954325799627E-003   1196.2746645343157     
   4893.7437311953454       -5.1017780579059036E-003   1196.2742321867547     
   4724.9904892819804        4.0227894601230219E-004   1196.2667380823957     
   4800.0115787749746       -9.3939259177204804E-003   1260.0122688304723     
   4650.0087919141379       -3.1815698330319719E-003   1260.0183693812182     
   4500.0032591505278        2.4094275136121723E-004   1260.0226306467578     
   4349.9954310012718        2.3753355358167028E-003   1260.0228448369971     
   4199.9857579831169        4.7233309699095116E-003   1260.0168041619686     
   6300.0083660185464        5.4919838426030765E-003   960.01248586096415     
   6075.0157416225056        4.3862648981303209E-003   960.00388139978145     
   5850.0134115270757       -9.7701340860112396E-004   959.99687633476321     
   5625.0024455654020       -7.0317406068625132E-003   959.99422242884884     
   5399.9839135708544       -1.0211805521066708E-002   959.99867144498558     
   5775.0032958731645        1.2373773934086785E-003   1046.2641401621333     
   5568.7607730535856        8.3007505770638090E-003   1046.2519556213829     
   5362.5127803606392        1.2645274633996451E-002   1046.2411330800892     
   5156.2585941002999        1.1858636164788550E-002   1046.2360457678569     
   4949.9974905785248        3.5285216329157265E-003   1046.2410669141011     
   5249.9968361030551       -6.0944856363676081E-004   1125.0157038258290     
   5062.5021229957711        1.0147478692260847E-002   1125.0018524312172     
   4875.0074913746521        1.9872632784199595E-002   1124.9884467838888     
   4687.5112279138866        2.2854927726484675E-002   1124.9806829230670     
   4500.0116192879013        1.3383278281935418E-002   1124.9837568883277     
   4724.9904892819804        4.0227894601230219E-004   1196.2667380823957     
   4556.2417167387102        1.0504037046757730E-002   1196.2529075925761     
   4387.4989798236957        2.1135637025054166E-002   1196.2383028932561     
   4218.7603794756951        2.5966874525238381E-002   1196.2281441772884     
   4050.0240166333697        1.8667545183689072E-002   1196.2276516373570     
   4199.9857579831169        4.7233309699095116E-003   1260.0168041619686     
   4049.9814795713974        9.9480117085022357E-003   1260.0044568682945     
   3899.9886809626223        1.6864864338003827E-002   1259.9901868555248     
   3750.0060812555607        2.1204217996682928E-002   1259.9784398131521     
   3600.0323995491613        1.8696402505838705E-002   1259.9736614307114     
   5399.9839135708544       -1.0211805521066708E-002   959.99867144498558     
   5174.9815017866840       -2.1374238590396999E-003   960.00550364518881     
   4950.0162970071106        1.6906358392589027E-002   960.00330219089858     
   4725.0854698912190        3.7488404937903397E-002   959.98477319344806     
   4500.1861910983826        5.0177580178115022E-002   959.94262276458210     
   4949.9974905785248        3.5285216329157265E-003   1046.2410669141011     
   4743.7447796902343       -8.0199645854008850E-003   1046.2520052928712     
   4537.5183128794788       -9.9898877849682322E-003   1046.2533977704613     
   4331.3211787758291        7.9141839819385496E-003   1046.2327097142820     
   4125.1564660089234        5.5987682772865810E-002   1046.1774064921292     
   4500.0116192879013        1.3383278281935418E-002   1124.9837568883277     
   4312.5129622520317       -8.2073157232116500E-003   1124.9952261147491     
   4125.0251488056138       -2.2931041225319859E-002   1124.9991402601181     
   3937.5548584893731       -8.5227624172148353E-003   1124.9804336975235     
   3750.1087708442433        5.7282657197674780E-002   1124.9240408001635     
   4050.0240166333697        1.8667545183689072E-002   1196.2276516373570     
   3881.2825429240520       -3.7514415914756682E-003   1196.2366209626412     
   3712.5351716116738       -2.2407054451832664E-002   1196.2414431328837     
   3543.7898460888900       -1.0821317671116049E-002   1196.2272312763519     
   3375.0545097490412        5.7483746219531895E-002   1196.1790985214195     
   3600.0323995491613        1.8696402505838705E-002   1259.9736614307114     
   3450.0500151584274        4.2956940283147560E-003   1259.9776446882545     
   3300.0467481240057       -8.9078791950214509E-003   1259.9812198616958     
   3150.0294786320269        2.0196365926494764E-003   1259.9723885841918     
   3000.0050868684893        6.0012194620071568E-002   1259.9391524888065     
   4500.1861910983826        5.0177580178115022E-002   959.94262276458210     
   4275.1941942353060        5.8269187052928828E-002   959.89942681834179     
   4050.0500360583883       0.28113569370884761        959.88906839874824     
   3824.8481219508290        1.0334617109426745        959.92121431221926     
   3599.6828572960544        2.6299318502553888        960.00553136527981     
   4125.1564660089234        5.5987682772865810E-002   1046.1774064921292     
   3918.9172961681788       0.13657394648998888        1046.1269581420727     
   3712.5298080098023       0.36207353551617416        1046.1532218133023     
   3506.0466159138100       0.90786771645434783        1046.2922435395467     
   3299.5203342596569        1.9493377546252759        1046.5800693546623     
   3750.1087708442433        5.7282657197674780E-002   1124.9240408001635     
   3562.6111689310096       0.17963663454042944        1124.8770125643846     
   3374.9963646792849       0.39712014963993170        1124.9301314123422     
   3187.2860809328054       0.78214268146166432        1125.1339288561182     
   2999.5020405348205        1.4071137076732612        1125.5389364074747     
   3375.0545097490412        5.7483746219531895E-002   1196.1790985214195     
   3206.2900357567564       0.19172422204383111        1196.1454498460569     
   3037.4531555312783       0.38731037611546526        1196.2200303029845     
   2868.5455998473626       0.65001145763665136        1196.4559631332213     
   2699.5690994801153       0.98559671716509456        1196.9063715775760     
   3000.0050868684893        6.0012194620071568E-002   1259.9391524888065     
   2849.9681198779308       0.17710367819017847        1259.9281297478931     
   2699.9036300297530       0.33367905348598015        1260.0231515920850     
   2549.8042554971562       0.50519889759959824        1260.2680392420643     
   2399.6626344538540       0.66712378968873054        1260.7066139184399     
   7201.8452734144921       -3.2715360157139912        1259.8793353758047     
   7051.1912808813777       -1.7932921366182200        1259.9120093597660     
   6900.6266208549132      -0.96885428146288177        1259.9423604415415     
   6750.2202542553405      -0.56835271578347601        1259.9702657316686     
   6600.0411420034716      -0.36191770370896847        1259.9956023408477     
   6301.7431242898647       -3.5411351036209453        1316.7640141363258     
   6169.9482066966675       -1.8314588362168251        1316.4945365056190     
   6038.1798868533397      -0.92400737779939845        1316.3479397284871     
   5906.5246038201622      -0.53065052742795160        1316.2915823359406     
   5775.0687966574742      -0.36325808392689396        1316.2928228590731     
   5401.6727539893845       -3.0969773375554723        1366.0491820334389     
   5288.6560839348012       -1.7088741765910527        1365.5474016503051     
   5175.6800663824970      -0.92615160132231722        1365.2553653771122     
   5062.8071238171724      -0.54073466257182190        1365.1214322602771     
   4950.0996787239337      -0.34454841010528980        1365.0939613463056     
   4501.7337641399481       -1.9091822295874863        1407.6222504334360     
   4407.3647148949231       -1.4105974677552240        1407.0172715149904     
   4313.1426128077092      -0.97065094251274786        1406.6511952630262     
   4219.0643690724673      -0.59963867303667939        1406.4669003342972     
   4125.1268948835077      -0.30785667853206178        1406.4072653855958     
   3602.0257563683381        5.2130708287904781E-002   1441.3706307025493     
   3526.1239018758647      -0.92168802044352560        1440.8508128207918     
   3450.5829794943202       -1.0528693917171950        1440.5219872617872     
   3375.2928944119722      -0.70839611113979117        1440.3350713875423     
   3300.1435518170556      -0.25525088461427003        1440.2409825601567     
   6600.0411420034716      -0.36191770370896847        1259.9956023408477     
   6450.0044096795245      -0.19997508709820977        1260.0099555225966     
   6299.9801565240414       -8.3038506723369210E-002   1260.0086457213347     
   6149.9698039477089       -6.3699270592678658E-003   1259.9971528340909     
   5999.9747733611075        3.4768687212817895E-002   1259.9809567579068     
   5775.0687966574742      -0.36325808392689396        1316.2928228590731     
   5643.7560725967587      -0.22129872712525867        1316.2977833967634     
   5512.4710287599637      -0.10094150214854380        1316.2810753285421     
   5381.2115890438117       -9.1067532280248997E-003   1316.2527911065645     
   5249.9756773448053        4.7285174647186068E-002   1316.2230231830363     
   4950.0996787239337      -0.34454841010528980        1365.0939613463056     
   4837.5133525724159      -0.19281719794207675        1365.0853852889929     
   4724.9625461745572       -7.8167572476104397E-002   1365.0517345940270     
   4612.4478510285726        1.3721269995130569E-003   1365.0067650856486     
   4499.9698586325821        4.7773560857649500E-002   1364.9642325879322     
   4125.1268948835077      -0.30785667853206178        1406.4072653855958     
   4031.2730909490174      -0.11547809631429118        1406.3739279627121     
   3937.4541999911708       -1.4869350620756450E-002   1406.3175865155702     
   3843.6796462255465        2.5383610479821073E-002   1406.2547110572866     
   3749.9588538676499        3.6694838689300013E-002   1406.2017716009145     
   3300.1435518170556      -0.25525088461427003        1440.2409825601567     
   3225.0321290689121        9.7709803835641651E-003   1440.1645781814484     
   3149.9454814330857        8.8800530254957266E-002   1440.0755940908873     
   3074.9080309584647        6.3244594717730251E-002   1439.9922653075598     
   2999.9441996932678        1.4510001139342421E-002   1439.9328268504782     
   5999.9747733611075        3.4768687212817895E-002   1259.9809567579068     
   5849.9835069251249        4.2680288909423325E-002   1259.9693686463863     
   5699.9863703506662        2.6079664351300380E-002   1259.9668692542368     
   5549.9876703734153       -6.7740092094936699E-004   1259.9716928799578     
   5399.9917137290995       -2.3235121177776819E-002   1259.9820738221820     
   5249.9756773448053        4.7285174647186068E-002   1316.2230231830363     
   5118.7426671941676        5.9782015960990975E-002   1316.2058143836603     
   4987.4972506135891        3.7659806813053365E-002   1316.2051395468675     
   4856.2453292356049        5.9065559366899834E-004   1316.2159891439198     
   4724.9928046926980       -3.1753329411685627E-002   1316.2333536459748     
   4499.9698586325821        4.7773560857649500E-002   1364.9642325879322     
   4387.4993772647267        5.6491026634148511E-002   1364.9423056009671     
   4275.0104032507970        3.3605647407512151E-002   1364.9443346416251     
   4162.5083101603577       -2.9706782881930849E-003   1364.9618485593296     
   4049.9984715631376       -3.5326051450283558E-002   1364.9863762035259     
   3749.9588538676499        3.6694838689300013E-002   1406.2017716009145     
   3656.2549872555592        3.3212356983085556E-002   1406.1785224387907     
   3562.5267429485052        1.4191592184943147E-002   1406.1856374765559     
   3468.7768434935301       -1.1292298899888920E-002   1406.2109661474619     
   3375.0080114381090       -3.4164158008479717E-002   1406.2423578847502     
   2999.9441996932678        1.4510001139342421E-002   1439.9328268504782     
   2925.0108472852398       -9.6489576735621085E-003   1439.9141450377469     
   2850.0471843926925       -2.0307953688416092E-002   1439.9302309897491     
   2775.0511595810358       -2.4305102263497247E-002   1439.9650369294595     
   2700.0207214153361       -2.8478519711825356E-002   1440.0025150795589     
   5399.9917137290995       -2.3235121177776819E-002   1259.9820738221820     
   5249.9989080561390       -3.1408598736334170E-002   1259.9926846991227     
   5100.0057034209385       -2.8204842664308671E-002   1260.0003147113398     
   4950.0104702013468       -1.9055926829196324E-002   1260.0063730310596     
   4800.0115787749746       -9.3939259177204804E-003   1260.0122688304723     
   4724.9928046926980       -3.1753329411685627E-002   1316.2333536459748     
   4593.7444909501937       -4.4164701861518552E-002   1316.2477852501206     
   4462.4997447931655       -3.9626616186978936E-002   1316.2552417265886     
   4331.2562820836092       -2.5752865808726710E-002   1316.2588219064585     
   4200.0118186836962       -1.0157243478033706E-002   1316.2616246208197     
   4049.9984715631376       -3.5326051450283558E-002   1364.9863762035259     
   3937.4914679892918       -4.7929294979439874E-002   1365.0040453225056     
   3824.9926806590665       -4.2580264843536497E-002   1365.0102025117662     
   3712.4996841771440       -2.7363612126464432E-002   1365.0102048918723     
   3600.0100531484250       -1.0363987243408701E-002   1365.0094095833344     
   3375.0080114381090       -3.4164158008479717E-002   1406.2423578847502     
   3281.2384035007381       -4.3133080119787337E-002   1406.2618270778071     
   3187.4829924391429       -3.7521362793313529E-002   1406.2649445207887     
   3093.7397248592151       -2.4173653079628821E-002   1406.2598942541142     
   3000.0065473667041       -9.9345984391447928E-003   1406.2548603183054     
   2700.0207214153361       -2.8478519711825356E-002   1440.0025150795589     
   2624.9838618120830       -3.0206758616941443E-002   1440.0214926778788     
   2549.9691615542311       -2.4905483183715660E-002   1440.0192152075792     
   2474.9754525071962       -1.6468475470901467E-002   1440.0072622599769     
   2400.0015665365740       -8.7895166252565105E-003   1439.9972134260361     
   4800.0115787749746       -9.3939259177204804E-003   1260.0122688304723     
   4650.0087919141379       -3.1815698330319719E-003   1260.0183693812182     
   4500.0032591505278        2.4094275136121723E-004   1260.0226306467578     
   4349.9954310012718        2.3753355358167028E-003   1260.0228448369971     
   4199.9857579831169        4.7233309699095116E-003   1260.0168041619686     
   4200.0118186836962       -1.0157243478033706E-002   1316.2616246208197     
   4068.7629448562611        6.1298242394514091E-004   1316.2659069904989     
   3937.5081025627214        6.1828721177334955E-003   1316.2700431937512     
   3806.2477852130860        8.1971256288397853E-003   1316.2713076479833     
   3674.9824862172936        8.3004427258401847E-003   1316.2669747704858     
   3600.0100531484250       -1.0363987243408701E-002   1365.0094095833344     
   3487.5160656062176        4.6618154556199443E-004   1365.0124651264421     
   3375.0122692907694        4.7401557865214272E-003   1365.0177791798963     
   3262.4996433668330        5.7218179299525218E-003   1365.0213475420496     
   3149.9791669990664        6.6750501259775774E-003   1365.0191660111561     
   3000.0065473667041       -9.9345984391447928E-003   1406.2548603183054     
   2906.2695263560704       -3.2103141376182975E-003   1406.2573678174842     
   2812.5173690049469       -3.6043048492047092E-003   1406.2654567306520     
   2718.7519830950873       -4.7572980961376743E-003   1406.2730834105805     
   2624.9752764077630       -3.1002293815163284E-004   1406.2742042101024     
   2400.0015665365740       -8.7895166252565105E-003   1439.9972134260361     
   2325.0246992975358       -1.0004847676100326E-002   1439.9999390923281     
   2250.0250113753618       -1.8367609043934863E-002   1440.0126939715865     
   2175.0057820304228       -2.2946932964259759E-002   1440.0266341450063     
   2099.9702905227668       -1.2811952404717886E-002   1440.0329156936834     
   4199.9857579831169        4.7233309699095116E-003   1260.0168041619686     
   4049.9814795713974        9.9480117085022357E-003   1260.0044568682945     
   3899.9886809626223        1.6864864338003827E-002   1259.9901868555248     
   3750.0060812555607        2.1204217996682928E-002   1259.9784398131521     
   3600.0323995491613        1.8696402505838705E-002   1259.9736614307114     
   3674.9824862172936        8.3004427258401847E-003   1316.2669747704858     
   3543.7232085346700        1.0530627137086412E-002   1316.2561172229746     
   3412.4799532423281        1.5585875287570161E-002   1316.2421705667091     
   3281.2517109266482        2.0101475000501523E-002   1316.2289535687739     
   3150.0374721742114        2.0712714959927325E-002   1316.2202849962141     
   3149.9791669990664        6.6750501259775774E-003   1365.0191660111561     
   3037.4661936811203        1.3551011432014093E-002   1365.0088069385122     
   2924.9739340188157        2.5157901525517445E-002   1364.9933692515683     
   2812.5001528462899        3.4045167462409154E-002   1364.9771386130683     
   2700.0426149969744        3.2762253966893695E-002   1364.9644006857113     
   2624.9752764077630       -3.1002293815163284E-004   1406.2742042101024     
   2531.2085998175171        1.8458606046465320E-002   1406.2638137542419     
   2437.4687269049659        4.5012027875714011E-002   1406.2448333503203     
   2343.7506995106219        6.2823044189258326E-002   1406.2231093749413     
   2250.0495594749277        5.5364456518987026E-002   1406.2044882044825     
   2099.9702905227668       -1.2811952404717886E-002   1440.0329156936834     
   2024.9485917513070        2.4702854562633547E-002   1440.0224254097457     
   1949.9624355131532        7.4579337347245200E-002   1439.9976133033765     
   1875.0026434156071       0.10622285354634187        1439.9669802833002     
   1800.0600370653594        8.9038758979995691E-002   1439.9390272580815     
   3600.0323995491613        1.8696402505838705E-002   1259.9736614307114     
   3450.0500151584274        4.2956940283147560E-003   1259.9776446882545     
   3300.0467481240057       -8.9078791950214509E-003   1259.9812198616958     
   3150.0294786320269        2.0196365926494764E-003   1259.9723885841918     
   3000.0050868684893        6.0012194620071568E-002   1259.9391524888065     
   3150.0374721742114        2.0712714959927325E-002   1316.2202849962141     
   3018.8116431810604        1.0463533962820293E-002   1316.2197114839214     
   2887.5536199896487       -9.6930780682669138E-004   1316.2224377316250     
   2756.2698779564289        7.9987112112576142E-003   1316.2197696031897     
   2624.9668924382345        5.8952113795498917E-002   1316.2030129626537     
   2700.0426149969744        3.2762253966893695E-002   1364.9644006857113     
   2587.5685103469177        1.0727260144335560E-002   1364.9614962071578     
   2475.0529951095350       -1.6087257025219515E-002   1364.9670633382370     
   2362.5057836253145       -1.5300162643484327E-002   1364.9738338766192     
   2249.9365902346080        4.5469677718187995E-002   1364.9745396197718     
   2250.0495594749277        5.5364456518987026E-002   1406.2044882044825     
   2156.3243388012324        6.2035162151232726E-003   1406.2003447066909     
   2062.5484396913425       -5.3191863955021290E-002   1406.2130091203296     
   1968.7384592829389       -6.7497891631433049E-002   1406.2347608793586     
   1874.9109947133886        1.8609224432793781E-002   1406.2578794174522     
   1800.0600370653594        8.9038758979995691E-002   1439.9390272580815     
   1725.0828506895177       -1.9910534886093956E-003   1439.9336028315784     
   1650.0435199421299      -0.11121326763930028        1439.9581875166282     
   1574.9691685728883      -0.14821538447665716        1440.0027300862280     
   1499.8869203298409       -2.2584910460125229E-002   1440.0571793130584     
   3000.0050868684893        6.0012194620071568E-002   1259.9391524888065     
   2849.9681198779308       0.17710367819017847        1259.9281297478931     
   2699.9036300297530       0.33367905348598015        1260.0231515920850     
   2549.8042554971562       0.50519889759959824        1260.2680392420643     
   2399.6626344538540       0.66712378968873054        1260.7066139184399     
   2624.9668924382345        5.8952113795498917E-002   1316.2030129626537     
   2493.6641512190777       0.16447722220175365        1316.2153714905232     
   2362.3641285540716       0.28044859575254577        1316.3274086670415     
   2231.0477795048114       0.34338310660496063        1316.5714700550470     
   2099.6960591337074       0.28979762941196441        1316.9799012176063     
   2249.9365902346080        4.5469677718187995E-002   1364.9745396197718     
   2137.3844470334675       0.17882327208690185        1365.0037294870756     
   2024.8507041990947       0.27175523214896202        1365.1197421197314     
   1912.2885531946015       0.16823710152743843        1365.3509938975230     
   1799.6511854835296      -0.28775957446680422        1365.7259012002392     
   1874.9109947133886        1.8609224432793781E-002   1406.2578794174522     
   1781.1246115459467       0.21882309468298899        1406.2984162865985     
   1687.3663755019227       0.30850452364336434        1406.3989258636700     
   1593.5456339576958       -1.4521901110697399E-002   1406.5914418199486     
   1499.5717342910846       -1.0524315864157643        1406.9079978265568     
   1499.8869203298409       -2.2584910460125229E-002   1440.0571793130584     
   1424.8802489818943       0.28315795813102795        1440.1046444383921     
   1349.9141609993812       0.39160202999937610        1440.1637338125088     
   1274.8380791861860      -0.19917668206932149        1440.2776448728157     
   1199.5014263447163       -1.9911021695250497        1440.4895750563078     
 </DataArray>
 <DataArray  type="Float64" Name="VM" NumberOfComponents="1" format="ascii">
   17998.146734360082     
   17624.302375768715     
   17249.959909663183     
   16875.222689566934     
   16500.194170527222     
   17100.260249546925     
   16744.936224236902     
   16389.272351506708     
   16033.322828003422     
   15677.141971173201     
   16206.168704860542     
   15869.467671082948     
   15532.562541626088     
   15195.472599153105     
   14858.217371575962     
   15315.919813226012     
   14997.952943282624     
   14679.891256163339     
   14361.733057170022     
   14043.477063917977     
   14429.600224224087     
   14130.490549495267     
   13831.364230063306     
   13532.212089051560     
   13233.025506993501     
   16500.194170527222     
   16125.086659059463     
   15750.033562881286     
   15375.019995805411     
   15000.031071819678     
   15677.141971173201     
   15320.882689482349     
   14964.656697797202     
   14608.456590731774     
   14252.274950510104     
   14858.217371575962     
   14520.896242957802     
   14183.594100544286     
   13846.308920388423     
   13509.038679020017     
   14043.477063917977     
   13725.178620152612     
   13406.894716082490     
   13088.626914462096     
   12770.376846878960     
   13233.025506993501     
   12933.829333470367     
   12634.656240050635     
   12335.509940462911     
   12036.394376627619     
   15000.031071819678     
   14625.041844653206     
   14250.040393238622     
   13875.031368825075     
   13500.019422631647     
   14252.274950510104     
   13896.095170309496     
   13539.907209640558     
   13183.713507068034     
   12827.516526572430     
   13509.038679020017     
   13171.777526761898     
   12834.522004620019     
   12497.273765056494     
   12160.034592962646     
   12770.376846878960     
   12452.148962460202     
   12133.947808265064     
   11815.775416587328     
   11497.634111277343     
   12036.394376627619     
   11737.320895734840     
   11438.300065836307     
   11139.335164856080     
   10840.429939229934     
   13500.019422631647     
   13125.010805524234     
   12750.008317122069     
   12375.011431608833     
   12000.019623142380     
   12827.516526572430     
   12471.325269505629     
   12115.147456065317     
   11758.983686356549     
   11402.834615548290     
   12160.034592962646     
   11822.811942213848     
   11485.613179812850     
   11148.440179339455     
   10811.294977276424     
   11497.634111277343     
   11179.528131726869     
   10861.462236732248     
   10543.440011642209     
   10225.465400773099     
   10840.429939229934     
   10541.586383233493     
   10242.807468904275     
   9944.0992543205593     
   9645.4684789670137     
   12000.019623142380     
   11625.026772177449     
   11250.024937999482     
   10875.010862806126     
   10499.981288690211     
   11402.834615548290     
   11046.689522180079     
   10690.535685821131     
   10334.370859991039     
   9978.1928750039860     
   10811.294977276424     
   10474.169742605161     
   10137.055455351005     
   9799.9527710133971     
   9462.8627488649581     
   10225.465400773099     
   9907.5379239495942     
   9589.6572073325751     
   9271.8282580062551     
   8954.0569973685251     
   9645.4684789670137     
   9346.9234375867727     
   9048.4737434028739     
   8750.1296936981562     
   8451.9031155093326     
   10499.981288690211     
   10124.947500666141     
   9749.9292093164549     
   9374.9357943830619     
   8999.9766351951930     
   9978.1928750039860     
   9622.0214385691470     
   9265.8834524089998     
   8909.7877334884543     
   8553.7433006879110     
   9462.8627488649581     
   9125.8058255586020     
   8788.8074786901052     
   8451.8770711686338     
   8115.0245814861610     
   8954.0569973685251     
   8636.3609694340503     
   8318.7604553375386     
   8001.2671316971891     
   7683.8940204321580     
   8451.9031155093326     
   8153.8090743075072     
   7855.8637761040582     
   7558.0836760301290     
   7260.4877234950054     
   8999.9766351951930     
   8625.0186707365883     
   8250.0045780980854     
   7874.9073401205906     
   7499.6999408235661     
   8553.7433006879110     
   8197.7109435110688     
   7841.6321100278756     
   7485.4872839273539     
   7129.2574334281326     
   8115.0245814861610     
   7778.2228282878496     
   7441.4331438694571     
   7104.6501731534090     
   6767.8707357213716     
   7683.8940204321580     
   7366.6371257626297     
   7049.4901558893089     
   6732.4667907108724     
   6415.5853851435068     
   7260.4877234950054     
   6963.0991174577712     
   6665.9474649062131     
   6369.0682158390600     
   6072.5043234853183     
   7499.6999408235661     
   7124.5566415572621     
   6749.7832635491332     
   6375.5501807351766     
   6002.0286011988364     
   7129.2574334281326     
   6773.1057288885568     
   6417.2995643693148     
   6061.9766884939791     
   5707.2753864523929     
   6767.8707357213716     
   6431.2165615299300     
   6094.8762055083898     
   5758.9489290339152     
   5423.5347165917528     
   6415.5853851435068     
   6098.9124436984239     
   5782.5384906769950     
   5466.5236725054310     
   5150.9308754701215     
   6072.5043234853183     
   5776.2706216397901     
   5480.3630894586095     
   5184.8079328910326     
   4889.6394278062608     
   14429.600224224087     
   14130.490549495267     
   13831.364230063306     
   13532.212089051560     
   13233.025506993501     
   13547.378823552293     
   13267.238568626168     
   12987.138771294276     
   12707.070622425823     
   12427.026005684944     
   12669.506317929816     
   12408.424562140846     
   12147.435591872569     
   11886.533857126064     
   11625.714710889508     
   11796.313385060361     
   11554.377109089726     
   11312.585158273270     
   11070.938653252762     
   10829.439945551832     
   10928.278550688405     
   10705.575486942937     
   10483.071078732633     
   10260.777129461687     
   10038.707165130274     
   13233.025506993501     
   12933.829333470367     
   12634.656240050635     
   12335.509940462911     
   12036.394376627619     
   12427.026005684944     
   12147.011762251090     
   11867.043061078148     
   11587.125149499583     
   11307.263739432532     
   11625.714710889508     
   11364.973054526232     
   11104.310416557004     
   10843.733305943095     
   10583.248947981145     
   10829.439945551832     
   10588.074618169827     
   10346.830366412485     
   10105.714350854663     
   9864.7346806404803     
   10038.707165130274     
   9816.8369066172672     
   9595.1361541308761     
   9373.6117098326322     
   9152.2714971280639     
   12036.394376627619     
   11737.320895734840     
   11438.300065836307     
   11139.335164856080     
   10840.429939229934     
   11307.263739432532     
   11027.471889664905     
   10747.761716531473     
   10468.138350633491     
   10188.607587780076     
   10583.248947981145     
   10322.868508535834     
   10062.602625521897     
   9802.4589423132475     
   9542.4460192887163     
   9864.7346806404803     
   9623.8990179143930     
   9383.2158457468468     
   9142.6961214840740     
   8902.3520376735905     
   9152.2714971280639     
   8931.1199300835706     
   8710.1649392060262     
   8489.4217494501645     
   8268.9072152653243     
   10840.429939229934     
   10541.586383233493     
   10242.807468904275     
   9944.0992543205593     
   9645.4684789670137     
   10188.607587780076     
   9909.1722050750304     
   9629.8365440979287     
   9350.6100518485382     
   9071.5032992475772     
   9542.4460192887163     
   9282.5700515509088     
   9022.8393427031515     
   8763.2674739968279     
   8503.8696645963410     
   8902.3520376735905     
   8662.1948058221733     
   8422.2380390135204     
   8182.5000284089210     
   7943.0012596218130     
   8268.9072152653243     
   8048.6381434841705     
   7828.6335387402569     
   7608.9167539023683     
   7389.5138975102664     
   9645.4684789670137     
   9346.9234375867727     
   9048.4737434028739     
   8750.1296936981562     
   8451.9031155093326     
   9071.5032992475772     
   8792.5322090184745     
   8513.7148234859360     
   8235.0673042204871     
   7956.6080375961847     
   8503.8696645963410     
   8244.6681584879097     
   7985.6878670772321     
   7726.9513810798098     
   7468.4843123215160     
   7943.0012596218130     
   7703.7695583611703     
   7464.8358266836331     
   7226.2295817081022     
   6987.9842336743086     
   7389.5138975102664     
   7170.4581605696549     
   6951.7862113912670     
   6733.5348688601507     
   6515.7457540496871     
   8451.9031155093326     
   8153.8090743075072     
   7855.8637761040582     
   7558.0836760301290     
   7260.4877234950054     
   7956.6080375961847     
   7678.3534468471544     
   7400.3208658070316     
   7122.5345552690578     
   6845.0228121756563     
   7468.4843123215160     
   7210.3086123838539     
   6952.4482288916888     
   6694.9381123094799     
   6437.8190295416834     
   6987.9842336743086     
   6750.1306580562032     
   6512.7039499569883     
   6275.7521759339006     
   6039.3311145222378     
   6515.7457540496871     
   6298.4610796019142     
   6081.7303983575803     
   5865.6166587593007     
   5650.1923646936339     
   7260.4877234950054     
   6963.0991174577712     
   6665.9474649062131     
   6369.0682158390600     
   6072.5043234853183     
   6845.0228121756563     
   6567.8336914636784     
   6291.0277868473759     
   6014.6622778272285     
   5738.8047468854793     
   6437.8190295416834     
   6181.1599523912728     
   5925.0451409644347     
   5669.5517941789049     
   5414.7704431255252     
   6039.3311145222378     
   5803.5267195645647     
   5568.4395638700753     
   5334.1642560916562     
   5100.8114494791271     
   5650.1923646936339     
   5435.5566693812525     
   5221.8192878368109     
   5009.0885256256815     
   4797.4909552408089     
   6072.5043234853183     
   5776.2706216397901     
   5480.3630894586095     
   5184.8079328910326     
   4889.6394278062608     
   5738.8047468854793     
   5463.4393831697525     
   5188.5022557814827     
   4914.0082624997613     
   4639.9893694781967     
   5414.7704431255252     
   5160.6820314605475     
   4907.2136390471678     
   4654.4038883524991     
   4402.3197035485746     
   5100.8114494791271     
   4868.3850860071025     
   4636.8524298254433     
   4406.3077665217852     
   4176.8855003800645     
   4797.4909552408089     
   4587.0749959584173     
   4377.8907970484643     
   4170.1148189240093     
   3963.9738306163426     
   10928.278550688405     
   10705.575486942937     
   10483.071078732633     
   10260.777129461687     
   10038.707165130274     
   10066.091834059665     
   9862.6998954457140     
   9659.5813222343641     
   9456.7558429639830     
   9254.2453976770503     
   9210.7172417156289     
   9026.7294687281719     
   8843.1210652278678     
   8659.9087119663272     
   8477.1115086120844     
   8363.5640719620351     
   8199.1133770675060     
   8035.1742508741900     
   7871.7475954538049     
   7708.8365384879062     
   7526.7546100868121     
   7382.0106580347692     
   7237.9346954557077     
   7094.4968476687109     
   6951.6687660310918     
   10038.707165130274     
   9816.8369066172672     
   9595.1361541308761     
   9373.6117098326322     
   9152.2714971280639     
   9254.2453976770503     
   9052.0079490120552     
   8849.9897072066633     
   8648.1976412629956     
   8446.6399956055466     
   8477.1115086120844     
   8294.6598106855381     
   8112.4757046594705     
   7930.5688586655297     
   7748.9504315533095     
   7708.8365384879062     
   7546.3382581427868     
   7384.1559442547486     
   7222.3047483090932     
   7060.8015964699816     
   6951.6687660310918     
   6809.3114210702042     
   6667.3186876220498     
   6525.7142321602096     
   6384.5238432564465     
   9152.2714971280639     
   8931.1199300835706     
   8710.1649392060262     
   8489.4217494501645     
   8268.9072152653243     
   8446.6399956055466     
   8245.3209291754338     
   8044.2506656906007     
   7843.4489908957485     
   7642.9377458271420     
   7748.9504315533095     
   7567.6278752500248     
   7386.6150592077465     
   7205.9356497176568     
   7025.6157478375999     
   7060.8015964699816     
   6899.6594006474470     
   6738.8952273953992     
   6578.5355431041535     
   6418.6095303651427     
   6384.5238432564465     
   6243.7669546446814     
   6103.4617639489752     
   5963.6358793474728     
   5824.3197420303404     
   8268.9072152653243     
   8048.6381434841705     
   7828.6335387402569     
   7608.9167539023683     
   7389.5138975102664     
   7642.9377458271420     
   7442.7385206383024     
   7242.8749211968834     
   7043.3757385897288     
   6844.2730687316916     
   7025.6157478375999     
   6845.6805163943745     
   6666.1577845519587     
   6487.0822496503470     
   6308.4924362039101     
   6418.6095303651427     
   6259.1450194686176     
   6100.1741625189061     
   5941.7377562301608     
   5783.8808614761019     
   5824.3197420303404     
   5685.5429052265654     
   5547.3421022862922     
   5409.7639655293715     
   5272.8596605850589     
   7389.5138975102664     
   7170.4581605696549     
   6951.7862113912670     
   6733.5348688601507     
   6515.7457540496871     
   6844.2730687316916     
   6645.6058780497697     
   6447.4169849838281     
   6249.7508037640810     
   6052.6574225257900     
   6308.4924362039101     
   6130.4334830160396     
   5952.9545278137484     
   5776.1075632797611     
   5599.9509801657787     
   5783.8808614761019     
   5626.6545850378052     
   5470.1137942686200     
   5314.3173399051157     
   5159.3309206686890     
   5272.8596605850589     
   5136.6852573182750     
   5001.2997647959664     
   4866.7671636901032     
   4733.1583081143763     
   6515.7457540496871     
   6298.4610796019142     
   6081.7303983575803     
   5865.6166587593007     
   5650.1923646936339     
   6052.6574225257900     
   5856.1915770063206     
   5660.4184505114454     
   5465.4159158815237     
   5271.2729772670264     
   5599.9509801657787     
   5424.5519517954890     
   5249.9903026874135     
   5076.3568620085134     
   4903.7546542200889     
   5159.3309206686890     
   5005.2326398779642     
   4852.1142605818359     
   4700.0760537306496     
   4549.2307828109488     
   4733.1583081143763     
   4600.5590301278608     
   4469.0683315493889     
   4338.7905112299240     
   4209.8416660244848     
   5650.1923646936339     
   5435.5566693812525     
   5221.8192878368109     
   5009.0885256256815     
   4797.4909552408089     
   5271.2729772670264     
   5078.0983010676218     
   4886.0061692709623     
   4695.1163482421016     
   4505.5683783294244     
   4903.7546542200889     
   4732.2981964535502     
   4562.1043682366981     
   4393.3033984847061     
   4226.0458200260391     
   4549.2307828109488     
   4399.6948642402667     
   4251.5857463703442     
   4105.0412407644289     
   3960.2187115768434     
   4209.8416660244848     
   4082.3352731122359     
   3956.3867302771914     
   3832.1365599784795     
   3709.7426449649815     
   4797.4909552408089     
   4587.0749959584173     
   4377.8907970484643     
   4170.1148189240093     
   3963.9738306163426     
   4505.5683783294244     
   4317.4671288282216     
   4130.9615331295827     
   3946.3100546361725     
   3763.8272916357550     
   4226.0458200260391     
   4060.4929845978131     
   3896.8787178868674     
   3735.5159395407300     
   3576.7733395914138     
   3960.2187115768434     
   3817.3253618536064     
   3676.6523452219908     
   3538.5322251695038     
   3403.3466169045369     
   3709.7426449649815     
   3589.4387099154624     
   3471.5347973404973     
   3356.3433123689047     
   3244.2139003694851     
   7526.7546100868121     
   7382.0106580347692     
   7237.9346954557077     
   7094.4968476687109     
   6951.6687660310918     
   6703.4242499439843     
   6578.6805537030359     
   6454.7278964985089     
   6331.5115151679656     
   6208.9772076437666     
   5898.5657658253303     
   5794.2284094315737     
   5690.7139367359086     
   5587.9713201768218     
   5485.9490579937956     
   5120.3912309534626     
   5036.8815297182427     
   4954.1285259799197     
   4872.1126679615099     
   4790.8126794855525     
   4382.5848150674901     
   4320.2955687622862     
   4258.5757956700136     
   4197.4622122015853     
   4136.9882953485858     
   6951.6687660310918     
   6809.3114210702042     
   6667.3186876220498     
   6525.7142321602096     
   6384.5238432564465     
   6208.9772076437666     
   6086.9656788671546     
   5965.3734919129329     
   5844.2323192867543     
   5723.5762866587538     
   5485.9490579937956     
   5384.5002141938230     
   5283.5347185448954     
   5183.0878109274308     
   5083.1974012459177     
   4790.8126794855525     
   4710.1264469913012     
   4629.9882923248515     
   4550.4321326768913     
   4471.4946125733295     
   4136.9882953485858     
   4077.1341354733731     
   4017.8763018721579     
   3959.2421123211602     
   3901.2615023623953     
   6384.5238432564465     
   6243.7669546446814     
   6103.4617639489752     
   5963.6358793474728     
   5824.3197420303404     
   5723.5762866587538     
   5603.4287472247006     
   5483.8060602306314     
   5364.7357269103977     
   5246.2479700648373     
   5083.1974012459177     
   4983.8845720184245     
   4885.1601196430001     
   4787.0502756607257     
   4689.5835756525084     
   4471.4946125733295     
   4393.1871358949393     
   4315.5092836922558     
   4238.4831962023309     
   4162.1325171206863     
   3901.2615023623953     
   3843.9270174360277     
   3787.2185100226175     
   3731.1491942192274     
   3675.7326507490884     
   5824.3197420303404     
   5685.5429052265654     
   5547.3421022862922     
   5409.7639655293715     
   5272.8596605850589     
   5246.2479700648373     
   5128.3736240614517     
   5011.1539980060597     
   4894.6403731789624     
   4778.8885665054868     
   4689.5835756525084     
   4592.7917343611552     
   4496.7199642621199     
   4401.4218238590120     
   4306.9550448186174     
   4162.1325171206863     
   4086.4879751782119     
   4011.5970273404300     
   3937.5120245289336     
   3864.2887165309899     
   3675.7326507490884     
   3620.9950657330219     
   3566.9836352600641     
   3513.7454369862030     
   3461.3298800220100     
   5272.8596605850589     
   5136.6852573182750     
   5001.2997647959664     
   4866.7671636901032     
   4733.1583081143763     
   4778.8885665054868     
   4663.9572490613764     
   4549.9061740330526     
   4436.8008145765843     
   4324.7129403817580     
   4306.9550448186174     
   4213.3767659559899     
   4120.7417332603372     
   4029.1109556959377     
   3938.5504563274581     
   3864.2887165309899     
   3791.9772208568543     
   3720.6197995117827     
   3650.2653649967751     
   3580.9659908794065     
   3461.3298800220100     
   3409.7745655276649     
   3359.1015995545195     
   3309.3398410023105     
   3260.5193636605791     
   4733.1583081143763     
   4600.5590301278608     
   4469.0683315493889     
   4338.7905112299240     
   4209.8416660244848     
   4324.7129403817580     
   4213.7308124239580     
   4103.9549948520626     
   3995.4878059508751     
   3888.4416347180759     
   3938.5504563274581     
   3849.1436510293156     
   3760.9865226318580     
   3674.1732574403377     
   3588.8055268862231     
   3580.9659908794065     
   3512.7914818805266     
   3445.8261237661031     
   3380.1494647233994     
   3315.8455389729529     
   3260.5193636605791     
   3212.6874318682439     
   3165.9102099595998     
   3120.2484626847008     
   3075.7647953832075     
   4209.8416660244848     
   4082.3352731122359     
   3956.3867302771914     
   3832.1365599784795     
   3709.7426449649815     
   3888.4416347180759     
   3782.9215080904487     
   3679.0342787216696     
   3576.9127804952104     
   3476.7035474025024     
   3588.8055268862231     
   3504.9739937291602     
   3422.7667752372195     
   3342.2941860529577     
   3263.6756639842456     
   3315.8455389729529     
   3252.9862443163979     
   3191.6329458063196     
   3131.8608876237113     
   3073.7501554412270     
   3075.7647953832075     
   3032.5139106308898     
   2990.5293648769816     
   2949.8448987279321     
   2910.4962958525912     
   3709.7426449649815     
   3589.4387099154624     
   3471.5347973404973     
   3356.3433123689047     
   3244.2139003694851     
   3476.7035474025024     
   3378.6416630976169     
   3283.0253385029196     
   3190.1237461133887     
   3100.2295589870878     
   3263.6756639842456     
   3187.1202733594282     
   3112.8967081078063     
   3041.2293288586793     
   2972.3532849755234     
   3073.7501554412270     
   3017.4560287582181     
   2963.2007417994996     
   2911.1697445583618     
   2861.5494113506534     
   2910.4962958525912     
   2872.5571358520156     
   2836.1866135463301     
   2801.5469242535305     
   2768.7951556084658     
 </DataArray>
 </PointData>
 </Piece>
 </UnstructuredGrid>
 </VTKFile>
