 <VTKFile type="UnstructuredGrid"  version="0.1"   >
 <UnstructuredGrid>
 <Piece  NumberOfPoints="           400 "  NumberOfCells="          256 ">
 <Points>
 <DataArray  type="Float64" NumberOfComponents="3"  format="ascii" >
   5.0000000000000000        0.0000000000000000        0.0000000000000000     
   5.3125000000000000        0.0000000000000000        0.0000000000000000     
   5.6250000000000000        0.0000000000000000        0.0000000000000000     
   5.9375000000000000        0.0000000000000000        0.0000000000000000     
   6.2500000000000009        0.0000000000000000        0.0000000000000000     
   5.0000000000000000       0.31250000000000000        0.0000000000000000     
   5.3125000000000000       0.31249999999999994        0.0000000000000000     
   5.6250000000000000       0.31249999999999994        0.0000000000000000     
   5.9375000000000000       0.31250000000000000        0.0000000000000000     
   6.2500000000000000       0.31249999999999994        0.0000000000000000     
   5.0000000000000000       0.62499999999999989        0.0000000000000000     
   5.3124999999999991       0.62500000000000000        0.0000000000000000     
   5.6249999999999991       0.62499999999999989        0.0000000000000000     
   5.9374999999999991       0.62499999999999989        0.0000000000000000     
   6.2499999999999991       0.62500000000000000        0.0000000000000000     
   5.0000000000000000       0.93750000000000000        0.0000000000000000     
   5.3125000000000000       0.93750000000000000        0.0000000000000000     
   5.6249999999999991       0.93750000000000000        0.0000000000000000     
   5.9375000000000000       0.93750000000000000        0.0000000000000000     
   6.2499999999999991       0.93750000000000000        0.0000000000000000     
   5.0000000000000009        1.2500000000000002        0.0000000000000000     
   5.3124999999999991        1.2500000000000000        0.0000000000000000     
   5.6250000000000000        1.2499999999999998        0.0000000000000000     
   5.9375000000000000        1.2500000000000002        0.0000000000000000     
   6.2500000000000000        1.2500000000000002        0.0000000000000000     
   6.2500000000000009        0.0000000000000000        0.0000000000000000     
   6.5625000000000000        0.0000000000000000        0.0000000000000000     
   6.8749999999999991        0.0000000000000000        0.0000000000000000     
   7.1875000000000000        0.0000000000000000        0.0000000000000000     
   7.5000000000000009        0.0000000000000000        0.0000000000000000     
   6.2500000000000000       0.31249999999999994        0.0000000000000000     
   6.5624999999999991       0.31249999999999994        0.0000000000000000     
   6.8750000000000000       0.31249999999999994        0.0000000000000000     
   7.1874999999999991       0.31250000000000000        0.0000000000000000     
   7.5000000000000000       0.31250000000000000        0.0000000000000000     
   6.2499999999999991       0.62500000000000000        0.0000000000000000     
   6.5624999999999991       0.62499999999999989        0.0000000000000000     
   6.8750000000000000       0.62499999999999989        0.0000000000000000     
   7.1874999999999991       0.62500000000000011        0.0000000000000000     
   7.4999999999999991       0.62499999999999978        0.0000000000000000     
   6.2499999999999991       0.93750000000000000        0.0000000000000000     
   6.5625000000000000       0.93750000000000000        0.0000000000000000     
   6.8750000000000000       0.93750000000000000        0.0000000000000000     
   7.1875000000000000       0.93750000000000000        0.0000000000000000     
   7.5000000000000018       0.93750000000000011        0.0000000000000000     
   6.2500000000000000        1.2500000000000002        0.0000000000000000     
   6.5625000000000009        1.2500000000000002        0.0000000000000000     
   6.8750000000000000        1.2499999999999998        0.0000000000000000     
   7.1874999999999991        1.2500000000000002        0.0000000000000000     
   7.5000000000000009        1.2500000000000002        0.0000000000000000     
   7.5000000000000009        0.0000000000000000        0.0000000000000000     
   7.8125000000000000        0.0000000000000000        0.0000000000000000     
   8.1250000000000000        0.0000000000000000        0.0000000000000000     
   8.4375000000000000        0.0000000000000000        0.0000000000000000     
   8.7500000000000000        0.0000000000000000        0.0000000000000000     
   7.5000000000000000       0.31250000000000000        0.0000000000000000     
   7.8124999999999991       0.31249999999999994        0.0000000000000000     
   8.1249999999999982       0.31249999999999994        0.0000000000000000     
   8.4375000000000000       0.31250000000000000        0.0000000000000000     
   8.7499999999999982       0.31249999999999994        0.0000000000000000     
   7.4999999999999991       0.62499999999999978        0.0000000000000000     
   7.8124999999999991       0.62499999999999989        0.0000000000000000     
   8.1250000000000000       0.62500000000000022        0.0000000000000000     
   8.4374999999999982       0.62499999999999978        0.0000000000000000     
   8.7500000000000000       0.62500000000000000        0.0000000000000000     
   7.5000000000000018       0.93750000000000011        0.0000000000000000     
   7.8125000000000000       0.93750000000000000        0.0000000000000000     
   8.1250000000000000       0.93750000000000000        0.0000000000000000     
   8.4375000000000000       0.93750000000000000        0.0000000000000000     
   8.7499999999999982       0.93750000000000000        0.0000000000000000     
   7.5000000000000009        1.2500000000000002        0.0000000000000000     
   7.8125000000000000        1.2500000000000002        0.0000000000000000     
   8.1250000000000018        1.2500000000000000        0.0000000000000000     
   8.4374999999999982        1.2500000000000000        0.0000000000000000     
   8.7500000000000000        1.2500000000000002        0.0000000000000000     
   8.7500000000000000        0.0000000000000000        0.0000000000000000     
   9.0625000000000000        0.0000000000000000        0.0000000000000000     
   9.3750000000000000        0.0000000000000000        0.0000000000000000     
   9.6874999999999982        0.0000000000000000        0.0000000000000000     
   10.000000000000000        0.0000000000000000        0.0000000000000000     
   8.7499999999999982       0.31249999999999994        0.0000000000000000     
   9.0625000000000000       0.31250000000000000        0.0000000000000000     
   9.3749999999999982       0.31250000000000000        0.0000000000000000     
   9.6875000000000000       0.31250000000000000        0.0000000000000000     
   10.000000000000000       0.31250000000000000        0.0000000000000000     
   8.7500000000000000       0.62500000000000000        0.0000000000000000     
   9.0624999999999982       0.62499999999999989        0.0000000000000000     
   9.3750000000000000       0.62500000000000000        0.0000000000000000     
   9.6875000000000000       0.62500000000000000        0.0000000000000000     
   10.000000000000000       0.62499999999999989        0.0000000000000000     
   8.7499999999999982       0.93750000000000000        0.0000000000000000     
   9.0625000000000000       0.93750000000000000        0.0000000000000000     
   9.3749999999999982       0.93750000000000000        0.0000000000000000     
   9.6875000000000000       0.93750000000000000        0.0000000000000000     
   10.000000000000000       0.93750000000000000        0.0000000000000000     
   8.7500000000000000        1.2500000000000002        0.0000000000000000     
   9.0624999999999982        1.2500000000000000        0.0000000000000000     
   9.3750000000000000        1.2500000000000000        0.0000000000000000     
   9.6874999999999982        1.2499999999999998        0.0000000000000000     
   10.000000000000002        1.2500000000000002        0.0000000000000000     
   5.0000000000000009        1.2500000000000002        0.0000000000000000     
   5.3124999999999991        1.2500000000000000        0.0000000000000000     
   5.6250000000000000        1.2499999999999998        0.0000000000000000     
   5.9375000000000000        1.2500000000000002        0.0000000000000000     
   6.2500000000000000        1.2500000000000002        0.0000000000000000     
   4.9999999999999991        1.5624999999999998        0.0000000000000000     
   5.3125000000000000        1.5625000000000000        0.0000000000000000     
   5.6250000000000000        1.5625000000000002        0.0000000000000000     
   5.9375000000000000        1.5625000000000000        0.0000000000000000     
   6.2500000000000000        1.5625000000000000        0.0000000000000000     
   5.0000000000000000        1.8749999999999998        0.0000000000000000     
   5.3124999999999991        1.8749999999999998        0.0000000000000000     
   5.6249999999999991        1.8749999999999998        0.0000000000000000     
   5.9375000000000000        1.8749999999999998        0.0000000000000000     
   6.2500000000000000        1.8750000000000000        0.0000000000000000     
   5.0000000000000000        2.1874999999999996        0.0000000000000000     
   5.3124999999999991        2.1874999999999996        0.0000000000000000     
   5.6250000000000000        2.1875000000000009        0.0000000000000000     
   5.9375000000000000        2.1875000000000000        0.0000000000000000     
   6.2500000000000000        2.1875000000000000        0.0000000000000000     
   5.0000000000000018        2.5000000000000004        0.0000000000000000     
   5.3125000000000009        2.5000000000000004        0.0000000000000000     
   5.6249999999999991        2.4999999999999996        0.0000000000000000     
   5.9375000000000000        2.5000000000000004        0.0000000000000000     
   6.2500000000000009        2.5000000000000004        0.0000000000000000     
   6.2500000000000000        1.2500000000000002        0.0000000000000000     
   6.5625000000000009        1.2500000000000002        0.0000000000000000     
   6.8750000000000000        1.2499999999999998        0.0000000000000000     
   7.1874999999999991        1.2500000000000002        0.0000000000000000     
   7.5000000000000009        1.2500000000000002        0.0000000000000000     
   6.2500000000000000        1.5625000000000000        0.0000000000000000     
   6.5625000000000000        1.5625000000000000        0.0000000000000000     
   6.8750000000000000        1.5625000000000000        0.0000000000000000     
   7.1875000000000009        1.5624999999999998        0.0000000000000000     
   7.5000000000000018        1.5625000000000002        0.0000000000000000     
   6.2500000000000000        1.8750000000000000        0.0000000000000000     
   6.5624999999999991        1.8749999999999998        0.0000000000000000     
   6.8749999999999991        1.8749999999999998        0.0000000000000000     
   7.1875000000000000        1.8749999999999998        0.0000000000000000     
   7.5000000000000000        1.8749999999999998        0.0000000000000000     
   6.2500000000000000        2.1875000000000000        0.0000000000000000     
   6.5625000000000027        2.1875000000000009        0.0000000000000000     
   6.8750000000000009        2.1875000000000009        0.0000000000000000     
   7.1874999999999982        2.1874999999999996        0.0000000000000000     
   7.5000000000000009        2.1875000000000004        0.0000000000000000     
   6.2500000000000009        2.5000000000000004        0.0000000000000000     
   6.5625000000000000        2.5000000000000004        0.0000000000000000     
   6.8749999999999991        2.4999999999999996        0.0000000000000000     
   7.1875000000000018        2.5000000000000004        0.0000000000000000     
   7.5000000000000018        2.5000000000000004        0.0000000000000000     
   7.5000000000000009        1.2500000000000002        0.0000000000000000     
   7.8125000000000000        1.2500000000000002        0.0000000000000000     
   8.1250000000000018        1.2500000000000000        0.0000000000000000     
   8.4374999999999982        1.2500000000000000        0.0000000000000000     
   8.7500000000000000        1.2500000000000002        0.0000000000000000     
   7.5000000000000018        1.5625000000000002        0.0000000000000000     
   7.8125000000000000        1.5625000000000000        0.0000000000000000     
   8.1250000000000018        1.5624999999999998        0.0000000000000000     
   8.4375000000000000        1.5625000000000000        0.0000000000000000     
   8.7500000000000000        1.5625000000000000        0.0000000000000000     
   7.5000000000000000        1.8749999999999998        0.0000000000000000     
   7.8125000000000000        1.8750000000000000        0.0000000000000000     
   8.1249999999999982        1.8750000000000000        0.0000000000000000     
   8.4375000000000000        1.8749999999999998        0.0000000000000000     
   8.7499999999999982        1.8749999999999998        0.0000000000000000     
   7.5000000000000009        2.1875000000000004        0.0000000000000000     
   7.8125000000000000        2.1874999999999996        0.0000000000000000     
   8.1250000000000000        2.1875000000000004        0.0000000000000000     
   8.4375000000000000        2.1875000000000004        0.0000000000000000     
   8.7500000000000000        2.1875000000000000        0.0000000000000000     
   7.5000000000000018        2.5000000000000004        0.0000000000000000     
   7.8125000000000018        2.5000000000000004        0.0000000000000000     
   8.1250000000000018        2.5000000000000000        0.0000000000000000     
   8.4375000000000018        2.5000000000000004        0.0000000000000000     
   8.7500000000000018        2.5000000000000004        0.0000000000000000     
   8.7500000000000000        1.2500000000000002        0.0000000000000000     
   9.0624999999999982        1.2500000000000000        0.0000000000000000     
   9.3750000000000000        1.2500000000000000        0.0000000000000000     
   9.6874999999999982        1.2499999999999998        0.0000000000000000     
   10.000000000000002        1.2500000000000002        0.0000000000000000     
   8.7500000000000000        1.5625000000000000        0.0000000000000000     
   9.0624999999999982        1.5625000000000000        0.0000000000000000     
   9.3749999999999982        1.5625000000000000        0.0000000000000000     
   9.6875000000000000        1.5625000000000000        0.0000000000000000     
   9.9999999999999982        1.5624999999999998        0.0000000000000000     
   8.7499999999999982        1.8749999999999998        0.0000000000000000     
   9.0624999999999982        1.8749999999999998        0.0000000000000000     
   9.3749999999999982        1.8750000000000000        0.0000000000000000     
   9.6874999999999982        1.8749999999999998        0.0000000000000000     
   10.000000000000000        1.8749999999999998        0.0000000000000000     
   8.7500000000000000        2.1875000000000000        0.0000000000000000     
   9.0625000000000000        2.1875000000000000        0.0000000000000000     
   9.3750000000000018        2.1875000000000004        0.0000000000000000     
   9.6874999999999982        2.1874999999999996        0.0000000000000000     
   10.000000000000000        2.1874999999999996        0.0000000000000000     
   8.7500000000000018        2.5000000000000004        0.0000000000000000     
   9.0625000000000000        2.5000000000000000        0.0000000000000000     
   9.3750000000000018        2.5000000000000000        0.0000000000000000     
   9.6875000000000018        2.5000000000000004        0.0000000000000000     
   10.000000000000004        2.5000000000000004        0.0000000000000000     
   5.0000000000000018        2.5000000000000004        0.0000000000000000     
   5.3125000000000009        2.5000000000000004        0.0000000000000000     
   5.6249999999999991        2.4999999999999996        0.0000000000000000     
   5.9375000000000000        2.5000000000000004        0.0000000000000000     
   6.2500000000000009        2.5000000000000004        0.0000000000000000     
   5.0000000000000000        2.8125000000000000        0.0000000000000000     
   5.3124999999999991        2.8125000000000000        0.0000000000000000     
   5.6250000000000000        2.8125000000000004        0.0000000000000000     
   5.9375000000000009        2.8125000000000000        0.0000000000000000     
   6.2500000000000000        2.8125000000000000        0.0000000000000000     
   5.0000000000000000        3.1249999999999996        0.0000000000000000     
   5.3124999999999991        3.1249999999999996        0.0000000000000000     
   5.6250000000000000        3.1250000000000009        0.0000000000000000     
   5.9375000000000000        3.1249999999999996        0.0000000000000000     
   6.2500000000000000        3.1250000000000004        0.0000000000000000     
   5.0000000000000009        3.4375000000000004        0.0000000000000000     
   5.3125000000000009        3.4375000000000004        0.0000000000000000     
   5.6250000000000000        3.4375000000000000        0.0000000000000000     
   5.9375000000000000        3.4375000000000009        0.0000000000000000     
   6.2500000000000000        3.4375000000000000        0.0000000000000000     
   5.0000000000000000        3.7500000000000000        0.0000000000000000     
   5.3125000000000009        3.7500000000000004        0.0000000000000000     
   5.6249999999999982        3.7500000000000000        0.0000000000000000     
   5.9374999999999982        3.7499999999999996        0.0000000000000000     
   6.2500000000000000        3.7500000000000004        0.0000000000000000     
   6.2500000000000009        2.5000000000000004        0.0000000000000000     
   6.5625000000000000        2.5000000000000004        0.0000000000000000     
   6.8749999999999991        2.4999999999999996        0.0000000000000000     
   7.1875000000000018        2.5000000000000004        0.0000000000000000     
   7.5000000000000018        2.5000000000000004        0.0000000000000000     
   6.2500000000000000        2.8125000000000000        0.0000000000000000     
   6.5624999999999982        2.8124999999999996        0.0000000000000000     
   6.8750000000000000        2.8125000000000004        0.0000000000000000     
   7.1875000000000009        2.8125000000000000        0.0000000000000000     
   7.5000000000000018        2.8125000000000004        0.0000000000000000     
   6.2500000000000000        3.1250000000000004        0.0000000000000000     
   6.5625000000000018        3.1250000000000000        0.0000000000000000     
   6.8750000000000018        3.1250000000000009        0.0000000000000000     
   7.1875000000000000        3.1250000000000000        0.0000000000000000     
   7.5000000000000009        3.1249999999999996        0.0000000000000000     
   6.2500000000000000        3.4375000000000000        0.0000000000000000     
   6.5624999999999991        3.4375000000000000        0.0000000000000000     
   6.8749999999999982        3.4375000000000000        0.0000000000000000     
   7.1875000000000018        3.4375000000000004        0.0000000000000000     
   7.4999999999999982        3.4374999999999996        0.0000000000000000     
   6.2500000000000000        3.7500000000000004        0.0000000000000000     
   6.5625000000000000        3.7500000000000000        0.0000000000000000     
   6.8750000000000000        3.7500000000000004        0.0000000000000000     
   7.1875000000000000        3.7499999999999996        0.0000000000000000     
   7.5000000000000000        3.7500000000000009        0.0000000000000000     
   7.5000000000000018        2.5000000000000004        0.0000000000000000     
   7.8125000000000018        2.5000000000000004        0.0000000000000000     
   8.1250000000000018        2.5000000000000000        0.0000000000000000     
   8.4375000000000018        2.5000000000000004        0.0000000000000000     
   8.7500000000000018        2.5000000000000004        0.0000000000000000     
   7.5000000000000018        2.8125000000000004        0.0000000000000000     
   7.8124999999999991        2.8125000000000000        0.0000000000000000     
   8.1250000000000018        2.8125000000000000        0.0000000000000000     
   8.4375000000000000        2.8125000000000000        0.0000000000000000     
   8.7500000000000000        2.8125000000000004        0.0000000000000000     
   7.5000000000000009        3.1249999999999996        0.0000000000000000     
   7.8125000000000009        3.1250000000000000        0.0000000000000000     
   8.1250000000000000        3.1250000000000009        0.0000000000000000     
   8.4375000000000000        3.1250000000000000        0.0000000000000000     
   8.7500000000000000        3.1250000000000000        0.0000000000000000     
   7.4999999999999982        3.4374999999999996        0.0000000000000000     
   7.8125000000000009        3.4375000000000000        0.0000000000000000     
   8.1250000000000000        3.4375000000000000        0.0000000000000000     
   8.4375000000000000        3.4374999999999996        0.0000000000000000     
   8.7500000000000018        3.4375000000000000        0.0000000000000000     
   7.5000000000000000        3.7500000000000009        0.0000000000000000     
   7.8125000000000000        3.7500000000000000        0.0000000000000000     
   8.1250000000000000        3.7500000000000000        0.0000000000000000     
   8.4375000000000000        3.7500000000000004        0.0000000000000000     
   8.7500000000000000        3.7500000000000000        0.0000000000000000     
   8.7500000000000018        2.5000000000000004        0.0000000000000000     
   9.0625000000000000        2.5000000000000000        0.0000000000000000     
   9.3750000000000018        2.5000000000000000        0.0000000000000000     
   9.6875000000000018        2.5000000000000004        0.0000000000000000     
   10.000000000000004        2.5000000000000004        0.0000000000000000     
   8.7500000000000000        2.8125000000000004        0.0000000000000000     
   9.0625000000000000        2.8125000000000000        0.0000000000000000     
   9.3750000000000000        2.8125000000000000        0.0000000000000000     
   9.6875000000000018        2.8125000000000000        0.0000000000000000     
   10.000000000000000        2.8125000000000000        0.0000000000000000     
   8.7500000000000000        3.1250000000000000        0.0000000000000000     
   9.0625000000000000        3.1250000000000000        0.0000000000000000     
   9.3749999999999982        3.1250000000000009        0.0000000000000000     
   9.6875000000000000        3.1249999999999996        0.0000000000000000     
   10.000000000000000        3.1249999999999996        0.0000000000000000     
   8.7500000000000018        3.4375000000000000        0.0000000000000000     
   9.0624999999999982        3.4375000000000000        0.0000000000000000     
   9.3749999999999982        3.4375000000000004        0.0000000000000000     
   9.6875000000000036        3.4375000000000004        0.0000000000000000     
   10.000000000000002        3.4375000000000004        0.0000000000000000     
   8.7500000000000000        3.7500000000000000        0.0000000000000000     
   9.0625000000000000        3.7500000000000000        0.0000000000000000     
   9.3749999999999982        3.7499999999999991        0.0000000000000000     
   9.6875000000000018        3.7500000000000004        0.0000000000000000     
   10.000000000000000        3.7500000000000000        0.0000000000000000     
   5.0000000000000000        3.7500000000000000        0.0000000000000000     
   5.3125000000000009        3.7500000000000004        0.0000000000000000     
   5.6249999999999982        3.7500000000000000        0.0000000000000000     
   5.9374999999999982        3.7499999999999996        0.0000000000000000     
   6.2500000000000000        3.7500000000000004        0.0000000000000000     
   5.0000000000000000        4.0625000000000000        0.0000000000000000     
   5.3125000000000000        4.0625000000000000        0.0000000000000000     
   5.6249999999999991        4.0625000000000000        0.0000000000000000     
   5.9375000000000000        4.0625000000000000        0.0000000000000000     
   6.2499999999999982        4.0624999999999991        0.0000000000000000     
   5.0000000000000000        4.3749999999999991        0.0000000000000000     
   5.3125000000000000        4.3749999999999991        0.0000000000000000     
   5.6250000000000000        4.3750000000000009        0.0000000000000000     
   5.9375000000000000        4.3749999999999991        0.0000000000000000     
   6.2499999999999982        4.3749999999999991        0.0000000000000000     
   5.0000000000000000        4.6875000000000000        0.0000000000000000     
   5.3125000000000000        4.6875000000000000        0.0000000000000000     
   5.6249999999999991        4.6874999999999991        0.0000000000000000     
   5.9375000000000000        4.6875000000000000        0.0000000000000000     
   6.2500000000000000        4.6875000000000000        0.0000000000000000     
   5.0000000000000000        5.0000000000000000        0.0000000000000000     
   5.3125000000000000        5.0000000000000000        0.0000000000000000     
   5.6250000000000000        5.0000000000000000        0.0000000000000000     
   5.9375000000000000        5.0000000000000000        0.0000000000000000     
   6.2500000000000009        5.0000000000000009        0.0000000000000000     
   6.2500000000000000        3.7500000000000004        0.0000000000000000     
   6.5625000000000000        3.7500000000000000        0.0000000000000000     
   6.8750000000000000        3.7500000000000004        0.0000000000000000     
   7.1875000000000000        3.7499999999999996        0.0000000000000000     
   7.5000000000000000        3.7500000000000009        0.0000000000000000     
   6.2499999999999982        4.0624999999999991        0.0000000000000000     
   6.5624999999999991        4.0625000000000000        0.0000000000000000     
   6.8749999999999991        4.0625000000000000        0.0000000000000000     
   7.1875000000000000        4.0625000000000000        0.0000000000000000     
   7.5000000000000000        4.0625000000000000        0.0000000000000000     
   6.2499999999999982        4.3749999999999991        0.0000000000000000     
   6.5625000000000000        4.3750000000000000        0.0000000000000000     
   6.8750000000000009        4.3750000000000018        0.0000000000000000     
   7.1875000000000000        4.3750000000000000        0.0000000000000000     
   7.5000000000000009        4.3750000000000000        0.0000000000000000     
   6.2500000000000000        4.6875000000000000        0.0000000000000000     
   6.5625000000000000        4.6875000000000000        0.0000000000000000     
   6.8749999999999991        4.6874999999999991        0.0000000000000000     
   7.1875000000000000        4.6875000000000000        0.0000000000000000     
   7.5000000000000009        4.6875000000000000        0.0000000000000000     
   6.2500000000000009        5.0000000000000009        0.0000000000000000     
   6.5625000000000000        4.9999999999999991        0.0000000000000000     
   6.8749999999999991        5.0000000000000000        0.0000000000000000     
   7.1875000000000000        5.0000000000000000        0.0000000000000000     
   7.5000000000000009        5.0000000000000018        0.0000000000000000     
   7.5000000000000000        3.7500000000000009        0.0000000000000000     
   7.8125000000000000        3.7500000000000000        0.0000000000000000     
   8.1250000000000000        3.7500000000000000        0.0000000000000000     
   8.4375000000000000        3.7500000000000004        0.0000000000000000     
   8.7500000000000000        3.7500000000000000        0.0000000000000000     
   7.5000000000000000        4.0625000000000000        0.0000000000000000     
   7.8125000000000000        4.0625000000000000        0.0000000000000000     
   8.1250000000000000        4.0625000000000000        0.0000000000000000     
   8.4375000000000000        4.0625000000000000        0.0000000000000000     
   8.7499999999999982        4.0624999999999991        0.0000000000000000     
   7.5000000000000009        4.3750000000000000        0.0000000000000000     
   7.8125000000000000        4.3750000000000000        0.0000000000000000     
   8.1250000000000000        4.3750000000000009        0.0000000000000000     
   8.4374999999999982        4.3750000000000009        0.0000000000000000     
   8.7499999999999982        4.3749999999999991        0.0000000000000000     
   7.5000000000000009        4.6875000000000000        0.0000000000000000     
   7.8125000000000009        4.6875000000000009        0.0000000000000000     
   8.1250000000000000        4.6874999999999991        0.0000000000000000     
   8.4375000000000000        4.6875000000000000        0.0000000000000000     
   8.7500000000000000        4.6875000000000009        0.0000000000000000     
   7.5000000000000009        5.0000000000000018        0.0000000000000000     
   7.8125000000000000        5.0000000000000000        0.0000000000000000     
   8.1250000000000000        5.0000000000000000        0.0000000000000000     
   8.4375000000000000        5.0000000000000009        0.0000000000000000     
   8.7500000000000000        5.0000000000000000        0.0000000000000000     
   8.7500000000000000        3.7500000000000000        0.0000000000000000     
   9.0625000000000000        3.7500000000000000        0.0000000000000000     
   9.3749999999999982        3.7499999999999991        0.0000000000000000     
   9.6875000000000018        3.7500000000000004        0.0000000000000000     
   10.000000000000000        3.7500000000000000        0.0000000000000000     
   8.7499999999999982        4.0624999999999991        0.0000000000000000     
   9.0624999999999982        4.0625000000000000        0.0000000000000000     
   9.3749999999999982        4.0625000000000000        0.0000000000000000     
   9.6875000000000000        4.0625000000000000        0.0000000000000000     
   10.000000000000000        4.0625000000000000        0.0000000000000000     
   8.7499999999999982        4.3749999999999991        0.0000000000000000     
   9.0625000000000000        4.3749999999999991        0.0000000000000000     
   9.3749999999999982        4.3750000000000009        0.0000000000000000     
   9.6874999999999982        4.3749999999999991        0.0000000000000000     
   10.000000000000000        4.3749999999999991        0.0000000000000000     
   8.7500000000000000        4.6875000000000009        0.0000000000000000     
   9.0625000000000000        4.6875000000000009        0.0000000000000000     
   9.3750000000000000        4.6874999999999991        0.0000000000000000     
   9.6874999999999982        4.6875000000000000        0.0000000000000000     
   10.000000000000000        4.6875000000000000        0.0000000000000000     
   8.7500000000000000        5.0000000000000000        0.0000000000000000     
   9.0625000000000000        5.0000000000000000        0.0000000000000000     
   9.3750000000000000        5.0000000000000000        0.0000000000000000     
   9.6874999999999982        5.0000000000000000        0.0000000000000000     
   10.000000000000000        5.0000000000000000        0.0000000000000000     
 </DataArray>
 </Points>
 <Cells>
 <DataArray  type="Int32"  Name="connectivity"  format="ascii">
           0           1           6           5
           1           2           7           6
           2           3           8           7
           3           4           9           8
           5           6          11          10
           6           7          12          11
           7           8          13          12
           8           9          14          13
          10          11          16          15
          11          12          17          16
          12          13          18          17
          13          14          19          18
          15          16          21          20
          16          17          22          21
          17          18          23          22
          18          19          24          23
          25          26          31          30
          26          27          32          31
          27          28          33          32
          28          29          34          33
          30          31          36          35
          31          32          37          36
          32          33          38          37
          33          34          39          38
          35          36          41          40
          36          37          42          41
          37          38          43          42
          38          39          44          43
          40          41          46          45
          41          42          47          46
          42          43          48          47
          43          44          49          48
          50          51          56          55
          51          52          57          56
          52          53          58          57
          53          54          59          58
          55          56          61          60
          56          57          62          61
          57          58          63          62
          58          59          64          63
          60          61          66          65
          61          62          67          66
          62          63          68          67
          63          64          69          68
          65          66          71          70
          66          67          72          71
          67          68          73          72
          68          69          74          73
          75          76          81          80
          76          77          82          81
          77          78          83          82
          78          79          84          83
          80          81          86          85
          81          82          87          86
          82          83          88          87
          83          84          89          88
          85          86          91          90
          86          87          92          91
          87          88          93          92
          88          89          94          93
          90          91          96          95
          91          92          97          96
          92          93          98          97
          93          94          99          98
         100         101         106         105
         101         102         107         106
         102         103         108         107
         103         104         109         108
         105         106         111         110
         106         107         112         111
         107         108         113         112
         108         109         114         113
         110         111         116         115
         111         112         117         116
         112         113         118         117
         113         114         119         118
         115         116         121         120
         116         117         122         121
         117         118         123         122
         118         119         124         123
         125         126         131         130
         126         127         132         131
         127         128         133         132
         128         129         134         133
         130         131         136         135
         131         132         137         136
         132         133         138         137
         133         134         139         138
         135         136         141         140
         136         137         142         141
         137         138         143         142
         138         139         144         143
         140         141         146         145
         141         142         147         146
         142         143         148         147
         143         144         149         148
         150         151         156         155
         151         152         157         156
         152         153         158         157
         153         154         159         158
         155         156         161         160
         156         157         162         161
         157         158         163         162
         158         159         164         163
         160         161         166         165
         161         162         167         166
         162         163         168         167
         163         164         169         168
         165         166         171         170
         166         167         172         171
         167         168         173         172
         168         169         174         173
         175         176         181         180
         176         177         182         181
         177         178         183         182
         178         179         184         183
         180         181         186         185
         181         182         187         186
         182         183         188         187
         183         184         189         188
         185         186         191         190
         186         187         192         191
         187         188         193         192
         188         189         194         193
         190         191         196         195
         191         192         197         196
         192         193         198         197
         193         194         199         198
         200         201         206         205
         201         202         207         206
         202         203         208         207
         203         204         209         208
         205         206         211         210
         206         207         212         211
         207         208         213         212
         208         209         214         213
         210         211         216         215
         211         212         217         216
         212         213         218         217
         213         214         219         218
         215         216         221         220
         216         217         222         221
         217         218         223         222
         218         219         224         223
         225         226         231         230
         226         227         232         231
         227         228         233         232
         228         229         234         233
         230         231         236         235
         231         232         237         236
         232         233         238         237
         233         234         239         238
         235         236         241         240
         236         237         242         241
         237         238         243         242
         238         239         244         243
         240         241         246         245
         241         242         247         246
         242         243         248         247
         243         244         249         248
         250         251         256         255
         251         252         257         256
         252         253         258         257
         253         254         259         258
         255         256         261         260
         256         257         262         261
         257         258         263         262
         258         259         264         263
         260         261         266         265
         261         262         267         266
         262         263         268         267
         263         264         269         268
         265         266         271         270
         266         267         272         271
         267         268         273         272
         268         269         274         273
         275         276         281         280
         276         277         282         281
         277         278         283         282
         278         279         284         283
         280         281         286         285
         281         282         287         286
         282         283         288         287
         283         284         289         288
         285         286         291         290
         286         287         292         291
         287         288         293         292
         288         289         294         293
         290         291         296         295
         291         292         297         296
         292         293         298         297
         293         294         299         298
         300         301         306         305
         301         302         307         306
         302         303         308         307
         303         304         309         308
         305         306         311         310
         306         307         312         311
         307         308         313         312
         308         309         314         313
         310         311         316         315
         311         312         317         316
         312         313         318         317
         313         314         319         318
         315         316         321         320
         316         317         322         321
         317         318         323         322
         318         319         324         323
         325         326         331         330
         326         327         332         331
         327         328         333         332
         328         329         334         333
         330         331         336         335
         331         332         337         336
         332         333         338         337
         333         334         339         338
         335         336         341         340
         336         337         342         341
         337         338         343         342
         338         339         344         343
         340         341         346         345
         341         342         347         346
         342         343         348         347
         343         344         349         348
         350         351         356         355
         351         352         357         356
         352         353         358         357
         353         354         359         358
         355         356         361         360
         356         357         362         361
         357         358         363         362
         358         359         364         363
         360         361         366         365
         361         362         367         366
         362         363         368         367
         363         364         369         368
         365         366         371         370
         366         367         372         371
         367         368         373         372
         368         369         374         373
         375         376         381         380
         376         377         382         381
         377         378         383         382
         378         379         384         383
         380         381         386         385
         381         382         387         386
         382         383         388         387
         383         384         389         388
         385         386         391         390
         386         387         392         391
         387         388         393         392
         388         389         394         393
         390         391         396         395
         391         392         397         396
         392         393         398         397
         393         394         399         398
 </DataArray>
 <DataArray  type="Int32"  Name="offsets"  format="ascii"> 
           4
           8
          12
          16
          20
          24
          28
          32
          36
          40
          44
          48
          52
          56
          60
          64
          68
          72
          76
          80
          84
          88
          92
          96
         100
         104
         108
         112
         116
         120
         124
         128
         132
         136
         140
         144
         148
         152
         156
         160
         164
         168
         172
         176
         180
         184
         188
         192
         196
         200
         204
         208
         212
         216
         220
         224
         228
         232
         236
         240
         244
         248
         252
         256
         260
         264
         268
         272
         276
         280
         284
         288
         292
         296
         300
         304
         308
         312
         316
         320
         324
         328
         332
         336
         340
         344
         348
         352
         356
         360
         364
         368
         372
         376
         380
         384
         388
         392
         396
         400
         404
         408
         412
         416
         420
         424
         428
         432
         436
         440
         444
         448
         452
         456
         460
         464
         468
         472
         476
         480
         484
         488
         492
         496
         500
         504
         508
         512
         516
         520
         524
         528
         532
         536
         540
         544
         548
         552
         556
         560
         564
         568
         572
         576
         580
         584
         588
         592
         596
         600
         604
         608
         612
         616
         620
         624
         628
         632
         636
         640
         644
         648
         652
         656
         660
         664
         668
         672
         676
         680
         684
         688
         692
         696
         700
         704
         708
         712
         716
         720
         724
         728
         732
         736
         740
         744
         748
         752
         756
         760
         764
         768
         772
         776
         780
         784
         788
         792
         796
         800
         804
         808
         812
         816
         820
         824
         828
         832
         836
         840
         844
         848
         852
         856
         860
         864
         868
         872
         876
         880
         884
         888
         892
         896
         900
         904
         908
         912
         916
         920
         924
         928
         932
         936
         940
         944
         948
         952
         956
         960
         964
         968
         972
         976
         980
         984
         988
         992
         996
        1000
        1004
        1008
        1012
        1016
        1020
        1024
 </DataArray>
 <DataArray  type="UInt8"  Name="types"  format="ascii">
 9
 9
 9
 9
 9
 9
 9
 9
 9
 9
 9
 9
 9
 9
 9
 9
 9
 9
 9
 9
 9
 9
 9
 9
 9
 9
 9
 9
 9
 9
 9
 9
 9
 9
 9
 9
 9
 9
 9
 9
 9
 9
 9
 9
 9
 9
 9
 9
 9
 9
 9
 9
 9
 9
 9
 9
 9
 9
 9
 9
 9
 9
 9
 9
 9
 9
 9
 9
 9
 9
 9
 9
 9
 9
 9
 9
 9
 9
 9
 9
 9
 9
 9
 9
 9
 9
 9
 9
 9
 9
 9
 9
 9
 9
 9
 9
 9
 9
 9
 9
 9
 9
 9
 9
 9
 9
 9
 9
 9
 9
 9
 9
 9
 9
 9
 9
 9
 9
 9
 9
 9
 9
 9
 9
 9
 9
 9
 9
 9
 9
 9
 9
 9
 9
 9
 9
 9
 9
 9
 9
 9
 9
 9
 9
 9
 9
 9
 9
 9
 9
 9
 9
 9
 9
 9
 9
 9
 9
 9
 9
 9
 9
 9
 9
 9
 9
 9
 9
 9
 9
 9
 9
 9
 9
 9
 9
 9
 9
 9
 9
 9
 9
 9
 9
 9
 9
 9
 9
 9
 9
 9
 9
 9
 9
 9
 9
 9
 9
 9
 9
 9
 9
 9
 9
 9
 9
 9
 9
 9
 9
 9
 9
 9
 9
 9
 9
 9
 9
 9
 9
 9
 9
 9
 9
 9
 9
 9
 9
 9
 9
 9
 9
 9
 9
 9
 9
 9
 9
 9
 9
 9
 9
 9
 9
 9
 9
 9
 9
 9
 9
 9
 9
 9
 9
 9
 9
 </DataArray>
 </Cells> 
 <PointData>
 <DataArray  type="Float64" Name="disp" NumberOfComponents="3" format="ascii">
   3.7568154439011029E-006   1.4223745444633007E-005   0.0000000000000000     
   3.7871120957396432E-006   1.4707241044782597E-005   0.0000000000000000     
   3.8153967242347775E-006   1.5194373056312894E-005   0.0000000000000000     
   3.8417240640039294E-006   1.5684907191441042E-005   0.0000000000000000     
   3.8661488496645234E-006   1.6178609162384198E-005   0.0000000000000000     
   3.2773878851139261E-006   1.4214940037168857E-005   0.0000000000000000     
   3.3038638101557101E-006   1.4699022405724167E-005   0.0000000000000000     
   3.3286679633447322E-006   1.5186685615597504E-005   0.0000000000000000     
   3.3517771794107391E-006   1.5677732580601781E-005   0.0000000000000000     
   3.3731682930834791E-006   1.6171966214549902E-005   0.0000000000000000     
   2.8018889994723571E-006   1.4207326229072554E-005   0.0000000000000000     
   2.8245733531843409E-006   1.4691877836019906E-005   0.0000000000000000     
   2.8458459727216295E-006   1.5180016212559883E-005   0.0000000000000000     
   2.8656654771604962E-006   1.5671544365405834E-005   0.0000000000000000     
   2.8839904855772148E-006   1.6166265301271099E-005   0.0000000000000000     
   2.3297583861215240E-006   1.4200894101819603E-005   0.0000000000000000     
   2.3486677661492097E-006   1.4685821654452903E-005   0.0000000000000000     
   2.3663806357528781E-006   1.5174373256382910E-005   0.0000000000000000     
   2.3828718152056850E-006   1.5666332569492214E-005   0.0000000000000000     
   2.3981161247807895E-006   1.6161483255663418E-005   0.0000000000000000     
   1.8604356442065555E-006   1.4195633736885508E-005   0.0000000000000000     
   1.8755740903739889E-006   1.4680868179806241E-005   0.0000000000000000     
   1.8897218358258838E-006   1.5169765156249472E-005   0.0000000000000000     
   1.9028790514987927E-006   1.5662087216499969E-005   0.0000000000000000     
   1.9150459083292684E-006   1.6157596910842519E-005   0.0000000000000000     
   3.8661488496645234E-006   1.6178609162384198E-005   0.0000000000000000     
   3.8887097592807559E-006   1.6675243189701973E-005   0.0000000000000000     
   3.9093812447039203E-006   1.7174567527323891E-005   0.0000000000000000     
   3.9281217012320790E-006   1.7676338937521917E-005   0.0000000000000000     
   3.9448895241632985E-006   1.8180314182568029E-005   0.0000000000000000     
   3.3731682930834791E-006   1.6171966214549902E-005   0.0000000000000000     
   3.3928288687815091E-006   1.6669175086629344E-005   0.0000000000000000     
   3.4107893896786195E-006   1.7169090387525888E-005   0.0000000000000000     
   3.4270910686374117E-006   1.7671428963299896E-005   0.0000000000000000     
   3.4417751185204856E-006   1.8175907660011710E-005   0.0000000000000000     
   2.8839904855772148E-006   1.6166265301271099E-005   0.0000000000000000     
   2.9007948365788942E-006   1.6663966470722608E-005   0.0000000000000000     
   2.9161132468959943E-006   1.7164373099741630E-005   0.0000000000000000     
   2.9299956527898068E-006   1.7667194858163010E-005   0.0000000000000000     
   2.9424919905216246E-006   1.8172141415821590E-005   0.0000000000000000     
   2.3981161247807895E-006   1.6161483255663418E-005   0.0000000000000000     
   2.4120956163643355E-006   1.6659598742275589E-005   0.0000000000000000     
   2.4248212682944106E-006   1.7160411518693649E-005   0.0000000000000000     
   2.4363112905220920E-006   1.7663643839779007E-005   0.0000000000000000     
   2.4465838929984566E-006   1.8169017960393072E-005   0.0000000000000000     
   1.9150459083292684E-006   1.6157596910842519E-005   0.0000000000000000     
   1.9262191618292531E-006   1.6656053301582106E-005   0.0000000000000000     
   1.9363819058122357E-006   1.7157201499104489E-005   0.0000000000000000     
   1.9455138186670967E-006   1.7660783125815644E-005   0.0000000000000000     
   1.9535945787827133E-006   1.8166539804121529E-005   0.0000000000000000     
   3.9448895241632985E-006   1.8180314182568029E-005   0.0000000000000000     
   3.9597017574869159E-006   1.8686265167181883E-005   0.0000000000000000     
   3.9728100399573734E-006   1.9194024365873881E-005   0.0000000000000000     
   3.9845246590203859E-006   1.9703439395602115E-005   0.0000000000000000     
   3.9951559021216676E-006   2.0214357873324660E-005   0.0000000000000000     
   3.4417751185204856E-006   1.8175907660011710E-005   0.0000000000000000     
   3.4548735663447756E-006   1.8682278666627715E-005   0.0000000000000000     
   3.4663816957445569E-006   1.9190435543738422E-005   0.0000000000000000     
   3.4762856045084399E-006   1.9700307194840364E-005   0.0000000000000000     
   3.4845713904250321E-006   2.0211822523430073E-005   0.0000000000000000     
   2.9424919905216246E-006   1.8172141415821590E-005   0.0000000000000000     
   2.9536230607830758E-006   1.8678962953866422E-005   0.0000000000000000     
   2.9632931219871102E-006   1.9187571698703373E-005   0.0000000000000000     
   2.9713772969770075E-006   1.9697920388052462E-005   0.0000000000000000     
   2.9777507085960550E-006   2.0209961759633755E-005   0.0000000000000000     
   2.4465838929984566E-006   1.8169017960393072E-005   0.0000000000000000     
   2.4556365573320994E-006   1.8676290966621374E-005   0.0000000000000000     
   2.4633838517617117E-006   1.9185359269445970E-005   0.0000000000000000     
   2.4697196161835044E-006   1.9696154111073074E-005   0.0000000000000000     
   2.4745376904936854E-006   2.0208606733708861E-005   0.0000000000000000     
   1.9535945787827133E-006   1.8166539804121529E-005   0.0000000000000000     
   1.9606003725221293E-006   1.8674235642615881E-005   0.0000000000000000     
   1.9664934181450495E-006   1.9183724694643476E-005   0.0000000000000000     
   1.9712324418853435E-006   1.9694883499736852E-005   0.0000000000000000     
   1.9747761699768801E-006   2.0207588597428557E-005   0.0000000000000000     
   3.9951559021216676E-006   2.0214357873324660E-005   0.0000000000000000     
   4.0048757628781889E-006   2.0726983362243821E-005   0.0000000000000000     
   4.0133030595919366E-006   2.1242943210538852E-005   0.0000000000000000     
   4.0199183167361523E-006   2.1764220712633202E-005   0.0000000000000000     
   4.0242020587840747E-006   2.2292799162950343E-005   0.0000000000000000     
   3.4845713904250321E-006   2.0211822523430073E-005   0.0000000000000000     
   3.4912425011099631E-006   2.0725150501025314E-005   0.0000000000000000     
   3.4963717834869342E-006   2.1241420371228738E-005   0.0000000000000000     
   3.5000494343066669E-006   2.1762001445664236E-005   0.0000000000000000     
   3.5023656503198805E-006   2.2288263035955688E-005   0.0000000000000000     
   2.9777507085960550E-006   2.0209961759633755E-005   0.0000000000000000     
   2.9823760823167521E-006   2.0723761134607016E-005   0.0000000000000000     
   2.9855665541284825E-006   2.1239834167890928E-005   0.0000000000000000     
   2.9877228626498466E-006   2.1758809097843863E-005   0.0000000000000000     
   2.9892457464994477E-006   2.2281314162824230E-005   0.0000000000000000     
   2.4745376904936854E-006   2.0208606733708861E-005   0.0000000000000000     
   2.4778326747798814E-006   2.0722643925460888E-005   0.0000000000000000     
   2.4800022098953611E-006   2.1238174658042097E-005   0.0000000000000000     
   2.4815446968848070E-006   2.1755103449066815E-005   0.0000000000000000     
   2.4829585367929030E-006   2.2273334816149335E-005   0.0000000000000000     
   1.9747761699768801E-006   2.0207588597428557E-005   0.0000000000000000     
   1.9771684467806785E-006   2.0721627536058850E-005   0.0000000000000000     
   1.9787935891663521E-006   2.1236431899198969E-005   0.0000000000000000     
   1.9801210321306628E-006   2.1751344279227819E-005   0.0000000000000000     
   1.9816202106703750E-006   2.2265707268524371E-005   0.0000000000000000     
   1.8604356442065555E-006   1.4195633736885508E-005   0.0000000000000000     
   1.8755740903739889E-006   1.4680868179806241E-005   0.0000000000000000     
   1.8897218358258838E-006   1.5169765156249472E-005   0.0000000000000000     
   1.9028790514987927E-006   1.5662087216499969E-005   0.0000000000000000     
   1.9150459083292684E-006   1.6157596910842519E-005   0.0000000000000000     
   1.3933601308480880E-006   1.4191537490616375E-005   0.0000000000000000     
   1.4047215669297594E-006   1.4677027866520766E-005   0.0000000000000000     
   1.4153171201594248E-006   1.5166197144721606E-005   0.0000000000000000     
   1.4251610747840744E-006   1.5658798734750156E-005   0.0000000000000000     
   1.4342677150506952E-006   1.6154586046137669E-005   0.0000000000000000     
   9.2797023506879937E-007   1.4188606818840704E-005   0.0000000000000000     
   9.3554823587722802E-007   1.4674295711668348E-005   0.0000000000000000     
   9.4260469129775766E-007   1.5163661747878020E-005   0.0000000000000000     
   9.4915589697286938E-007   1.5656459171292040E-005   0.0000000000000000     
   9.5521814854504405E-007   1.6152442225732732E-005   0.0000000000000000     
   4.6370410386687481E-007   1.4186845452257592E-005   0.0000000000000000     
   4.6749433702451030E-007   1.4672662847978634E-005   0.0000000000000000     
   4.7102041561650887E-007   1.5162148315176587E-005   0.0000000000000000     
   4.7429256076828997E-007   1.5655060977856941E-005   0.0000000000000000     
   4.7732099360527290E-007   1.6151159960025194E-005   0.0000000000000000     
  -1.1575949933852048E-013   1.4186257121566141E-005   0.0000000000000000     
   1.1017972038223160E-013   1.4672120408181270E-005   0.0000000000000000     
   1.5949130438910081E-013   1.5161646196075176E-005   0.0000000000000000     
   1.0887344595879063E-013   1.5654596606176174E-005   0.0000000000000000     
   3.5024338679024457E-014   1.6150733759412560E-005   0.0000000000000000     
   1.9150459083292684E-006   1.6157596910842519E-005   0.0000000000000000     
   1.9262191618292531E-006   1.6656053301582106E-005   0.0000000000000000     
   1.9363819058122357E-006   1.7157201499104489E-005   0.0000000000000000     
   1.9455138186670967E-006   1.7660783125815644E-005   0.0000000000000000     
   1.9535945787827133E-006   1.8166539804121529E-005   0.0000000000000000     
   1.4342677150506952E-006   1.6154586046137669E-005   0.0000000000000000     
   1.4426424879851961E-006   1.6653313101666367E-005   0.0000000000000000     
   1.4502554917291640E-006   1.7154736377122248E-005   0.0000000000000000     
   1.4570679872031033E-006   1.7658612961542281E-005   0.0000000000000000     
   1.4630412353275197E-006   1.8164699943963416E-005   0.0000000000000000     
   9.5521814854504405E-007   1.6152442225732732E-005   0.0000000000000000     
   9.6079885512422411E-007   1.6651367306474140E-005   0.0000000000000000     
   9.6586987969019870E-007   1.7152999414597251E-005   0.0000000000000000     
   9.7039419869021960E-007   1.7657105702634759E-005   0.0000000000000000     
   9.7433478857153730E-007   1.8163453323119364E-005   0.0000000000000000     
   4.7732099360527290E-007   1.6151159960025194E-005   0.0000000000000000     
   4.8011058485852107E-007   1.6650206632681595E-005   0.0000000000000000     
   4.8264480368167215E-007   1.7151971354805380E-005   0.0000000000000000     
   4.8490176883400861E-007   1.7656226732370548E-005   0.0000000000000000     
   4.8685959907481284E-007   1.8162745371351111E-005   0.0000000000000000     
   3.5024338679024457E-014   1.6150733759412560E-005   0.0000000000000000     
  -1.1997285395578203E-015   1.6649821796964859E-005   0.0000000000000000     
  -2.3100855442811533E-015   1.7151632941022492E-005   0.0000000000000000     
   1.3340033250254230E-014   1.7655941434027113E-005   0.0000000000000000     
   2.7397393374026999E-014   1.8162521518420334E-005   0.0000000000000000     
   1.9535945787827133E-006   1.8166539804121529E-005   0.0000000000000000     
   1.9606003725221293E-006   1.8674235642615881E-005   0.0000000000000000     
   1.9664934181450495E-006   1.9183724694643476E-005   0.0000000000000000     
   1.9712324418853435E-006   1.9694883499736852E-005   0.0000000000000000     
   1.9747761699768801E-006   2.0207588597428557E-005   0.0000000000000000     
   1.4630412353275197E-006   1.8164699943963416E-005   0.0000000000000000     
   1.4681432428166803E-006   1.8672761880304823E-005   0.0000000000000000     
   1.4723689995598993E-006   1.9182593194014536E-005   0.0000000000000000     
   1.4757202412402530E-006   1.9693995775422774E-005   0.0000000000000000     
   1.4781987035408174E-006   2.0206771514859794E-005   0.0000000000000000     
   9.7433478857153730E-007   1.8163453323119364E-005   0.0000000000000000     
   9.7766358441219653E-007   1.8671802421069126E-005   0.0000000000000000     
   9.8038835581341608E-007   1.9181885111443426E-005   0.0000000000000000     
   9.8252583100720964E-007   1.9693426501687025E-005   0.0000000000000000     
   9.8409273822558981E-007   2.0206151699244681E-005   0.0000000000000000     
   4.8685959907481284E-007   1.8162745371351111E-005   0.0000000000000000     
   4.8850223343835354E-007   1.8671281967021229E-005   0.0000000000000000     
   4.8983689205884873E-007   1.9181519571855861E-005   0.0000000000000000     
   4.9087661534550242E-007   1.9693123327630110E-005   0.0000000000000000     
   4.9163444370751920E-007   2.0205758376119103E-005   0.0000000000000000     
   2.7397393374026999E-014   1.8162521518420334E-005   0.0000000000000000     
   2.6024828694641669E-014   1.8671125220273601E-005   0.0000000000000000     
   1.3449445934724948E-014   1.9181415700177516E-005   0.0000000000000000     
  -1.5855801891641593E-015   1.9693033902352503E-005   0.0000000000000000     
  -1.0337074474911626E-014   2.0205620771018957E-005   0.0000000000000000     
   1.9747761699768801E-006   2.0207588597428557E-005   0.0000000000000000     
   1.9771684467806785E-006   2.0721627536058850E-005   0.0000000000000000     
   1.9787935891663521E-006   2.1236431899198969E-005   0.0000000000000000     
   1.9801210321306628E-006   2.1751344279227819E-005   0.0000000000000000     
   1.9816202106703750E-006   2.2265707268524371E-005   0.0000000000000000     
   1.4781987035408174E-006   2.0206771514859794E-005   0.0000000000000000     
   1.4798703993676376E-006   2.0720596375965462E-005   0.0000000000000000     
   1.4810584505186380E-006   2.1234642615618206E-005   0.0000000000000000     
   1.4821502560147114E-006   2.1747956564006102E-005   0.0000000000000000     
   1.4835332148767516E-006   2.2259584551317231E-005   0.0000000000000000     
   9.8409273822558981E-007   2.0206151699244681E-005   0.0000000000000000     
   9.8514886465792491E-007   2.0719657843115542E-005   0.0000000000000000     
   9.8592623332300366E-007   2.1233030198516507E-005   0.0000000000000000     
   9.8669992619696921E-007   2.1745226062218870E-005   0.0000000000000000     
   9.8774502525596578E-007   2.2255202730993928E-005   0.0000000000000000     
   4.9163444370751920E-007   2.0205758376119103E-005   0.0000000000000000     
   4.9214500753587573E-007   2.0718975082536555E-005   0.0000000000000000     
   4.9252929714863599E-007   2.1231864705850567E-005   0.0000000000000000     
   4.9292989284563522E-007   2.1743403728467810E-005   0.0000000000000000     
   4.9348937492670964E-007   2.2252568632794978E-005   0.0000000000000000     
  -1.0337074474911626E-014   2.0205620771018957E-005   0.0000000000000000     
  -7.1141759241618281E-015   2.0718711239255924E-005   0.0000000000000000     
   1.5647208557453077E-015   2.1231416195577060E-005   0.0000000000000000     
   6.1289074268733065E-015   2.1742740517354633E-005   0.0000000000000000     
  -2.9923243571331403E-015   2.2251689081960930E-005   0.0000000000000000     
  -1.1575949933852048E-013   1.4186257121566141E-005   0.0000000000000000     
   1.1017972038223160E-013   1.4672120408181270E-005   0.0000000000000000     
   1.5949130438910081E-013   1.5161646196075176E-005   0.0000000000000000     
   1.0887344595879063E-013   1.5654596606176174E-005   0.0000000000000000     
   3.5024338679024457E-014   1.6150733759412560E-005   0.0000000000000000     
  -4.6370428467729144E-007   1.4186844369106121E-005   0.0000000000000000     
  -4.6749418960066988E-007   1.4672662497962410E-005   0.0000000000000000     
  -4.7102019194319945E-007   1.5162148290777425E-005   0.0000000000000000     
  -4.7429240446703605E-007   1.5655061021453303E-005   0.0000000000000000     
  -4.7732093993433526E-007   1.6151159963892177E-005   0.0000000000000000     
  -9.2797029521408787E-007   1.4188604983780029E-005   0.0000000000000000     
  -9.3554824626676019E-007   1.4674295114834355E-005   0.0000000000000000     
  -9.4260467851622551E-007   1.5163661702470049E-005   0.0000000000000000     
  -9.4915587884246436E-007   1.5656459242780957E-005   0.0000000000000000     
  -9.5521813412546073E-007   1.6152442231860924E-005   0.0000000000000000     
  -1.3933600475626286E-006   1.4191535566131032E-005   0.0000000000000000     
  -1.4047217285202941E-006   1.4677027229265916E-005   0.0000000000000000     
  -1.4153173212979661E-006   1.5166197085085546E-005   0.0000000000000000     
  -1.4251612023006330E-006   1.5658798802724035E-005   0.0000000000000000     
  -1.4342677479332829E-006   1.6154586051315507E-005   0.0000000000000000     
  -1.8604354419156536E-006   1.4195632716702286E-005   0.0000000000000000     
  -1.8755743050630143E-006   1.4680867811725915E-005   0.0000000000000000     
  -1.8897221413586150E-006   1.5169765092556392E-005   0.0000000000000000     
  -1.9028792628893333E-006   1.5662087233847414E-005   0.0000000000000000     
  -1.9150459817420476E-006   1.6157596910252649E-005   0.0000000000000000     
   3.5024338679024457E-014   1.6150733759412560E-005   0.0000000000000000     
  -1.1997285395578203E-015   1.6649821796964859E-005   0.0000000000000000     
  -2.3100855442811533E-015   1.7151632941022492E-005   0.0000000000000000     
   1.3340033250254230E-014   1.7655941434027113E-005   0.0000000000000000     
   2.7397393374026999E-014   1.8162521518420334E-005   0.0000000000000000     
  -4.7732093993433526E-007   1.6151159963892177E-005   0.0000000000000000     
  -4.8011058291376085E-007   1.6650206611591844E-005   0.0000000000000000     
  -4.8264480520000751E-007   1.7151971336432598E-005   0.0000000000000000     
  -4.8490175039427796E-007   1.7656226729890401E-005   0.0000000000000000     
  -4.8685956209777418E-007   1.8162745383441212E-005   0.0000000000000000     
  -9.5521813412546073E-007   1.6152442231860924E-005   0.0000000000000000     
  -9.6079884604850049E-007   1.6651367271197379E-005   0.0000000000000000     
  -9.6586987550808830E-007   1.7152999383852090E-005   0.0000000000000000     
  -9.7039419820403264E-007   1.7657105698280431E-005   0.0000000000000000     
  -9.7433478983614373E-007   1.8163453342937760E-005   0.0000000000000000     
  -1.4342677479332829E-006   1.6154586051315507E-005   0.0000000000000000     
  -1.4426424778442926E-006   1.6653313066008028E-005   0.0000000000000000     
  -1.4502554846555859E-006   1.7154736346005477E-005   0.0000000000000000     
  -1.4570680042324747E-006   1.7658612956525691E-005   0.0000000000000000     
  -1.4630412724402700E-006   1.8164699962786481E-005   0.0000000000000000     
  -1.9150459817420476E-006   1.6157596910252649E-005   0.0000000000000000     
  -1.9262191655414834E-006   1.6656053286250383E-005   0.0000000000000000     
  -1.9363819040637606E-006   1.7157201485617299E-005   0.0000000000000000     
  -1.9455138426228452E-006   1.7660783121954691E-005   0.0000000000000000     
  -1.9535946265327071E-006   1.8166539808863857E-005   0.0000000000000000     
   2.7397393374026999E-014   1.8162521518420334E-005   0.0000000000000000     
   2.6024828694641669E-014   1.8671125220273601E-005   0.0000000000000000     
   1.3449445934724948E-014   1.9181415700177516E-005   0.0000000000000000     
  -1.5855801891641593E-015   1.9693033902352503E-005   0.0000000000000000     
  -1.0337074474911626E-014   2.0205620771018957E-005   0.0000000000000000     
  -4.8685956209777418E-007   1.8162745383441212E-005   0.0000000000000000     
  -4.8850219813170652E-007   1.8671281981372393E-005   0.0000000000000000     
  -4.8983687319731493E-007   1.9181519579217089E-005   0.0000000000000000     
  -4.9087661621584625E-007   1.9693123325319808E-005   0.0000000000000000     
  -4.9163445610854794E-007   2.0205758368025103E-005   0.0000000000000000     
  -9.7433478983614373E-007   1.8163453342937760E-005   0.0000000000000000     
  -9.7766358506659787E-007   1.8671802444598739E-005   0.0000000000000000     
  -9.8038835440704345E-007   1.9181885123315118E-005   0.0000000000000000     
  -9.8252582733149513E-007   1.9693426497457962E-005   0.0000000000000000     
  -9.8409273331396931E-007   2.0206151685398311E-005   0.0000000000000000     
  -1.4630412724402700E-006   1.8164699962786481E-005   0.0000000000000000     
  -1.4681432772481956E-006   1.8672761902667442E-005   0.0000000000000000     
  -1.4723690150411194E-006   1.9182593204695157E-005   0.0000000000000000     
  -1.4757202343078224E-006   1.9693995770057996E-005   0.0000000000000000     
  -1.4781986835370844E-006   2.0206771499944309E-005   0.0000000000000000     
  -1.9535946265327071E-006   1.8166539808863857E-005   0.0000000000000000     
  -1.9606004171448490E-006   1.8674235648293340E-005   0.0000000000000000     
  -1.9664934399609260E-006   1.9183724695580759E-005   0.0000000000000000     
  -1.9712324365201259E-006   1.9694883494410960E-005   0.0000000000000000     
  -1.9747761483616382E-006   2.0207588588468828E-005   0.0000000000000000     
  -1.0337074474911626E-014   2.0205620771018957E-005   0.0000000000000000     
  -7.1141759241618281E-015   2.0718711239255924E-005   0.0000000000000000     
   1.5647208557453077E-015   2.1231416195577060E-005   0.0000000000000000     
   6.1289074268733065E-015   2.1742740517354633E-005   0.0000000000000000     
  -2.9923243571331403E-015   2.2251689081960930E-005   0.0000000000000000     
  -4.9163445610854794E-007   2.0205758368025103E-005   0.0000000000000000     
  -4.9214501576015600E-007   2.0718975076883664E-005   0.0000000000000000     
  -4.9252929390935976E-007   2.1231864706270719E-005   0.0000000000000000     
  -4.9292988325833823E-007   2.1743403731767634E-005   0.0000000000000000     
  -4.9348937650926916E-007   2.2252568628955774E-005   0.0000000000000000     
  -9.8409273331396931E-007   2.0206151685398311E-005   0.0000000000000000     
  -9.8514886027903160E-007   2.0719657833360067E-005   0.0000000000000000     
  -9.8592622995344371E-007   2.1233030198978465E-005   0.0000000000000000     
  -9.8669992251451571E-007   2.1745226067741563E-005   0.0000000000000000     
  -9.8774501813955982E-007   2.2255202725137441E-005   0.0000000000000000     
  -1.4781986835370844E-006   2.0206771499944309E-005   0.0000000000000000     
  -1.4798703839000314E-006   2.0720596365208008E-005   0.0000000000000000     
  -1.4810584472971724E-006   2.1234642615365265E-005   0.0000000000000000     
  -1.4821502583113616E-006   2.1747956569597797E-005   0.0000000000000000     
  -1.4835332015254564E-006   2.2259584547087328E-005   0.0000000000000000     
  -1.9747761483616382E-006   2.0207588588468828E-005   0.0000000000000000     
  -1.9771684298523824E-006   2.0721627528950356E-005   0.0000000000000000     
  -1.9787935866701875E-006   2.1236431897096074E-005   0.0000000000000000     
  -1.9801210373206141E-006   2.1751344281657679E-005   0.0000000000000000     
  -1.9816202003092189E-006   2.2265707271386820E-005   0.0000000000000000     
  -1.8604354419156536E-006   1.4195632716702286E-005   0.0000000000000000     
  -1.8755743050630143E-006   1.4680867811725915E-005   0.0000000000000000     
  -1.8897221413586150E-006   1.5169765092556392E-005   0.0000000000000000     
  -1.9028792628893333E-006   1.5662087233847414E-005   0.0000000000000000     
  -1.9150459817420476E-006   1.6157596910252649E-005   0.0000000000000000     
  -2.3297581389891512E-006   1.4200894967505805E-005   0.0000000000000000     
  -2.3486678771160853E-006   1.4685821876539304E-005   0.0000000000000000     
  -2.3663808561842423E-006   1.5174373213935467E-005   0.0000000000000000     
  -2.3828719962655246E-006   1.5666332497120550E-005   0.0000000000000000     
  -2.3981162174318329E-006   1.6161483243520822E-005   0.0000000000000000     
  -2.8018888415921005E-006   1.4207328576428955E-005   0.0000000000000000     
  -2.8245732759783618E-006   1.4691878613455632E-005   0.0000000000000000     
  -2.8458459689244317E-006   1.5180016278757099E-005   0.0000000000000000     
  -2.8656655285228241E-006   1.5671544267131116E-005   0.0000000000000000     
  -2.8839905628660549E-006   1.6166265273375468E-005   0.0000000000000000     
  -3.2773880130567290E-006   1.4214941732827941E-005   0.0000000000000000     
  -3.3038635654681201E-006   1.4699023256080570E-005   0.0000000000000000     
  -3.3286676791446416E-006   1.5186685951675986E-005   0.0000000000000000     
  -3.3517770333640148E-006   1.5677732646871342E-005   0.0000000000000000     
  -3.3731683074039611E-006   1.6171966168923771E-005   0.0000000000000000     
  -3.7568161167152623E-006   1.4223742626058965E-005   0.0000000000000000     
  -3.7871118094036354E-006   1.4707241038019791E-005   0.0000000000000000     
  -3.8153961864103335E-006   1.5194373897346853E-005   0.0000000000000000     
  -3.8417236844918813E-006   1.5684907739333455E-005   0.0000000000000000     
  -3.8661487404048008E-006   1.6178609099272918E-005   0.0000000000000000     
  -1.9150459817420476E-006   1.6157596910252649E-005   0.0000000000000000     
  -1.9262191655414834E-006   1.6656053286250383E-005   0.0000000000000000     
  -1.9363819040637606E-006   1.7157201485617299E-005   0.0000000000000000     
  -1.9455138426228452E-006   1.7660783121954691E-005   0.0000000000000000     
  -1.9535946265327071E-006   1.8166539808863857E-005   0.0000000000000000     
  -2.3981162174318329E-006   1.6161483243520822E-005   0.0000000000000000     
  -2.4120956522226092E-006   1.6659598763217265E-005   0.0000000000000000     
  -2.4248212830474418E-006   1.7160411536909712E-005   0.0000000000000000     
  -2.4363113047834570E-006   1.7663643837952723E-005   0.0000000000000000     
  -2.4465839123077843E-006   1.8169017939700840E-005   0.0000000000000000     
  -2.8839905628660549E-006   1.6166265273375468E-005   0.0000000000000000     
  -2.9007949043389737E-006   1.6663966492466604E-005   0.0000000000000000     
  -2.9161132824957557E-006   1.7164373120095612E-005   0.0000000000000000     
  -2.9299956511829082E-006   1.7667194852132254E-005   0.0000000000000000     
  -2.9424919642469430E-006   1.8172141384446310E-005   0.0000000000000000     
  -3.3731683074039611E-006   1.6171966168923771E-005   0.0000000000000000     
  -3.3928289441840703E-006   1.6669175010622563E-005   0.0000000000000000     
  -3.4107894411913957E-006   1.7169090326885509E-005   0.0000000000000000     
  -3.4270910595548617E-006   1.7671428938162544E-005   0.0000000000000000     
  -3.4417750604033952E-006   1.8175907664903597E-005   0.0000000000000000     
  -3.8661487404048008E-006   1.6178609099272918E-005   0.0000000000000000     
  -3.8887097940513915E-006   1.6675242854309330E-005   0.0000000000000000     
  -3.9093812979170593E-006   1.7174567248989959E-005   0.0000000000000000     
  -3.9281217076329867E-006   1.7676338869712850E-005   0.0000000000000000     
  -3.9448894788303577E-006   1.8180314302876049E-005   0.0000000000000000     
  -1.9535946265327071E-006   1.8166539808863857E-005   0.0000000000000000     
  -1.9606004171448490E-006   1.8674235648293340E-005   0.0000000000000000     
  -1.9664934399609260E-006   1.9183724695580759E-005   0.0000000000000000     
  -1.9712324365201259E-006   1.9694883494410960E-005   0.0000000000000000     
  -1.9747761483616382E-006   2.0207588588468828E-005   0.0000000000000000     
  -2.4465839123077843E-006   1.8169017939700840E-005   0.0000000000000000     
  -2.4556365753331551E-006   1.8676290942313680E-005   0.0000000000000000     
  -2.4633838629147271E-006   1.9185359253171086E-005   0.0000000000000000     
  -2.4697196189432623E-006   1.9696154106457968E-005   0.0000000000000000     
  -2.4745376873095230E-006   2.0208606736359231E-005   0.0000000000000000     
  -2.9424919642469430E-006   1.8172141384446310E-005   0.0000000000000000     
  -2.9536230348226972E-006   1.8678962918055303E-005   0.0000000000000000     
  -2.9632931131983332E-006   1.9187571674567881E-005   0.0000000000000000     
  -2.9713773089503433E-006   1.9697920380740434E-005   0.0000000000000000     
  -2.9777507316552192E-006   2.0209961763329359E-005   0.0000000000000000     
  -3.4417750604033952E-006   1.8175907664903597E-005   0.0000000000000000     
  -3.4548735067313024E-006   1.8682278676967477E-005   0.0000000000000000     
  -3.4663816689944370E-006   1.9190435541848488E-005   0.0000000000000000     
  -3.4762856195140411E-006   1.9700307176449839E-005   0.0000000000000000     
  -3.4845714306113532E-006   2.0211822497674712E-005   0.0000000000000000     
  -3.9448894788303577E-006   1.8180314302876049E-005   0.0000000000000000     
  -3.9597017021767986E-006   1.8686265320499434E-005   0.0000000000000000     
  -3.9728100084857329E-006   1.9194024437090280E-005   0.0000000000000000     
  -3.9845246636070269E-006   1.9703439352777681E-005   0.0000000000000000     
  -3.9951559333905487E-006   2.0214357767690727E-005   0.0000000000000000     
  -1.9747761483616382E-006   2.0207588588468828E-005   0.0000000000000000     
  -1.9771684298523824E-006   2.0721627528950356E-005   0.0000000000000000     
  -1.9787935866701875E-006   2.1236431897096074E-005   0.0000000000000000     
  -1.9801210373206141E-006   2.1751344281657679E-005   0.0000000000000000     
  -1.9816202003092189E-006   2.2265707271386820E-005   0.0000000000000000     
  -2.4745376873095230E-006   2.0208606736359231E-005   0.0000000000000000     
  -2.4778326709574123E-006   2.0722643925882812E-005   0.0000000000000000     
  -2.4800022090433827E-006   2.1238174653328752E-005   0.0000000000000000     
  -2.4815446997770298E-006   2.1755103445820124E-005   0.0000000000000000     
  -2.4829585413679469E-006   2.2273334830480035E-005   0.0000000000000000     
  -2.9777507316552192E-006   2.0209961763329359E-005   0.0000000000000000     
  -2.9823760984048419E-006   2.0723761136392413E-005   0.0000000000000000     
  -2.9855665563526466E-006   2.1239834163192630E-005   0.0000000000000000     
  -2.9877228601674568E-006   2.1758809094294347E-005   0.0000000000000000     
  -2.9892457645180975E-006   2.2281314180261962E-005   0.0000000000000000     
  -3.4845714306113532E-006   2.0211822497674712E-005   0.0000000000000000     
  -3.4912425329764946E-006   2.0725150485639055E-005   0.0000000000000000     
  -3.4963717907751203E-006   2.1241420373309911E-005   0.0000000000000000     
  -3.5000494265417664E-006   2.1762001456867063E-005   0.0000000000000000     
  -3.5023656628109683E-006   2.2288263032490314E-005   0.0000000000000000     
  -3.9951559333905487E-006   2.0214357767690727E-005   0.0000000000000000     
  -4.0048757954541900E-006   2.0726983298782605E-005   0.0000000000000000     
  -4.0133030744879445E-006   2.1242943230302838E-005   0.0000000000000000     
  -4.0199183069498259E-006   2.1764220763325030E-005   0.0000000000000000     
  -4.0242020292978541E-006   2.2292799098922777E-005   0.0000000000000000     
 </DataArray>
 <DataArray  type="Float64" Name="stress" NumberOfComponents="3" format="ascii">
   6013.0927934973461       -1.7387199482470805        1.5214439399466571     
   5624.1752942245466        7.0796331646458839       -4.8245399561622833     
   5240.7064083508048      -0.97012421010072103       0.48761097718189089     
   4866.5881412074532       -12.881307635204166        8.8795977076265036     
   4505.7224981261088       -15.647232671745314        11.773121203405289     
   5241.3263058083667       -3.5294092772721797        358.62870858070971     
   4924.2098089256224        1.9367004005948729        349.42218441185952     
   4600.9526471303516        1.7596999983475143        347.39043560733927     
   4272.5487107902409      -0.74744259196836538        349.29556383389945     
   3939.9918902735503       -2.2717594759633357        351.89967075784114     
   4487.7431803625459       -1.7694466358927912        662.48923336092980     
   4220.7412357797066       -1.5079523656588663        655.40640499039682     
   3946.6938656419502        1.7525812394519562        650.88880346418273     
   3664.8053591266175        5.3597847708288100        649.17303203264532     
   3374.2800054113259        6.6612888205024774        650.49569394583909     
   3744.1823146721413        1.0928372289070012        916.44094439809442     
   3515.7430292283752       -2.6622888017825517        913.58734833965627     
   3284.7069349285512        1.0415808264406223        909.86817428559959     
   3049.6072335328722        7.3151186477956571        907.12862795499655     
   2808.9771268015043        11.268997196158352        907.21391506714951     
   3002.4826062499524        2.6091115715260003        1123.8217678096426     
   2811.1886437133471      -0.93427257494272453        1124.4242410197321     
   2621.7687260331959        1.6597600725814345        1123.2140078093914     
   2433.2034813253790        6.9933032338331031        1121.7789772521742     
   2244.4735377060142        11.668450629189124        1121.7070584214002     
   4505.7224981261088       -15.647232671745314        11.773121203405289     
   4150.5584533233014       -3.6094030692406704        3.3024251640298807     
   3788.3859319793910        11.693847301451115       -10.226237726235320     
   3415.3683658711698        17.473957696606703       -19.133153022946146     
   3027.6691867744426       0.94236736868037951       -13.738606281873450     
   3939.9918902735503       -2.2717594759633357        351.89967075784114     
   3610.6763869271144        1.2330846562304032        349.82093625358647     
   3290.4314888548311        8.5970476380362015        341.81339802029510     
   2977.9037165592295        15.308531144523386        330.84294446084743     
   2671.7395905434169        16.855936852808554        319.87546397864685     
   3374.2800054113259        6.6612888205024774        650.49569394583909     
   3084.1395231126362        6.5079895705573563        651.39710318528330     
   2804.1415034956894        8.2036920318951161        647.41755563514812     
   2534.5940447111907        12.775390040039724        637.29362740002910     
   2275.8052449100151        21.250077431330624        619.76189458455565     
   2808.9771268015043        11.268997196158352        907.21391506714951     
   2566.3630162701670        10.839857990026871        908.89300047898985     
   2327.0546121144648        9.7753713473849757        907.69923026724302     
   2092.2000790541842        11.902753000936173        900.62438198040616     
   1862.9475818094086        21.049218684327570        884.66023316704729     
   2244.4735377060142        11.668450629189124        1121.7070584214002     
   2052.7620207904301        12.853236232227459        1123.1707026550023     
   1856.7094509233291        12.573676448069136        1123.7714170653453     
   1657.4825483152752        14.718838645177357        1121.2406943875940     
   1456.2480331768684        23.177790192279645        1113.3100273571890     
   3027.6691867744426       0.94236736868037951       -13.738606281873450     
   2660.4171449466166       -33.410576739022190        11.733691395604462     
   2356.1115121526159       -56.526122658489840        34.027788467371266     
   2121.9715024299862       -44.340223597769750        19.275038718026099     
   1965.2163298164637        27.211167235373864       -66.393204067954045     
   2671.7395905434169        16.855936852808554        319.87546397864685     
   2365.5300424685597        9.5125273104815733        316.70573589925505     
   2055.9009985318171      -0.33178648147850254        317.12485112540986     
   1746.0514710411569       -2.0136301632405775        306.09316542615665     
   1439.1804723039588        15.130370623229851        268.57103457043809     
   2275.8052449100151        21.250077431330624        619.76189458455565     
   2009.5810190928803        28.921097971684503        602.34790593208618     
   1717.4859700091722        30.277421255843478        591.83384385028239     
   1399.4662274317989        25.139479860185588        585.84123494013954     
   1055.4679211339808        13.327706362187712        581.99160580252988     
   1862.9475818094086        21.049218684327570        884.66023316704729     
   1626.7103279493288        35.057211184954099        865.70219863873695     
   1368.4431261862974        43.574510434106628        854.39441902830185     
   1085.6065429543967        38.136337878702989        854.85176061611901     
   775.66114468783542        10.277914966175359        871.18908968268693     
   1456.2480331768684        23.177790192279645        1113.3100273571890     
   1251.0582221670318        38.162942888576708        1103.8106111638597     
   1036.3491666649115        47.832490934007240        1101.0462290459266     
   807.86318896114074        37.994175297422089        1109.4572558104219     
   561.34261134665815       -5.5442630514258440        1133.4840662649215     
   1965.2163298164637        27.211167235373864       -66.393204067954045     
   1799.0276890452592        134.25785014351902       -162.64671695533207     
   1510.5789354690548        166.23516082771835       -147.78293375285728     
   1068.0767740533322        17.165449172581646        36.388014207306618     
   439.72790976392002       -418.92893493555027        448.05599559325987     
   1439.1804723039588        15.130370623229851        268.57103457043809     
   1141.5342002735099        38.609207846557013        250.69565300275372     
   827.62012136262808       -49.863898326242008        330.57436952294802     
   453.02915056862867       -398.31923123709942        541.12277143291158     
  -26.647797111033412       -1154.7870742282769        915.25644603476928     
   1055.4679211339808        13.327706362187712        581.99160580252988     
   732.91538388085428       -15.273838123218667        605.57955866518989     
   447.34745521580078       -177.06606988685681        692.82575013706787     
   150.88202507948372       -631.65602245980529        857.74078839165065     
  -204.36301658784197       -1538.6507293745117        1114.3352816022818     
   775.66114468783542        10.277914966175359        871.18908968268693     
   493.23322111338985       -51.372693391856302        906.09452917999238     
   266.50043753207058       -246.34950370320263        960.49624539458330     
   53.250423739221162       -715.36041664991171        1035.8691696088849     
  -188.72919047028171       -1599.1133329157431        1133.6882331049194     
   561.34261134665815       -5.5442630514258440        1133.4840662649215     
   342.54969321709069       -93.668763586140244        1156.3300936950488     
   181.81856881499047       -288.69234962385508        1155.1108926004595     
   51.749372701536942       -681.94790596065729        1125.1350196102046     
  -75.057760562082876       -1364.7683173927344        1061.7110313522635     
   3002.4826062499524        2.6091115715260003        1123.8217678096426     
   2811.1886437133471      -0.93427257494272453        1124.4242410197321     
   2621.7687260331959        1.6597600725814345        1123.2140078093914     
   2433.2034813253790        6.9933032338331031        1121.7789772521742     
   2244.4735377060142        11.668450629189124        1121.7070584214002     
   2256.5094712955324        2.2493267162448092        1287.1137623145792     
   2107.9251883613724        1.7043679222535957        1288.7107629050513     
   1962.7030134256747        3.2245177169994577        1289.5002485772475     
   1820.6426099443972        6.1419876203490276        1290.0281653668587     
   1681.5436413736059        9.7889891525734356        1290.8404593095427     
   1506.5064990451535        1.3968848991212894        1405.5899879707267     
   1405.2295925305959        2.8108503664777800        1406.6290925017283     
   1306.9340208023925        3.7333872674193458        1408.1249851615248     
   1211.8631868516918        4.9758389053519068        1409.8782152780188     
   1120.2604936693028        7.3495485832253848        1411.6893321793550     
   753.87984656608535       0.47363324038724386        1477.7748729041932     
   702.72004100982849        2.2706301946080885        1477.7212043182301     
   653.13929304616306        2.7896321890436298        1479.2098933468217     
   605.44944939596076        3.0701282933563903        1481.5926589407957     
   559.96235678015614        4.1516075773983232        1484.2212200507186     
   3.5670925733476834E-002  -9.8581139583240510E-002   1502.1928452409329     
   1.4718587964816881E-002  -3.0837156655288297E-002   1501.5290728625873     
  -3.6249606901395787E-003  -3.4840537809027795E-003   1502.8766489176435     
  -1.4365074207522283E-002   1.2698890772535904E-004   1505.4350283100521     
  -1.2507106715647660E-002  -3.3552087418395886E-003   1508.4036659434803     
   2244.4735377060142        11.668450629189124        1121.7070584214002     
   2052.7620207904301        12.853236232227459        1123.1707026550023     
   1856.7094509233291        12.573676448069136        1123.7714170653453     
   1657.4825483152752        14.718838645177357        1121.2406943875940     
   1456.2480331768684        23.177790192279645        1113.3100273571890     
   1681.5436413736059        9.7889891525734356        1290.8404593095427     
   1539.7787609632496        12.375164287918210        1292.4389192554718     
   1390.3872595671478        14.332280347498909        1294.6052706256710     
   1234.1687570472786        18.325736871007734        1296.8053643118692     
   1071.9228732654451        27.020933397868930        1298.5050512056814     
   1120.2604936693028        7.3495485832253848        1411.6893321793550     
   1026.7843480991135        10.111348254187760        1413.9862531526740     
   926.25270093320353        13.049883032224500        1417.7998500965277     
   819.14827108470024        17.774215960871231        1423.8351042560037     
   705.95377746683016        25.893410084350904        1432.7969968762150     
   559.96235678015614        4.1516075773983232        1484.2212200507186     
   513.58726711960628        6.0043336077214065        1487.2946188616984     
   463.16954609716504        8.3856158245226311        1492.4100074548517     
   408.92521107744454        12.015512109866805        1501.0162696255388     
   351.07027942487065        17.614080345135193        1514.5622891693199     
  -1.2507106715647660E-002  -3.3552087418395886E-003   1508.4036659434803     
  -3.9970539024431562E-003  -3.3341756555430157E-003   1511.8459308975300     
   1.5661348064679491E-003  -1.3899526875972988E-003   1517.4905946773843     
   3.6976753664104628E-003   8.6151295532258540E-004   1527.0352158257806     
   1.9127833692587561E-003   1.8042735167846994E-003   1542.1773528853903     
   1456.2480331768684        23.177790192279645        1113.3100273571890     
   1251.0582221670318        38.162942888576708        1103.8106111638597     
   1036.3491666649115        47.832490934007240        1101.0462290459266     
   807.86318896114074        37.994175297422089        1109.4572558104219     
   561.34261134665815       -5.5442630514258440        1133.4840662649215     
   1071.9228732654451        27.020933397868930        1298.5050512056814     
   907.75374024601376        41.146385986675796        1301.2511921679986     
   741.90407841360832        48.559238696910398        1308.2978815444226     
   569.38139023071483        32.617833070157275        1321.6718204536439     
   385.19317815947198       -23.319489353152335        1343.3997100147405     
   705.95377746683016        25.893410084350904        1432.7969968762150     
   591.98737247148404        37.934068918458138        1443.7709940033128     
   479.22687059387675        43.288336323317566        1455.5742369547197     
   363.14448390182469        26.863585858461747        1468.5092198826876     
   239.21242446336220       -26.432808916077960        1482.8784369392145     
   351.07027942487065        17.614080345135193        1514.5622891693199     
   292.99154965083187        25.295720926473265        1530.1655193519466     
   236.02277609550765        28.331353679269910        1543.4893268472943     
   177.30040986678736        17.175815629885072        1553.8014655624586     
   113.96090207236510       -17.716056196145892        1560.3696894047973     
   1.9127833692587561E-003   1.8042735167846994E-003   1542.1773528853903     
  -1.2974087426165159E-003   1.0712527596358000E-003   1559.2302708962109     
  -2.9721911112268280E-003  -1.3936756077479655E-004   1572.6571827924570     
  -2.8919819981899409E-003  -1.0956481464379584E-003   1581.3805689582230     
  -8.3719949592063925E-004  -1.0656494556189676E-003   1584.3229097777528     
   561.34261134665815       -5.5442630514258440        1133.4840662649215     
   342.54969321709069       -93.668763586140244        1156.3300936950488     
   181.81856881499047       -288.69234962385508        1155.1108926004595     
   51.749372701536942       -681.94790596065729        1125.1350196102046     
  -75.057760562082876       -1364.7683173927344        1061.7110313522635     
   385.19317815947198       -23.319489353152335        1343.3997100147405     
   224.00614524334333       -127.10931986290338        1346.0561333484163     
   116.38234440843340       -300.29041680692046        1295.9976225800465     
   51.172302940940085       -580.02768923133090        1185.9238023351068     
   17.226548127267620       -1003.4860461813599        1008.5342972390571     
   239.21242446336220       -26.432808916077960        1482.8784369392145     
   130.71809131800975       -121.64938265703293        1469.0567466409013     
   63.190029471932704       -256.36418346574135        1391.1081951934552     
   35.462169943567147       -434.46410794730656        1239.8690582833585     
   46.368443751223509       -659.83605270767202        1006.1756115964183     
   113.96090207236510       -17.716056196145892        1560.3696894047973     
   57.708766298913943       -78.781981511751042        1535.4427887639381     
   23.857779232739254       -156.42880303139754        1444.9033912989466     
   14.958286630782368       -242.15536823191394        1278.4700068206437     
   33.560634250089393       -327.46052458964891        1025.8611451395282     
  -8.3719949592063925E-004  -1.0656494556189676E-003   1584.3229097777528     
   1.4050443384113131E-003  -1.4596893851900259E-004   1555.3251149092805     
   1.7489177727418638E-003   5.7106366927892733E-004   1461.8439917546723     
  -3.4076431747774092E-005   3.2379081074694361E-004   1293.2258673129270     
  -4.1724355914532028E-003  -1.6494451722370294E-003   1038.8170685831640     
   3.5670925733476834E-002  -9.8581139583240510E-002   1502.1928452409329     
   1.4718587964816881E-002  -3.0837156655288297E-002   1501.5290728625873     
  -3.6249606901395787E-003  -3.4840537809027795E-003   1502.8766489176435     
  -1.4365074207522283E-002   1.2698890772535904E-004   1505.4350283100521     
  -1.2507106715647660E-002  -3.3552087418395886E-003   1508.4036659434803     
  -753.83795965100092      -0.64783274310357797        1477.8546571669990     
  -702.70115827463849       -2.3255637882504061        1477.7488058346560     
  -653.14363995793167       -2.7954039192692903        1479.2098906846513     
  -605.46876611550829       -3.0685578514616054        1481.5836349808499     
  -559.97989816197719       -4.1562303003676675        1484.2157619867066     
  -1506.5227015791338       -1.4931134639669494        1405.7233268461246     
  -1405.2323865993931       -2.8425658455505527        1406.6795313118425     
  -1306.9324711936367       -3.7364136182138736        1408.1294861767842     
  -1211.8623850032882       -4.9727555870034621        1409.8656815481484     
  -1120.2615576698342       -7.3496905569521687        1411.6806075328172     
  -2256.5669847516319       -2.1989522702380100        1287.2516813707625     
  -2107.9458018203500       -1.6918939586345232        1288.7677543680625     
  -1962.6967925472559       -3.2245153145951235        1289.5099542554924     
  -1820.6231669667382       -6.1408497864917990        1290.0180364670643     
  -1681.5281351135709       -9.7849308234274304        1290.8317564368672     
  -3002.5192390612833       -2.3298781296610969        1123.8925478334515     
  -2811.2082393716005        1.0164012422037558        1124.4599800775013     
  -2621.7632778982388       -1.6577111720822586        1123.2258137825575     
  -2433.1790572350183       -7.0012240186241570        1121.7775681931828     
  -2244.4502799762777       -11.663145944695884        1121.7027625538326     
  -1.2507106715647660E-002  -3.3552087418395886E-003   1508.4036659434803     
  -3.9970539024431562E-003  -3.3341756555430157E-003   1511.8459308975300     
   1.5661348064679491E-003  -1.3899526875972988E-003   1517.4905946773843     
   3.6976753664104628E-003   8.6151295532258540E-004   1527.0352158257806     
   1.9127833692587561E-003   1.8042735167846994E-003   1542.1773528853903     
  -559.97989816197719       -4.1562303003676675        1484.2157619867066     
  -513.59340499417601       -6.0097824271151694        1487.2945087917374     
  -463.16796874102738       -8.3882861662928576        1492.4112645782729     
  -408.92042066496879       -12.014512392848246        1501.0164807498622     
  -351.06759202884911       -17.611231982956880        1514.5606087099140     
  -1120.2615576698342       -7.3496905569521687        1411.6806075328172     
  -1026.7859882717014       -10.113459777877267        1413.9855995922862     
  -926.25409999287922       -13.051718185464949        1417.8016719793679     
  -819.14895863386664       -17.774685114704567        1423.8358329884552     
  -705.95362999502572       -25.892579899929302        1432.7950909141564     
  -1681.5281351135709       -9.7849308234274304        1290.8317564368672     
  -1539.7748684611038       -12.372302700127591        1292.4375090891672     
  -1390.3905240580957       -14.331794941965029        1294.6066718695022     
  -1234.1742903017396       -18.327368873445550        1296.8064739935060     
  -1071.9253555897058       -27.022985819858548        1298.5041446771613     
  -2244.4502799762777       -11.663145944695884        1121.7027625538326     
  -2052.7531671373281       -12.844247666443266        1123.1685430721104     
  -1856.7109373736764       -12.568625366320475        1123.7711192374106     
  -1657.4887897391413       -14.720275890732069        1121.2416052170311     
  -1456.2519232873763       -23.183196085010593        1113.3111151780588     
   1.9127833692587561E-003   1.8042735167846994E-003   1542.1773528853903     
  -1.2974087426165159E-003   1.0712527596358000E-003   1559.2302708962109     
  -2.9721911112268280E-003  -1.3936756077479655E-004   1572.6571827924570     
  -2.8919819981899409E-003  -1.0956481464379584E-003   1581.3805689582230     
  -8.3719949592063925E-004  -1.0656494556189676E-003   1584.3229097777528     
  -351.06759202884911       -17.611231982956880        1514.5606087099140     
  -292.99306546647983       -25.293751301597780        1530.1630544880597     
  -236.02659074815489       -28.331267168853344        1543.4875666411342     
  -177.30424984101930       -17.177386141819781        1553.8011103640699     
  -113.96212471253835        17.714285221227854        1560.3706508515997     
  -705.95362999502572       -25.892579899929302        1432.7950909141564     
  -591.98673890454370       -37.932944222421327        1443.7677277524954     
  -479.22623498790523       -43.287735754327713        1455.5716866042098     
  -363.14417124216266       -26.863797819151131        1468.5084674204625     
  -239.21260066399080        26.432026261094222        1482.8795701528545     
  -1071.9253555897058       -27.022985819858548        1298.5041446771613     
  -907.75151834976668       -41.147267697249788        1301.2488710311300     
  -741.89958041619116       -48.558847776546628        1308.2957437915879     
  -569.37723529562970       -32.616704413208254        1321.6708476124422     
  -385.19217649449706        23.320184037893171        1343.4002671475853     
  -1456.2519232873763       -23.183196085010593        1113.3111151780588     
  -1251.0566044294776       -38.167481915058772        1103.8110646653452     
  -1036.3443025384836       -47.833905886854723        1101.0459393135554     
  -807.85802111131989       -37.992479656540951        1109.4564584249247     
  -561.34076364473151        5.5467851197527693        1133.4833413018587     
  -8.3719949592063925E-004  -1.0656494556189676E-003   1584.3229097777528     
   1.4050443384113131E-003  -1.4596893851900259E-004   1555.3251149092805     
   1.7489177727418638E-003   5.7106366927892733E-004   1461.8439917546723     
  -3.4076431747774092E-005   3.2379081074694361E-004   1293.2258673129270     
  -4.1724355914532028E-003  -1.6494451722370294E-003   1038.8170685831640     
  -113.96212471253835        17.714285221227854        1560.3706508515997     
  -57.707005305930252        78.781523674300530        1535.4439740323721     
  -23.855445471320934        156.42955961488389        1444.9038184082597     
  -14.958173036154335        242.15596695148125        1278.4695780340376     
  -33.565915827991020        327.45831959234818        1025.8606469642391     
  -239.21260066399080        26.432026261094222        1482.8795701528545     
  -130.71849515816450        121.64872185789710        1469.0583884552454     
  -63.190183509127706        256.36408474471006        1391.1089012014345     
  -35.461754032591813        434.46448720219627        1239.8684861725903     
  -46.367295044545386        659.83630151054206        1006.1745211498456     
  -385.19217649449706        23.320184037893171        1343.4002671475853     
  -224.00835597404597        127.10886114334357        1346.0573734192180     
  -116.38480333274978        300.28944501213977        1295.9983331326439     
  -51.171828533000991        580.02756910311064        1185.9234244663867     
  -17.219741537437130        1003.4888668739634        1008.5329255989781     
  -561.34076364473151        5.5467851197527693        1133.4833413018587     
  -342.55187921520854        93.669354092130661        1156.3299441654656     
  -181.82164307958766        288.69093897590506        1155.1112072004112     
  -51.749448004957998        681.94689721366831        1125.1352256532361     
   75.065313240970340        1364.7725862467973        1061.7100947709409     
  -3002.5192390612833       -2.3298781296610969        1123.8925478334515     
  -2811.2082393716005        1.0164012422037558        1124.4599800775013     
  -2621.7632778982388       -1.6577111720822586        1123.2258137825575     
  -2433.1790572350183       -7.0012240186241570        1121.7775681931828     
  -2244.4502799762777       -11.663145944695884        1121.7027625538326     
  -3744.1662992386186      -0.70941540962394356        916.37499407295331     
  -3515.7478694795714        2.7851298277682872        913.56766689177653     
  -3284.7074880772843       -1.0316401065972514        909.87152228290108     
  -3049.5952391458777       -7.3266722599418017        907.13782316462584     
  -2808.9612067993480       -11.266913678843025        907.21783245495135     
  -4487.7156866853429        1.9127055209173704        662.32083767081747     
  -4220.7332711751951        1.5849792268372767        655.34044244696827     
  -3946.6966143583568       -1.7194301683286994        650.87996200540272     
  -3664.8112476243905       -5.3522939631670852        649.18586418054588     
  -3374.2827023627174       -6.6653834557955633        650.50461680678859     
  -5241.3468613011028        3.0826466919866107        358.52203033145145     
  -4924.1918930980719       -1.9922851518876996        349.38206559319497     
  -4600.9447762847158       -1.6853172193925730        347.38328889751716     
  -4272.5665552809314       0.80006908903897056        349.29883423787982     
  -3940.0182745071957        2.2603923724195738        351.90183560802944     
  -6013.2392829857636       0.34657013359219491        1.7705237602878541     
  -5624.1511838883780       -7.3548979006659465       -4.7037048193802784     
  -5240.6660933995827        1.1064628776096015       0.51365890655245172     
  -4866.6006347260782        13.008575113280358        8.8538763333171726     
  -4505.7714310735337        15.629361453805359        11.748208856748523     
  -2244.4502799762777       -11.663145944695884        1121.7027625538326     
  -2052.7531671373281       -12.844247666443266        1123.1685430721104     
  -1856.7109373736764       -12.568625366320475        1123.7711192374106     
  -1657.4887897391413       -14.720275890732069        1121.2416052170311     
  -1456.2519232873763       -23.183196085010593        1113.3111151780588     
  -2808.9612067993480       -11.266913678843025        907.21783245495135     
  -2566.3534896650754       -10.831422115885402        908.89123339251387     
  -2327.0512277133184       -9.7693931332358943        907.69666878177861     
  -2092.2010670723394       -11.902980491691324        900.62384088976842     
  -1862.9496538704191       -21.054337952251331        884.66245198335389     
  -3374.2827023627174       -6.6653834557955633        650.50461680678859     
  -3084.1369095411869       -6.5144939278271750        651.39680861244472     
  -2804.1354978545996       -8.2077464171741212        647.41473819109603     
  -2534.5875452832356       -12.775400858368471        637.29243817579641     
  -2275.8021298069293       -21.247717184122735        619.76394119936424     
  -3940.0182745071957        2.2603923724195738        351.90183560802944     
  -3610.6892505380301       -1.2692102331423030        349.82161958802840     
  -3290.4297667410647       -8.6234909016250185        341.81482693905804     
  -2977.8923177254201       -15.310764996788862        330.84556292619106     
  -2671.7293981001303       -16.839347882019410        319.87793281474148     
  -4505.7714310735337        15.629361453805359        11.748208856748523     
  -4150.5963364282716        3.5286818358133587        3.3020171753373657     
  -3788.4000533162766       -11.756432269710785       -10.213565500802950     
  -3415.3594777527433       -17.482300913418612       -19.118619007706481     
  -3027.6515057528923      -0.90524414591891400       -13.733223181993683     
  -1456.2519232873763       -23.183196085010593        1113.3111151780588     
  -1251.0566044294776       -38.167481915058772        1103.8110646653452     
  -1036.3443025384836       -47.833905886854723        1101.0459393135554     
  -807.85802111131989       -37.992479656540951        1109.4564584249247     
  -561.34076364473151        5.5467851197527693        1133.4833413018587     
  -1862.9496538704191       -21.054337952251331        884.66245198335389     
  -1626.7110533300688       -35.062665226611273        865.70540689384154     
  -1368.4423903071058       -43.577360804206648        854.39651345772961     
  -1085.6049003799951       -38.135876613176890        854.85182844986070     
  -775.65981912721190       -10.275664581895313        871.18740864503468     
  -2275.8021298069293       -21.247717184122735        619.76394119936424     
  -2009.5826469993492       -28.919513711911350        602.35151423624234     
  -1717.4902020218044       -30.277974051652905        591.83656913895993     
  -1399.4704372373467       -25.141906079977616        585.84185585728426     
  -1055.4689950086015       -13.330117672545782        581.99012434120880     
  -2671.7293981001303       -16.839347882019410        319.87793281474148     
  -2365.5286747056293       -9.4952141508457544        316.70674445548627     
  -2055.9069672096057       0.33848551213532119        317.12460140792456     
  -1746.0604994612852        2.0076716096929204        306.09230249948797     
  -1439.1854953106213       -15.141735358190147        268.57064655770699     
  -3027.6515057528923      -0.90524414591891400       -13.733223181993683     
  -2660.4064257178798        33.453046674754546        11.728455314450658     
  -2356.1119153971472        56.546249029911337        34.019105315512832     
  -2121.9809548298049        44.331096122182771        19.268930228917874     
  -1965.2265240553072       -27.235678846010046       -66.391866537698078     
  -561.34076364473151        5.5467851197527693        1133.4833413018587     
  -342.55187921520854        93.669354092130661        1156.3299441654656     
  -181.82164307958766        288.69093897590506        1155.1112072004112     
  -51.749448004957998        681.94689721366831        1125.1352256532361     
   75.065313240970340        1364.7725862467973        1061.7100947709409     
  -775.65981912721190       -10.275664581895313        871.18740864503468     
  -493.23315488680055        51.373962855599075        906.09278658359767     
  -266.50137139460946        246.34884193908226        960.49582546032468     
  -53.251387327093397        715.35924374698436        1035.8700780319975     
   188.72987863991710        1599.1154393597562        1133.6890970556044     
  -1055.4689950086015       -13.330117672545782        581.99012434120880     
  -732.91299132481481        15.273434086182391        605.57764615357723     
  -447.34476035654558        177.06739817384334        692.82510921054779     
  -150.88277173834558        631.65687580859276        857.74188799159174     
   204.35450489525186        1538.6469682086970        1114.3373569760436     
  -1439.1854953106213       -15.141735358190147        268.57064655770699     
  -1141.5317574879991       -38.614342904671673        250.69612750285501     
  -827.61430325287529        49.867859693668890        330.57508031371100     
  -453.02717824757377        398.32472029543123        541.12306540505688     
   26.635571884741466        1154.7760867569564        915.25564319180432     
  -1965.2265240553072       -27.235678846010046       -66.391866537698078     
  -1799.0298223345299       -134.27147880347133       -162.64016474100168     
  -1510.5724933705094       -166.22852148637355       -147.77823936736678     
  -1068.0681838634703       -17.152295895395923        36.386020146013685     
  -439.73054051373424        418.91170896850184        448.04472436193146     
 </DataArray>
 <DataArray  type="Float64" Name="VM" NumberOfComponents="1" format="ascii">
   6013.9629193338460     
   5620.6450334451920     
   5241.1916058400639     
   4873.0658342540883     
   4513.6125191958135     
   5279.7591174439349     
   4960.3020939148109     
   4639.2577429550829     
   4315.5403720010090     
   3987.9809559553864     
   4632.9751519798419     
   4371.4638506077317     
   4103.7114107153202     
   3830.8564781494283     
   3554.2603755966375     
   4066.2516685123373     
   3856.6490101881309     
   3642.7269633102983     
   3427.3162378165403     
   3213.7106896701571     
   3577.1498282283055     
   3420.2921660640845     
   3264.0697943787782     
   3111.0570839289239     
   2964.1673806107110     
   4513.6125191958135     
   4152.3682710834319     
   3782.5940354326472     
   3406.8261834266395     
   3027.2916383894367     
   3987.9809559553864     
   3660.5542318457033     
   3339.0469438171535     
   3025.0502022497585     
   2720.3681415987812     
   3554.2603755966375     
   3280.9818594770782     
   3016.2428670309782     
   2758.6915842724834     
   2506.7298336308440     
   3213.7106896701571     
   3006.1232646237963     
   2804.3331793052612     
   2604.9784524649299     
   2404.0953299674543     
   2964.1673806107110     
   2823.4995601924720     
   2685.6598839079775     
   2548.4526497950151     
   2409.5270456566777     
   3027.2916383894367     
   2677.3559273066949     
   2385.6052019849908     
   2144.7452960182145     
   1955.1378501360223     
   2720.3681415987812     
   2423.6807278020051     
   2128.1719055585950     
   1825.7312983848130     
   1505.3521939623547     
   2506.7298336308440     
   2251.5776717700310     
   1987.3287673108050     
   1718.5999301172055     
   1454.7391111281786     
   2404.0953299674543     
   2199.7064490047856     
   2001.2185183247082     
   1825.0779397965969     
   1694.3125324370569     
   2409.5270456566777     
   2274.6543952725228     
   2159.5473543791090     
   2077.5174129783959     
   2042.6959839131548     
   1955.1378501360223     
   1758.5090474620395     
   1457.3575070048469     
   1061.4710985579850     
   1074.8671348644061     
   1505.3521939623547     
   1203.7699952340308     
   1027.8852467962768     
   1192.8056864009513     
   1953.6002268273019     
   1454.7391111281786     
   1284.0453600286189     
   1323.1420009663177     
   1650.5205349332698     
   2412.4668628800791     
   1694.3125324370569     
   1653.5654720950408     
   1721.9239019055360     
   1942.0978832925539     
   2479.2599346770203     
   2042.6959839131548     
   2041.9349138941077     
   2042.4824153824216     
   2073.8388937975596     
   2268.8060111598943     
   3577.1498282283055     
   3420.2921660640845     
   3264.0697943787782     
   3111.0570839289239     
   2964.1673806107110     
   3171.2379188412601     
   3069.5415155698329     
   2972.2579664334457     
   2880.2973587990996     
   2794.6433589742833     
   2862.6052835877331     
   2811.8578253718742     
   2766.1632460118853     
   2725.0462110526942     
   2688.0112522799186     
   2668.2266976014939     
   2653.9037035148854     
   2643.6645826386766     
   2636.2985557517177     
   2630.5870491278802     
   2601.8743335115714     
   2600.7246435515217     
   2603.0587134366424     
   2607.4899565668238     
   2612.6317877613201     
   2964.1673806107110     
   2823.4995601924720     
   2685.6598839079775     
   2548.4526497950151     
   2409.5270456566777     
   2794.6433589742833     
   2713.5238790711719     
   2634.6656611468175     
   2558.5159292706271     
   2485.7856956152091     
   2688.0112522799186     
   2653.6913036473311     
   2622.3074039534263     
   2595.8966286882378     
   2576.7194951560869     
   2630.5870491278802     
   2626.1873569046606     
   2625.3714548923531     
   2630.8934375990925     
   2645.5762321533493     
   2612.6317877613201     
   2618.5939655334164     
   2628.3708099903874     
   2644.9025787592809     
   2671.1295294802217     
   2409.5270456566777     
   2274.6543952725228     
   2159.5473543791090     
   2077.5174129783959     
   2042.6959839131548     
   2485.7856956152091     
   2422.4209146201852     
   2377.3269452384002     
   2355.2359343342237     
   2360.5229153525179     
   2576.7194951560869     
   2565.7076221464040     
   2562.5917383520818     
   2567.5665896043579     
   2580.8970746484424     
   2645.5762321533493     
   2665.2001874213952     
   2682.7039489973072     
   2696.5871296849728     
   2705.4723407259667     
   2671.1295294802217     
   2700.6660498924030     
   2723.9221434862193     
   2739.0314915389881     
   2744.1277753306022     
   2042.6959839131548     
   2041.9349138941077     
   2042.4824153824216     
   2073.8388937975596     
   2268.8060111598943     
   2360.5229153525179     
   2351.6824070108728     
   2275.4114354170874     
   2141.9565523898164     
   2018.9085877357352     
   2580.8970746484424     
   2553.8540955510848     
   2427.2332535009168     
   2194.8233440729005     
   1872.2439221527832     
   2705.4723407259667     
   2662.1113774558389     
   2508.3876571331057     
   2228.4393366501113     
   1810.1159525162591     
   2744.1277753306022     
   2693.9021213111846     
   2531.9880664588627     
   2239.9329078483433     
   1799.2839425594841     
   2601.8743335115714     
   2600.7246435515217     
   2603.0587134366424     
   2607.4899565668238     
   2612.6317877613201     
   2668.3228611461836     
   2653.9375933049109     
   2643.6649429357490     
   2636.2879450435321     
   2630.5810459981672     
   2862.7849526902328     
   2811.9270236576763     
   2766.1686778439707     
   2725.0270811608380     
   2687.9979190477575     
   3171.4646431173819     
   3069.6317237164908     
   2972.2664950304898     
   2880.2718371669307     
   2794.6232031971094     
   3577.3642647322022     
   3420.3772970414439     
   3264.0784294051800     
   3111.0334050845481     
   2964.1469261223610     
   2612.6317877613201     
   2618.5939655334164     
   2628.3708099903874     
   2644.9025787592809     
   2671.1295294802217     
   2630.5810459981672     
   2626.1878428940458     
   2625.3730959747409     
   2630.8931384477000     
   2645.5731683752783     
   2687.9979190477575     
   2653.6904899686347     
   2622.3105347808155     
   2595.8979716017161     
   2576.7163814183846     
   2794.6232031971094     
   2713.5204630438475     
   2634.6695660753817     
   2558.5198839941722     
   2485.7849117061573     
   2964.1469261223610     
   2823.4937928484705     
   2685.6622565798448     
   2548.4574342475216     
   2409.5293043059660     
   2671.1295294802217     
   2700.6660498924030     
   2723.9221434862193     
   2739.0314915389881     
   2744.1277753306022     
   2645.5731683752783     
   2665.1961909953338     
   2682.7012291653837     
   2696.5867143016367     
   2705.4740108654910     
   2576.7163814183846     
   2565.7020798307331     
   2562.5873250042027     
   2567.5652431441267     
   2580.8990008912742     
   2485.7849117061573     
   2422.4162101208999     
   2377.3221111153080     
   2355.2334416745616     
   2360.5237617059797     
   2409.5293043059660     
   2274.6530072235200     
   2159.5443226660050     
   2077.5144718567512     
   2042.6946201955368     
   2744.1277753306022     
   2693.9021213111846     
   2531.9880664588627     
   2239.9329078483433     
   1799.2839425594841     
   2705.4740108654910     
   2662.1133456176271     
   2508.3883510297492     
   2228.4386587926924     
   1810.1152618377346     
   2580.8990008912742     
   2553.8569107210024     
   2427.2344678264326     
   2194.8224047589197     
   1872.2420239775261     
   2360.5237617059797     
   2351.6847600710726     
   2275.4127844593195     
   2141.9558152211912     
   2018.9061965365240     
   2042.6946201955368     
   2041.9351533386580     
   2042.4831779003009     
   2073.8388991204079     
   2268.8051718358265     
   3577.3642647322022     
   3420.3772970414439     
   3264.0784294051800     
   3111.0334050845481     
   2964.1469261223610     
   4066.3687731982914     
   3856.6955154544876     
   3642.7344497936383     
   3427.3077639092280     
   3213.7010233959304     
   4632.9457257314443     
   4371.4637044862911     
   4103.7257739552133     
   3830.8722034810335     
   3554.2658966602639     
   5279.5357544431927     
   4960.2482657759920     
   4639.2851897112951     
   4315.5848948488165     
   3988.0019816685308     
   6013.4133574833168     
   5620.4832488441634     
   5241.2194879427489     
   4873.1420740857020     
   4513.6522747744311     
   2964.1469261223610     
   2823.4937928484705     
   2685.6622565798448     
   2548.4574342475216     
   2409.5293043059660     
   3213.7010233959304     
   3006.1171164958496     
   2804.3303490694807     
   2604.9785922065234     
   2404.0974373451472     
   3554.2658966602639     
   3280.9761856903256     
   3016.2336040208920     
   2758.6847987652600     
   2506.7295881149680     
   3988.0019816685308     
   3660.5493095563670     
   3339.0327268598608     
   3025.0387808347627     
   2720.3670772956075     
   4513.6522747744311     
   4152.3657405652166     
   3782.5769073199049     
   3406.8129117668664     
   3027.2924371804838     
   2409.5293043059660     
   2274.6530072235200     
   2159.5443226660050     
   2077.5144718567512     
   2042.6946201955368     
   2404.0974373451472     
   2199.7088377808936     
   2001.2197932281388     
   1825.0772027765765     
   1694.3098379886146     
   2506.7295881149680     
   2251.5826968128908     
   1987.3345968138610     
   1718.6030100261139     
   1454.7372546444699     
   2720.3670772956075     
   2423.6881718882123     
   2128.1807971999333     
   1825.7366479221953     
   1505.3514449250949     
   3027.2924371804838     
   2677.3667710379827     
   2385.6156492288437     
   2144.7498771274722     
   1955.1359120048294     
   2042.6946201955368     
   2041.9351533386580     
   2042.4831779003009     
   2073.8388991204079     
   2268.8051718358265     
   1694.3098379886146     
   1653.5628154424212     
   1721.9232646312394     
   1942.0990926622035     
   2479.2622287763056     
   1454.7372546444699     
   1284.0411541177723     
   1323.1403050226256     
   1650.5228259613507     
   2412.4694925550857     
   1505.3514449250949     
   1203.7657442983534     
   1027.8828938685122     
   1192.8078834544908     
   1953.5961250854978     
   1955.1359120048294     
   1758.5033996480124     
   1457.3524525672351     
   1061.4687242194227     
   1074.8443912815196     
 </DataArray>
 </PointData>
 </Piece>
 </UnstructuredGrid>
 </VTKFile>
