 <VTKFile type="UnstructuredGrid"  version="0.1"   >
 <UnstructuredGrid>
 <Piece  NumberOfPoints="           400 "  NumberOfCells="          256 ">
 <Points>
 <DataArray  type="Float64" NumberOfComponents="3"  format="ascii" >
  -5.0000000000000000        2.0000000000000000        0.0000000000000000     
  -4.3750000000000000        2.0000000000000000        0.0000000000000000     
  -3.7499999999999996        2.0000000000000000        0.0000000000000000     
  -3.1250000000000000        2.0000000000000000        0.0000000000000000     
  -2.5000000000000000        2.0000000000000000        0.0000000000000000     
  -5.0000000000000000        2.1875000000000000        0.0000000000000000     
  -4.3750000000000000        2.1875000000000000        0.0000000000000000     
  -3.7500000000000000        2.1875000000000000        0.0000000000000000     
  -3.1250000000000000        2.1875000000000000        0.0000000000000000     
  -2.5000000000000000        2.1875000000000000        0.0000000000000000     
  -5.0000000000000000        2.3750000000000000        0.0000000000000000     
  -4.3750000000000000        2.3750000000000000        0.0000000000000000     
  -3.7499999999999996        2.3750000000000000        0.0000000000000000     
  -3.1250000000000000        2.3750000000000000        0.0000000000000000     
  -2.5000000000000000        2.3750000000000000        0.0000000000000000     
  -5.0000000000000000        2.5625000000000000        0.0000000000000000     
  -4.3750000000000000        2.5625000000000000        0.0000000000000000     
  -3.7499999999999991        2.5625000000000000        0.0000000000000000     
  -3.1250000000000000        2.5625000000000000        0.0000000000000000     
  -2.4999999999999996        2.5625000000000000        0.0000000000000000     
  -5.0000000000000009        2.7500000000000000        0.0000000000000000     
  -4.3749999999999991        2.7500000000000000        0.0000000000000000     
  -3.7500000000000000        2.7500000000000004        0.0000000000000000     
  -3.1249999999999996        2.7500000000000000        0.0000000000000000     
  -2.4999999999999996        2.7500000000000000        0.0000000000000000     
  -2.5000000000000000        2.0000000000000000        0.0000000000000000     
  -1.8749999999999998        2.0000000000000000        0.0000000000000000     
  -1.2500000000000000        2.0000000000000000        0.0000000000000000     
 -0.62499999999999989        2.0000000000000000        0.0000000000000000     
   0.0000000000000000        2.0000000000000004        0.0000000000000000     
  -2.5000000000000000        2.1875000000000000        0.0000000000000000     
  -1.8749999999999996        2.1875000000000000        0.0000000000000000     
  -1.2500000000000000        2.1875000000000000        0.0000000000000000     
 -0.62500000000000000        2.1875000000000000        0.0000000000000000     
   0.0000000000000000        2.1875000000000000        0.0000000000000000     
  -2.5000000000000000        2.3750000000000000        0.0000000000000000     
  -1.8749999999999998        2.3749999999999996        0.0000000000000000     
  -1.2500000000000000        2.3750000000000000        0.0000000000000000     
 -0.62500000000000011        2.3750000000000004        0.0000000000000000     
   0.0000000000000000        2.3749999999999996        0.0000000000000000     
  -2.4999999999999996        2.5625000000000000        0.0000000000000000     
  -1.8750000000000002        2.5625000000000004        0.0000000000000000     
  -1.2500000000000000        2.5625000000000000        0.0000000000000000     
 -0.62500000000000000        2.5625000000000000        0.0000000000000000     
   0.0000000000000000        2.5625000000000009        0.0000000000000000     
  -2.4999999999999996        2.7500000000000000        0.0000000000000000     
  -1.8750000000000002        2.7500000000000009        0.0000000000000000     
  -1.2500000000000000        2.7500000000000004        0.0000000000000000     
 -0.62500000000000000        2.7500000000000000        0.0000000000000000     
   0.0000000000000000        2.7500000000000004        0.0000000000000000     
   0.0000000000000000        2.0000000000000004        0.0000000000000000     
  0.62499999999999989        2.0000000000000000        0.0000000000000000     
   1.2500000000000000        2.0000000000000000        0.0000000000000000     
   1.8750000000000002        2.0000000000000004        0.0000000000000000     
   2.5000000000000000        2.0000000000000004        0.0000000000000000     
   0.0000000000000000        2.1875000000000000        0.0000000000000000     
  0.62500000000000000        2.1875000000000000        0.0000000000000000     
   1.2500000000000000        2.1875000000000000        0.0000000000000000     
   1.8750000000000000        2.1875000000000000        0.0000000000000000     
   2.4999999999999996        2.1875000000000000        0.0000000000000000     
   0.0000000000000000        2.3749999999999996        0.0000000000000000     
  0.62500000000000000        2.3750000000000000        0.0000000000000000     
   1.2500000000000002        2.3750000000000000        0.0000000000000000     
   1.8749999999999998        2.3749999999999991        0.0000000000000000     
   2.5000000000000000        2.3750000000000000        0.0000000000000000     
   0.0000000000000000        2.5625000000000009        0.0000000000000000     
  0.62500000000000000        2.5625000000000000        0.0000000000000000     
   1.2500000000000000        2.5625000000000000        0.0000000000000000     
   1.8750000000000004        2.5625000000000009        0.0000000000000000     
   2.4999999999999996        2.5625000000000000        0.0000000000000000     
   0.0000000000000000        2.7500000000000004        0.0000000000000000     
  0.62500000000000000        2.7500000000000000        0.0000000000000000     
   1.2500000000000002        2.7500000000000000        0.0000000000000000     
   1.8750000000000000        2.7500000000000000        0.0000000000000000     
   2.5000000000000000        2.7500000000000000        0.0000000000000000     
   2.5000000000000000        2.0000000000000004        0.0000000000000000     
   3.1250000000000000        2.0000000000000000        0.0000000000000000     
   3.7499999999999996        2.0000000000000000        0.0000000000000000     
   4.3749999999999991        2.0000000000000000        0.0000000000000000     
   5.0000000000000000        2.0000000000000000        0.0000000000000000     
   2.4999999999999996        2.1875000000000000        0.0000000000000000     
   3.1250000000000000        2.1875000000000000        0.0000000000000000     
   3.7500000000000000        2.1875000000000000        0.0000000000000000     
   4.3750000000000000        2.1875000000000000        0.0000000000000000     
   5.0000000000000000        2.1875000000000000        0.0000000000000000     
   2.5000000000000000        2.3750000000000000        0.0000000000000000     
   3.1249999999999996        2.3750000000000000        0.0000000000000000     
   3.7500000000000004        2.3750000000000000        0.0000000000000000     
   4.3750000000000000        2.3750000000000000        0.0000000000000000     
   5.0000000000000000        2.3750000000000000        0.0000000000000000     
   2.4999999999999996        2.5625000000000000        0.0000000000000000     
   3.1250000000000000        2.5625000000000000        0.0000000000000000     
   3.7500000000000000        2.5625000000000000        0.0000000000000000     
   4.3750000000000000        2.5625000000000000        0.0000000000000000     
   5.0000000000000000        2.5625000000000000        0.0000000000000000     
   2.5000000000000000        2.7500000000000000        0.0000000000000000     
   3.1249999999999996        2.7499999999999996        0.0000000000000000     
   3.7499999999999996        2.7500000000000000        0.0000000000000000     
   4.3750000000000000        2.7499999999999996        0.0000000000000000     
   5.0000000000000009        2.7500000000000000        0.0000000000000000     
  -5.0000000000000009        2.7500000000000000        0.0000000000000000     
  -4.3749999999999991        2.7500000000000000        0.0000000000000000     
  -3.7500000000000000        2.7500000000000004        0.0000000000000000     
  -3.1249999999999996        2.7500000000000000        0.0000000000000000     
  -2.4999999999999996        2.7500000000000000        0.0000000000000000     
  -4.9999999999999991        2.9375000000000000        0.0000000000000000     
  -4.3750000000000000        2.9375000000000000        0.0000000000000000     
  -3.7500000000000000        2.9375000000000000        0.0000000000000000     
  -3.1250000000000004        2.9375000000000004        0.0000000000000000     
  -2.5000000000000000        2.9375000000000000        0.0000000000000000     
  -5.0000000000000000        3.1250000000000000        0.0000000000000000     
  -4.3750000000000000        3.1250000000000000        0.0000000000000000     
  -3.7499999999999991        3.1249999999999996        0.0000000000000000     
  -3.1249999999999996        3.1250000000000000        0.0000000000000000     
  -2.5000000000000000        3.1250000000000000        0.0000000000000000     
  -5.0000000000000000        3.3124999999999996        0.0000000000000000     
  -4.3750000000000000        3.3124999999999996        0.0000000000000000     
  -3.7500000000000000        3.3125000000000004        0.0000000000000000     
  -3.1250000000000000        3.3125000000000000        0.0000000000000000     
  -2.4999999999999996        3.3125000000000000        0.0000000000000000     
  -5.0000000000000018        3.5000000000000004        0.0000000000000000     
  -4.3750000000000000        3.5000000000000004        0.0000000000000000     
  -3.7499999999999991        3.4999999999999991        0.0000000000000000     
  -3.1250000000000004        3.5000000000000009        0.0000000000000000     
  -2.5000000000000004        3.5000000000000009        0.0000000000000000     
  -2.4999999999999996        2.7500000000000000        0.0000000000000000     
  -1.8750000000000002        2.7500000000000009        0.0000000000000000     
  -1.2500000000000000        2.7500000000000004        0.0000000000000000     
 -0.62500000000000000        2.7500000000000000        0.0000000000000000     
   0.0000000000000000        2.7500000000000004        0.0000000000000000     
  -2.5000000000000000        2.9375000000000000        0.0000000000000000     
  -1.8750000000000000        2.9375000000000000        0.0000000000000000     
  -1.2500000000000000        2.9375000000000000        0.0000000000000000     
 -0.62500000000000011        2.9375000000000004        0.0000000000000000     
   0.0000000000000000        2.9375000000000004        0.0000000000000000     
  -2.5000000000000000        3.1250000000000000        0.0000000000000000     
  -1.8749999999999998        3.1249999999999996        0.0000000000000000     
  -1.2500000000000000        3.1249999999999996        0.0000000000000000     
 -0.62499999999999989        3.1250000000000000        0.0000000000000000     
   0.0000000000000000        3.1250000000000000        0.0000000000000000     
  -2.4999999999999996        3.3125000000000000        0.0000000000000000     
  -1.8750000000000007        3.3125000000000009        0.0000000000000000     
  -1.2500000000000002        3.3125000000000004        0.0000000000000000     
 -0.62499999999999989        3.3125000000000000        0.0000000000000000     
   0.0000000000000000        3.3125000000000009        0.0000000000000000     
  -2.5000000000000004        3.5000000000000009        0.0000000000000000     
  -1.8750000000000000        3.5000000000000004        0.0000000000000000     
  -1.2500000000000000        3.4999999999999996        0.0000000000000000     
 -0.62500000000000011        3.5000000000000004        0.0000000000000000     
   0.0000000000000000        3.5000000000000004        0.0000000000000000     
   0.0000000000000000        2.7500000000000004        0.0000000000000000     
  0.62500000000000000        2.7500000000000000        0.0000000000000000     
   1.2500000000000002        2.7500000000000000        0.0000000000000000     
   1.8750000000000000        2.7500000000000000        0.0000000000000000     
   2.5000000000000000        2.7500000000000000        0.0000000000000000     
   0.0000000000000000        2.9375000000000004        0.0000000000000000     
  0.62500000000000000        2.9375000000000000        0.0000000000000000     
   1.2500000000000002        2.9375000000000004        0.0000000000000000     
   1.8750000000000000        2.9374999999999996        0.0000000000000000     
   2.5000000000000000        2.9375000000000000        0.0000000000000000     
   0.0000000000000000        3.1250000000000000        0.0000000000000000     
  0.62500000000000000        3.1250000000000000        0.0000000000000000     
   1.2500000000000000        3.1250000000000000        0.0000000000000000     
   1.8749999999999998        3.1249999999999996        0.0000000000000000     
   2.4999999999999996        3.1250000000000000        0.0000000000000000     
   0.0000000000000000        3.3125000000000009        0.0000000000000000     
  0.62500000000000000        3.3124999999999996        0.0000000000000000     
   1.2500000000000002        3.3125000000000004        0.0000000000000000     
   1.8750000000000000        3.3125000000000004        0.0000000000000000     
   2.5000000000000000        3.3125000000000000        0.0000000000000000     
   0.0000000000000000        3.5000000000000004        0.0000000000000000     
  0.62500000000000022        3.5000000000000004        0.0000000000000000     
   1.2500000000000000        3.5000000000000004        0.0000000000000000     
   1.8750000000000002        3.5000000000000004        0.0000000000000000     
   2.5000000000000000        3.5000000000000009        0.0000000000000000     
   2.5000000000000000        2.7500000000000000        0.0000000000000000     
   3.1249999999999996        2.7499999999999996        0.0000000000000000     
   3.7499999999999996        2.7500000000000000        0.0000000000000000     
   4.3750000000000000        2.7499999999999996        0.0000000000000000     
   5.0000000000000009        2.7500000000000000        0.0000000000000000     
   2.5000000000000000        2.9375000000000000        0.0000000000000000     
   3.1249999999999991        2.9375000000000000        0.0000000000000000     
   3.7500000000000000        2.9375000000000000        0.0000000000000000     
   4.3750000000000000        2.9375000000000004        0.0000000000000000     
   4.9999999999999991        2.9375000000000000        0.0000000000000000     
   2.4999999999999996        3.1250000000000000        0.0000000000000000     
   3.1249999999999996        3.1250000000000000        0.0000000000000000     
   3.7499999999999991        3.1250000000000000        0.0000000000000000     
   4.3749999999999991        3.1250000000000000        0.0000000000000000     
   5.0000000000000000        3.1250000000000000        0.0000000000000000     
   2.5000000000000000        3.3125000000000000        0.0000000000000000     
   3.1249999999999996        3.3124999999999996        0.0000000000000000     
   3.7500000000000000        3.3125000000000004        0.0000000000000000     
   4.3749999999999991        3.3124999999999996        0.0000000000000000     
   5.0000000000000000        3.3124999999999996        0.0000000000000000     
   2.5000000000000000        3.5000000000000009        0.0000000000000000     
   3.1250000000000000        3.5000000000000000        0.0000000000000000     
   3.7500000000000000        3.5000000000000000        0.0000000000000000     
   4.3750000000000000        3.5000000000000004        0.0000000000000000     
   5.0000000000000018        3.5000000000000004        0.0000000000000000     
  -5.0000000000000018        3.5000000000000004        0.0000000000000000     
  -4.3750000000000000        3.5000000000000004        0.0000000000000000     
  -3.7499999999999991        3.4999999999999991        0.0000000000000000     
  -3.1250000000000004        3.5000000000000009        0.0000000000000000     
  -2.5000000000000004        3.5000000000000009        0.0000000000000000     
  -5.0000000000000000        3.6874999999999996        0.0000000000000000     
  -4.3749999999999991        3.6875000000000000        0.0000000000000000     
  -3.7500000000000000        3.6874999999999996        0.0000000000000000     
  -3.1250000000000004        3.6875000000000004        0.0000000000000000     
  -2.5000000000000000        3.6875000000000004        0.0000000000000000     
  -5.0000000000000000        3.8749999999999996        0.0000000000000000     
  -4.3750000000000000        3.8749999999999996        0.0000000000000000     
  -3.7500000000000000        3.8750000000000004        0.0000000000000000     
  -3.1250000000000000        3.8750000000000000        0.0000000000000000     
  -2.5000000000000004        3.8750000000000000        0.0000000000000000     
  -5.0000000000000009        4.0625000000000000        0.0000000000000000     
  -4.3750000000000000        4.0625000000000009        0.0000000000000000     
  -3.7499999999999996        4.0625000000000009        0.0000000000000000     
  -3.1250000000000004        4.0625000000000000        0.0000000000000000     
  -2.4999999999999996        4.0625000000000000        0.0000000000000000     
  -5.0000000000000000        4.2500000000000000        0.0000000000000000     
  -4.3750000000000000        4.2500000000000000        0.0000000000000000     
  -3.7499999999999991        4.2500000000000000        0.0000000000000000     
  -3.1249999999999996        4.2499999999999991        0.0000000000000000     
  -2.4999999999999996        4.2500000000000000        0.0000000000000000     
  -2.5000000000000004        3.5000000000000009        0.0000000000000000     
  -1.8750000000000000        3.5000000000000004        0.0000000000000000     
  -1.2500000000000000        3.4999999999999996        0.0000000000000000     
 -0.62500000000000011        3.5000000000000004        0.0000000000000000     
   0.0000000000000000        3.5000000000000004        0.0000000000000000     
  -2.5000000000000000        3.6875000000000004        0.0000000000000000     
  -1.8749999999999998        3.6875000000000000        0.0000000000000000     
  -1.2500000000000000        3.6874999999999996        0.0000000000000000     
 -0.62500000000000022        3.6875000000000004        0.0000000000000000     
   0.0000000000000000        3.6875000000000004        0.0000000000000000     
  -2.5000000000000004        3.8750000000000000        0.0000000000000000     
  -1.8750000000000000        3.8750000000000004        0.0000000000000000     
  -1.2500000000000004        3.8750000000000009        0.0000000000000000     
 -0.62500000000000000        3.8750000000000004        0.0000000000000000     
   0.0000000000000000        3.8750000000000000        0.0000000000000000     
  -2.4999999999999996        4.0625000000000000        0.0000000000000000     
  -1.8750000000000000        4.0625000000000000        0.0000000000000000     
  -1.2499999999999998        4.0624999999999991        0.0000000000000000     
 -0.62500000000000011        4.0625000000000000        0.0000000000000000     
   0.0000000000000000        4.0625000000000000        0.0000000000000000     
  -2.4999999999999996        4.2500000000000000        0.0000000000000000     
  -1.8750000000000000        4.2500000000000000        0.0000000000000000     
  -1.2500000000000000        4.2500000000000009        0.0000000000000000     
 -0.62500000000000000        4.2499999999999991        0.0000000000000000     
   0.0000000000000000        4.2500000000000009        0.0000000000000000     
   0.0000000000000000        3.5000000000000004        0.0000000000000000     
  0.62500000000000022        3.5000000000000004        0.0000000000000000     
   1.2500000000000000        3.5000000000000004        0.0000000000000000     
   1.8750000000000002        3.5000000000000004        0.0000000000000000     
   2.5000000000000000        3.5000000000000009        0.0000000000000000     
   0.0000000000000000        3.6875000000000004        0.0000000000000000     
  0.62500000000000000        3.6875000000000000        0.0000000000000000     
   1.2500000000000002        3.6875000000000004        0.0000000000000000     
   1.8750000000000000        3.6875000000000004        0.0000000000000000     
   2.5000000000000000        3.6875000000000000        0.0000000000000000     
   0.0000000000000000        3.8750000000000000        0.0000000000000000     
  0.62500000000000000        3.8750000000000004        0.0000000000000000     
   1.2500000000000002        3.8750000000000009        0.0000000000000000     
   1.8750000000000004        3.8750000000000004        0.0000000000000000     
   2.5000000000000000        3.8750000000000000        0.0000000000000000     
   0.0000000000000000        4.0625000000000000        0.0000000000000000     
  0.62500000000000011        4.0625000000000009        0.0000000000000000     
   1.2499999999999998        4.0624999999999991        0.0000000000000000     
   1.8749999999999998        4.0625000000000009        0.0000000000000000     
   2.5000000000000000        4.0625000000000000        0.0000000000000000     
   0.0000000000000000        4.2500000000000009        0.0000000000000000     
  0.62500000000000011        4.2500000000000000        0.0000000000000000     
   1.2500000000000000        4.2500000000000000        0.0000000000000000     
   1.8750000000000000        4.2500000000000009        0.0000000000000000     
   2.5000000000000000        4.2500000000000009        0.0000000000000000     
   2.5000000000000000        3.5000000000000009        0.0000000000000000     
   3.1250000000000000        3.5000000000000000        0.0000000000000000     
   3.7500000000000000        3.5000000000000000        0.0000000000000000     
   4.3750000000000000        3.5000000000000004        0.0000000000000000     
   5.0000000000000018        3.5000000000000004        0.0000000000000000     
   2.5000000000000000        3.6875000000000000        0.0000000000000000     
   3.1249999999999996        3.6875000000000000        0.0000000000000000     
   3.7500000000000000        3.6875000000000000        0.0000000000000000     
   4.3750000000000000        3.6875000000000004        0.0000000000000000     
   5.0000000000000000        3.6874999999999996        0.0000000000000000     
   2.5000000000000000        3.8750000000000000        0.0000000000000000     
   3.1249999999999996        3.8750000000000000        0.0000000000000000     
   3.7500000000000000        3.8750000000000009        0.0000000000000000     
   4.3750000000000009        3.8749999999999996        0.0000000000000000     
   5.0000000000000000        3.8749999999999996        0.0000000000000000     
   2.5000000000000000        4.0625000000000000        0.0000000000000000     
   3.1249999999999996        4.0625000000000000        0.0000000000000000     
   3.7499999999999996        4.0625000000000000        0.0000000000000000     
   4.3749999999999991        4.0625000000000009        0.0000000000000000     
   5.0000000000000009        4.0625000000000000        0.0000000000000000     
   2.5000000000000000        4.2500000000000009        0.0000000000000000     
   3.1250000000000000        4.2500000000000009        0.0000000000000000     
   3.7499999999999991        4.2499999999999991        0.0000000000000000     
   4.3750000000000000        4.2500000000000000        0.0000000000000000     
   5.0000000000000000        4.2500000000000000        0.0000000000000000     
  -5.0000000000000000        4.2500000000000000        0.0000000000000000     
  -4.3750000000000000        4.2500000000000000        0.0000000000000000     
  -3.7499999999999991        4.2500000000000000        0.0000000000000000     
  -3.1249999999999996        4.2499999999999991        0.0000000000000000     
  -2.4999999999999996        4.2500000000000000        0.0000000000000000     
  -5.0000000000000000        4.4375000000000000        0.0000000000000000     
  -4.3750000000000000        4.4375000000000000        0.0000000000000000     
  -3.7499999999999991        4.4375000000000000        0.0000000000000000     
  -3.1250000000000000        4.4375000000000000        0.0000000000000000     
  -2.4999999999999996        4.4375000000000000        0.0000000000000000     
  -5.0000000000000000        4.6250000000000000        0.0000000000000000     
  -4.3750000000000000        4.6250000000000000        0.0000000000000000     
  -3.7500000000000000        4.6250000000000000        0.0000000000000000     
  -3.1250000000000000        4.6250000000000000        0.0000000000000000     
  -2.5000000000000000        4.6250000000000000        0.0000000000000000     
  -5.0000000000000000        4.8125000000000000        0.0000000000000000     
  -4.3750000000000000        4.8125000000000000        0.0000000000000000     
  -3.7500000000000000        4.8125000000000000        0.0000000000000000     
  -3.1250000000000000        4.8125000000000000        0.0000000000000000     
  -2.4999999999999991        4.8125000000000000        0.0000000000000000     
  -5.0000000000000000        5.0000000000000000        0.0000000000000000     
  -4.3750000000000000        5.0000000000000000        0.0000000000000000     
  -3.7499999999999996        5.0000000000000000        0.0000000000000000     
  -3.1250000000000000        5.0000000000000000        0.0000000000000000     
  -2.5000000000000000        5.0000000000000009        0.0000000000000000     
  -2.4999999999999996        4.2500000000000000        0.0000000000000000     
  -1.8750000000000000        4.2500000000000000        0.0000000000000000     
  -1.2500000000000000        4.2500000000000009        0.0000000000000000     
 -0.62500000000000000        4.2499999999999991        0.0000000000000000     
   0.0000000000000000        4.2500000000000009        0.0000000000000000     
  -2.4999999999999996        4.4375000000000000        0.0000000000000000     
  -1.8750000000000000        4.4375000000000000        0.0000000000000000     
  -1.2500000000000000        4.4375000000000000        0.0000000000000000     
 -0.62500000000000000        4.4375000000000000        0.0000000000000000     
   0.0000000000000000        4.4375000000000000        0.0000000000000000     
  -2.5000000000000000        4.6250000000000000        0.0000000000000000     
  -1.8750000000000002        4.6250000000000000        0.0000000000000000     
  -1.2500000000000002        4.6250000000000000        0.0000000000000000     
 -0.62500000000000000        4.6250000000000000        0.0000000000000000     
   0.0000000000000000        4.6250000000000000        0.0000000000000000     
  -2.4999999999999991        4.8125000000000000        0.0000000000000000     
  -1.8750000000000002        4.8125000000000018        0.0000000000000000     
  -1.2499999999999998        4.8125000000000000        0.0000000000000000     
 -0.62499999999999989        4.8125000000000000        0.0000000000000000     
   0.0000000000000000        4.8125000000000018        0.0000000000000000     
  -2.5000000000000000        5.0000000000000009        0.0000000000000000     
  -1.8749999999999998        4.9999999999999991        0.0000000000000000     
  -1.2500000000000000        5.0000000000000000        0.0000000000000000     
 -0.62499999999999989        5.0000000000000000        0.0000000000000000     
   0.0000000000000000        5.0000000000000018        0.0000000000000000     
   0.0000000000000000        4.2500000000000009        0.0000000000000000     
  0.62500000000000011        4.2500000000000000        0.0000000000000000     
   1.2500000000000000        4.2500000000000000        0.0000000000000000     
   1.8750000000000000        4.2500000000000009        0.0000000000000000     
   2.5000000000000000        4.2500000000000009        0.0000000000000000     
   0.0000000000000000        4.4375000000000000        0.0000000000000000     
  0.62500000000000000        4.4375000000000000        0.0000000000000000     
   1.2500000000000000        4.4375000000000000        0.0000000000000000     
   1.8750000000000000        4.4375000000000000        0.0000000000000000     
   2.4999999999999996        4.4375000000000000        0.0000000000000000     
   0.0000000000000000        4.6250000000000000        0.0000000000000000     
  0.62500000000000000        4.6250000000000009        0.0000000000000000     
   1.2500000000000002        4.6250000000000000        0.0000000000000000     
   1.8750000000000002        4.6250000000000000        0.0000000000000000     
   2.4999999999999996        4.6250000000000000        0.0000000000000000     
   0.0000000000000000        4.8125000000000018        0.0000000000000000     
  0.62500000000000011        4.8125000000000009        0.0000000000000000     
   1.2500000000000002        4.8124999999999991        0.0000000000000000     
   1.8750000000000002        4.8125000000000018        0.0000000000000000     
   2.5000000000000004        4.8125000000000009        0.0000000000000000     
   0.0000000000000000        5.0000000000000018        0.0000000000000000     
  0.62499999999999989        5.0000000000000000        0.0000000000000000     
   1.2500000000000000        5.0000000000000000        0.0000000000000000     
   1.8750000000000002        5.0000000000000009        0.0000000000000000     
   2.5000000000000000        5.0000000000000000        0.0000000000000000     
   2.5000000000000000        4.2500000000000009        0.0000000000000000     
   3.1250000000000000        4.2500000000000009        0.0000000000000000     
   3.7499999999999991        4.2499999999999991        0.0000000000000000     
   4.3750000000000000        4.2500000000000000        0.0000000000000000     
   5.0000000000000000        4.2500000000000000        0.0000000000000000     
   2.4999999999999996        4.4375000000000000        0.0000000000000000     
   3.1250000000000000        4.4375000000000000        0.0000000000000000     
   3.7500000000000000        4.4375000000000000        0.0000000000000000     
   4.3750000000000000        4.4375000000000000        0.0000000000000000     
   5.0000000000000000        4.4375000000000000        0.0000000000000000     
   2.4999999999999996        4.6250000000000000        0.0000000000000000     
   3.1250000000000000        4.6250000000000000        0.0000000000000000     
   3.7500000000000004        4.6250000000000000        0.0000000000000000     
   4.3750000000000000        4.6250000000000000        0.0000000000000000     
   5.0000000000000000        4.6250000000000000        0.0000000000000000     
   2.5000000000000004        4.8125000000000009        0.0000000000000000     
   3.1250000000000000        4.8125000000000000        0.0000000000000000     
   3.7499999999999996        4.8125000000000000        0.0000000000000000     
   4.3750000000000000        4.8125000000000000        0.0000000000000000     
   5.0000000000000000        4.8125000000000000        0.0000000000000000     
   2.5000000000000000        5.0000000000000000        0.0000000000000000     
   3.1250000000000000        5.0000000000000000        0.0000000000000000     
   3.7499999999999996        5.0000000000000000        0.0000000000000000     
   4.3749999999999991        5.0000000000000000        0.0000000000000000     
   5.0000000000000000        5.0000000000000000        0.0000000000000000     
 </DataArray>
 </Points>
 <Cells>
 <DataArray  type="Int32"  Name="connectivity"  format="ascii">
           0           1           6           5
           1           2           7           6
           2           3           8           7
           3           4           9           8
           5           6          11          10
           6           7          12          11
           7           8          13          12
           8           9          14          13
          10          11          16          15
          11          12          17          16
          12          13          18          17
          13          14          19          18
          15          16          21          20
          16          17          22          21
          17          18          23          22
          18          19          24          23
          25          26          31          30
          26          27          32          31
          27          28          33          32
          28          29          34          33
          30          31          36          35
          31          32          37          36
          32          33          38          37
          33          34          39          38
          35          36          41          40
          36          37          42          41
          37          38          43          42
          38          39          44          43
          40          41          46          45
          41          42          47          46
          42          43          48          47
          43          44          49          48
          50          51          56          55
          51          52          57          56
          52          53          58          57
          53          54          59          58
          55          56          61          60
          56          57          62          61
          57          58          63          62
          58          59          64          63
          60          61          66          65
          61          62          67          66
          62          63          68          67
          63          64          69          68
          65          66          71          70
          66          67          72          71
          67          68          73          72
          68          69          74          73
          75          76          81          80
          76          77          82          81
          77          78          83          82
          78          79          84          83
          80          81          86          85
          81          82          87          86
          82          83          88          87
          83          84          89          88
          85          86          91          90
          86          87          92          91
          87          88          93          92
          88          89          94          93
          90          91          96          95
          91          92          97          96
          92          93          98          97
          93          94          99          98
         100         101         106         105
         101         102         107         106
         102         103         108         107
         103         104         109         108
         105         106         111         110
         106         107         112         111
         107         108         113         112
         108         109         114         113
         110         111         116         115
         111         112         117         116
         112         113         118         117
         113         114         119         118
         115         116         121         120
         116         117         122         121
         117         118         123         122
         118         119         124         123
         125         126         131         130
         126         127         132         131
         127         128         133         132
         128         129         134         133
         130         131         136         135
         131         132         137         136
         132         133         138         137
         133         134         139         138
         135         136         141         140
         136         137         142         141
         137         138         143         142
         138         139         144         143
         140         141         146         145
         141         142         147         146
         142         143         148         147
         143         144         149         148
         150         151         156         155
         151         152         157         156
         152         153         158         157
         153         154         159         158
         155         156         161         160
         156         157         162         161
         157         158         163         162
         158         159         164         163
         160         161         166         165
         161         162         167         166
         162         163         168         167
         163         164         169         168
         165         166         171         170
         166         167         172         171
         167         168         173         172
         168         169         174         173
         175         176         181         180
         176         177         182         181
         177         178         183         182
         178         179         184         183
         180         181         186         185
         181         182         187         186
         182         183         188         187
         183         184         189         188
         185         186         191         190
         186         187         192         191
         187         188         193         192
         188         189         194         193
         190         191         196         195
         191         192         197         196
         192         193         198         197
         193         194         199         198
         200         201         206         205
         201         202         207         206
         202         203         208         207
         203         204         209         208
         205         206         211         210
         206         207         212         211
         207         208         213         212
         208         209         214         213
         210         211         216         215
         211         212         217         216
         212         213         218         217
         213         214         219         218
         215         216         221         220
         216         217         222         221
         217         218         223         222
         218         219         224         223
         225         226         231         230
         226         227         232         231
         227         228         233         232
         228         229         234         233
         230         231         236         235
         231         232         237         236
         232         233         238         237
         233         234         239         238
         235         236         241         240
         236         237         242         241
         237         238         243         242
         238         239         244         243
         240         241         246         245
         241         242         247         246
         242         243         248         247
         243         244         249         248
         250         251         256         255
         251         252         257         256
         252         253         258         257
         253         254         259         258
         255         256         261         260
         256         257         262         261
         257         258         263         262
         258         259         264         263
         260         261         266         265
         261         262         267         266
         262         263         268         267
         263         264         269         268
         265         266         271         270
         266         267         272         271
         267         268         273         272
         268         269         274         273
         275         276         281         280
         276         277         282         281
         277         278         283         282
         278         279         284         283
         280         281         286         285
         281         282         287         286
         282         283         288         287
         283         284         289         288
         285         286         291         290
         286         287         292         291
         287         288         293         292
         288         289         294         293
         290         291         296         295
         291         292         297         296
         292         293         298         297
         293         294         299         298
         300         301         306         305
         301         302         307         306
         302         303         308         307
         303         304         309         308
         305         306         311         310
         306         307         312         311
         307         308         313         312
         308         309         314         313
         310         311         316         315
         311         312         317         316
         312         313         318         317
         313         314         319         318
         315         316         321         320
         316         317         322         321
         317         318         323         322
         318         319         324         323
         325         326         331         330
         326         327         332         331
         327         328         333         332
         328         329         334         333
         330         331         336         335
         331         332         337         336
         332         333         338         337
         333         334         339         338
         335         336         341         340
         336         337         342         341
         337         338         343         342
         338         339         344         343
         340         341         346         345
         341         342         347         346
         342         343         348         347
         343         344         349         348
         350         351         356         355
         351         352         357         356
         352         353         358         357
         353         354         359         358
         355         356         361         360
         356         357         362         361
         357         358         363         362
         358         359         364         363
         360         361         366         365
         361         362         367         366
         362         363         368         367
         363         364         369         368
         365         366         371         370
         366         367         372         371
         367         368         373         372
         368         369         374         373
         375         376         381         380
         376         377         382         381
         377         378         383         382
         378         379         384         383
         380         381         386         385
         381         382         387         386
         382         383         388         387
         383         384         389         388
         385         386         391         390
         386         387         392         391
         387         388         393         392
         388         389         394         393
         390         391         396         395
         391         392         397         396
         392         393         398         397
         393         394         399         398
 </DataArray>
 <DataArray  type="Int32"  Name="offsets"  format="ascii"> 
           4
           8
          12
          16
          20
          24
          28
          32
          36
          40
          44
          48
          52
          56
          60
          64
          68
          72
          76
          80
          84
          88
          92
          96
         100
         104
         108
         112
         116
         120
         124
         128
         132
         136
         140
         144
         148
         152
         156
         160
         164
         168
         172
         176
         180
         184
         188
         192
         196
         200
         204
         208
         212
         216
         220
         224
         228
         232
         236
         240
         244
         248
         252
         256
         260
         264
         268
         272
         276
         280
         284
         288
         292
         296
         300
         304
         308
         312
         316
         320
         324
         328
         332
         336
         340
         344
         348
         352
         356
         360
         364
         368
         372
         376
         380
         384
         388
         392
         396
         400
         404
         408
         412
         416
         420
         424
         428
         432
         436
         440
         444
         448
         452
         456
         460
         464
         468
         472
         476
         480
         484
         488
         492
         496
         500
         504
         508
         512
         516
         520
         524
         528
         532
         536
         540
         544
         548
         552
         556
         560
         564
         568
         572
         576
         580
         584
         588
         592
         596
         600
         604
         608
         612
         616
         620
         624
         628
         632
         636
         640
         644
         648
         652
         656
         660
         664
         668
         672
         676
         680
         684
         688
         692
         696
         700
         704
         708
         712
         716
         720
         724
         728
         732
         736
         740
         744
         748
         752
         756
         760
         764
         768
         772
         776
         780
         784
         788
         792
         796
         800
         804
         808
         812
         816
         820
         824
         828
         832
         836
         840
         844
         848
         852
         856
         860
         864
         868
         872
         876
         880
         884
         888
         892
         896
         900
         904
         908
         912
         916
         920
         924
         928
         932
         936
         940
         944
         948
         952
         956
         960
         964
         968
         972
         976
         980
         984
         988
         992
         996
        1000
        1004
        1008
        1012
        1016
        1020
        1024
 </DataArray>
 <DataArray  type="UInt8"  Name="types"  format="ascii">
 9
 9
 9
 9
 9
 9
 9
 9
 9
 9
 9
 9
 9
 9
 9
 9
 9
 9
 9
 9
 9
 9
 9
 9
 9
 9
 9
 9
 9
 9
 9
 9
 9
 9
 9
 9
 9
 9
 9
 9
 9
 9
 9
 9
 9
 9
 9
 9
 9
 9
 9
 9
 9
 9
 9
 9
 9
 9
 9
 9
 9
 9
 9
 9
 9
 9
 9
 9
 9
 9
 9
 9
 9
 9
 9
 9
 9
 9
 9
 9
 9
 9
 9
 9
 9
 9
 9
 9
 9
 9
 9
 9
 9
 9
 9
 9
 9
 9
 9
 9
 9
 9
 9
 9
 9
 9
 9
 9
 9
 9
 9
 9
 9
 9
 9
 9
 9
 9
 9
 9
 9
 9
 9
 9
 9
 9
 9
 9
 9
 9
 9
 9
 9
 9
 9
 9
 9
 9
 9
 9
 9
 9
 9
 9
 9
 9
 9
 9
 9
 9
 9
 9
 9
 9
 9
 9
 9
 9
 9
 9
 9
 9
 9
 9
 9
 9
 9
 9
 9
 9
 9
 9
 9
 9
 9
 9
 9
 9
 9
 9
 9
 9
 9
 9
 9
 9
 9
 9
 9
 9
 9
 9
 9
 9
 9
 9
 9
 9
 9
 9
 9
 9
 9
 9
 9
 9
 9
 9
 9
 9
 9
 9
 9
 9
 9
 9
 9
 9
 9
 9
 9
 9
 9
 9
 9
 9
 9
 9
 9
 9
 9
 9
 9
 9
 9
 9
 9
 9
 9
 9
 9
 9
 9
 9
 9
 9
 9
 9
 9
 9
 9
 9
 9
 9
 9
 9
 </DataArray>
 </Cells> 
 <PointData>
 <DataArray  type="Float64" Name="disp" NumberOfComponents="3" format="ascii">
   3.4214520576441341E-007   2.0384566551479835E-006   0.0000000000000000     
   3.7887600265890038E-007   2.5292521471178310E-006   0.0000000000000000     
   4.1403779285282565E-007   3.0649575211419355E-006   0.0000000000000000     
   4.4763289932300810E-007   3.6436241820167458E-006   0.0000000000000000     
   4.7966364504626640E-007   4.2633035345387094E-006   0.0000000000000000     
   2.1369230457052735E-007   2.0357095932280342E-006   0.0000000000000000     
   2.3665078224167882E-007   2.5266216712556346E-006   0.0000000000000000     
   2.5862766847191741E-007   3.0624428061970323E-006   0.0000000000000000     
   2.7962475901708494E-007   3.6412245723840834E-006   0.0000000000000000     
   2.9964384963302318E-007   4.2610185441486440E-006   0.0000000000000000     
   8.5444814139993260E-008   2.0342300229269838E-006   0.0000000000000000     
   9.4628634201257744E-008   2.5252051561695909E-006   0.0000000000000000     
   1.0341960739349572E-007   3.0610887241404978E-006   0.0000000000000000     
   1.1181851858392911E-007   3.6399324708429442E-006   0.0000000000000000     
   1.1982615263977979E-007   4.2597881402801689E-006   0.0000000000000000     
  -4.2720387898770887E-008   2.0340184420792765E-006   0.0000000000000000     
  -4.7312305276665573E-008   2.5250026860318088E-006   0.0000000000000000     
  -5.1707685752670358E-008   3.0608952348302762E-006   0.0000000000000000     
  -5.5906994857159971E-008   3.6397478710159871E-006   0.0000000000000000     
  -5.9910698120509339E-008   4.2596123771302450E-006   0.0000000000000000     
  -1.7092642391734711E-007   2.0350753485193563E-006   0.0000000000000000     
  -1.8929390000639386E-007   2.5260143450143935E-006   0.0000000000000000     
  -2.0687550633681189E-007   3.0618622981243132E-006   0.0000000000000000     
  -2.2367295418688304E-007   3.6406707665258738E-006   0.0000000000000000     
  -2.3968795483488955E-007   4.2604913088958385E-006   0.0000000000000000     
   4.7966364504626640E-007   4.2633035345387094E-006   0.0000000000000000     
   5.1013194347614711E-007   4.9220461254328846E-006   0.0000000000000000     
   5.3903806997310827E-007   5.6178990691387685E-006   0.0000000000000000     
   5.6638189037433567E-007   6.3489086220244712E-006   0.0000000000000000     
   5.9216327051701502E-007   7.1131210404580989E-006   0.0000000000000000     
   2.9964384963302318E-007   4.2610185441486440E-006   0.0000000000000000     
   3.1868642170352888E-007   4.9198754322185869E-006   0.0000000000000000     
   3.3675269912421817E-007   5.6158424929058603E-006   0.0000000000000000     
   3.5384259141866205E-007   6.3469661189184299E-006   0.0000000000000000     
   3.6995600811043164E-007   7.1112927029642598E-006   0.0000000000000000     
   1.1982615263977979E-007   4.2597881402801689E-006   0.0000000000000000     
   1.2744315892284685E-007   4.9187065910756679E-006   0.0000000000000000     
   1.3466964477323865E-007   5.6147351403339595E-006   0.0000000000000000     
   1.4150558202564076E-007   6.3459202197798220E-006   0.0000000000000000     
   1.4795094251473861E-007   7.1103082611380203E-006   0.0000000000000000     
  -5.9910698120509339E-008   4.2596123771302450E-006   0.0000000000000000     
  -6.3719174933398490E-008   4.9185396432646600E-006   0.0000000000000000     
  -6.7332460127728199E-008   5.6145769897120301E-006   0.0000000000000000     
  -7.0750502395704586E-008   6.3457708443154647E-006   0.0000000000000000     
  -7.3973250429533813E-008   7.1101676349180662E-006   0.0000000000000000     
  -2.3968795483488955E-007   4.2604913088958385E-006   0.0000000000000000     
  -2.5492190993270668E-007   4.9193746300460959E-006   0.0000000000000000     
  -2.6937498262658034E-007   5.6153680193290365E-006   0.0000000000000000     
  -2.8304702643635018E-007   6.3465179122321852E-006   0.0000000000000000     
  -2.9593789488185519E-007   7.1108707442430634E-006   0.0000000000000000     
   5.9216327051701502E-007   7.1131210404580989E-006   0.0000000000000000     
   6.1638210277691876E-007   7.9085827526551030E-006   0.0000000000000000     
   6.3903838568416604E-007   8.7333408742203223E-006   0.0000000000000000     
   6.6013214430746308E-007   9.5854426926059420E-006   0.0000000000000000     
   6.7966340371551546E-007   1.0462935495264139E-005   0.0000000000000000     
   3.6995600811043164E-007   7.1112927029642598E-006   0.0000000000000000     
   3.8509286739963225E-007   7.9068687646912545E-006   0.0000000000000000     
   3.9925312219250716E-007   8.7317413315070880E-006   0.0000000000000000     
   4.1243673407183370E-007   9.5839575577593720E-006   0.0000000000000000     
   4.2464366462038909E-007   1.0461564597795713E-005   0.0000000000000000     
   1.4795094251473861E-007   7.1103082611380203E-006   0.0000000000000000     
   1.5400569735904061E-007   7.9059458170135386E-006   0.0000000000000000     
   1.5966981481234596E-007   8.7308799235321220E-006   0.0000000000000000     
   1.6494326241227623E-007   9.5831577376997258E-006   0.0000000000000000     
   1.6982600769645352E-007   1.0460826416522300E-005   0.0000000000000000     
  -7.3973250429533813E-008   7.1101676349180662E-006   0.0000000000000000     
  -7.7000661362233868E-008   7.9058139186826548E-006   0.0000000000000000     
  -7.9832726090071773E-008   8.7307567700509482E-006   0.0000000000000000     
  -8.2469443950126718E-008   9.5830433927843723E-006   0.0000000000000000     
  -8.4910814279477514E-008   1.0460720990644356E-005   0.0000000000000000     
  -2.9593789488185519E-007   7.1108707442430634E-006   0.0000000000000000     
  -3.0804746278156875E-007   7.9064730787593129E-006   0.0000000000000000     
  -3.1937569014849999E-007   8.7313719908190938E-006   0.0000000000000000     
  -3.2992255829429264E-007   9.5836146833706735E-006   0.0000000000000000     
  -3.3968804853058976E-007   1.0461248359362337E-005   0.0000000000000000     
   6.7966340371551546E-007   1.0462935495264139E-005   0.0000000000000000     
   6.9763212795574896E-007   1.1363866512918902E-005   0.0000000000000000     
   7.1403803699046895E-007   1.2286282749381458E-005   0.0000000000000000     
   7.2888078976070028E-007   1.3228231151734829E-005   0.0000000000000000     
   7.4216004520746788E-007   1.4187758667062048E-005   0.0000000000000000     
   4.2464366462038909E-007   1.0461564597795713E-005   0.0000000000000000     
   4.3587388186724151E-007   1.1362609643527418E-005   0.0000000000000000     
   4.4612737962661942E-007   1.2285140037120536E-005   0.0000000000000000     
   4.5540415815904156E-007   1.3227203158304812E-005   0.0000000000000000     
   4.6370421772502712E-007   1.4186846386809989E-005   0.0000000000000000     
   1.6982600769645352E-007   1.0460826416522300E-005   0.0000000000000000     
   1.7431803289676532E-007   1.1361933118240484E-005   0.0000000000000000     
   1.7841937902216265E-007   1.2284525006033667E-005   0.0000000000000000     
   1.8213010177586212E-007   1.3226649244315915E-005   0.0000000000000000     
   1.8545025686108050E-007   1.4186352997501307E-005   0.0000000000000000     
  -8.4910814279477514E-008   1.0460720990644356E-005   0.0000000000000000     
  -8.7156839177088638E-008   1.1361836695231040E-005   0.0000000000000000     
  -8.9207531789464915E-008   1.2284437349499380E-005   0.0000000000000000     
  -9.1062908024996587E-008   1.3226569724243051E-005   0.0000000000000000     
  -9.2722983792073658E-008   1.4186280590255714E-005   0.0000000000000000     
  -3.3968804853058976E-007   1.0461248359362337E-005   0.0000000000000000     
  -3.4867215457572913E-007   1.1362320132672008E-005   0.0000000000000000     
  -3.5687491977482682E-007   1.2284876760896216E-005   0.0000000000000000     
  -3.6429639987969259E-007   1.3226964912561126E-005   0.0000000000000000     
  -3.7093665064213704E-007   1.4186631256192920E-005   0.0000000000000000     
  -1.7092642391734711E-007   2.0350753485193563E-006   0.0000000000000000     
  -1.8929390000639386E-007   2.5260143450143935E-006   0.0000000000000000     
  -2.0687550633681189E-007   3.0618622981243132E-006   0.0000000000000000     
  -2.2367295418688304E-007   3.6406707665258738E-006   0.0000000000000000     
  -2.3968795483488955E-007   4.2604913088958385E-006   0.0000000000000000     
  -2.9929614272473359E-007   2.0374010122290089E-006   0.0000000000000000     
  -3.3143792225682414E-007   2.5282401436142990E-006   0.0000000000000000     
  -3.6220514368038834E-007   3.0639898609107695E-006   0.0000000000000000     
  -3.9160054815206879E-007   3.6427011445406986E-006   0.0000000000000000     
  -4.1962687682850807E-007   4.2624249749263637E-006   0.0000000000000000     
  -4.2795129887959296E-007   2.0409947917793896E-006   0.0000000000000000     
  -4.7386577811522933E-007   2.5316797976278472E-006   0.0000000000000000     
  -5.1781786290977335E-007   3.0672778181986818E-006   0.0000000000000000     
  -5.5981102896405871E-007   3.6458389664102875E-006   0.0000000000000000     
  -5.9984875197891914E-007   4.2654133551810610E-006   0.0000000000000000     
  -5.5701337337800353E-007   2.0458558178889940E-006   0.0000000000000000     
  -6.1669878212347738E-007   2.5363329491762114E-006   0.0000000000000000     
  -6.7383492310256993E-007   3.0717260520273065E-006   0.0000000000000000     
  -7.2842566470032294E-007   3.6500841870299019E-006   0.0000000000000000     
  -7.8047487530177825E-007   4.2694564147716199E-006   0.0000000000000000     
  -6.8660384721604465E-007   2.0519832212763187E-006   0.0000000000000000     
  -7.6005824882343555E-007   2.5421992403805581E-006   0.0000000000000000     
  -8.3037758333637999E-007   3.0773344444358969E-006   0.0000000000000000     
  -8.9756572343833124E-007   3.6554367612948009E-006   0.0000000000000000     
  -9.6162654181274173E-007   4.2745541188097325E-006   0.0000000000000000     
  -2.3968795483488955E-007   4.2604913088958385E-006   0.0000000000000000     
  -2.5492190993270668E-007   4.9193746300460959E-006   0.0000000000000000     
  -2.6937498262658034E-007   5.6153680193290365E-006   0.0000000000000000     
  -2.8304702643635018E-007   6.3465179122321852E-006   0.0000000000000000     
  -2.9593789488185519E-007   7.1108707442430634E-006   0.0000000000000000     
  -4.1962687682850807E-007   4.2624249749263637E-006   0.0000000000000000     
  -4.4628637164561902E-007   4.9212115849520685E-006   0.0000000000000000     
  -4.7157927765639359E-007   5.6171082173502096E-006   0.0000000000000000     
  -4.9550534069309408E-007   6.3481613673152045E-006   0.0000000000000000     
  -5.1806430658798335E-007   7.1124175300414806E-006   0.0000000000000000     
  -5.9984875197891914E-007   4.2654133551810610E-006   0.0000000000000000     
  -6.3793386765484466E-007   4.9240505106009151E-006   0.0000000000000000     
  -6.7406665169095440E-007   5.6197976114458416E-006   0.0000000000000000     
  -7.0824673978602284E-007   6.3507012496633503E-006   0.0000000000000000     
  -7.4047376763882554E-007   7.1148080172009457E-006   0.0000000000000000     
  -7.8047487530177825E-007   4.2694564147716199E-006   0.0000000000000000     
  -8.2998570104613598E-007   4.9278914018825316E-006   0.0000000000000000     
  -8.7695839908922772E-007   5.6234362391625034E-006   0.0000000000000000     
  -9.2139250434104521E-007   6.3541376234538450E-006   0.0000000000000000     
  -9.6328755171157862E-007   7.1180422515988806E-006   0.0000000000000000     
  -9.6162654181274173E-007   4.2745541188097325E-006   0.0000000000000000     
  -1.0225631749052427E-006   4.9327342536868089E-006   0.0000000000000000     
  -1.0803758142101777E-006   5.6280241380467480E-006   0.0000000000000000     
  -1.1350639149840688E-006   6.3584705528639237E-006   0.0000000000000000     
  -1.1866269324834376E-006   7.1221202791127040E-006   0.0000000000000000     
  -2.9593789488185519E-007   7.1108707442430634E-006   0.0000000000000000     
  -3.0804746278156875E-007   7.9064730787593129E-006   0.0000000000000000     
  -3.1937569014849999E-007   8.7313719908190938E-006   0.0000000000000000     
  -3.2992255829429264E-007   9.5836146833706735E-006   0.0000000000000000     
  -3.3968804853058976E-007   1.0461248359362337E-005   0.0000000000000000     
  -5.1806430658798335E-007   7.1124175300414806E-006   0.0000000000000000     
  -5.3925596545701207E-007   7.9079232998206733E-006   0.0000000000000000     
  -5.5908028455089173E-007   8.7327256673332951E-006   0.0000000000000000     
  -5.7753727540402168E-007   9.5848717223570761E-006   0.0000000000000000     
  -5.9462694955080204E-007   1.0462408554669746E-005   0.0000000000000000     
  -7.4047376763882554E-007   7.1148080172009457E-006   0.0000000000000000     
  -7.7074744610929482E-007   7.9101645585097331E-006   0.0000000000000000     
  -7.9906778670199416E-007   8.7348177280551738E-006   0.0000000000000000     
  -8.2543487608264432E-007   9.5868144328063306E-006   0.0000000000000000     
  -8.4984880091696599E-007   1.0464201579732253E-005   0.0000000000000000     
  -9.6328755171157862E-007   7.1180422515988806E-006   0.0000000000000000     
  -1.0026431859998182E-006   7.9131968249859551E-006   0.0000000000000000     
  -1.0394594915607530E-006   8.7376480631875724E-006   0.0000000000000000     
  -1.0737366626383729E-006   9.5894426903222669E-006   0.0000000000000000     
  -1.1054748934766654E-006   1.0466627430508573E-005   0.0000000000000000     
  -1.1866269324834376E-006   7.1221202791127040E-006   0.0000000000000000     
  -1.2350644663899832E-006   7.9170200694088057E-006   0.0000000000000000     
  -1.2803766940861149E-006   8.7412165629333287E-006   0.0000000000000000     
  -1.3225639373794197E-006   9.5927563705087168E-006   0.0000000000000000     
  -1.3616265180774852E-006   1.0469686102957413E-005   0.0000000000000000     
  -3.3968804853058976E-007   1.0461248359362337E-005   0.0000000000000000     
  -3.4867215457572913E-007   1.1362320132672008E-005   0.0000000000000000     
  -3.5687491977482682E-007   1.2284876760896216E-005   0.0000000000000000     
  -3.6429639987969259E-007   1.3226964912561126E-005   0.0000000000000000     
  -3.7093665064213704E-007   1.4186631256192920E-005   0.0000000000000000     
  -5.9462694955080204E-007   1.0462408554669746E-005   0.0000000000000000     
  -6.1034930660258721E-007   1.1363383269102929E-005   0.0000000000000000     
  -6.2470429847855038E-007   1.2285843030703794E-005   0.0000000000000000     
  -6.3769186517481868E-007   1.3227835019573406E-005   0.0000000000000000     
  -6.4931194668751991E-007   1.4187406415812821E-005   0.0000000000000000     
  -8.4984880091696599E-007   1.0464201579732253E-005   0.0000000000000000     
  -8.7230958088918122E-007   1.1365026264529682E-005   0.0000000000000000     
  -8.9281696775751796E-007   1.2287336337806050E-005   0.0000000000000000     
  -9.1137064629870405E-007   1.3229179838896467E-005   0.0000000000000000     
  -9.2797030128946853E-007   1.4188604807136046E-005   0.0000000000000000     
  -1.1054748934766654E-006   1.0466627430508573E-005   0.0000000000000000     
  -1.1346742361490520E-006   1.1367249359324760E-005   0.0000000000000000     
  -1.1613341740466758E-006   1.2289356958188011E-005   0.0000000000000000     
  -1.1854540483901121E-006   1.3230999059975257E-005   0.0000000000000000     
  -1.2070332003999376E-006   1.4190224497563403E-005   0.0000000000000000     
  -1.3616265180774852E-006   1.0469686102957413E-005   0.0000000000000000     
  -1.3975645310957384E-006   1.1370052793860634E-005   0.0000000000000000     
  -1.4303771637809690E-006   1.2291905167834700E-005   0.0000000000000000     
  -1.4600633765878067E-006   1.3233292372254696E-005   0.0000000000000000     
  -1.4866221299708823E-006   1.4192263554495704E-005   0.0000000000000000     
  -6.8660384721604465E-007   2.0519832212763187E-006   0.0000000000000000     
  -7.6005824882343555E-007   2.5421992403805581E-006   0.0000000000000000     
  -8.3037758333637999E-007   3.0773344444358969E-006   0.0000000000000000     
  -8.9756572343833124E-007   3.6554367612948009E-006   0.0000000000000000     
  -9.6162654181274173E-007   4.2745541188097325E-006   0.0000000000000000     
  -8.1684398838663461E-007   2.0593761551458219E-006   0.0000000000000000     
  -9.0406541416576060E-007   2.5492783302033060E-006   0.0000000000000000     
  -9.8756708972673079E-007   3.0841028934704498E-006   0.0000000000000000     
  -1.0673524801263948E-006   3.6618966596425980E-006   0.0000000000000000     
  -1.1434250504216017E-006   4.2807064434150920E-006   0.0000000000000000     
  -9.4785421287005614E-007   2.0680338626458179E-006   0.0000000000000000     
  -1.0488411997362691E-006   2.5575699449718578E-006   0.0000000000000000     
  -1.1455246365408503E-006   3.0920313612039155E-006   0.0000000000000000     
  -1.2379072371961954E-006   3.6694639146803182E-006   0.0000000000000000     
  -1.3259917156147007E-006   4.2879134087393967E-006   0.0000000000000000     
  -1.0797547236434321E-006   2.0779556094105840E-006   0.0000000000000000     
  -1.1945064485295665E-006   2.5670738278548701E-006   0.0000000000000000     
  -1.3043714050838894E-006   3.1011198257159869E-006   0.0000000000000000     
  -1.4093513039502539E-006   3.6781385745573430E-006   0.0000000000000000     
  -1.5094478557725154E-006   4.2961750459423424E-006   0.0000000000000000     
  -1.2126657236838844E-006   2.0891406610743966E-006   0.0000000000000000     
  -1.3411820035402594E-006   2.5777897220209919E-006   0.0000000000000000     
  -1.4642285766610010E-006   3.1113682650863554E-006   0.0000000000000000     
  -1.5818059896910945E-006   3.6879206874230481E-006   0.0000000000000000     
  -1.6939147892755250E-006   4.3054913861836295E-006   0.0000000000000000     
  -9.6162654181274173E-007   4.2745541188097325E-006   0.0000000000000000     
  -1.0225631749052427E-006   4.9327342536868089E-006   0.0000000000000000     
  -1.0803758142101777E-006   5.6280241380467480E-006   0.0000000000000000     
  -1.1350639149840688E-006   6.3584705528639237E-006   0.0000000000000000     
  -1.1866269324834376E-006   7.1221202791127040E-006   0.0000000000000000     
  -1.1434250504216017E-006   4.2807064434150920E-006   0.0000000000000000     
  -1.2157875898326404E-006   4.9385790608009767E-006   0.0000000000000000     
  -1.2844401842335562E-006   5.6335613330841019E-006   0.0000000000000000     
  -1.3493822436618341E-006   6.3637000828660080E-006   0.0000000000000000     
  -1.4106131781549588E-006   7.1270421327482474E-006   0.0000000000000000     
  -1.3259917156147007E-006   4.2879134087393967E-006   0.0000000000000000     
  -1.4097802364876980E-006   4.9454258176016027E-006   0.0000000000000000     
  -1.4892727676222635E-006   5.6400477990158883E-006   0.0000000000000000     
  -1.5644687276044065E-006   6.3698261816133285E-006   0.0000000000000000     
  -1.6353675350201385E-006   7.1328077940249983E-006   0.0000000000000000     
  -1.5094478557725154E-006   4.2961750459423424E-006   0.0000000000000000     
  -1.6046624030445075E-006   4.9532745183625798E-006   0.0000000000000000     
  -1.6949948156599856E-006   5.6474834980223945E-006   0.0000000000000000     
  -1.7804445953626839E-006   6.3768487980543175E-006   0.0000000000000000     
  -1.8610112438963356E-006   7.1394172315908632E-006   0.0000000000000000     
  -1.6939147892755250E-006   4.3054913861836295E-006   0.0000000000000000     
  -1.8005553776771620E-006   4.9621251573578113E-006   0.0000000000000000     
  -1.9017275796304110E-006   5.6558683922839094E-006   0.0000000000000000     
  -1.9974310754875631E-006   6.3847678811373973E-006   0.0000000000000000     
  -2.0876655456009061E-006   7.1468704140937460E-006   0.0000000000000000     
  -1.1866269324834376E-006   7.1221202791127040E-006   0.0000000000000000     
  -1.2350644663899832E-006   7.9170200694088057E-006   0.0000000000000000     
  -1.2803766940861149E-006   8.7412165629333287E-006   0.0000000000000000     
  -1.3225639373794197E-006   9.5927563705087168E-006   0.0000000000000000     
  -1.3616265180774852E-006   1.0469686102957413E-005   0.0000000000000000     
  -1.4106131781549588E-006   7.1270421327482474E-006   0.0000000000000000     
  -1.4681325712924299E-006   7.9216342710832777E-006   0.0000000000000000     
  -1.5219407008218109E-006   8.7455231492272246E-006   0.0000000000000000     
  -1.5720380180326777E-006   9.5967553842871146E-006   0.0000000000000000     
  -1.6184249742146077E-006   1.0473377593369980E-005   0.0000000000000000     
  -1.6353675350201385E-006   7.1328077940249983E-006   0.0000000000000000     
  -1.7019687957247597E-006   7.9270394458965398E-006   0.0000000000000000     
  -1.7642728646507187E-006   8.7505678709318331E-006   0.0000000000000000     
  -1.8222802839997556E-006   9.6014397838493285E-006   0.0000000000000000     
  -1.8759915959736093E-006   1.0477701899367470E-005   0.0000000000000000     
  -1.8610112438963356E-006   7.1394172315908632E-006   0.0000000000000000     
  -1.9366944374558097E-006   7.9332356188812835E-006   0.0000000000000000     
  -2.0074945500405019E-006   8.7563508086416681E-006   0.0000000000000000     
  -2.0734121301009427E-006   9.6068096567048241E-006   0.0000000000000000     
  -2.1344477260876645E-006   1.0482659018903565E-005   0.0000000000000000     
  -2.0876655456009061E-006   7.1468704140937460E-006   0.0000000000000000     
  -2.1724307942544189E-006   7.9402228150702157E-006   0.0000000000000000     
  -2.2517271214588229E-006   8.7628720429512506E-006   0.0000000000000000     
  -2.3255549511565295E-006   9.6128650903630859E-006   0.0000000000000000     
  -2.3939147072899489E-006   1.0488248949931957E-005   0.0000000000000000     
  -1.3616265180774852E-006   1.0469686102957413E-005   0.0000000000000000     
  -1.3975645310957384E-006   1.1370052793860634E-005   0.0000000000000000     
  -1.4303771637809690E-006   1.2291905167834700E-005   0.0000000000000000     
  -1.4600633765878067E-006   1.3233292372254696E-005   0.0000000000000000     
  -1.4866221299708823E-006   1.4192263554495704E-005   0.0000000000000000     
  -1.6184249742146077E-006   1.0473377593369980E-005   0.0000000000000000     
  -1.6611017128059255E-006   1.1373436739434376E-005   0.0000000000000000     
  -1.7000671458399481E-006   1.2294981168844944E-005   0.0000000000000000     
  -1.7353198774987389E-006   1.3236059573817842E-005   0.0000000000000000     
  -1.7668585119643607E-006   1.4194720646569227E-005   0.0000000000000000     
  -1.8759915959736093E-006   1.0477701899367470E-005   0.0000000000000000     
  -1.9254069818088750E-006   1.1377401091041373E-005   0.0000000000000000     
  -1.9705251788815810E-006   1.2298584867772824E-005   0.0000000000000000     
  -2.0113445636026103E-006   1.3239300897300267E-005   0.0000000000000000     
  -2.0478635123828484E-006   1.4197596847362159E-005   0.0000000000000000     
  -2.1344477260876645E-006   1.0482659018903565E-005   0.0000000000000000     
  -2.1906015269969917E-006   1.1381945674601590E-005   0.0000000000000000     
  -2.2418722840084376E-006   1.2302716097286229E-005   0.0000000000000000     
  -2.2882583888473116E-006   1.3243016683975677E-005   0.0000000000000000     
  -2.3297582332389214E-006   1.4200893831688163E-005   0.0000000000000000     
  -2.3939147072899489E-006   1.0488248949931957E-005   0.0000000000000000     
  -2.4568065372626808E-006   1.1387070316035011E-005   0.0000000000000000     
  -2.5142294823230906E-006   1.2307374690053038E-005   0.0000000000000000     
  -2.5661823071807322E-006   1.3247207275117768E-005   0.0000000000000000     
  -2.6126637765451596E-006   1.4204613274360889E-005   0.0000000000000000     
  -1.2126657236838844E-006   2.0891406610743966E-006   0.0000000000000000     
  -1.3411820035402594E-006   2.5777897220209919E-006   0.0000000000000000     
  -1.4642285766610010E-006   3.1113682650863554E-006   0.0000000000000000     
  -1.5818059896910945E-006   3.6879206874230481E-006   0.0000000000000000     
  -1.6939147892755250E-006   4.3054913861836295E-006   0.0000000000000000     
  -1.3467074036870462E-006   2.1015885763057501E-006   0.0000000000000000     
  -1.4889887489031465E-006   2.5897174714264289E-006   0.0000000000000000     
  -1.6252173710786652E-006   3.1227766699473368E-006   0.0000000000000000     
  -1.7553926137155115E-006   3.6988102924813601E-006   0.0000000000000000     
  -1.8795138203155936E-006   4.3158624596413843E-006   0.0000000000000000     
  -1.4819999052225917E-006   2.1153000859100108E-006   0.0000000000000000     
  -1.6380477333138010E-006   2.6028573231775940E-006   0.0000000000000000     
  -1.7874591621486726E-006   3.1353450811417393E-006   0.0000000000000000     
  -1.9302325352973875E-006   3.7108073931543795E-006   0.0000000000000000     
  -2.0663661963301269E-006   4.3272882925674506E-006   0.0000000000000000     
  -1.6186633575787033E-006   2.1302762137267638E-006   0.0000000000000000     
  -1.7884800466079913E-006   2.6172096251684492E-006   0.0000000000000000     
  -1.9510753621841408E-006   3.1490735520649884E-006   0.0000000000000000     
  -2.1064471237048752E-006   3.7239119839187521E-006   0.0000000000000000     
  -2.2545931505679194E-006   4.3397689102321078E-006   0.0000000000000000     
  -1.7568178900435652E-006   2.1465179835955923E-006   0.0000000000000000     
  -1.9404067786214820E-006   2.6327747252929571E-006   0.0000000000000000     
  -2.1161873834981890E-006   3.1639621361125186E-006   0.0000000000000000     
  -2.2841577482061328E-006   3.7381240592511253E-006   0.0000000000000000     
  -2.4443159162777601E-006   4.3533043379056250E-006   0.0000000000000000     
  -1.6939147892755250E-006   4.3054913861836295E-006   0.0000000000000000     
  -1.8005553776771620E-006   4.9621251573578113E-006   0.0000000000000000     
  -1.9017275796304110E-006   5.6558683922839094E-006   0.0000000000000000     
  -1.9974310754875631E-006   6.3847678811373973E-006   0.0000000000000000     
  -2.0876655456009061E-006   7.1468704140937460E-006   0.0000000000000000     
  -1.8795138203155936E-006   4.3158624596413843E-006   0.0000000000000000     
  -1.9975804367975335E-006   4.9719777345936734E-006   0.0000000000000000     
  -2.1095923187468014E-006   5.6652024507179957E-006   0.0000000000000000     
  -2.2155494241655826E-006   6.3935833839474966E-006   0.0000000000000000     
  -2.3154517110560591E-006   7.1551673102153250E-006   0.0000000000000000     
  -2.0663661963301269E-006   4.3272882925674506E-006   0.0000000000000000     
  -2.1958588097686138E-006   4.9828322730064811E-006   0.0000000000000000     
  -2.3187103239407184E-006   5.6754856691913436E-006   0.0000000000000000     
  -2.4349210081258477E-006   6.4032952761154976E-006   0.0000000000000000     
  -2.5444911316034111E-006   7.1643078887724186E-006   0.0000000000000000     
  -2.2545931505679194E-006   4.3397689102321078E-006   0.0000000000000000     
  -2.3955117141911767E-006   4.9946888012650308E-006   0.0000000000000000     
  -2.5292028940732950E-006   5.6867180503079195E-006   0.0000000000000000     
  -2.6556672217331026E-006   6.4139035314087797E-006   0.0000000000000000     
  -2.7749052286894291E-006   7.1742921186156190E-006   0.0000000000000000     
  -2.4443159162777601E-006   4.3533043379056250E-006   0.0000000000000000     
  -2.5966603676659949E-006   5.0075473480381166E-006   0.0000000000000000     
  -2.7411913280056696E-006   5.6988995966716975E-006   0.0000000000000000     
  -2.8779094593520948E-006   6.4254081235947174E-006   0.0000000000000000     
  -3.0068154237605804E-006   7.1851199685955239E-006   0.0000000000000000     
  -2.0876655456009061E-006   7.1468704140937460E-006   0.0000000000000000     
  -2.1724307942544189E-006   7.9402228150702157E-006   0.0000000000000000     
  -2.2517271214588229E-006   8.7628720429512506E-006   0.0000000000000000     
  -2.3255549511565295E-006   9.6128650903630859E-006   0.0000000000000000     
  -2.3939147072899489E-006   1.0488248949931957E-005   0.0000000000000000     
  -2.3154517110560591E-006   7.1551673102153250E-006   0.0000000000000000     
  -2.4092991690220900E-006   7.9480010558734969E-006   0.0000000000000000     
  -2.4970919140742305E-006   8.7701316489495194E-006   0.0000000000000000     
  -2.5788300938247098E-006   9.6196061678897753E-006   0.0000000000000000     
  -2.6545138558857582E-006   1.0494471691140648E-005   0.0000000000000000     
  -2.5444911316034111E-006   7.1643078887724186E-006   0.0000000000000000     
  -2.6474208851909836E-006   7.9565703482111558E-006   0.0000000000000000     
  -2.7437101458588126E-006   8.7781296797031429E-006   0.0000000000000000     
  -2.8333587121153045E-006   9.6270329545753931E-006   0.0000000000000000     
  -2.9163663824688738E-006   1.0501327244154937E-005   0.0000000000000000     
  -2.7749052286894291E-006   7.1742921186156190E-006   0.0000000000000000     
  -2.8869172713259259E-006   7.9659306953806866E-006   0.0000000000000000     
  -2.9917030054855391E-006   8.7868661827732005E-006   0.0000000000000000     
  -3.0892619118760407E-006   9.6351455112666357E-006   0.0000000000000000     
  -3.1795934712051981E-006   1.0508815611334452E-005   0.0000000000000000     
  -3.0068154237605804E-006   7.1851199685955239E-006   0.0000000000000000     
  -3.1279096559917372E-006   7.9760821006795750E-006   0.0000000000000000     
  -3.2411916816273852E-006   8.7963412057207889E-006   0.0000000000000000     
  -3.3466607989546442E-006   9.6439438988101911E-006   0.0000000000000000     
  -3.4443163062606349E-006   1.0516936795038803E-005   0.0000000000000000     
  -2.3939147072899489E-006   1.0488248949931957E-005   0.0000000000000000     
  -2.4568065372626808E-006   1.1387070316035011E-005   0.0000000000000000     
  -2.5142294823230906E-006   1.2307374690053038E-005   0.0000000000000000     
  -2.5661823071807322E-006   1.3247207275117768E-005   0.0000000000000000     
  -2.6126637765451596E-006   1.4204613274360889E-005   0.0000000000000000     
  -2.6545138558857582E-006   1.0494471691140648E-005   0.0000000000000000     
  -2.7241432473232157E-006   1.1392774849104376E-005   0.0000000000000000     
  -2.7877179130173710E-006   1.2312560480006666E-005   0.0000000000000000     
  -2.8452373973021217E-006   1.3251872974029093E-005   0.0000000000000000     
  -2.8967012445113661E-006   1.4208756721353216E-005   0.0000000000000000     
  -2.9163663824688738E-006   1.0501327244154937E-005   0.0000000000000000     
  -2.9927330751953376E-006   1.1399059138943614E-005   0.0000000000000000     
  -3.0624591876401504E-006   1.2318273306142540E-005   0.0000000000000000     
  -3.1255452369161684E-006   1.3257013932127652E-005   0.0000000000000000     
  -3.1819917401362536E-006   1.4213325203274892E-005   0.0000000000000000     
  -3.1795934712051981E-006   1.0508815611334452E-005   0.0000000000000000     
  -3.2626974847206564E-006   1.1405923058529429E-005   0.0000000000000000     
  -3.3385750358295577E-006   1.2324513008721599E-005   0.0000000000000000     
  -3.4072275284789210E-006   1.3262630262860307E-005   0.0000000000000000     
  -3.4686563666157589E-006   1.4218319621894881E-005   0.0000000000000000     
  -3.4443163062606349E-006   1.0516936795038803E-005   0.0000000000000000     
  -3.5341579397407807E-006   1.1413366480838532E-005   0.0000000000000000     
  -3.6161871872237277E-006   1.2331279428004800E-005   0.0000000000000000     
  -3.6904059744464246E-006   1.3268722079673903E-005   0.0000000000000000     
  -3.7568162271458200E-006   1.4223740878982139E-005   0.0000000000000000     
 </DataArray>
 <DataArray  type="Float64" Name="stress" NumberOfComponents="3" format="ascii">
   3601.1006015779067       -1.4751905933317175        1441.3118026302795     
   3450.5647319735349      -0.80760213717940132        1440.6377578109989     
   3300.1863454394361      -0.35842269544787086        1440.2027289582977     
   3149.9787037940828       -8.3446206573398740E-002   1439.9816082650211     
   2999.9550688558988        6.1533390865179172E-002   1439.9492879239458     
   2250.8806569474746       -1.0235094460679193        1478.4919246091647     
   2156.7162889055257      -0.50815422576079072        1477.4190320803264     
   2062.6599333295667      -0.20739932153264817        1476.7974914520846     
   1968.7317904775491       -5.3910540206175028E-002   1476.5276414432360     
   1874.9520606073183        1.9646311032715857E-002   1476.5098207726451     
   900.37941852116387      -0.49690941531764565        1498.5382553200920     
   862.70866021449342      -0.22952692691291077        1497.2289056504583     
   825.07594413326592       -8.6494531368487060E-002   1496.4983118259156     
   787.49456078556580       -2.3510535062939653E-002   1496.2023093886683     
   749.97780067936048        3.7267552454807173E-003   1496.1967338809595     
  -450.22535544820306       0.15793697467691459        1501.4285636422526     
  -431.36607769710821        5.5902680230872193E-002   1500.0582544585866     
  -412.53347019970079        1.3937260108889404E-002   1499.3043262087569     
  -393.73500038704429        7.1492774336832099E-003   1499.0081615557838     
  -374.97813569017654        1.0647295409867752E-002   1499.0111431626906     
  -1800.7559067077655       0.99435719981215698        1487.1406184548412     
  -1725.4158484269196       0.37575751621636755        1485.8979544418899     
  -1650.1361577197058       0.10354163753231660        1485.2146707295631     
  -1574.9589081455413        3.7464365584582993E-002   1484.9477473990571     
  -1499.9261732638797        3.7280502281362260E-002   1484.9541645315112     
   2999.9550688558988        6.1533390865179172E-002   1439.9492879239458     
   2850.0004565185809        8.6378083801719185E-002   1439.9904919611283     
   2700.0053284366554        1.9102395263075778E-002   1440.0094633666999     
   2549.9911150703019       -6.8858807479955431E-002   1440.0103727797452     
   2399.9792468801488      -0.10607065567489826        1439.9973908392608     
   1874.9520606073183        1.9646311032715857E-002   1476.5098207726451     
   1781.2394658080311        4.4142026032773174E-002   1476.5664097785598     
   1687.5047897746745        2.3986084728676360E-002   1476.5905982719391     
   1593.7563251743650       -1.3179289146705742E-002   1476.5889391807159     
   1500.0023646739919       -3.9711872638235945E-002   1476.5679854327598     
   749.97780067936048        3.7267552454807173E-003   1496.1967338809595     
   712.49400339995850        1.9767829669973480E-002   1496.2648346194330     
   675.00324577127958        2.1620640478460018E-002   1496.2918073510491     
   637.50642415998789        1.2273076529055515E-002   1496.2864072635728     
   600.00443493255216       -5.2869739489551648E-003   1496.2573895448404     
  -374.97813569017654        1.0647295409867752E-002   1499.0111431626906     
  -356.24196358160009        1.1445632038700637E-002   1499.0840301849159     
  -337.50109887377840        1.1467472062975048E-002   1499.1105116150827     
  -318.75630000763738        8.1846791060229407E-003   1499.1013648718751     
  -300.00832542419914       -9.3088359028570267E-004   1499.0673673739700     
  -1499.9261732638797        3.7280502281362260E-002   1484.9541645315112     
  -1424.9744680126471        1.7365570274819220E-002   1485.0222601761320     
  -1350.0100394606316       -7.0120105328896898E-003   1485.0441320751083     
  -1275.0295593633591       -2.4758091980913832E-002   1485.0323998490210     
  -1200.0296994763819       -2.4778525839565191E-002   1484.9996831185904     
   2399.9792468801488      -0.10607065567489826        1439.9973908392608     
   2249.9919105522172       -4.4054572470372477E-002   1439.9907249597991     
   2100.0207215781788        6.3764037824626030E-002   1439.9985880644858     
   1950.0412536242879       0.13596406269846284        1440.0071590553996     
   1800.0290803575394        9.1124392165625068E-002   1440.0026168345048     
   1500.0023646739919       -3.9711872638235945E-002   1476.5679854327598     
   1406.2516866470010       -3.4679893945678941E-002   1476.5468132924407     
   1312.5040283728042       -7.2885613947164529E-003   1476.5383482115822     
   1218.7541208765931        2.4898875637973106E-002   1476.5399168992085     
   1124.9966951842280        4.4319170063204183E-002   1476.5488460644226     
   600.00443493255216       -5.2869739489551648E-003   1496.2573895448404     
   562.49850142772425       -2.6294184919549934E-002   1496.2259853268392     
   524.99206150589396       -3.8601491560569912E-002   1496.2097702933684     
   487.48933331585437       -2.8148397867965969E-002   1496.2120164597275     
   449.99453500688469        1.9125593711265765E-002   1496.2359958413797     
  -300.00832542419914       -9.3088359028570267E-004   1499.0673673739700     
  -281.25980602918685       -1.6545722087812464E-002   1499.0324940864866     
  -262.51017707629342       -2.8674169010443507E-002   1499.0162115760127     
  -243.75540352803972       -2.3866099443267785E-002   1499.0225346635607     
  -224.99145034721903        1.1328610671768047E-002   1499.0554781701014     
  -1200.0296994763819       -2.4778525839565191E-002   1484.9996831185904     
  -1125.0153966475395       -3.0827829341433244E-003   1484.9705925948131     
  -1049.9976854272304        2.3993990726864922E-002   1484.9610293257724     
  -974.98238412502292        3.7057429958395005E-002   1484.9705484373033     
  -899.97531105039923        1.6713169748641121E-002   1484.9987050553502     
   1800.0290803575394        9.1124392165625068E-002   1440.0026168345048     
   1649.9605901914899       -9.0879832948985495E-002   1439.9781795430708     
   1499.8926794414742      -0.16181379929810191        1439.9803572312601     
   1349.9216836278681       0.19944089442589075        1440.0752666649107     
   1200.1439382719730        1.3140026524860673        1440.3290246099461     
   1124.9966951842280        4.4319170063204183E-002   1476.5488460644226     
   1031.2299349447037        3.8729379855908519E-002   1476.5705952385113     
   937.45767372249304        1.4719614649095547E-002   1476.6265116385046     
   843.68311741611581       -1.7023797184776868E-002   1476.7377535021201     
   749.90947192451540       -4.5814525802455819E-002   1476.9254790668285     
   449.99453500688469        1.9125593711265765E-002   1496.2359958413797     
   412.50910262576690        9.3900810656151634E-002   1496.2838630651349     
   375.00474183854135        8.7756311209503224E-002   1496.3527561431158     
   337.44107522336355      -0.13389931075913353        1496.4384221681989     
   299.77772535828217      -0.70565746175611821        1496.5366082333385     
  -224.99145034721903        1.1328610671768047E-002   1499.0554781701014     
  -206.22156483387653        6.8737037585734129E-002   1499.1087084173864     
  -187.47462727412585        5.4742970710087491E-002   1499.1664707344628     
  -168.78505210927227      -0.14536839430886062        1499.2186484531858     
  -150.18725378037016      -0.64631186098512217        1499.2551249054263     
  -899.97531105039923        1.6713169748641121E-002   1484.9987050553502     
  -824.98172550214520       -4.2659359092453997E-002   1485.0358566895816     
  -749.98894467893774       -8.6873725522110590E-002   1485.0750354021131     
  -674.97587374024226       -4.5613794354807169E-002   1485.1198081471769     
  -599.92141784544719       0.15143656967362062        1485.1737418790963     
  -1800.7559067077655       0.99435719981215698        1487.1406184548412     
  -1725.4158484269196       0.37575751621636755        1485.8979544418899     
  -1650.1361577197058       0.10354163753231660        1485.2146707295631     
  -1574.9589081455413        3.7464365584582993E-002   1484.9477473990571     
  -1499.9261732638797        3.7280502281362260E-002   1484.9541645315112     
  -3151.1320399085994        1.8176713130442295        1455.7610981777443     
  -3019.3854240198680       0.67587781759311838        1454.7764082515298     
  -2887.7091577184774       0.17675582328945438        1454.2317141701337     
  -2756.1813367865639        5.9986056354546236E-002   1454.0174817086240     
  -2624.8800570061471        6.5249243428070258E-002   1454.0241766419801     
  -4501.3753648756929        2.4026578151233480        1407.4082885003327     
  -4313.2737024200133       0.88586605102614158        1406.7369198718229     
  -4125.2498555656530       0.22191321603941105        1406.3618223535286     
  -3937.4069263165229        6.7125963732223681E-002   1406.2126736683078     
  -3749.8480166765949        7.7830947562006259E-002   1406.2191515389854     
  -5851.4608311170196        2.7568318536687002        1342.1073692061018     
  -5607.0697960737243        1.0089884826145408        1341.7927172398634     
  -5362.7566184282114       0.23950366570420556        1341.6101269706035     
  -5118.6383904053364        5.8069986609325497E-002   1341.5342143230437     
  -4874.8322042303362        7.4380028080213378E-002   1341.5395952218107     
  -7201.3633881405649        2.8877085763147079        1259.8835200785527     
  -6900.7628174273723        1.0485113782751796        1259.9570282926966     
  -6600.2278134729995       0.23001702245755951        1259.9817597122633     
  -6299.8784427228657        3.2004024096750072E-002   1259.9829947177993     
  -5999.8347716224089        5.4250898527016034E-002   1259.9860136898124     
  -1499.9261732638797        3.7280502281362260E-002   1484.9541645315112     
  -1424.9744680126471        1.7365570274819220E-002   1485.0222601761320     
  -1350.0100394606316       -7.0120105328896898E-003   1485.0441320751083     
  -1275.0295593633591       -2.4758091980913832E-002   1485.0323998490210     
  -1200.0296994763819       -2.4778525839565191E-002   1484.9996831185904     
  -2624.8800570061471        6.5249243428070258E-002   1454.0241766419801     
  -2493.7109428892318        2.7878443569420597E-002   1454.0799906147918     
  -2362.5217143966988       -2.3778113585876781E-002   1454.0952355761892     
  -2231.3036104833727       -6.0516944230471381E-002   1454.0835577581329     
  -2100.0478701044908       -5.3134565745835971E-002   1454.0586033924592     
  -3749.8480166765949        7.7830947562006259E-002   1406.2191515389854     
  -3562.4546379927733        3.4590015071671587E-002   1406.2598551436297     
  -3375.0321372210419       -2.8153682965466942E-002   1406.2690796389741     
  -3187.5693697783272       -7.3251536381576443E-002   1406.2600467158104     
  -3000.0551910819008       -6.3554936065088441E-002   1406.2459780650343     
  -4874.8322042303362        7.4380028080213378E-002   1341.5395952218107     
  -4631.2053113771217        3.7572868689949246E-002   1341.5633688955477     
  -4387.5399159311301       -1.9721117742847127E-002   1341.5671212878876     
  -4143.8255390341801       -6.2572403977810609E-002   1341.5621983962985     
  -3900.0517018281957       -5.6051463103131027E-002   1341.5599462180853     
  -5999.8347716224089        5.4250898527016034E-002   1259.9860136898124     
  -5699.9627210961426        3.6899588165624664E-002   1259.9920470033037     
  -5400.0436585245807        1.9371824455447495E-003   1259.9908175473361     
  -5100.0708200369882       -2.8090082885228185E-002   1259.9903444735216     
  -4800.0374417626954       -3.0635972287882396E-002   1259.9986469334769     
  -1200.0296994763819       -2.4778525839565191E-002   1484.9996831185904     
  -1125.0153966475395       -3.0827829341433244E-003   1484.9705925948131     
  -1049.9976854272304        2.3993990726864922E-002   1484.9610293257724     
  -974.98238412502292        3.7057429958395005E-002   1484.9705484373033     
  -899.97531105039923        1.6713169748641121E-002   1484.9987050553502     
  -2100.0478701044908       -5.3134565745835971E-002   1454.0586033924592     
  -1968.7640134071546        9.1475402163041508E-003   1454.0415981033193     
  -1837.4786250764337        8.0226098760363129E-002   1454.0401773929971     
  -1706.2085408737914       0.10398190501337012        1454.0476023107010     
  -1574.9705965607541        2.4295753917272123E-002   1454.0571339057569     
  -3000.0551910819008       -6.3554936065088441E-002   1406.2459780650343     
  -2812.5075197783153        1.3362007481191540E-002   1406.2417909963322     
  -2624.9653783618755        9.9579024525610293E-002   1406.2459221657721     
  -2437.4492780212045       0.12672548635180192        1406.2468722833837     
  -2249.9797299450915        2.6430763654957445E-002   1406.2331420592650     
  -3900.0517018281957       -5.6051463103131027E-002   1341.5599462180853     
  -3656.2472574203171        9.1581208394018176E-003   1341.5678689969232     
  -3412.4592745503746        8.1653988045218284E-002   1341.5760897169889     
  -3168.7045978096335       0.10528750113735441        1341.5698824866668     
  -2925.0000717890098        2.3910023537837333E-002   1341.5345214143792     
  -4800.0374417626954       -3.0635972287882396E-002   1259.9986469334769     
  -4499.9845679922282       -3.8666170498800057E-003   1260.0165298279337     
  -4199.9616429089647        2.6052208682585842E-002   1260.0285061193365     
  -3899.9745024814629        3.9667276426825993E-002   1260.0181570518612     
  -3600.0289826782364        1.7525357696513311E-002   1259.9690638697925     
  -899.97531105039923        1.6713169748641121E-002   1484.9987050553502     
  -824.98172550214520       -4.2659359092453997E-002   1485.0358566895816     
  -749.98894467893774       -8.6873725522110590E-002   1485.0750354021131     
  -674.97587374024226       -4.5613794354807169E-002   1485.1198081471769     
  -599.92141784544719       0.15143656967362062        1485.1737418790963     
  -1574.9705965607541        2.4295753917272123E-002   1454.0571339057569     
  -1443.7617861377244      -0.16025847951152628        1454.0688035591174     
  -1312.5148303487285      -0.23686273220829435        1454.1030539483434     
  -1181.1501550714036        5.9730070290072490E-002   1454.1837630673717     
  -1049.5881861834841       0.99476700227978654        1454.3348089102103     
  -2249.9797299450915        2.6430763654957445E-002   1406.2331420592650     
  -2062.5368870667485      -0.19945049300997653        1406.2223700519355     
  -1875.0242634585475      -0.29360076369948729        1406.2651253362837     
  -1687.3474120175654        5.8803628078749171E-002   1406.3993043967964     
  -1499.4118856411208        1.1725863577946143        1406.6628037179694     
  -2925.0000717890098        2.3910023537837333E-002   1341.5345214143792     
  -2681.3037867092503      -0.15926292660003583        1341.5042695854743     
  -2437.5187938757649      -0.25755278022870698        1341.5536222967405     
  -2193.5793795071668       -5.1913599293698098E-002   1341.7282019739625     
  -1949.4198298217002       0.67670055532926199        1342.0736310430291     
  -3600.0289826782364        1.7525357696513311E-002   1259.9690638697925     
  -3300.0592434847113       -3.8723305241319395E-002   1259.9222155771272     
  -2999.9999714680062      -0.12918374267997024        1259.9609175603889     
  -2699.8577924689689      -0.27594209071150999        1260.1322256374476     
  -2399.6393323286397      -0.50108448607761602        1260.4831956263326     
  -7201.3633881405649        2.8877085763147079        1259.8835200785527     
  -6900.7628174273723        1.0485113782751796        1259.9570282926966     
  -6600.2278134729995       0.23001702245755951        1259.9817597122633     
  -6299.8784427228657        3.2004024096750072E-002   1259.9829947177993     
  -5999.8347716224089        5.4250898527016034E-002   1259.9860136898124     
  -8551.0694851639419        2.8209397426835494        1160.8402163501421     
  -8194.3466964077652        1.0224233575358994        1161.2720069675242     
  -7837.6608457264283       0.20959824809960992        1161.4866416102914     
  -7481.1253629993644        4.3648161608871305E-003   1161.5573040103850     
  -7124.8536781059483        2.8623463917483605E-002   1161.5571778996878     
  -9900.6400359904401        2.5598377367036846        1045.0795257678992     
  -9487.8559527726738       0.93653609027978746        1045.7794380302821     
  -9075.0695351289942       0.18946783037745263        1046.1347070726863     
  -8662.3793708008398       -9.9928478921356145E-003   1046.2551715154650     
  -8249.8840475297166        9.5282505612885871E-003   1046.2506699791140     
  -11250.161687006545        2.0784086424591806        912.62451688712031     
  -10781.340583714651       0.77585041876773175        913.49199566103232     
  -10312.476871218974       0.16272890782147442        913.93110785440876     
  -9843.6460895509917       -1.2755995363932016E-002   914.07709851327434     
  -9374.9237787422680       -2.4043959442678897E-003   914.06521268365157     
  -12599.721084598728        1.3506585440272829        763.49825826305073     
  -12074.850586426286       0.52536718521878356        764.42235403984489     
  -11549.905843534581       0.12248461912531639        764.88099571057546     
  -11024.931142673362       -5.6116532118721807E-003   765.02358628401146     
  -10499.970770592094       -6.5441301771897997E-003   764.99952876885925     
  -5999.8347716224089        5.4250898527016034E-002   1259.9860136898124     
  -5699.9627210961426        3.6899588165624664E-002   1259.9920470033037     
  -5400.0436585245807        1.9371824455447495E-003   1259.9908175473361     
  -5100.0708200369882       -2.8090082885228185E-002   1259.9903444735216     
  -4800.0374417626954       -3.0635972287882396E-002   1259.9986469334769     
  -7124.8536781059483        2.8623463917483605E-002   1161.5571778996878     
  -6768.7260470838328        3.2717634064283629E-002   1161.5478430434807     
  -6412.5455951290478        2.4093574968901521E-002   1161.5438794972777     
  -6056.3100558582464        1.0305897717216794E-002   1161.5479714287740     
  -5700.0171628883090       -1.0907872658663109E-003   1161.5628030053690     
  -8249.8840475297166        9.5282505612885871E-003   1046.2506699791140     
  -7837.4920268266605        2.5907200603796809E-002   1046.2307938053150     
  -7425.0465429364676        3.4444297901700338E-002   1046.2284312949721     
  -7012.5483427010759        3.2650069289047678E-002   1046.2383665072234     
  -6599.9981729623678        1.8035041940947849E-002   1046.2553835012775     
  -9374.9237787422680       -2.4043959442678897E-003   914.06521268365157     
  -8906.2567547068047        1.7639973379118601E-002   914.03953924081532     
  -8437.5429905408455        3.4042772791508469E-002   914.04354958042541     
  -7968.7847620489420        3.9217987008669297E-002   914.06156252909045     
  -7499.9843450358167        2.5579600332093833E-002   914.07789691338587     
  -10499.970770592094       -6.5441301771897997E-003   764.99952876885925     
  -9975.0163251066224        9.0876375938933052E-003   764.97271930189538     
  -9450.0314265361067        2.3942421599258523E-002   764.98831099386109     
  -8925.0183953854830        3.0285205431027862E-002   765.01759231459005     
  -8399.9795521597407        2.0380972447128443E-002   765.03185173375721     
  -4800.0374417626954       -3.0635972287882396E-002   1259.9986469334769     
  -4499.9845679922282       -3.8666170498800057E-003   1260.0165298279337     
  -4199.9616429089647        2.6052208682585842E-002   1260.0285061193365     
  -3899.9745024814629        3.9667276426825993E-002   1260.0181570518612     
  -3600.0289826782364        1.7525357696513311E-002   1259.9690638697925     
  -5700.0171628883090       -1.0907872658663109E-003   1161.5628030053690     
  -5343.7188972391887       -1.6766211716230828E-002   1161.5843992508601     
  -4987.4645367941521       -3.4379651774997910E-002   1161.5973235936935     
  -4631.2477604650931       -3.2860813629213226E-002   1161.5870678082367     
  -4275.0622471637489        8.8605967528110341E-003   1161.5391236689823     
  -6599.9981729623678        1.8035041940947849E-002   1046.2553835012775     
  -6187.4536849000106       -2.1792866660234722E-002   1046.2718785500897     
  -5774.9630764735166       -6.7715005061927513E-002   1046.2791087911075     
  -5362.5129146947256       -7.4954746077310119E-002   1046.2701495801100     
  -4950.0897665754346        1.2645377155422466E-003   1046.2380762730636     
  -7499.9843450358167        2.5579600332093833E-002   914.07789691338587     
  -7031.1962636244280       -2.1146376475826401E-002   914.08132873320835     
  -6562.4631915804666       -7.5732741701358464E-002   914.07530942969800     
  -6093.7696291719476       -8.6513722062591114E-002   914.06617099138384     
  -5625.1000766673324       -1.8235457605442207E-003   914.06024540702526     
  -8399.9795521597407        2.0380972447128443E-002   765.03185173375721     
  -7874.9539660624250       -1.7026536604134890E-002   765.01511080765067     
  -7349.9708117480977       -6.0211751073438791E-002   764.98737322756426     
  -6825.0175678980640       -6.7436941920277604E-002   764.97390066608341     
  -6300.0817131934600        3.0356202978509828E-003   764.99995479585891     
  -3600.0289826782364        1.7525357696513311E-002   1259.9690638697925     
  -3300.0592434847113       -3.8723305241319395E-002   1259.9222155771272     
  -2999.9999714680062      -0.12918374267997024        1259.9609175603889     
  -2699.8577924689689      -0.27594209071150999        1260.1322256374476     
  -2399.6393323286397      -0.50108448607761602        1260.4831956263326     
  -4275.0622471637489        8.8605967528110341E-003   1161.5391236689823     
  -3918.8192540081372        9.1056983971839145E-002   1161.4860926280021     
  -3562.4900703277985        1.3893380598574367E-002   1161.4957760206360     
  -3206.1584233521121      -0.50172097774657232        1161.6064654458910     
  -2849.9080403102066       -1.7348768549601346        1161.8564525028673     
  -4950.0897665754346        1.2645377155422466E-003   1046.2380762730636     
  -4537.5893227489742       0.16211419838577967        1046.1972833331326     
  -4125.0007264063279        9.7257062683183904E-002   1046.1770647912565     
  -3712.4507233953141      -0.61579302872905828        1046.1928453547075     
  -3300.0660595635741       -2.3995222347530216        1046.2600497307346     
  -5625.1000766673324       -1.8235457605442207E-003   914.06024540702526     
  -5156.3504699090399       0.18014227708681574        914.05074810086830     
  -4687.5175323583599       0.12522950675156608        914.01230993336753     
  -4218.7369457116656      -0.61883417798708251        913.92338604719725     
  -3750.1443916653766       -2.5043210984702000        913.76243158514637     
  -6300.0817131934600        3.0356202978509828E-003   764.99995479585891     
  -5775.0837156898715       0.15083516019922172        765.04144733947965     
  -5250.0260808384701       0.10213291700074478        765.00903750810528     
  -4725.0193434141429      -0.51152035914765293        764.83010820687036     
  -4200.1740381921200       -2.0585739186456067        764.43204234108043     
  -12599.721084598728        1.3506585440272829        763.49825826305073     
  -12074.850586426286       0.52536718521878356        764.42235403984489     
  -11549.905843534581       0.12248461912531639        764.88099571057546     
  -11024.931142673362       -5.6116532118721807E-003   765.02358628401146     
  -10499.970770592094       -6.5441301771897997E-003   764.99952876885925     
  -13949.321789097168       0.65683219137918059        597.71887583199441     
  -13368.406208300721       0.27576822147329949        598.56304838366157     
  -12787.373295199426        7.5732545134087559E-002   598.97351006515680     
  -12206.239674576331        1.3092189751660044E-003   599.09142543700966     
  -11625.021971214517       -2.9177006804275152E-003   599.05795905973832     
  -15299.005978605403       0.26558900275813357        415.26658623831150     
  -14662.036287929022       0.11515799978769792        415.88681895808691     
  -14024.887374471187        3.2078726678264502E-002   416.19060451727898     
  -13387.563589251029        1.8477863159205299E-003   416.27732466919230     
  -12750.069283287736        9.9617814803423244E-003   416.24636116714157     
  -16648.918226170077       0.13355706419133639        216.10759409943725     
  -15955.803709300433        2.4671323307302373E-002   216.37664751623666     
  -15262.458028589392       -1.1461008258265792E-002   216.52665208474031     
  -14568.888649494871        2.7520966978045180E-004   216.58166239205548     
  -13875.103037474877        3.4995117216567451E-002   216.56573302539627     
  -17999.203104837929       0.21736446147497190       0.20810403283939632     
  -17249.771356404191       -1.4557004640664672E-002   1.5515811194292711E-002
  -16500.095204793455       -5.7870831220498076E-002  -2.3974214716595173E-002
  -15750.200618105257        8.6265003210428404E-004   4.8170171528442813E-003
  -15000.113564439043        7.5083107630234736E-002   1.7072568790081920E-002
  -10499.970770592094       -6.5441301771897997E-003   764.99952876885925     
  -9975.0163251066224        9.0876375938933052E-003   764.97271930189538     
  -9450.0314265361067        2.3942421599258523E-002   764.98831099386109     
  -8925.0183953854830        3.0285205431027862E-002   765.01759231459005     
  -8399.9795521597407        2.0380972447128443E-002   765.03185173375721     
  -11625.021971214517       -2.9177006804275152E-003   599.05795905973832     
  -11043.766488162153        7.0283362970258167E-003   599.03344647020276     
  -10462.508588723313        1.1589693643600185E-002   599.05882192233912     
  -9881.2484880644279        1.0049149965198012E-002   599.09614805221429     
  -9299.9864013519618        1.6894836667233903E-003   599.10748749589789     
  -12750.069283287736        9.9617814803423244E-003   416.24636116714157     
  -12112.508873970739        1.6476223540394130E-002   416.22535145237180     
  -11474.980740685565        1.5733036480014562E-003   416.25101911242859     
  -10837.480177445241       -1.9060355077272106E-002   416.28637512029633     
  -10200.002478263132       -2.9738130370787985E-002   416.29443044876137     
  -13875.103037474877        3.4995117216567451E-002   216.56573302539627     
  -13181.248396856081        3.5957002426584950E-002   216.54785153763757     
  -12487.458659689652       -9.3399283068720251E-003   216.56372474365031     
  -11793.721383020486       -5.9419157842057757E-002   216.58748612367125     
  -11100.024123893569       -7.2804169586561329E-002   216.59326915804297     
  -15000.113564439043        7.5083107630234736E-002   1.7072568790081920E-002
  -14249.989971141886        6.3996376034083369E-002   3.6401526048863975E-004
  -13499.953123002580       -2.4383182493693312E-002  -4.2390045557097354E-003
  -12749.980024282593      -0.11340310619198135       -1.3063326466990527E-003
  -12000.047679243668      -0.12641093422917038        4.5921891056211845E-003
  -8399.9795521597407        2.0380972447128443E-002   765.03185173375721     
  -7874.9539660624250       -1.7026536604134890E-002   765.01511080765067     
  -7349.9708117480977       -6.0211751073438791E-002   764.98737322756426     
  -6825.0175678980640       -6.7436941920277604E-002   764.97390066608341     
  -6300.0817131934600        3.0356202978509828E-003   764.99995479585891     
  -9299.9864013519618        1.6894836667233903E-003   599.10748749589789     
  -8718.7316978805120       -1.4382679873506277E-002   599.07358116901344     
  -8137.4903578205885       -2.7763635029259603E-002   599.02754366654710     
  -7556.2575126526190       -2.2224983232717932E-002   599.00999814361376     
  -6975.0282938570381        1.8461674108493753E-002   599.06156775541228     
  -10200.002478263132       -2.9738130370787985E-002   416.29443044876137     
  -9562.5200709225155       -1.3875992804059933E-002   416.25665831515022     
  -8925.0132457951313        1.8901458875006938E-002   416.20797474367180     
  -8287.4890907762328        4.4967907155751163E-002   416.19155491790565     
  -7649.9546937612649        4.0697033951801131E-002   416.25057402124759     
  -11100.024123893569       -7.2804169586561329E-002   216.59326915804297     
  -10406.304977104062       -1.1274050205884123E-002   216.56604640713473     
  -9712.5258980347062        8.3856821682275040E-002   216.52997995007746     
  -9018.7102346113934       0.13476202632909917        216.51798754449896     
  -8324.8813347602463        6.3615143523293227E-002   216.56298694809453     
  -12000.047679243668      -0.12641093422917038        4.5921891056211845E-003
  -11250.072308340585       -2.3444262101293134E-003   3.4496061238691480E-003
  -10500.014736902049       0.17117574513713407       -5.1272232642469370E-003
  -9749.9188765002982       0.24777767235309511       -1.1287421000079765E-002
  -8999.8286387081316        8.1089446171063173E-002  -5.1801097356364871E-003
  -6300.0817131934600        3.0356202978509828E-003   764.99995479585891     
  -5775.0837156898715       0.15083516019922172        765.04144733947965     
  -5250.0260808384701       0.10213291700074478        765.00903750810528     
  -4725.0193434141429      -0.51152035914765293        764.83010820687036     
  -4200.1740381921200       -2.0585739186456067        764.43204234108043     
  -6975.0282938570381        1.8461674108493753E-002   599.06156775541228     
  -6393.7763747134068        8.5527538784390345E-002   599.14754807358918     
  -5812.5168807957707        3.2029497751636882E-002   599.13044235339964     
  -5231.3071220267948      -0.33306552464136985        598.89668527509343     
  -4650.2044083286482       -1.2007906021976851        598.33271151898373     
  -7649.9546937612649        4.0697033951801131E-002   416.25057402124759     
  -7012.4508677364292       -1.4977736376749817E-002   416.34772359687173     
  -6375.0017084091414       -8.7398716766074358E-002   416.33680316766606     
  -5737.5892277567427      -0.11660583170487371        416.09764988694923     
  -5100.1954377565644       -4.2639005543833264E-002   415.51010090799912     
  -8324.8813347602463        6.3615143523293227E-002   216.56298694809453     
  -7631.1408741631431      -0.16078448704593029        216.63769372135951     
  -6937.4980571769365      -0.26139977516595536        216.63127180268523     
  -6243.8375247417953       0.14629947850562530        216.45131151640572     
  -5550.0439177972858        1.4468434755171984        216.00540318684170     
  -8999.8286387081316        8.1089446171063173E-002  -5.1801097356364871E-003
  -8249.8800733972421      -0.36199653304174717        1.3178259061014419E-002
  -7500.0234205980032      -0.49522172753904670        1.7000110476891570E-002
  -6750.0238771199711       0.46409116412178264       -2.4020362389909320E-002
  -5999.6466397726454        3.2986194439581595      -0.14018896591553812     
 </DataArray>
 <DataArray  type="Float64" Name="VM" NumberOfComponents="1" format="ascii">
   4382.3942275666141     
   4258.5790767467179     
   4137.0236410097932     
   4017.8688121338269     
   3901.2700082038368     
   3409.7776599669623     
   3346.7629648074303     
   3285.9985286250276     
   3227.4467662496627     
   3171.0648285054749     
   2747.3589971460324     
   2733.0472896942533     
   2720.1733910762528     
   2708.5107070303475     
   2697.8283685160904     
   2639.2493626077899     
   2633.7473513875293     
   2629.4353008926491     
   2626.0438821036869     
   2623.3024638496754     
   3143.1314124714590     
   3098.6104179476838     
   3056.2571982713953     
   3015.9184349221864     
   2977.4319567223401     
   3901.2700082038368     
   3787.2119405777098     
   3675.7120345776802     
   3567.0043316718957     
   3461.3483530194339     
   3171.0648285054749     
   3116.6457123710366     
   3064.0808285961034     
   3013.4738948122517     
   2964.9326653943322     
   2697.8283685160904     
   2687.7609616124205     
   2678.1117053820444     
   2668.8997085907786     
   2660.1441730622651     
   2623.3024638496754     
   2620.8149882867083     
   2618.3788572820090     
   2616.0127855692399     
   2613.7355703721155     
   2977.4319567223401     
   2940.4847083329028     
   2904.9244160633825     
   2870.8243583277963     
   2838.2589243864581     
   3461.3483530194339     
   3359.0597770557233     
   3260.4817021731624     
   3165.9528783896872     
   3075.8353794296763     
   2964.9326653943322     
   2918.5893941409040     
   2874.5735113286487     
   2832.9916414907593     
   2793.9501054353677     
   2660.1441730622651     
   2651.8853581445119     
   2644.1573254583241     
   2636.9699974645582     
   2630.3332376798835     
   2613.7355703721155     
   2611.5891101197772     
   2609.6078008644813     
   2607.7991790234742     
   2606.1706931038884     
   2838.2589243864581     
   2807.3241987949004     
   2778.1015297252461     
   2750.6434465861498     
   2725.0016631679214     
   3075.8353794296763     
   2990.5068764788907     
   2910.4211150612609     
   2836.1011411967347     
   2768.1064474216291     
   2793.9501054353677     
   2757.5672991786055     
   2723.9843347279448     
   2693.3397007151789     
   2665.7691548741182     
   2630.3332376798835     
   2624.2563194617073     
   2618.7421345984085     
   2613.7894969427175     
   2609.3953671894647     
   2606.1706931038884     
   2604.7115526570883     
   2603.3934244961265     
   2602.1978300169421     
   2601.1069470091347     
   2725.0016631679214     
   2701.2134575042242     
   2679.3211551954182     
   2659.3804123619934     
   2641.4427329143041     
   3143.1314124714590     
   3098.6104179476838     
   3056.2571982713953     
   3015.9184349221864     
   2977.4319567223401     
   4036.4694082927354     
   3932.9191099285258     
   3831.9374036794998     
   3733.5239933125858     
   3637.6813368053599     
   5120.1167452111758     
   4954.2787653380847     
   4790.8415329326999     
   4629.8747133050883     
   4471.4660811550912     
   6297.5780680560238     
   6070.0999392974791     
   5844.6724633717686     
   5621.3786884503952     
   5400.3274967110583     
   7526.1117370276834     
   7238.1101973878249     
   6951.7758531056243     
   6667.1839225046224     
   6384.4370973658824     
   2977.4319567223401     
   2940.4847083329028     
   2904.9244160633825     
   2870.8243583277963     
   2838.2589243864581     
   3637.6813368053599     
   3544.2502233281225     
   3453.2059796119547     
   3364.7671171969578     
   3279.1689100625717     
   4471.4660811550912     
   4315.5424473498178     
   4162.1538993084596     
   4011.6165015026786     
   3864.2882575880753     
   5400.3274967110583     
   5181.4682729411306     
   4964.8592134972560     
   4750.8313177000191     
   4539.7724551304027     
   6384.4370973658824     
   6103.4846788583827     
   5824.3637039384730     
   5547.3692966368535     
   5272.8552189749016     
   2838.2589243864581     
   2807.3241987949004     
   2778.1015297252461     
   2750.6434465861498     
   2725.0016631679214     
   3279.1689100625717     
   3196.6796300166329     
   3117.5589216901467     
   3042.0533032696576     
   2970.4237225867178     
   3864.2882575880753     
   3720.5892079035480     
   3580.9618009453638     
   3445.8756047412753     
   3315.8623620443691     
   4539.7724551304027     
   4332.1577225681085     
   4128.5150068204948     
   3929.4340194282663     
   3735.6177499574937     
   5272.8552189749016     
   5001.2767048809628     
   4733.1599095701858     
   4469.1042828789286     
   4209.8501035016479     
   2725.0016631679214     
   2701.2134575042242     
   2679.3211551954182     
   2659.3804123619934     
   2641.4427329143041     
   2970.4237225867178     
   2902.9579745799419     
   2840.0055325027488     
   2781.9305334391461     
   2729.0931928123332     
   3315.8623620443691     
   3191.5562251660185     
   3073.7453333702178     
   2963.2950451605852     
   2861.1354909849238     
   3735.6177499574937     
   3547.9380075821564     
   3367.5166683449829     
   3195.6815116982466     
   3033.9812454479970     
   4209.8501035016479     
   3956.3209160432507     
   3709.7327175432702     
   3471.6403686968406     
   3243.9975976673909     
   7526.1117370276834     
   7238.1101973878249     
   6951.7758531056243     
   6667.1839225046224     
   6384.4370973658824     
   8785.6456435052987     
   8438.0895314188056     
   8091.8306947479114     
   7746.9294215300515     
   7403.4714226383148     
   10066.011988496011     
   9659.6718927820548     
   9254.2854944661158     
   8849.8971436794072     
   8446.5724881772967     
   11361.697728038804     
   10897.204823715738     
   10433.344027382454     
   9970.1481231258895     
   9507.6663254091691     
   12669.600622198304     
   12147.484731287457     
   11625.698624518553     
   11104.270714249664     
   10583.241011486287     
   6384.4370973658824     
   6103.4846788583827     
   5824.3637039384730     
   5547.3692966368535     
   5272.8552189749016     
   7403.4714226383148     
   7061.4059459345872     
   6720.7475821764247     
   6381.7344803978494     
   6044.6566383619684     
   8446.5724881772967     
   8044.2700688403247     
   7642.9937660463966     
   7242.9211909719152     
   6844.2710274500323     
   9507.6663254091691     
   9045.8814565022076     
   8584.8031886195022     
   8124.5534477519504     
   7665.2835712656761     
   10583.241011486287     
   10062.633408774662     
   9542.4808916550392     
   9022.8587157593502     
   8503.8608219661310     
   5272.8552189749016     
   5001.2767048809628     
   4733.1599095701858     
   4469.1042828789286     
   4209.8501035016479     
   6044.6566383619684     
   5709.9104203847955     
   5377.9695114613050     
   5049.3719591273193     
   4724.7978268119641     
   6844.2710274500323     
   6447.3640189180196     
   6052.5950969845962     
   5660.4051531493078     
   5271.3600990126188     
   7665.2835712656761     
   7207.2329114817730     
   6750.7056791998502     
   6296.0346251480842     
   5843.6511712797683     
   8503.8608219661310     
   7985.6440093452948     
   7468.4165273606932     
   6952.4067598532001     
   6437.9129778285123     
   4209.8501035016479     
   3956.3209160432507     
   3709.7327175432702     
   3471.6403686968406     
   3243.9975976673909     
   4724.7978268119641     
   4405.0710572978342     
   4091.2836994700028     
   3784.9481148509490     
   3488.0891412336655     
   5271.3600990126188     
   4886.1067080880512     
   4505.4957041874568     
   4130.8065871665567     
   3763.8415811896248     
   5843.6511712797683     
   5394.0101397762310     
   4947.6927102930613     
   4505.6518915857569     
   4069.2853191156655     
   6437.9129778285123     
   5925.2281205112140     
   5414.7046588711073     
   4906.9630523327332     
   4402.9409333051644     
   12669.600622198304     
   12147.484731287457     
   11625.698624518553     
   11104.270714249664     
   10583.241011486287     
   13988.014324212931     
   13408.683916643588     
   12829.426799904952     
   12250.266714726666     
   11671.234434618847     
   15316.036898121540     
   14679.777999381660     
   14043.416949803366     
   13406.966249927733     
   12770.441528846815     
   16653.192161770614     
   15960.216860114941     
   15267.059360748413     
   14573.717553882163     
   13880.189912706126     
   17999.311791662101     
   17249.764077927415     
   16500.066269506213     
   15750.201049432500     
   15000.151106162941     
   10583.241011486287     
   10062.633408774662     
   9542.4808916550392     
   9022.8587157593502     
   8503.8608219661310     
   11671.234434618847     
   11092.401862282921     
   10513.839529062712     
   9935.5885364158203     
   9357.7001513315408     
   12770.441528846815     
   12133.952423685785     
   11497.608263698699     
   10861.429605212837     
   10225.441329689536     
   13880.189912706126     
   13186.601615848991     
   12493.086355508844     
   11799.656508063656     
   11106.325466193335     
   15000.151106162941     
   14250.021969437694     
   13499.940931429846     
   12749.923323107943     
   11999.984474278557     
   8503.8608219661310     
   7985.6440093452948     
   7468.4165273606932     
   6952.4067598532001     
   6437.9129778285123     
   9357.7001513315408     
   8780.2519603978544     
   8203.3545207003608     
   7627.1422298226880     
   7051.7921663241768     
   10225.441329689536     
   9589.6541248526737     
   8954.0894215139106     
   8318.8036600193973     
   7683.8734873656804     
   11106.325466193335     
   10413.057596728848     
   9719.8060415437667     
   9026.5713208561174     
   8333.3593113674742     
   11999.984474278557     
   11250.071136129249     
   10500.100325824831     
   9750.0427677173648     
   8999.8691837096721     
   6437.9129778285123     
   5925.2281205112140     
   5414.7046588711073     
   4906.9630523327332     
   4402.9409333051644     
   7051.7921663241768     
   6477.4884433862890     
   5904.4398992132847     
   5332.9976248588591     
   4763.6986324080599     
   7683.8734873656804     
   7049.4253966429187     
   6415.6136591837358     
   5782.6181688252236     
   5150.7011143861901     
   8333.3593113674742     
   7640.2800844685507     
   6947.5069791256637     
   6255.1557964388494     
   5563.3618101183856     
   8999.8691837096721     
   8249.6990811189480     
   7499.7758220546311     
   6750.2559347953802     
   6001.2966343155458     
 </DataArray>
 </PointData>
 </Piece>
 </UnstructuredGrid>
 </VTKFile>
