 <VTKFile type="UnstructuredGrid"  version="0.1"   >
 <UnstructuredGrid>
 <Piece  NumberOfPoints="          1600 "  NumberOfCells="         1024 ">
 <Points>
 <DataArray  type="Float64" NumberOfComponents="3"  format="ascii" >
  -10.000000000000000        0.0000000000000000        0.0000000000000000     
  -9.8437500000000000        0.0000000000000000        0.0000000000000000     
  -9.6875000000000000        0.0000000000000000        0.0000000000000000     
  -9.5312500000000000        0.0000000000000000        0.0000000000000000     
  -9.3750000000000000        0.0000000000000000        0.0000000000000000     
  -10.000000000000000       0.15625000000000000        0.0000000000000000     
  -9.8437500000000000       0.15625000000000000        0.0000000000000000     
  -9.6875000000000000       0.15625000000000000        0.0000000000000000     
  -9.5312500000000018       0.15625000000000003        0.0000000000000000     
  -9.3750000000000000       0.15625000000000000        0.0000000000000000     
  -10.000000000000000       0.31250000000000006        0.0000000000000000     
  -9.8437500000000000       0.31250000000000000        0.0000000000000000     
  -9.6875000000000000       0.31250000000000000        0.0000000000000000     
  -9.5312500000000000       0.31250000000000006        0.0000000000000000     
  -9.3750000000000018       0.31250000000000000        0.0000000000000000     
  -10.000000000000000       0.46875000000000000        0.0000000000000000     
  -9.8437499999999982       0.46875000000000000        0.0000000000000000     
  -9.6875000000000000       0.46875000000000000        0.0000000000000000     
  -9.5312500000000000       0.46875000000000000        0.0000000000000000     
  -9.3750000000000000       0.46875000000000000        0.0000000000000000     
  -10.000000000000000       0.62500000000000011        0.0000000000000000     
  -9.8437500000000000       0.62500000000000000        0.0000000000000000     
  -9.6875000000000018       0.62499999999999989        0.0000000000000000     
  -9.5312500000000000       0.62500000000000011        0.0000000000000000     
  -9.3750000000000018       0.62500000000000022        0.0000000000000000     
  -9.3750000000000000        0.0000000000000000        0.0000000000000000     
  -9.2187500000000000        0.0000000000000000        0.0000000000000000     
  -9.0625000000000000        0.0000000000000000        0.0000000000000000     
  -8.9062499999999982        0.0000000000000000        0.0000000000000000     
  -8.7500000000000018        0.0000000000000000        0.0000000000000000     
  -9.3750000000000000       0.15625000000000000        0.0000000000000000     
  -9.2187500000000000       0.15625000000000000        0.0000000000000000     
  -9.0625000000000018       0.15625000000000000        0.0000000000000000     
  -8.9062500000000018       0.15625000000000003        0.0000000000000000     
  -8.7500000000000000       0.15625000000000000        0.0000000000000000     
  -9.3750000000000018       0.31250000000000000        0.0000000000000000     
  -9.2187500000000000       0.31250000000000000        0.0000000000000000     
  -9.0625000000000000       0.31250000000000000        0.0000000000000000     
  -8.9062500000000000       0.31250000000000006        0.0000000000000000     
  -8.7500000000000000       0.31250000000000000        0.0000000000000000     
  -9.3750000000000000       0.46875000000000000        0.0000000000000000     
  -9.2187500000000000       0.46875000000000000        0.0000000000000000     
  -9.0625000000000018       0.46875000000000000        0.0000000000000000     
  -8.9062500000000000       0.46875000000000000        0.0000000000000000     
  -8.7500000000000018       0.46875000000000006        0.0000000000000000     
  -9.3750000000000018       0.62500000000000022        0.0000000000000000     
  -9.2187500000000036       0.62500000000000011        0.0000000000000000     
  -9.0625000000000000       0.62499999999999989        0.0000000000000000     
  -8.9062500000000000       0.62500000000000011        0.0000000000000000     
  -8.7500000000000018       0.62500000000000011        0.0000000000000000     
  -8.7500000000000018        0.0000000000000000        0.0000000000000000     
  -8.5937500000000000        0.0000000000000000        0.0000000000000000     
  -8.4375000000000018        0.0000000000000000        0.0000000000000000     
  -8.2812500000000000        0.0000000000000000        0.0000000000000000     
  -8.1250000000000000        0.0000000000000000        0.0000000000000000     
  -8.7500000000000000       0.15625000000000000        0.0000000000000000     
  -8.5937500000000000       0.15625000000000000        0.0000000000000000     
  -8.4375000000000018       0.15625000000000003        0.0000000000000000     
  -8.2812500000000000       0.15625000000000003        0.0000000000000000     
  -8.1250000000000000       0.15625000000000000        0.0000000000000000     
  -8.7500000000000000       0.31250000000000000        0.0000000000000000     
  -8.5937500000000000       0.31250000000000000        0.0000000000000000     
  -8.4375000000000018       0.31250000000000011        0.0000000000000000     
  -8.2812500000000000       0.31249999999999989        0.0000000000000000     
  -8.1250000000000000       0.31250000000000000        0.0000000000000000     
  -8.7500000000000018       0.46875000000000006        0.0000000000000000     
  -8.5937500000000000       0.46875000000000000        0.0000000000000000     
  -8.4375000000000000       0.46874999999999994        0.0000000000000000     
  -8.2812500000000000       0.46875000000000000        0.0000000000000000     
  -8.1250000000000018       0.46875000000000006        0.0000000000000000     
  -8.7500000000000018       0.62500000000000011        0.0000000000000000     
  -8.5937500000000018       0.62500000000000022        0.0000000000000000     
  -8.4375000000000000       0.62500000000000000        0.0000000000000000     
  -8.2812500000000000       0.62500000000000000        0.0000000000000000     
  -8.1250000000000018       0.62500000000000011        0.0000000000000000     
  -8.1250000000000000        0.0000000000000000        0.0000000000000000     
  -7.9687499999999991        0.0000000000000000        0.0000000000000000     
  -7.8125000000000009        0.0000000000000000        0.0000000000000000     
  -7.6562500000000009        0.0000000000000000        0.0000000000000000     
  -7.5000000000000009        0.0000000000000000        0.0000000000000000     
  -8.1250000000000000       0.15625000000000000        0.0000000000000000     
  -7.9687500000000000       0.15625000000000000        0.0000000000000000     
  -7.8125000000000009       0.15625000000000003        0.0000000000000000     
  -7.6562500000000000       0.15625000000000003        0.0000000000000000     
  -7.5000000000000000       0.15625000000000000        0.0000000000000000     
  -8.1250000000000000       0.31250000000000000        0.0000000000000000     
  -7.9687500000000000       0.31250000000000000        0.0000000000000000     
  -7.8125000000000009       0.31250000000000011        0.0000000000000000     
  -7.6562499999999982       0.31249999999999989        0.0000000000000000     
  -7.5000000000000018       0.31250000000000000        0.0000000000000000     
  -8.1250000000000018       0.46875000000000006        0.0000000000000000     
  -7.9687500000000018       0.46875000000000000        0.0000000000000000     
  -7.8125000000000009       0.46874999999999994        0.0000000000000000     
  -7.6562500000000000       0.46875000000000000        0.0000000000000000     
  -7.5000000000000009       0.46875000000000006        0.0000000000000000     
  -8.1250000000000018       0.62500000000000011        0.0000000000000000     
  -7.9687500000000009       0.62500000000000022        0.0000000000000000     
  -7.8125000000000009       0.62500000000000000        0.0000000000000000     
  -7.6562500000000009       0.62500000000000000        0.0000000000000000     
  -7.5000000000000000       0.62500000000000011        0.0000000000000000     
  -7.5000000000000009        0.0000000000000000        0.0000000000000000     
  -7.3437500000000000        0.0000000000000000        0.0000000000000000     
  -7.1875000000000009        0.0000000000000000        0.0000000000000000     
  -7.0312500000000009        0.0000000000000000        0.0000000000000000     
  -6.8750000000000009        0.0000000000000000        0.0000000000000000     
  -7.5000000000000000       0.15625000000000000        0.0000000000000000     
  -7.3437500000000000       0.15625000000000000        0.0000000000000000     
  -7.1875000000000000       0.15625000000000003        0.0000000000000000     
  -7.0312500000000000       0.15625000000000003        0.0000000000000000     
  -6.8750000000000000       0.15625000000000000        0.0000000000000000     
  -7.5000000000000018       0.31250000000000000        0.0000000000000000     
  -7.3437500000000000       0.31250000000000000        0.0000000000000000     
  -7.1875000000000018       0.31250000000000011        0.0000000000000000     
  -7.0312499999999973       0.31249999999999989        0.0000000000000000     
  -6.8750000000000000       0.31250000000000000        0.0000000000000000     
  -7.5000000000000009       0.46875000000000006        0.0000000000000000     
  -7.3437500000000000       0.46875000000000000        0.0000000000000000     
  -7.1874999999999991       0.46874999999999994        0.0000000000000000     
  -7.0312500000000000       0.46875000000000000        0.0000000000000000     
  -6.8750000000000009       0.46875000000000006        0.0000000000000000     
  -7.5000000000000000       0.62500000000000011        0.0000000000000000     
  -7.3437500000000018       0.62500000000000022        0.0000000000000000     
  -7.1874999999999991       0.62500000000000000        0.0000000000000000     
  -7.0312500000000000       0.62500000000000000        0.0000000000000000     
  -6.8750000000000009       0.62500000000000011        0.0000000000000000     
  -6.8750000000000009        0.0000000000000000        0.0000000000000000     
  -6.7187500000000000        0.0000000000000000        0.0000000000000000     
  -6.5625000000000009        0.0000000000000000        0.0000000000000000     
  -6.4062500000000000        0.0000000000000000        0.0000000000000000     
  -6.2500000000000000        0.0000000000000000        0.0000000000000000     
  -6.8750000000000000       0.15625000000000000        0.0000000000000000     
  -6.7187500000000000       0.15625000000000000        0.0000000000000000     
  -6.5625000000000009       0.15625000000000003        0.0000000000000000     
  -6.4062500000000000       0.15625000000000003        0.0000000000000000     
  -6.2500000000000000       0.15625000000000000        0.0000000000000000     
  -6.8750000000000000       0.31250000000000000        0.0000000000000000     
  -6.7187500000000000       0.31250000000000000        0.0000000000000000     
  -6.5625000000000027       0.31250000000000011        0.0000000000000000     
  -6.4062499999999982       0.31249999999999989        0.0000000000000000     
  -6.2500000000000009       0.31250000000000000        0.0000000000000000     
  -6.8750000000000009       0.46875000000000006        0.0000000000000000     
  -6.7187500000000000       0.46875000000000000        0.0000000000000000     
  -6.5624999999999982       0.46874999999999994        0.0000000000000000     
  -6.4062500000000009       0.46875000000000000        0.0000000000000000     
  -6.2500000000000009       0.46875000000000006        0.0000000000000000     
  -6.8750000000000009       0.62500000000000011        0.0000000000000000     
  -6.7187500000000018       0.62500000000000022        0.0000000000000000     
  -6.5625000000000000       0.62500000000000000        0.0000000000000000     
  -6.4062500000000000       0.62500000000000000        0.0000000000000000     
  -6.2500000000000009       0.62500000000000011        0.0000000000000000     
  -6.2500000000000000        0.0000000000000000        0.0000000000000000     
  -6.0937500000000000        0.0000000000000000        0.0000000000000000     
  -5.9375000000000000        0.0000000000000000        0.0000000000000000     
  -5.7812500000000000        0.0000000000000000        0.0000000000000000     
  -5.6250000000000009        0.0000000000000000        0.0000000000000000     
  -6.2500000000000000       0.15625000000000000        0.0000000000000000     
  -6.0937500000000000       0.15625000000000000        0.0000000000000000     
  -5.9375000000000009       0.15625000000000003        0.0000000000000000     
  -5.7812500000000009       0.15624999999999997        0.0000000000000000     
  -5.6250000000000009       0.15625000000000000        0.0000000000000000     
  -6.2500000000000009       0.31250000000000000        0.0000000000000000     
  -6.0937500000000000       0.31250000000000000        0.0000000000000000     
  -5.9375000000000009       0.31250000000000011        0.0000000000000000     
  -5.7812499999999991       0.31249999999999989        0.0000000000000000     
  -5.6250000000000000       0.31250000000000000        0.0000000000000000     
  -6.2500000000000009       0.46875000000000006        0.0000000000000000     
  -6.0937500000000000       0.46875000000000000        0.0000000000000000     
  -5.9375000000000009       0.46875000000000000        0.0000000000000000     
  -5.7812500000000009       0.46875000000000000        0.0000000000000000     
  -5.6250000000000000       0.46875000000000000        0.0000000000000000     
  -6.2500000000000009       0.62500000000000011        0.0000000000000000     
  -6.0937500000000009       0.62500000000000011        0.0000000000000000     
  -5.9375000000000009       0.62500000000000000        0.0000000000000000     
  -5.7812500000000000       0.62500000000000000        0.0000000000000000     
  -5.6250000000000009       0.62500000000000022        0.0000000000000000     
  -5.6250000000000009        0.0000000000000000        0.0000000000000000     
  -5.4687500000000000        0.0000000000000000        0.0000000000000000     
  -5.3125000000000000        0.0000000000000000        0.0000000000000000     
  -5.1562500000000009        0.0000000000000000        0.0000000000000000     
  -5.0000000000000000        0.0000000000000000        0.0000000000000000     
  -5.6250000000000009       0.15625000000000000        0.0000000000000000     
  -5.4687500000000009       0.15625000000000000        0.0000000000000000     
  -5.3125000000000009       0.15625000000000000        0.0000000000000000     
  -5.1562500000000009       0.15625000000000000        0.0000000000000000     
  -5.0000000000000000       0.15625000000000000        0.0000000000000000     
  -5.6250000000000000       0.31250000000000000        0.0000000000000000     
  -5.4687500000000009       0.31250000000000000        0.0000000000000000     
  -5.3125000000000018       0.31250000000000011        0.0000000000000000     
  -5.1562500000000000       0.31250000000000000        0.0000000000000000     
  -5.0000000000000000       0.31250000000000006        0.0000000000000000     
  -5.6250000000000000       0.46875000000000000        0.0000000000000000     
  -5.4687500000000000       0.46875000000000000        0.0000000000000000     
  -5.3125000000000009       0.46875000000000000        0.0000000000000000     
  -5.1562500000000000       0.46875000000000000        0.0000000000000000     
  -5.0000000000000000       0.46875000000000000        0.0000000000000000     
  -5.6250000000000009       0.62500000000000022        0.0000000000000000     
  -5.4687500000000000       0.62500000000000000        0.0000000000000000     
  -5.3125000000000000       0.62500000000000000        0.0000000000000000     
  -5.1562500000000009       0.62500000000000011        0.0000000000000000     
  -5.0000000000000000       0.62500000000000011        0.0000000000000000     
  -10.000000000000000       0.62500000000000011        0.0000000000000000     
  -9.8437500000000000       0.62500000000000000        0.0000000000000000     
  -9.6875000000000018       0.62499999999999989        0.0000000000000000     
  -9.5312500000000000       0.62500000000000011        0.0000000000000000     
  -9.3750000000000018       0.62500000000000022        0.0000000000000000     
  -9.9999999999999982       0.78124999999999989        0.0000000000000000     
  -9.8437500000000000       0.78125000000000000        0.0000000000000000     
  -9.6875000000000018       0.78124999999999989        0.0000000000000000     
  -9.5312500000000000       0.78125000000000000        0.0000000000000000     
  -9.3750000000000000       0.78124999999999989        0.0000000000000000     
  -10.000000000000000       0.93749999999999989        0.0000000000000000     
  -9.8437500000000018       0.93750000000000011        0.0000000000000000     
  -9.6875000000000000       0.93750000000000000        0.0000000000000000     
  -9.5312500000000000       0.93749999999999989        0.0000000000000000     
  -9.3750000000000000       0.93750000000000000        0.0000000000000000     
  -10.000000000000000        1.0937499999999998        0.0000000000000000     
  -9.8437500000000000        1.0937499999999998        0.0000000000000000     
  -9.6875000000000000        1.0937500000000002        0.0000000000000000     
  -9.5312500000000018        1.0937500000000000        0.0000000000000000     
  -9.3750000000000000        1.0937499999999998        0.0000000000000000     
  -10.000000000000004        1.2500000000000002        0.0000000000000000     
  -9.8437500000000000        1.2500000000000000        0.0000000000000000     
  -9.6875000000000018        1.2500000000000000        0.0000000000000000     
  -9.5312500000000018        1.2500000000000000        0.0000000000000000     
  -9.3750000000000018        1.2500000000000002        0.0000000000000000     
  -9.3750000000000018       0.62500000000000022        0.0000000000000000     
  -9.2187500000000036       0.62500000000000011        0.0000000000000000     
  -9.0625000000000000       0.62499999999999989        0.0000000000000000     
  -8.9062500000000000       0.62500000000000011        0.0000000000000000     
  -8.7500000000000018       0.62500000000000011        0.0000000000000000     
  -9.3750000000000000       0.78124999999999989        0.0000000000000000     
  -9.2187500000000000       0.78125000000000000        0.0000000000000000     
  -9.0625000000000000       0.78125000000000000        0.0000000000000000     
  -8.9062500000000000       0.78124999999999989        0.0000000000000000     
  -8.7500000000000018       0.78125000000000011        0.0000000000000000     
  -9.3750000000000000       0.93750000000000000        0.0000000000000000     
  -9.2187500000000000       0.93749999999999989        0.0000000000000000     
  -9.0624999999999982       0.93749999999999989        0.0000000000000000     
  -8.9062500000000000       0.93749999999999989        0.0000000000000000     
  -8.7500000000000000       0.93749999999999989        0.0000000000000000     
  -9.3750000000000000        1.0937499999999998        0.0000000000000000     
  -9.2187500000000036        1.0937500000000004        0.0000000000000000     
  -9.0625000000000036        1.0937500000000004        0.0000000000000000     
  -8.9062500000000000        1.0937499999999998        0.0000000000000000     
  -8.7500000000000018        1.0937500000000002        0.0000000000000000     
  -9.3750000000000018        1.2500000000000002        0.0000000000000000     
  -9.2187500000000000        1.2500000000000002        0.0000000000000000     
  -9.0625000000000000        1.2499999999999998        0.0000000000000000     
  -8.9062500000000018        1.2500000000000002        0.0000000000000000     
  -8.7500000000000018        1.2500000000000002        0.0000000000000000     
  -8.7500000000000018       0.62500000000000011        0.0000000000000000     
  -8.5937500000000018       0.62500000000000022        0.0000000000000000     
  -8.4375000000000000       0.62500000000000000        0.0000000000000000     
  -8.2812500000000000       0.62500000000000000        0.0000000000000000     
  -8.1250000000000018       0.62500000000000011        0.0000000000000000     
  -8.7500000000000018       0.78125000000000011        0.0000000000000000     
  -8.5937500000000000       0.78125000000000000        0.0000000000000000     
  -8.4375000000000000       0.78124999999999989        0.0000000000000000     
  -8.2812500000000000       0.78125000000000011        0.0000000000000000     
  -8.1250000000000018       0.78125000000000011        0.0000000000000000     
  -8.7500000000000000       0.93749999999999989        0.0000000000000000     
  -8.5937500000000000       0.93749999999999989        0.0000000000000000     
  -8.4374999999999982       0.93750000000000000        0.0000000000000000     
  -8.2812499999999982       0.93749999999999989        0.0000000000000000     
  -8.1249999999999982       0.93749999999999989        0.0000000000000000     
  -8.7500000000000018        1.0937500000000002        0.0000000000000000     
  -8.5937500000000018        1.0937500000000004        0.0000000000000000     
  -8.4375000000000000        1.0937500000000002        0.0000000000000000     
  -8.2812500000000018        1.0937500000000002        0.0000000000000000     
  -8.1250000000000000        1.0937500000000002        0.0000000000000000     
  -8.7500000000000018        1.2500000000000002        0.0000000000000000     
  -8.5937500000000000        1.2500000000000002        0.0000000000000000     
  -8.4375000000000018        1.2500000000000000        0.0000000000000000     
  -8.2812500000000000        1.2500000000000002        0.0000000000000000     
  -8.1250000000000000        1.2500000000000002        0.0000000000000000     
  -8.1250000000000018       0.62500000000000011        0.0000000000000000     
  -7.9687500000000009       0.62500000000000022        0.0000000000000000     
  -7.8125000000000009       0.62500000000000000        0.0000000000000000     
  -7.6562500000000009       0.62500000000000000        0.0000000000000000     
  -7.5000000000000000       0.62500000000000011        0.0000000000000000     
  -8.1250000000000018       0.78125000000000011        0.0000000000000000     
  -7.9687500000000000       0.78125000000000000        0.0000000000000000     
  -7.8125000000000000       0.78124999999999989        0.0000000000000000     
  -7.6562500000000009       0.78125000000000011        0.0000000000000000     
  -7.5000000000000009       0.78125000000000011        0.0000000000000000     
  -8.1249999999999982       0.93749999999999989        0.0000000000000000     
  -7.9687499999999991       0.93749999999999989        0.0000000000000000     
  -7.8124999999999982       0.93750000000000000        0.0000000000000000     
  -7.6562500000000000       0.93749999999999989        0.0000000000000000     
  -7.5000000000000000       0.93749999999999989        0.0000000000000000     
  -8.1250000000000000        1.0937500000000002        0.0000000000000000     
  -7.9687500000000027        1.0937500000000004        0.0000000000000000     
  -7.8125000000000018        1.0937500000000002        0.0000000000000000     
  -7.6562500000000009        1.0937500000000002        0.0000000000000000     
  -7.5000000000000009        1.0937500000000002        0.0000000000000000     
  -8.1250000000000000        1.2500000000000002        0.0000000000000000     
  -7.9687500000000000        1.2500000000000002        0.0000000000000000     
  -7.8125000000000000        1.2500000000000000        0.0000000000000000     
  -7.6562500000000009        1.2500000000000002        0.0000000000000000     
  -7.5000000000000018        1.2500000000000002        0.0000000000000000     
  -7.5000000000000000       0.62500000000000011        0.0000000000000000     
  -7.3437500000000018       0.62500000000000022        0.0000000000000000     
  -7.1874999999999991       0.62500000000000000        0.0000000000000000     
  -7.0312500000000000       0.62500000000000000        0.0000000000000000     
  -6.8750000000000009       0.62500000000000011        0.0000000000000000     
  -7.5000000000000009       0.78125000000000011        0.0000000000000000     
  -7.3437500000000000       0.78125000000000000        0.0000000000000000     
  -7.1875000000000000       0.78124999999999989        0.0000000000000000     
  -7.0312500000000000       0.78125000000000011        0.0000000000000000     
  -6.8750000000000018       0.78125000000000011        0.0000000000000000     
  -7.5000000000000000       0.93749999999999989        0.0000000000000000     
  -7.3437499999999991       0.93749999999999989        0.0000000000000000     
  -7.1875000000000000       0.93750000000000000        0.0000000000000000     
  -7.0312499999999991       0.93749999999999989        0.0000000000000000     
  -6.8750000000000000       0.93749999999999989        0.0000000000000000     
  -7.5000000000000009        1.0937500000000002        0.0000000000000000     
  -7.3437500000000027        1.0937500000000004        0.0000000000000000     
  -7.1874999999999982        1.0937500000000002        0.0000000000000000     
  -7.0312500000000009        1.0937500000000002        0.0000000000000000     
  -6.8750000000000018        1.0937500000000002        0.0000000000000000     
  -7.5000000000000018        1.2500000000000002        0.0000000000000000     
  -7.3437500000000018        1.2500000000000002        0.0000000000000000     
  -7.1875000000000009        1.2500000000000000        0.0000000000000000     
  -7.0312500000000009        1.2500000000000002        0.0000000000000000     
  -6.8750000000000009        1.2500000000000002        0.0000000000000000     
  -6.8750000000000009       0.62500000000000011        0.0000000000000000     
  -6.7187500000000018       0.62500000000000022        0.0000000000000000     
  -6.5625000000000000       0.62500000000000000        0.0000000000000000     
  -6.4062500000000000       0.62500000000000000        0.0000000000000000     
  -6.2500000000000009       0.62500000000000011        0.0000000000000000     
  -6.8750000000000018       0.78125000000000011        0.0000000000000000     
  -6.7187500000000000       0.78125000000000000        0.0000000000000000     
  -6.5625000000000009       0.78124999999999989        0.0000000000000000     
  -6.4062500000000009       0.78125000000000011        0.0000000000000000     
  -6.2500000000000009       0.78125000000000011        0.0000000000000000     
  -6.8750000000000000       0.93749999999999989        0.0000000000000000     
  -6.7187499999999991       0.93749999999999989        0.0000000000000000     
  -6.5624999999999991       0.93750000000000000        0.0000000000000000     
  -6.4062500000000000       0.93749999999999989        0.0000000000000000     
  -6.2500000000000000       0.93749999999999989        0.0000000000000000     
  -6.8750000000000018        1.0937500000000002        0.0000000000000000     
  -6.7187500000000018        1.0937500000000004        0.0000000000000000     
  -6.5625000000000009        1.0937500000000002        0.0000000000000000     
  -6.4062500000000009        1.0937500000000002        0.0000000000000000     
  -6.2500000000000009        1.0937500000000002        0.0000000000000000     
  -6.8750000000000009        1.2500000000000002        0.0000000000000000     
  -6.7187500000000009        1.2500000000000002        0.0000000000000000     
  -6.5625000000000018        1.2500000000000000        0.0000000000000000     
  -6.4062500000000009        1.2500000000000002        0.0000000000000000     
  -6.2500000000000009        1.2500000000000002        0.0000000000000000     
  -6.2500000000000009       0.62500000000000011        0.0000000000000000     
  -6.0937500000000009       0.62500000000000011        0.0000000000000000     
  -5.9375000000000009       0.62500000000000000        0.0000000000000000     
  -5.7812500000000000       0.62500000000000000        0.0000000000000000     
  -5.6250000000000009       0.62500000000000022        0.0000000000000000     
  -6.2500000000000009       0.78125000000000011        0.0000000000000000     
  -6.0937500000000000       0.78125000000000000        0.0000000000000000     
  -5.9375000000000000       0.78124999999999989        0.0000000000000000     
  -5.7812500000000000       0.78125000000000000        0.0000000000000000     
  -5.6250000000000000       0.78125000000000000        0.0000000000000000     
  -6.2500000000000000       0.93749999999999989        0.0000000000000000     
  -6.0937500000000000       0.93750000000000000        0.0000000000000000     
  -5.9375000000000000       0.93750000000000022        0.0000000000000000     
  -5.7812500000000000       0.93749999999999989        0.0000000000000000     
  -5.6250000000000000       0.93749999999999989        0.0000000000000000     
  -6.2500000000000009        1.0937500000000002        0.0000000000000000     
  -6.0937500000000000        1.0937499999999998        0.0000000000000000     
  -5.9375000000000018        1.0937500000000002        0.0000000000000000     
  -5.7812500000000000        1.0937500000000002        0.0000000000000000     
  -5.6250000000000000        1.0937500000000000        0.0000000000000000     
  -6.2500000000000009        1.2500000000000002        0.0000000000000000     
  -6.0937500000000018        1.2500000000000002        0.0000000000000000     
  -5.9375000000000000        1.2500000000000000        0.0000000000000000     
  -5.7812500000000018        1.2500000000000002        0.0000000000000000     
  -5.6250000000000009        1.2500000000000000        0.0000000000000000     
  -5.6250000000000009       0.62500000000000022        0.0000000000000000     
  -5.4687500000000000       0.62500000000000000        0.0000000000000000     
  -5.3125000000000000       0.62500000000000000        0.0000000000000000     
  -5.1562500000000009       0.62500000000000011        0.0000000000000000     
  -5.0000000000000000       0.62500000000000011        0.0000000000000000     
  -5.6250000000000000       0.78125000000000000        0.0000000000000000     
  -5.4687500000000000       0.78125000000000000        0.0000000000000000     
  -5.3125000000000018       0.78125000000000022        0.0000000000000000     
  -5.1562500000000000       0.78125000000000000        0.0000000000000000     
  -4.9999999999999991       0.78124999999999989        0.0000000000000000     
  -5.6250000000000000       0.93749999999999989        0.0000000000000000     
  -5.4687500000000009       0.93750000000000000        0.0000000000000000     
  -5.3125000000000000       0.93750000000000011        0.0000000000000000     
  -5.1562500000000000       0.93749999999999989        0.0000000000000000     
  -5.0000000000000000       0.93749999999999989        0.0000000000000000     
  -5.6250000000000000        1.0937500000000000        0.0000000000000000     
  -5.4687499999999991        1.0937499999999998        0.0000000000000000     
  -5.3125000000000009        1.0937500000000004        0.0000000000000000     
  -5.1562500000000018        1.0937500000000000        0.0000000000000000     
  -5.0000000000000000        1.0937499999999998        0.0000000000000000     
  -5.6250000000000009        1.2500000000000000        0.0000000000000000     
  -5.4687500000000000        1.2500000000000000        0.0000000000000000     
  -5.3125000000000018        1.2500000000000000        0.0000000000000000     
  -5.1562500000000009        1.2500000000000000        0.0000000000000000     
  -5.0000000000000018        1.2500000000000002        0.0000000000000000     
  -10.000000000000004        1.2500000000000002        0.0000000000000000     
  -9.8437500000000000        1.2500000000000000        0.0000000000000000     
  -9.6875000000000018        1.2500000000000000        0.0000000000000000     
  -9.5312500000000018        1.2500000000000000        0.0000000000000000     
  -9.3750000000000018        1.2500000000000002        0.0000000000000000     
  -9.9999999999999982        1.4062499999999998        0.0000000000000000     
  -9.8437500000000000        1.4062500000000000        0.0000000000000000     
  -9.6875000000000018        1.4062500000000000        0.0000000000000000     
  -9.5312500000000000        1.4062500000000000        0.0000000000000000     
  -9.3750000000000000        1.4062499999999998        0.0000000000000000     
  -10.000000000000002        1.5625000000000002        0.0000000000000000     
  -9.8437500000000000        1.5625000000000002        0.0000000000000000     
  -9.6875000000000036        1.5625000000000004        0.0000000000000000     
  -9.5312499999999982        1.5624999999999996        0.0000000000000000     
  -9.3750000000000000        1.5624999999999998        0.0000000000000000     
  -10.000000000000002        1.7187500000000002        0.0000000000000000     
  -9.8437500000000000        1.7187500000000000        0.0000000000000000     
  -9.6875000000000018        1.7187499999999998        0.0000000000000000     
  -9.5312500000000000        1.7187500000000000        0.0000000000000000     
  -9.3750000000000000        1.7187500000000000        0.0000000000000000     
  -10.000000000000004        1.8750000000000004        0.0000000000000000     
  -9.8437500000000000        1.8749999999999998        0.0000000000000000     
  -9.6875000000000018        1.8750000000000002        0.0000000000000000     
  -9.5312500000000018        1.8750000000000002        0.0000000000000000     
  -9.3750000000000018        1.8750000000000002        0.0000000000000000     
  -9.3750000000000018        1.2500000000000002        0.0000000000000000     
  -9.2187500000000000        1.2500000000000002        0.0000000000000000     
  -9.0625000000000000        1.2499999999999998        0.0000000000000000     
  -8.9062500000000018        1.2500000000000002        0.0000000000000000     
  -8.7500000000000018        1.2500000000000002        0.0000000000000000     
  -9.3750000000000000        1.4062499999999998        0.0000000000000000     
  -9.2187500000000018        1.4062500000000000        0.0000000000000000     
  -9.0625000000000000        1.4062500000000000        0.0000000000000000     
  -8.9062500000000000        1.4062500000000000        0.0000000000000000     
  -8.7500000000000000        1.4062500000000002        0.0000000000000000     
  -9.3750000000000000        1.5624999999999998        0.0000000000000000     
  -9.2187500000000000        1.5624999999999998        0.0000000000000000     
  -9.0625000000000018        1.5625000000000004        0.0000000000000000     
  -8.9062500000000000        1.5625000000000000        0.0000000000000000     
  -8.7500000000000018        1.5625000000000000        0.0000000000000000     
  -9.3750000000000000        1.7187500000000000        0.0000000000000000     
  -9.2187500000000000        1.7187500000000000        0.0000000000000000     
  -9.0624999999999982        1.7187500000000000        0.0000000000000000     
  -8.9062500000000018        1.7187500000000002        0.0000000000000000     
  -8.7499999999999964        1.7187499999999998        0.0000000000000000     
  -9.3750000000000018        1.8750000000000002        0.0000000000000000     
  -9.2187500000000000        1.8750000000000004        0.0000000000000000     
  -9.0625000000000000        1.8749999999999998        0.0000000000000000     
  -8.9062500000000018        1.8750000000000002        0.0000000000000000     
  -8.7500000000000018        1.8750000000000004        0.0000000000000000     
  -8.7500000000000018        1.2500000000000002        0.0000000000000000     
  -8.5937500000000000        1.2500000000000002        0.0000000000000000     
  -8.4375000000000018        1.2500000000000000        0.0000000000000000     
  -8.2812500000000000        1.2500000000000002        0.0000000000000000     
  -8.1250000000000000        1.2500000000000002        0.0000000000000000     
  -8.7500000000000000        1.4062500000000002        0.0000000000000000     
  -8.5937500000000000        1.4062500000000000        0.0000000000000000     
  -8.4375000000000000        1.4062499999999998        0.0000000000000000     
  -8.2812500000000000        1.4062500000000000        0.0000000000000000     
  -8.1250000000000018        1.4062500000000002        0.0000000000000000     
  -8.7500000000000018        1.5625000000000000        0.0000000000000000     
  -8.5937500000000000        1.5624999999999998        0.0000000000000000     
  -8.4375000000000018        1.5625000000000002        0.0000000000000000     
  -8.2812500000000018        1.5625000000000000        0.0000000000000000     
  -8.1250000000000000        1.5625000000000000        0.0000000000000000     
  -8.7499999999999964        1.7187499999999998        0.0000000000000000     
  -8.5937500000000000        1.7187500000000000        0.0000000000000000     
  -8.4375000000000018        1.7187500000000002        0.0000000000000000     
  -8.2812499999999982        1.7187499999999998        0.0000000000000000     
  -8.1250000000000000        1.7187499999999998        0.0000000000000000     
  -8.7500000000000018        1.8750000000000004        0.0000000000000000     
  -8.5937500000000000        1.8750000000000004        0.0000000000000000     
  -8.4375000000000018        1.8749999999999998        0.0000000000000000     
  -8.2812500000000000        1.8750000000000002        0.0000000000000000     
  -8.1250000000000000        1.8750000000000004        0.0000000000000000     
  -8.1250000000000000        1.2500000000000002        0.0000000000000000     
  -7.9687500000000000        1.2500000000000002        0.0000000000000000     
  -7.8125000000000000        1.2500000000000000        0.0000000000000000     
  -7.6562500000000009        1.2500000000000002        0.0000000000000000     
  -7.5000000000000018        1.2500000000000002        0.0000000000000000     
  -8.1250000000000018        1.4062500000000002        0.0000000000000000     
  -7.9687500000000000        1.4062500000000000        0.0000000000000000     
  -7.8125000000000000        1.4062499999999998        0.0000000000000000     
  -7.6562500000000009        1.4062500000000000        0.0000000000000000     
  -7.5000000000000009        1.4062500000000002        0.0000000000000000     
  -8.1250000000000000        1.5625000000000000        0.0000000000000000     
  -7.9687500000000000        1.5624999999999998        0.0000000000000000     
  -7.8125000000000009        1.5625000000000002        0.0000000000000000     
  -7.6562500000000009        1.5625000000000000        0.0000000000000000     
  -7.5000000000000009        1.5625000000000000        0.0000000000000000     
  -8.1250000000000000        1.7187499999999998        0.0000000000000000     
  -7.9687500000000000        1.7187500000000000        0.0000000000000000     
  -7.8125000000000000        1.7187500000000002        0.0000000000000000     
  -7.6562499999999982        1.7187499999999998        0.0000000000000000     
  -7.5000000000000000        1.7187499999999998        0.0000000000000000     
  -8.1250000000000000        1.8750000000000004        0.0000000000000000     
  -7.9687500000000000        1.8750000000000004        0.0000000000000000     
  -7.8125000000000000        1.8749999999999998        0.0000000000000000     
  -7.6562500000000009        1.8750000000000002        0.0000000000000000     
  -7.5000000000000018        1.8750000000000004        0.0000000000000000     
  -7.5000000000000018        1.2500000000000002        0.0000000000000000     
  -7.3437500000000018        1.2500000000000002        0.0000000000000000     
  -7.1875000000000009        1.2500000000000000        0.0000000000000000     
  -7.0312500000000009        1.2500000000000002        0.0000000000000000     
  -6.8750000000000009        1.2500000000000002        0.0000000000000000     
  -7.5000000000000009        1.4062500000000002        0.0000000000000000     
  -7.3437500000000000        1.4062500000000000        0.0000000000000000     
  -7.1875000000000000        1.4062499999999998        0.0000000000000000     
  -7.0312500000000000        1.4062500000000000        0.0000000000000000     
  -6.8750000000000018        1.4062500000000002        0.0000000000000000     
  -7.5000000000000009        1.5625000000000000        0.0000000000000000     
  -7.3437500000000009        1.5624999999999998        0.0000000000000000     
  -7.1875000000000000        1.5625000000000002        0.0000000000000000     
  -7.0312500000000000        1.5625000000000000        0.0000000000000000     
  -6.8750000000000009        1.5625000000000000        0.0000000000000000     
  -7.5000000000000000        1.7187499999999998        0.0000000000000000     
  -7.3437500000000009        1.7187500000000000        0.0000000000000000     
  -7.1874999999999991        1.7187500000000002        0.0000000000000000     
  -7.0312499999999991        1.7187499999999998        0.0000000000000000     
  -6.8749999999999991        1.7187499999999998        0.0000000000000000     
  -7.5000000000000018        1.8750000000000004        0.0000000000000000     
  -7.3437500000000018        1.8750000000000004        0.0000000000000000     
  -7.1875000000000009        1.8749999999999998        0.0000000000000000     
  -7.0312500000000009        1.8750000000000002        0.0000000000000000     
  -6.8750000000000009        1.8750000000000004        0.0000000000000000     
  -6.8750000000000009        1.2500000000000002        0.0000000000000000     
  -6.7187500000000009        1.2500000000000002        0.0000000000000000     
  -6.5625000000000018        1.2500000000000000        0.0000000000000000     
  -6.4062500000000009        1.2500000000000002        0.0000000000000000     
  -6.2500000000000009        1.2500000000000002        0.0000000000000000     
  -6.8750000000000018        1.4062500000000002        0.0000000000000000     
  -6.7187500000000000        1.4062500000000000        0.0000000000000000     
  -6.5625000000000009        1.4062499999999998        0.0000000000000000     
  -6.4062500000000009        1.4062500000000000        0.0000000000000000     
  -6.2500000000000009        1.4062500000000002        0.0000000000000000     
  -6.8750000000000009        1.5625000000000000        0.0000000000000000     
  -6.7187499999999991        1.5624999999999998        0.0000000000000000     
  -6.5625000000000000        1.5625000000000002        0.0000000000000000     
  -6.4062500000000000        1.5625000000000000        0.0000000000000000     
  -6.2500000000000000        1.5625000000000000        0.0000000000000000     
  -6.8749999999999991        1.7187499999999998        0.0000000000000000     
  -6.7187500000000009        1.7187500000000000        0.0000000000000000     
  -6.5625000000000018        1.7187500000000002        0.0000000000000000     
  -6.4062499999999982        1.7187499999999998        0.0000000000000000     
  -6.2499999999999991        1.7187499999999998        0.0000000000000000     
  -6.8750000000000009        1.8750000000000004        0.0000000000000000     
  -6.7187500000000009        1.8750000000000004        0.0000000000000000     
  -6.5625000000000018        1.8749999999999998        0.0000000000000000     
  -6.4062500000000009        1.8750000000000002        0.0000000000000000     
  -6.2500000000000009        1.8750000000000004        0.0000000000000000     
  -6.2500000000000009        1.2500000000000002        0.0000000000000000     
  -6.0937500000000018        1.2500000000000002        0.0000000000000000     
  -5.9375000000000000        1.2500000000000000        0.0000000000000000     
  -5.7812500000000018        1.2500000000000002        0.0000000000000000     
  -5.6250000000000009        1.2500000000000000        0.0000000000000000     
  -6.2500000000000009        1.4062500000000002        0.0000000000000000     
  -6.0937500000000000        1.4062500000000000        0.0000000000000000     
  -5.9375000000000000        1.4062499999999998        0.0000000000000000     
  -5.7812500000000000        1.4062500000000000        0.0000000000000000     
  -5.6250000000000000        1.4062500000000000        0.0000000000000000     
  -6.2500000000000000        1.5625000000000000        0.0000000000000000     
  -6.0937500000000000        1.5625000000000000        0.0000000000000000     
  -5.9375000000000009        1.5625000000000002        0.0000000000000000     
  -5.7812500000000000        1.5625000000000000        0.0000000000000000     
  -5.6250000000000000        1.5625000000000000        0.0000000000000000     
  -6.2499999999999991        1.7187499999999998        0.0000000000000000     
  -6.0937500000000009        1.7187500000000000        0.0000000000000000     
  -5.9374999999999991        1.7187500000000000        0.0000000000000000     
  -5.7812500000000000        1.7187499999999998        0.0000000000000000     
  -5.6250000000000000        1.7187500000000000        0.0000000000000000     
  -6.2500000000000009        1.8750000000000004        0.0000000000000000     
  -6.0937500000000018        1.8750000000000004        0.0000000000000000     
  -5.9375000000000000        1.8750000000000004        0.0000000000000000     
  -5.7812500000000018        1.8750000000000002        0.0000000000000000     
  -5.6250000000000009        1.8750000000000004        0.0000000000000000     
  -5.6250000000000009        1.2500000000000000        0.0000000000000000     
  -5.4687500000000000        1.2500000000000000        0.0000000000000000     
  -5.3125000000000018        1.2500000000000000        0.0000000000000000     
  -5.1562500000000009        1.2500000000000000        0.0000000000000000     
  -5.0000000000000018        1.2500000000000002        0.0000000000000000     
  -5.6250000000000000        1.4062500000000000        0.0000000000000000     
  -5.4687500000000000        1.4062500000000000        0.0000000000000000     
  -5.3125000000000018        1.4062500000000002        0.0000000000000000     
  -5.1562500000000000        1.4062500000000000        0.0000000000000000     
  -4.9999999999999991        1.4062499999999998        0.0000000000000000     
  -5.6250000000000000        1.5625000000000000        0.0000000000000000     
  -5.4687500000000009        1.5624999999999998        0.0000000000000000     
  -5.3125000000000009        1.5625000000000004        0.0000000000000000     
  -5.1562500000000018        1.5625000000000002        0.0000000000000000     
  -5.0000000000000009        1.5625000000000002        0.0000000000000000     
  -5.6250000000000000        1.7187500000000000        0.0000000000000000     
  -5.4687500000000000        1.7187500000000000        0.0000000000000000     
  -5.3125000000000009        1.7187500000000007        0.0000000000000000     
  -5.1562500000000000        1.7187500000000000        0.0000000000000000     
  -5.0000000000000009        1.7187500000000002        0.0000000000000000     
  -5.6250000000000009        1.8750000000000004        0.0000000000000000     
  -5.4687500000000000        1.8750000000000002        0.0000000000000000     
  -5.3125000000000018        1.8750000000000002        0.0000000000000000     
  -5.1562500000000009        1.8749999999999998        0.0000000000000000     
  -5.0000000000000018        1.8750000000000004        0.0000000000000000     
  -10.000000000000004        1.8750000000000004        0.0000000000000000     
  -9.8437500000000000        1.8749999999999998        0.0000000000000000     
  -9.6875000000000018        1.8750000000000002        0.0000000000000000     
  -9.5312500000000018        1.8750000000000002        0.0000000000000000     
  -9.3750000000000018        1.8750000000000002        0.0000000000000000     
  -9.9999999999999982        2.0312500000000000        0.0000000000000000     
  -9.8437500000000000        2.0312500000000000        0.0000000000000000     
  -9.6875000000000018        2.0312500000000000        0.0000000000000000     
  -9.5312500000000000        2.0312500000000000        0.0000000000000000     
  -9.3750000000000000        2.0312500000000000        0.0000000000000000     
  -10.000000000000002        2.1875000000000004        0.0000000000000000     
  -9.8437500000000018        2.1875000000000000        0.0000000000000000     
  -9.6875000000000036        2.1875000000000009        0.0000000000000000     
  -9.5312500000000018        2.1875000000000000        0.0000000000000000     
  -9.3750000000000000        2.1875000000000000        0.0000000000000000     
  -10.000000000000002        2.3437500000000004        0.0000000000000000     
  -9.8437500000000000        2.3437500000000000        0.0000000000000000     
  -9.6875000000000018        2.3437499999999996        0.0000000000000000     
  -9.5312500000000000        2.3437500000000004        0.0000000000000000     
  -9.3750000000000000        2.3437500000000000        0.0000000000000000     
  -10.000000000000004        2.5000000000000004        0.0000000000000000     
  -9.8437500000000000        2.5000000000000000        0.0000000000000000     
  -9.6875000000000018        2.5000000000000004        0.0000000000000000     
  -9.5312500000000018        2.5000000000000000        0.0000000000000000     
  -9.3750000000000018        2.5000000000000000        0.0000000000000000     
  -9.3750000000000018        1.8750000000000002        0.0000000000000000     
  -9.2187500000000000        1.8750000000000004        0.0000000000000000     
  -9.0625000000000000        1.8749999999999998        0.0000000000000000     
  -8.9062500000000018        1.8750000000000002        0.0000000000000000     
  -8.7500000000000018        1.8750000000000004        0.0000000000000000     
  -9.3750000000000000        2.0312500000000000        0.0000000000000000     
  -9.2187500000000018        2.0312500000000000        0.0000000000000000     
  -9.0625000000000000        2.0312500000000000        0.0000000000000000     
  -8.9062500000000000        2.0312500000000004        0.0000000000000000     
  -8.7500000000000000        2.0312500000000004        0.0000000000000000     
  -9.3750000000000000        2.1875000000000000        0.0000000000000000     
  -9.2187500000000000        2.1875000000000000        0.0000000000000000     
  -9.0625000000000018        2.1875000000000004        0.0000000000000000     
  -8.9062500000000000        2.1874999999999996        0.0000000000000000     
  -8.7500000000000018        2.1875000000000000        0.0000000000000000     
  -9.3750000000000000        2.3437500000000000        0.0000000000000000     
  -9.2187500000000000        2.3437500000000000        0.0000000000000000     
  -9.0624999999999982        2.3437499999999996        0.0000000000000000     
  -8.9062500000000018        2.3437500000000000        0.0000000000000000     
  -8.7499999999999964        2.3437500000000000        0.0000000000000000     
  -9.3750000000000018        2.5000000000000000        0.0000000000000000     
  -9.2187500000000000        2.5000000000000004        0.0000000000000000     
  -9.0625000000000000        2.5000000000000000        0.0000000000000000     
  -8.9062500000000018        2.5000000000000000        0.0000000000000000     
  -8.7500000000000018        2.5000000000000009        0.0000000000000000     
  -8.7500000000000018        1.8750000000000004        0.0000000000000000     
  -8.5937500000000000        1.8750000000000004        0.0000000000000000     
  -8.4375000000000018        1.8749999999999998        0.0000000000000000     
  -8.2812500000000000        1.8750000000000002        0.0000000000000000     
  -8.1250000000000000        1.8750000000000004        0.0000000000000000     
  -8.7500000000000000        2.0312500000000004        0.0000000000000000     
  -8.5937500000000000        2.0312500000000000        0.0000000000000000     
  -8.4375000000000000        2.0312500000000004        0.0000000000000000     
  -8.2812500000000000        2.0312500000000004        0.0000000000000000     
  -8.1250000000000018        2.0312500000000004        0.0000000000000000     
  -8.7500000000000018        2.1875000000000000        0.0000000000000000     
  -8.5937500000000000        2.1875000000000000        0.0000000000000000     
  -8.4375000000000018        2.1875000000000004        0.0000000000000000     
  -8.2812500000000018        2.1875000000000000        0.0000000000000000     
  -8.1250000000000000        2.1875000000000000        0.0000000000000000     
  -8.7499999999999964        2.3437500000000000        0.0000000000000000     
  -8.5937500000000000        2.3437500000000000        0.0000000000000000     
  -8.4375000000000018        2.3437500000000000        0.0000000000000000     
  -8.2812499999999982        2.3437500000000000        0.0000000000000000     
  -8.1250000000000000        2.3437500000000000        0.0000000000000000     
  -8.7500000000000018        2.5000000000000009        0.0000000000000000     
  -8.5937500000000000        2.5000000000000004        0.0000000000000000     
  -8.4375000000000018        2.5000000000000000        0.0000000000000000     
  -8.2812500000000000        2.5000000000000004        0.0000000000000000     
  -8.1250000000000000        2.5000000000000009        0.0000000000000000     
  -8.1250000000000000        1.8750000000000004        0.0000000000000000     
  -7.9687500000000000        1.8750000000000004        0.0000000000000000     
  -7.8125000000000000        1.8749999999999998        0.0000000000000000     
  -7.6562500000000009        1.8750000000000002        0.0000000000000000     
  -7.5000000000000018        1.8750000000000004        0.0000000000000000     
  -8.1250000000000018        2.0312500000000004        0.0000000000000000     
  -7.9687500000000000        2.0312500000000000        0.0000000000000000     
  -7.8125000000000000        2.0312500000000004        0.0000000000000000     
  -7.6562500000000009        2.0312500000000004        0.0000000000000000     
  -7.5000000000000009        2.0312500000000004        0.0000000000000000     
  -8.1250000000000000        2.1875000000000000        0.0000000000000000     
  -7.9687500000000000        2.1875000000000000        0.0000000000000000     
  -7.8125000000000009        2.1875000000000004        0.0000000000000000     
  -7.6562500000000009        2.1875000000000000        0.0000000000000000     
  -7.5000000000000009        2.1875000000000000        0.0000000000000000     
  -8.1250000000000000        2.3437500000000000        0.0000000000000000     
  -7.9687500000000000        2.3437500000000000        0.0000000000000000     
  -7.8125000000000000        2.3437500000000000        0.0000000000000000     
  -7.6562499999999982        2.3437500000000000        0.0000000000000000     
  -7.5000000000000000        2.3437500000000000        0.0000000000000000     
  -8.1250000000000000        2.5000000000000009        0.0000000000000000     
  -7.9687500000000000        2.5000000000000004        0.0000000000000000     
  -7.8125000000000000        2.5000000000000000        0.0000000000000000     
  -7.6562500000000009        2.5000000000000004        0.0000000000000000     
  -7.5000000000000018        2.5000000000000009        0.0000000000000000     
  -7.5000000000000018        1.8750000000000004        0.0000000000000000     
  -7.3437500000000018        1.8750000000000004        0.0000000000000000     
  -7.1875000000000009        1.8749999999999998        0.0000000000000000     
  -7.0312500000000009        1.8750000000000002        0.0000000000000000     
  -6.8750000000000009        1.8750000000000004        0.0000000000000000     
  -7.5000000000000009        2.0312500000000004        0.0000000000000000     
  -7.3437500000000000        2.0312500000000000        0.0000000000000000     
  -7.1875000000000000        2.0312500000000004        0.0000000000000000     
  -7.0312500000000000        2.0312500000000004        0.0000000000000000     
  -6.8750000000000018        2.0312500000000004        0.0000000000000000     
  -7.5000000000000009        2.1875000000000000        0.0000000000000000     
  -7.3437500000000009        2.1875000000000000        0.0000000000000000     
  -7.1875000000000000        2.1875000000000004        0.0000000000000000     
  -7.0312500000000000        2.1875000000000000        0.0000000000000000     
  -6.8750000000000009        2.1875000000000000        0.0000000000000000     
  -7.5000000000000000        2.3437500000000000        0.0000000000000000     
  -7.3437500000000009        2.3437500000000000        0.0000000000000000     
  -7.1874999999999991        2.3437500000000000        0.0000000000000000     
  -7.0312499999999991        2.3437500000000000        0.0000000000000000     
  -6.8749999999999991        2.3437500000000000        0.0000000000000000     
  -7.5000000000000018        2.5000000000000009        0.0000000000000000     
  -7.3437500000000018        2.5000000000000004        0.0000000000000000     
  -7.1875000000000009        2.5000000000000000        0.0000000000000000     
  -7.0312500000000009        2.5000000000000004        0.0000000000000000     
  -6.8750000000000009        2.5000000000000009        0.0000000000000000     
  -6.8750000000000009        1.8750000000000004        0.0000000000000000     
  -6.7187500000000009        1.8750000000000004        0.0000000000000000     
  -6.5625000000000018        1.8749999999999998        0.0000000000000000     
  -6.4062500000000009        1.8750000000000002        0.0000000000000000     
  -6.2500000000000009        1.8750000000000004        0.0000000000000000     
  -6.8750000000000018        2.0312500000000004        0.0000000000000000     
  -6.7187500000000000        2.0312500000000000        0.0000000000000000     
  -6.5625000000000009        2.0312500000000004        0.0000000000000000     
  -6.4062500000000009        2.0312500000000004        0.0000000000000000     
  -6.2500000000000009        2.0312500000000004        0.0000000000000000     
  -6.8750000000000009        2.1875000000000000        0.0000000000000000     
  -6.7187499999999991        2.1875000000000000        0.0000000000000000     
  -6.5625000000000000        2.1875000000000004        0.0000000000000000     
  -6.4062500000000000        2.1875000000000000        0.0000000000000000     
  -6.2500000000000000        2.1875000000000000        0.0000000000000000     
  -6.8749999999999991        2.3437500000000000        0.0000000000000000     
  -6.7187500000000009        2.3437500000000000        0.0000000000000000     
  -6.5625000000000018        2.3437500000000000        0.0000000000000000     
  -6.4062499999999982        2.3437500000000000        0.0000000000000000     
  -6.2499999999999991        2.3437500000000000        0.0000000000000000     
  -6.8750000000000009        2.5000000000000009        0.0000000000000000     
  -6.7187500000000009        2.5000000000000004        0.0000000000000000     
  -6.5625000000000018        2.5000000000000000        0.0000000000000000     
  -6.4062500000000009        2.5000000000000004        0.0000000000000000     
  -6.2500000000000009        2.5000000000000009        0.0000000000000000     
  -6.2500000000000009        1.8750000000000004        0.0000000000000000     
  -6.0937500000000018        1.8750000000000004        0.0000000000000000     
  -5.9375000000000000        1.8750000000000004        0.0000000000000000     
  -5.7812500000000018        1.8750000000000002        0.0000000000000000     
  -5.6250000000000009        1.8750000000000004        0.0000000000000000     
  -6.2500000000000009        2.0312500000000004        0.0000000000000000     
  -6.0937500000000000        2.0312500000000000        0.0000000000000000     
  -5.9375000000000000        2.0312500000000004        0.0000000000000000     
  -5.7812500000000000        2.0312500000000004        0.0000000000000000     
  -5.6250000000000000        2.0312500000000000        0.0000000000000000     
  -6.2500000000000000        2.1875000000000000        0.0000000000000000     
  -6.0937500000000000        2.1875000000000000        0.0000000000000000     
  -5.9375000000000009        2.1875000000000004        0.0000000000000000     
  -5.7812500000000000        2.1875000000000000        0.0000000000000000     
  -5.6250000000000009        2.1875000000000000        0.0000000000000000     
  -6.2499999999999991        2.3437500000000000        0.0000000000000000     
  -6.0937500000000009        2.3437500000000004        0.0000000000000000     
  -5.9374999999999991        2.3437499999999996        0.0000000000000000     
  -5.7812500000000000        2.3437500000000000        0.0000000000000000     
  -5.6250000000000000        2.3437500000000004        0.0000000000000000     
  -6.2500000000000009        2.5000000000000009        0.0000000000000000     
  -6.0937500000000018        2.5000000000000000        0.0000000000000000     
  -5.9375000000000000        2.5000000000000004        0.0000000000000000     
  -5.7812500000000018        2.5000000000000004        0.0000000000000000     
  -5.6250000000000009        2.5000000000000000        0.0000000000000000     
  -5.6250000000000009        1.8750000000000004        0.0000000000000000     
  -5.4687500000000000        1.8750000000000002        0.0000000000000000     
  -5.3125000000000018        1.8750000000000002        0.0000000000000000     
  -5.1562500000000009        1.8749999999999998        0.0000000000000000     
  -5.0000000000000018        1.8750000000000004        0.0000000000000000     
  -5.6250000000000000        2.0312500000000000        0.0000000000000000     
  -5.4687500000000000        2.0312500000000000        0.0000000000000000     
  -5.3125000000000018        2.0312500000000009        0.0000000000000000     
  -5.1562500000000000        2.0312500000000000        0.0000000000000000     
  -4.9999999999999991        2.0312500000000000        0.0000000000000000     
  -5.6250000000000009        2.1875000000000000        0.0000000000000000     
  -5.4687500000000009        2.1875000000000000        0.0000000000000000     
  -5.3125000000000009        2.1875000000000009        0.0000000000000000     
  -5.1562500000000009        2.1875000000000000        0.0000000000000000     
  -5.0000000000000009        2.1875000000000004        0.0000000000000000     
  -5.6250000000000000        2.3437500000000004        0.0000000000000000     
  -5.4687500000000000        2.3437500000000004        0.0000000000000000     
  -5.3125000000000009        2.3437500000000004        0.0000000000000000     
  -5.1562500000000000        2.3437500000000004        0.0000000000000000     
  -5.0000000000000009        2.3437500000000004        0.0000000000000000     
  -5.6250000000000009        2.5000000000000000        0.0000000000000000     
  -5.4687500000000000        2.5000000000000000        0.0000000000000000     
  -5.3125000000000018        2.5000000000000004        0.0000000000000000     
  -5.1562500000000009        2.5000000000000000        0.0000000000000000     
  -5.0000000000000018        2.5000000000000004        0.0000000000000000     
  -10.000000000000004        2.5000000000000004        0.0000000000000000     
  -9.8437500000000000        2.5000000000000000        0.0000000000000000     
  -9.6875000000000018        2.5000000000000004        0.0000000000000000     
  -9.5312500000000018        2.5000000000000000        0.0000000000000000     
  -9.3750000000000018        2.5000000000000000        0.0000000000000000     
  -9.9999999999999982        2.6562500000000000        0.0000000000000000     
  -9.8437500000000000        2.6562500000000000        0.0000000000000000     
  -9.6875000000000018        2.6562500000000000        0.0000000000000000     
  -9.5312500000000000        2.6562500000000000        0.0000000000000000     
  -9.3750000000000000        2.6562499999999996        0.0000000000000000     
  -10.000000000000002        2.8125000000000004        0.0000000000000000     
  -9.8437500000000000        2.8125000000000000        0.0000000000000000     
  -9.6875000000000036        2.8125000000000009        0.0000000000000000     
  -9.5312499999999982        2.8124999999999996        0.0000000000000000     
  -9.3750000000000000        2.8125000000000000        0.0000000000000000     
  -10.000000000000002        2.9687500000000000        0.0000000000000000     
  -9.8437500000000000        2.9687500000000004        0.0000000000000000     
  -9.6875000000000018        2.9687500000000004        0.0000000000000000     
  -9.5312500000000000        2.9687500000000004        0.0000000000000000     
  -9.3750000000000000        2.9687500000000000        0.0000000000000000     
  -10.000000000000004        3.1250000000000000        0.0000000000000000     
  -9.8437500000000000        3.1250000000000000        0.0000000000000000     
  -9.6875000000000018        3.1250000000000004        0.0000000000000000     
  -9.5312500000000018        3.1250000000000004        0.0000000000000000     
  -9.3750000000000018        3.1250000000000004        0.0000000000000000     
  -9.3750000000000018        2.5000000000000000        0.0000000000000000     
  -9.2187500000000000        2.5000000000000004        0.0000000000000000     
  -9.0625000000000000        2.5000000000000000        0.0000000000000000     
  -8.9062500000000018        2.5000000000000000        0.0000000000000000     
  -8.7500000000000018        2.5000000000000009        0.0000000000000000     
  -9.3750000000000000        2.6562499999999996        0.0000000000000000     
  -9.2187500000000018        2.6562500000000000        0.0000000000000000     
  -9.0625000000000000        2.6562500000000000        0.0000000000000000     
  -8.9062500000000000        2.6562500000000000        0.0000000000000000     
  -8.7500000000000000        2.6562500000000004        0.0000000000000000     
  -9.3750000000000000        2.8125000000000000        0.0000000000000000     
  -9.2187500000000000        2.8124999999999996        0.0000000000000000     
  -9.0625000000000018        2.8125000000000004        0.0000000000000000     
  -8.9062500000000000        2.8125000000000000        0.0000000000000000     
  -8.7500000000000018        2.8124999999999996        0.0000000000000000     
  -9.3750000000000000        2.9687500000000000        0.0000000000000000     
  -9.2187500000000000        2.9687500000000004        0.0000000000000000     
  -9.0624999999999982        2.9687500000000000        0.0000000000000000     
  -8.9062500000000018        2.9687500000000004        0.0000000000000000     
  -8.7499999999999964        2.9687500000000000        0.0000000000000000     
  -9.3750000000000018        3.1250000000000004        0.0000000000000000     
  -9.2187500000000000        3.1250000000000004        0.0000000000000000     
  -9.0625000000000000        3.1249999999999996        0.0000000000000000     
  -8.9062500000000018        3.1250000000000004        0.0000000000000000     
  -8.7500000000000018        3.1250000000000009        0.0000000000000000     
  -8.7500000000000018        2.5000000000000009        0.0000000000000000     
  -8.5937500000000000        2.5000000000000004        0.0000000000000000     
  -8.4375000000000018        2.5000000000000000        0.0000000000000000     
  -8.2812500000000000        2.5000000000000004        0.0000000000000000     
  -8.1250000000000000        2.5000000000000009        0.0000000000000000     
  -8.7500000000000000        2.6562500000000004        0.0000000000000000     
  -8.5937500000000000        2.6562500000000000        0.0000000000000000     
  -8.4375000000000000        2.6562499999999996        0.0000000000000000     
  -8.2812500000000000        2.6562500000000000        0.0000000000000000     
  -8.1250000000000018        2.6562500000000004        0.0000000000000000     
  -8.7500000000000018        2.8124999999999996        0.0000000000000000     
  -8.5937500000000000        2.8124999999999996        0.0000000000000000     
  -8.4375000000000018        2.8125000000000004        0.0000000000000000     
  -8.2812500000000018        2.8124999999999996        0.0000000000000000     
  -8.1250000000000000        2.8124999999999996        0.0000000000000000     
  -8.7499999999999964        2.9687500000000000        0.0000000000000000     
  -8.5937500000000000        2.9687500000000004        0.0000000000000000     
  -8.4375000000000018        2.9687500000000004        0.0000000000000000     
  -8.2812499999999982        2.9687500000000000        0.0000000000000000     
  -8.1250000000000000        2.9687500000000000        0.0000000000000000     
  -8.7500000000000018        3.1250000000000009        0.0000000000000000     
  -8.5937500000000000        3.1250000000000004        0.0000000000000000     
  -8.4375000000000018        3.1249999999999996        0.0000000000000000     
  -8.2812500000000000        3.1250000000000004        0.0000000000000000     
  -8.1250000000000000        3.1250000000000009        0.0000000000000000     
  -8.1250000000000000        2.5000000000000009        0.0000000000000000     
  -7.9687500000000000        2.5000000000000004        0.0000000000000000     
  -7.8125000000000000        2.5000000000000000        0.0000000000000000     
  -7.6562500000000009        2.5000000000000004        0.0000000000000000     
  -7.5000000000000018        2.5000000000000009        0.0000000000000000     
  -8.1250000000000018        2.6562500000000004        0.0000000000000000     
  -7.9687500000000000        2.6562500000000000        0.0000000000000000     
  -7.8125000000000000        2.6562499999999996        0.0000000000000000     
  -7.6562500000000009        2.6562500000000000        0.0000000000000000     
  -7.5000000000000009        2.6562500000000004        0.0000000000000000     
  -8.1250000000000000        2.8124999999999996        0.0000000000000000     
  -7.9687500000000000        2.8124999999999996        0.0000000000000000     
  -7.8125000000000009        2.8125000000000004        0.0000000000000000     
  -7.6562500000000009        2.8124999999999996        0.0000000000000000     
  -7.5000000000000009        2.8124999999999996        0.0000000000000000     
  -8.1250000000000000        2.9687500000000000        0.0000000000000000     
  -7.9687500000000000        2.9687500000000004        0.0000000000000000     
  -7.8125000000000000        2.9687500000000004        0.0000000000000000     
  -7.6562499999999982        2.9687500000000000        0.0000000000000000     
  -7.5000000000000000        2.9687500000000000        0.0000000000000000     
  -8.1250000000000000        3.1250000000000009        0.0000000000000000     
  -7.9687500000000000        3.1250000000000004        0.0000000000000000     
  -7.8125000000000000        3.1249999999999996        0.0000000000000000     
  -7.6562500000000009        3.1250000000000004        0.0000000000000000     
  -7.5000000000000018        3.1250000000000009        0.0000000000000000     
  -7.5000000000000018        2.5000000000000009        0.0000000000000000     
  -7.3437500000000018        2.5000000000000004        0.0000000000000000     
  -7.1875000000000009        2.5000000000000000        0.0000000000000000     
  -7.0312500000000009        2.5000000000000004        0.0000000000000000     
  -6.8750000000000009        2.5000000000000009        0.0000000000000000     
  -7.5000000000000009        2.6562500000000004        0.0000000000000000     
  -7.3437500000000000        2.6562500000000000        0.0000000000000000     
  -7.1875000000000000        2.6562499999999996        0.0000000000000000     
  -7.0312500000000000        2.6562500000000000        0.0000000000000000     
  -6.8750000000000018        2.6562500000000004        0.0000000000000000     
  -7.5000000000000009        2.8124999999999996        0.0000000000000000     
  -7.3437500000000009        2.8124999999999996        0.0000000000000000     
  -7.1875000000000000        2.8125000000000004        0.0000000000000000     
  -7.0312500000000000        2.8124999999999996        0.0000000000000000     
  -6.8750000000000009        2.8124999999999996        0.0000000000000000     
  -7.5000000000000000        2.9687500000000000        0.0000000000000000     
  -7.3437500000000009        2.9687500000000004        0.0000000000000000     
  -7.1874999999999991        2.9687500000000004        0.0000000000000000     
  -7.0312499999999991        2.9687500000000000        0.0000000000000000     
  -6.8749999999999991        2.9687500000000000        0.0000000000000000     
  -7.5000000000000018        3.1250000000000009        0.0000000000000000     
  -7.3437500000000018        3.1250000000000004        0.0000000000000000     
  -7.1875000000000009        3.1249999999999996        0.0000000000000000     
  -7.0312500000000009        3.1250000000000004        0.0000000000000000     
  -6.8750000000000009        3.1250000000000009        0.0000000000000000     
  -6.8750000000000009        2.5000000000000009        0.0000000000000000     
  -6.7187500000000009        2.5000000000000004        0.0000000000000000     
  -6.5625000000000018        2.5000000000000000        0.0000000000000000     
  -6.4062500000000009        2.5000000000000004        0.0000000000000000     
  -6.2500000000000009        2.5000000000000009        0.0000000000000000     
  -6.8750000000000018        2.6562500000000004        0.0000000000000000     
  -6.7187500000000000        2.6562500000000000        0.0000000000000000     
  -6.5625000000000009        2.6562499999999996        0.0000000000000000     
  -6.4062500000000009        2.6562500000000000        0.0000000000000000     
  -6.2500000000000009        2.6562500000000004        0.0000000000000000     
  -6.8750000000000009        2.8124999999999996        0.0000000000000000     
  -6.7187499999999991        2.8124999999999996        0.0000000000000000     
  -6.5625000000000000        2.8125000000000004        0.0000000000000000     
  -6.4062500000000000        2.8124999999999996        0.0000000000000000     
  -6.2500000000000000        2.8124999999999996        0.0000000000000000     
  -6.8749999999999991        2.9687500000000000        0.0000000000000000     
  -6.7187500000000009        2.9687500000000004        0.0000000000000000     
  -6.5625000000000018        2.9687500000000004        0.0000000000000000     
  -6.4062499999999982        2.9687500000000000        0.0000000000000000     
  -6.2499999999999991        2.9687500000000000        0.0000000000000000     
  -6.8750000000000009        3.1250000000000009        0.0000000000000000     
  -6.7187500000000009        3.1250000000000004        0.0000000000000000     
  -6.5625000000000018        3.1249999999999996        0.0000000000000000     
  -6.4062500000000009        3.1250000000000004        0.0000000000000000     
  -6.2500000000000009        3.1250000000000009        0.0000000000000000     
  -6.2500000000000009        2.5000000000000009        0.0000000000000000     
  -6.0937500000000018        2.5000000000000000        0.0000000000000000     
  -5.9375000000000000        2.5000000000000004        0.0000000000000000     
  -5.7812500000000018        2.5000000000000004        0.0000000000000000     
  -5.6250000000000009        2.5000000000000000        0.0000000000000000     
  -6.2500000000000009        2.6562500000000004        0.0000000000000000     
  -6.0937500000000000        2.6562500000000000        0.0000000000000000     
  -5.9375000000000000        2.6562500000000000        0.0000000000000000     
  -5.7812500000000000        2.6562500000000000        0.0000000000000000     
  -5.6250000000000000        2.6562500000000000        0.0000000000000000     
  -6.2500000000000000        2.8124999999999996        0.0000000000000000     
  -6.0937500000000000        2.8125000000000000        0.0000000000000000     
  -5.9375000000000009        2.8125000000000004        0.0000000000000000     
  -5.7812500000000000        2.8124999999999996        0.0000000000000000     
  -5.6250000000000000        2.8125000000000000        0.0000000000000000     
  -6.2499999999999991        2.9687500000000000        0.0000000000000000     
  -6.0937500000000009        2.9687500000000000        0.0000000000000000     
  -5.9374999999999991        2.9687500000000000        0.0000000000000000     
  -5.7812500000000000        2.9687500000000000        0.0000000000000000     
  -5.6250000000000000        2.9687499999999996        0.0000000000000000     
  -6.2500000000000009        3.1250000000000009        0.0000000000000000     
  -6.0937500000000018        3.1250000000000009        0.0000000000000000     
  -5.9375000000000000        3.1250000000000000        0.0000000000000000     
  -5.7812500000000018        3.1250000000000004        0.0000000000000000     
  -5.6250000000000009        3.1250000000000009        0.0000000000000000     
  -5.6250000000000009        2.5000000000000000        0.0000000000000000     
  -5.4687500000000000        2.5000000000000000        0.0000000000000000     
  -5.3125000000000018        2.5000000000000004        0.0000000000000000     
  -5.1562500000000009        2.5000000000000000        0.0000000000000000     
  -5.0000000000000018        2.5000000000000004        0.0000000000000000     
  -5.6250000000000000        2.6562500000000000        0.0000000000000000     
  -5.4687500000000000        2.6562500000000000        0.0000000000000000     
  -5.3125000000000018        2.6562500000000004        0.0000000000000000     
  -5.1562500000000000        2.6562500000000000        0.0000000000000000     
  -4.9999999999999991        2.6562500000000000        0.0000000000000000     
  -5.6250000000000000        2.8125000000000000        0.0000000000000000     
  -5.4687500000000009        2.8125000000000000        0.0000000000000000     
  -5.3125000000000009        2.8125000000000009        0.0000000000000000     
  -5.1562500000000018        2.8125000000000000        0.0000000000000000     
  -5.0000000000000009        2.8125000000000004        0.0000000000000000     
  -5.6250000000000000        2.9687499999999996        0.0000000000000000     
  -5.4687500000000000        2.9687500000000004        0.0000000000000000     
  -5.3125000000000009        2.9687500000000013        0.0000000000000000     
  -5.1562500000000000        2.9687500000000000        0.0000000000000000     
  -5.0000000000000009        2.9687500000000000        0.0000000000000000     
  -5.6250000000000009        3.1250000000000009        0.0000000000000000     
  -5.4687500000000000        3.1250000000000004        0.0000000000000000     
  -5.3125000000000018        3.1250000000000004        0.0000000000000000     
  -5.1562500000000009        3.1250000000000000        0.0000000000000000     
  -5.0000000000000018        3.1250000000000000        0.0000000000000000     
  -10.000000000000004        3.1250000000000000        0.0000000000000000     
  -9.8437500000000000        3.1250000000000000        0.0000000000000000     
  -9.6875000000000018        3.1250000000000004        0.0000000000000000     
  -9.5312500000000018        3.1250000000000004        0.0000000000000000     
  -9.3750000000000018        3.1250000000000004        0.0000000000000000     
  -9.9999999999999982        3.2812500000000000        0.0000000000000000     
  -9.8437500000000000        3.2812500000000000        0.0000000000000000     
  -9.6875000000000018        3.2812499999999996        0.0000000000000000     
  -9.5312500000000000        3.2812500000000004        0.0000000000000000     
  -9.3750000000000000        3.2812500000000000        0.0000000000000000     
  -10.000000000000002        3.4375000000000004        0.0000000000000000     
  -9.8437500000000018        3.4375000000000004        0.0000000000000000     
  -9.6875000000000036        3.4375000000000000        0.0000000000000000     
  -9.5312500000000018        3.4375000000000004        0.0000000000000000     
  -9.3750000000000000        3.4375000000000000        0.0000000000000000     
  -10.000000000000002        3.5937500000000004        0.0000000000000000     
  -9.8437500000000000        3.5937500000000000        0.0000000000000000     
  -9.6875000000000018        3.5937500000000004        0.0000000000000000     
  -9.5312500000000000        3.5937500000000000        0.0000000000000000     
  -9.3750000000000000        3.5937500000000000        0.0000000000000000     
  -10.000000000000004        3.7500000000000004        0.0000000000000000     
  -9.8437500000000000        3.7500000000000004        0.0000000000000000     
  -9.6875000000000018        3.7500000000000000        0.0000000000000000     
  -9.5312500000000018        3.7500000000000004        0.0000000000000000     
  -9.3750000000000018        3.7500000000000004        0.0000000000000000     
  -9.3750000000000018        3.1250000000000004        0.0000000000000000     
  -9.2187500000000000        3.1250000000000004        0.0000000000000000     
  -9.0625000000000000        3.1249999999999996        0.0000000000000000     
  -8.9062500000000018        3.1250000000000004        0.0000000000000000     
  -8.7500000000000018        3.1250000000000009        0.0000000000000000     
  -9.3750000000000000        3.2812500000000000        0.0000000000000000     
  -9.2187500000000018        3.2812500000000000        0.0000000000000000     
  -9.0625000000000000        3.2812499999999996        0.0000000000000000     
  -8.9062500000000000        3.2812500000000004        0.0000000000000000     
  -8.7500000000000000        3.2812500000000000        0.0000000000000000     
  -9.3750000000000000        3.4375000000000000        0.0000000000000000     
  -9.2187500000000000        3.4375000000000000        0.0000000000000000     
  -9.0625000000000018        3.4375000000000000        0.0000000000000000     
  -8.9062500000000000        3.4375000000000004        0.0000000000000000     
  -8.7500000000000018        3.4375000000000000        0.0000000000000000     
  -9.3750000000000000        3.5937500000000000        0.0000000000000000     
  -9.2187500000000000        3.5937500000000004        0.0000000000000000     
  -9.0624999999999982        3.5937499999999996        0.0000000000000000     
  -8.9062500000000018        3.5937500000000004        0.0000000000000000     
  -8.7499999999999964        3.5937500000000000        0.0000000000000000     
  -9.3750000000000018        3.7500000000000004        0.0000000000000000     
  -9.2187500000000000        3.7500000000000000        0.0000000000000000     
  -9.0625000000000000        3.7500000000000000        0.0000000000000000     
  -8.9062500000000018        3.7500000000000013        0.0000000000000000     
  -8.7500000000000018        3.7500000000000000        0.0000000000000000     
  -8.7500000000000018        3.1250000000000009        0.0000000000000000     
  -8.5937500000000000        3.1250000000000004        0.0000000000000000     
  -8.4375000000000018        3.1249999999999996        0.0000000000000000     
  -8.2812500000000000        3.1250000000000004        0.0000000000000000     
  -8.1250000000000000        3.1250000000000009        0.0000000000000000     
  -8.7500000000000000        3.2812500000000000        0.0000000000000000     
  -8.5937500000000000        3.2812500000000000        0.0000000000000000     
  -8.4375000000000000        3.2812500000000000        0.0000000000000000     
  -8.2812500000000000        3.2812500000000000        0.0000000000000000     
  -8.1250000000000018        3.2812500000000000        0.0000000000000000     
  -8.7500000000000018        3.4375000000000000        0.0000000000000000     
  -8.5937500000000000        3.4375000000000000        0.0000000000000000     
  -8.4375000000000018        3.4375000000000004        0.0000000000000000     
  -8.2812500000000018        3.4374999999999996        0.0000000000000000     
  -8.1250000000000000        3.4375000000000000        0.0000000000000000     
  -8.7499999999999964        3.5937500000000000        0.0000000000000000     
  -8.5937500000000000        3.5937500000000004        0.0000000000000000     
  -8.4375000000000018        3.5937499999999996        0.0000000000000000     
  -8.2812499999999982        3.5937499999999996        0.0000000000000000     
  -8.1250000000000000        3.5937500000000000        0.0000000000000000     
  -8.7500000000000018        3.7500000000000000        0.0000000000000000     
  -8.5937500000000000        3.7500000000000000        0.0000000000000000     
  -8.4375000000000018        3.7500000000000013        0.0000000000000000     
  -8.2812500000000000        3.7500000000000009        0.0000000000000000     
  -8.1250000000000000        3.7500000000000000        0.0000000000000000     
  -8.1250000000000000        3.1250000000000009        0.0000000000000000     
  -7.9687500000000000        3.1250000000000004        0.0000000000000000     
  -7.8125000000000000        3.1249999999999996        0.0000000000000000     
  -7.6562500000000009        3.1250000000000004        0.0000000000000000     
  -7.5000000000000018        3.1250000000000009        0.0000000000000000     
  -8.1250000000000018        3.2812500000000000        0.0000000000000000     
  -7.9687500000000000        3.2812500000000000        0.0000000000000000     
  -7.8125000000000000        3.2812500000000000        0.0000000000000000     
  -7.6562500000000009        3.2812500000000000        0.0000000000000000     
  -7.5000000000000009        3.2812500000000000        0.0000000000000000     
  -8.1250000000000000        3.4375000000000000        0.0000000000000000     
  -7.9687500000000000        3.4375000000000000        0.0000000000000000     
  -7.8125000000000009        3.4375000000000004        0.0000000000000000     
  -7.6562500000000009        3.4374999999999996        0.0000000000000000     
  -7.5000000000000009        3.4375000000000000        0.0000000000000000     
  -8.1250000000000000        3.5937500000000000        0.0000000000000000     
  -7.9687500000000000        3.5937500000000004        0.0000000000000000     
  -7.8125000000000000        3.5937499999999996        0.0000000000000000     
  -7.6562499999999982        3.5937499999999996        0.0000000000000000     
  -7.5000000000000000        3.5937500000000000        0.0000000000000000     
  -8.1250000000000000        3.7500000000000000        0.0000000000000000     
  -7.9687500000000000        3.7500000000000000        0.0000000000000000     
  -7.8125000000000000        3.7500000000000013        0.0000000000000000     
  -7.6562500000000009        3.7500000000000009        0.0000000000000000     
  -7.5000000000000018        3.7500000000000000        0.0000000000000000     
  -7.5000000000000018        3.1250000000000009        0.0000000000000000     
  -7.3437500000000018        3.1250000000000004        0.0000000000000000     
  -7.1875000000000009        3.1249999999999996        0.0000000000000000     
  -7.0312500000000009        3.1250000000000004        0.0000000000000000     
  -6.8750000000000009        3.1250000000000009        0.0000000000000000     
  -7.5000000000000009        3.2812500000000000        0.0000000000000000     
  -7.3437500000000000        3.2812500000000000        0.0000000000000000     
  -7.1875000000000000        3.2812500000000000        0.0000000000000000     
  -7.0312500000000000        3.2812500000000000        0.0000000000000000     
  -6.8750000000000018        3.2812500000000000        0.0000000000000000     
  -7.5000000000000009        3.4375000000000000        0.0000000000000000     
  -7.3437500000000009        3.4375000000000000        0.0000000000000000     
  -7.1875000000000000        3.4375000000000004        0.0000000000000000     
  -7.0312500000000000        3.4374999999999996        0.0000000000000000     
  -6.8750000000000009        3.4375000000000000        0.0000000000000000     
  -7.5000000000000000        3.5937500000000000        0.0000000000000000     
  -7.3437500000000009        3.5937500000000004        0.0000000000000000     
  -7.1874999999999991        3.5937499999999996        0.0000000000000000     
  -7.0312499999999991        3.5937499999999996        0.0000000000000000     
  -6.8749999999999991        3.5937500000000000        0.0000000000000000     
  -7.5000000000000018        3.7500000000000000        0.0000000000000000     
  -7.3437500000000018        3.7500000000000000        0.0000000000000000     
  -7.1875000000000009        3.7500000000000013        0.0000000000000000     
  -7.0312500000000009        3.7500000000000009        0.0000000000000000     
  -6.8750000000000009        3.7500000000000000        0.0000000000000000     
  -6.8750000000000009        3.1250000000000009        0.0000000000000000     
  -6.7187500000000009        3.1250000000000004        0.0000000000000000     
  -6.5625000000000018        3.1249999999999996        0.0000000000000000     
  -6.4062500000000009        3.1250000000000004        0.0000000000000000     
  -6.2500000000000009        3.1250000000000009        0.0000000000000000     
  -6.8750000000000018        3.2812500000000000        0.0000000000000000     
  -6.7187500000000000        3.2812500000000000        0.0000000000000000     
  -6.5625000000000009        3.2812500000000000        0.0000000000000000     
  -6.4062500000000009        3.2812500000000000        0.0000000000000000     
  -6.2500000000000009        3.2812500000000000        0.0000000000000000     
  -6.8750000000000009        3.4375000000000000        0.0000000000000000     
  -6.7187499999999991        3.4375000000000000        0.0000000000000000     
  -6.5625000000000000        3.4375000000000004        0.0000000000000000     
  -6.4062500000000000        3.4374999999999996        0.0000000000000000     
  -6.2500000000000000        3.4375000000000000        0.0000000000000000     
  -6.8749999999999991        3.5937500000000000        0.0000000000000000     
  -6.7187500000000009        3.5937500000000004        0.0000000000000000     
  -6.5625000000000018        3.5937499999999996        0.0000000000000000     
  -6.4062499999999982        3.5937499999999996        0.0000000000000000     
  -6.2499999999999991        3.5937500000000000        0.0000000000000000     
  -6.8750000000000009        3.7500000000000000        0.0000000000000000     
  -6.7187500000000009        3.7500000000000000        0.0000000000000000     
  -6.5625000000000018        3.7500000000000013        0.0000000000000000     
  -6.4062500000000009        3.7500000000000009        0.0000000000000000     
  -6.2500000000000009        3.7500000000000000        0.0000000000000000     
  -6.2500000000000009        3.1250000000000009        0.0000000000000000     
  -6.0937500000000018        3.1250000000000009        0.0000000000000000     
  -5.9375000000000000        3.1250000000000000        0.0000000000000000     
  -5.7812500000000018        3.1250000000000004        0.0000000000000000     
  -5.6250000000000009        3.1250000000000009        0.0000000000000000     
  -6.2500000000000009        3.2812500000000000        0.0000000000000000     
  -6.0937500000000000        3.2812500000000000        0.0000000000000000     
  -5.9375000000000000        3.2812500000000004        0.0000000000000000     
  -5.7812500000000000        3.2812500000000000        0.0000000000000000     
  -5.6250000000000000        3.2812500000000000        0.0000000000000000     
  -6.2500000000000000        3.4375000000000000        0.0000000000000000     
  -6.0937500000000000        3.4375000000000004        0.0000000000000000     
  -5.9375000000000009        3.4375000000000004        0.0000000000000000     
  -5.7812500000000000        3.4374999999999996        0.0000000000000000     
  -5.6250000000000009        3.4375000000000000        0.0000000000000000     
  -6.2499999999999991        3.5937500000000000        0.0000000000000000     
  -6.0937500000000009        3.5937500000000000        0.0000000000000000     
  -5.9374999999999991        3.5937499999999996        0.0000000000000000     
  -5.7812500000000000        3.5937499999999996        0.0000000000000000     
  -5.6250000000000000        3.5937500000000000        0.0000000000000000     
  -6.2500000000000009        3.7500000000000000        0.0000000000000000     
  -6.0937500000000018        3.7500000000000009        0.0000000000000000     
  -5.9375000000000000        3.7500000000000009        0.0000000000000000     
  -5.7812500000000018        3.7500000000000009        0.0000000000000000     
  -5.6250000000000009        3.7500000000000004        0.0000000000000000     
  -5.6250000000000009        3.1250000000000009        0.0000000000000000     
  -5.4687500000000000        3.1250000000000004        0.0000000000000000     
  -5.3125000000000018        3.1250000000000004        0.0000000000000000     
  -5.1562500000000009        3.1250000000000000        0.0000000000000000     
  -5.0000000000000018        3.1250000000000000        0.0000000000000000     
  -5.6250000000000000        3.2812500000000000        0.0000000000000000     
  -5.4687500000000000        3.2812500000000000        0.0000000000000000     
  -5.3125000000000018        3.2812500000000013        0.0000000000000000     
  -5.1562500000000000        3.2812500000000000        0.0000000000000000     
  -4.9999999999999991        3.2812500000000000        0.0000000000000000     
  -5.6250000000000009        3.4375000000000000        0.0000000000000000     
  -5.4687500000000009        3.4375000000000004        0.0000000000000000     
  -5.3125000000000009        3.4375000000000000        0.0000000000000000     
  -5.1562500000000009        3.4375000000000004        0.0000000000000000     
  -5.0000000000000009        3.4375000000000004        0.0000000000000000     
  -5.6250000000000000        3.5937500000000000        0.0000000000000000     
  -5.4687500000000000        3.5937500000000000        0.0000000000000000     
  -5.3125000000000009        3.5937500000000013        0.0000000000000000     
  -5.1562500000000000        3.5937500000000000        0.0000000000000000     
  -5.0000000000000009        3.5937500000000004        0.0000000000000000     
  -5.6250000000000009        3.7500000000000004        0.0000000000000000     
  -5.4687500000000000        3.7500000000000004        0.0000000000000000     
  -5.3125000000000018        3.7500000000000000        0.0000000000000000     
  -5.1562500000000009        3.7500000000000004        0.0000000000000000     
  -5.0000000000000018        3.7500000000000004        0.0000000000000000     
  -10.000000000000004        3.7500000000000004        0.0000000000000000     
  -9.8437500000000000        3.7500000000000004        0.0000000000000000     
  -9.6875000000000018        3.7500000000000000        0.0000000000000000     
  -9.5312500000000018        3.7500000000000004        0.0000000000000000     
  -9.3750000000000018        3.7500000000000004        0.0000000000000000     
  -10.000000000000000        3.9062500000000000        0.0000000000000000     
  -9.8437500000000000        3.9062500000000000        0.0000000000000000     
  -9.6875000000000018        3.9062500000000000        0.0000000000000000     
  -9.5312500000000000        3.9062500000000000        0.0000000000000000     
  -9.3750000000000000        3.9062500000000000        0.0000000000000000     
  -10.000000000000000        4.0625000000000000        0.0000000000000000     
  -9.8437500000000000        4.0625000000000000        0.0000000000000000     
  -9.6875000000000036        4.0625000000000000        0.0000000000000000     
  -9.5312500000000000        4.0624999999999991        0.0000000000000000     
  -9.3750000000000000        4.0625000000000000        0.0000000000000000     
  -10.000000000000002        4.2187500000000000        0.0000000000000000     
  -9.8437500000000000        4.2187500000000000        0.0000000000000000     
  -9.6875000000000018        4.2187500000000000        0.0000000000000000     
  -9.5312500000000000        4.2187499999999991        0.0000000000000000     
  -9.3750000000000000        4.2187499999999991        0.0000000000000000     
  -10.000000000000000        4.3750000000000000        0.0000000000000000     
  -9.8437500000000000        4.3750000000000000        0.0000000000000000     
  -9.6875000000000000        4.3750000000000000        0.0000000000000000     
  -9.5312500000000000        4.3750000000000009        0.0000000000000000     
  -9.3750000000000018        4.3750000000000009        0.0000000000000000     
  -9.3750000000000018        3.7500000000000004        0.0000000000000000     
  -9.2187500000000000        3.7500000000000000        0.0000000000000000     
  -9.0625000000000000        3.7500000000000000        0.0000000000000000     
  -8.9062500000000018        3.7500000000000013        0.0000000000000000     
  -8.7500000000000018        3.7500000000000000        0.0000000000000000     
  -9.3750000000000000        3.9062500000000000        0.0000000000000000     
  -9.2187499999999982        3.9062499999999996        0.0000000000000000     
  -9.0625000000000000        3.9062500000000000        0.0000000000000000     
  -8.9062500000000000        3.9062500000000004        0.0000000000000000     
  -8.7500000000000018        3.9062500000000009        0.0000000000000000     
  -9.3750000000000000        4.0625000000000000        0.0000000000000000     
  -9.2187500000000000        4.0625000000000000        0.0000000000000000     
  -9.0625000000000018        4.0625000000000000        0.0000000000000000     
  -8.9062500000000018        4.0625000000000009        0.0000000000000000     
  -8.7500000000000000        4.0624999999999991        0.0000000000000000     
  -9.3750000000000000        4.2187499999999991        0.0000000000000000     
  -9.2187500000000000        4.2187500000000000        0.0000000000000000     
  -9.0624999999999982        4.2187500000000000        0.0000000000000000     
  -8.9062500000000036        4.2187500000000009        0.0000000000000000     
  -8.7499999999999964        4.2187499999999991        0.0000000000000000     
  -9.3750000000000018        4.3750000000000009        0.0000000000000000     
  -9.2187499999999982        4.3750000000000000        0.0000000000000000     
  -9.0625000000000000        4.3750000000000000        0.0000000000000000     
  -8.9062500000000000        4.3750000000000000        0.0000000000000000     
  -8.7500000000000018        4.3750000000000009        0.0000000000000000     
  -8.7500000000000018        3.7500000000000000        0.0000000000000000     
  -8.5937500000000000        3.7500000000000000        0.0000000000000000     
  -8.4375000000000018        3.7500000000000013        0.0000000000000000     
  -8.2812500000000000        3.7500000000000009        0.0000000000000000     
  -8.1250000000000000        3.7500000000000000        0.0000000000000000     
  -8.7500000000000018        3.9062500000000009        0.0000000000000000     
  -8.5937499999999982        3.9062499999999996        0.0000000000000000     
  -8.4375000000000000        3.9062500000000004        0.0000000000000000     
  -8.2812500000000018        3.9062500000000004        0.0000000000000000     
  -8.1250000000000018        3.9062500000000009        0.0000000000000000     
  -8.7500000000000000        4.0624999999999991        0.0000000000000000     
  -8.5937500000000000        4.0625000000000000        0.0000000000000000     
  -8.4375000000000018        4.0625000000000009        0.0000000000000000     
  -8.2812500000000000        4.0625000000000000        0.0000000000000000     
  -8.1250000000000000        4.0624999999999991        0.0000000000000000     
  -8.7499999999999964        4.2187499999999991        0.0000000000000000     
  -8.5937500000000000        4.2187500000000000        0.0000000000000000     
  -8.4375000000000018        4.2187500000000009        0.0000000000000000     
  -8.2812499999999982        4.2187500000000000        0.0000000000000000     
  -8.1250000000000000        4.2187499999999991        0.0000000000000000     
  -8.7500000000000018        4.3750000000000009        0.0000000000000000     
  -8.5937500000000000        4.3750000000000000        0.0000000000000000     
  -8.4375000000000018        4.3750000000000000        0.0000000000000000     
  -8.2812499999999982        4.3750000000000000        0.0000000000000000     
  -8.1250000000000000        4.3750000000000009        0.0000000000000000     
  -8.1250000000000000        3.7500000000000000        0.0000000000000000     
  -7.9687500000000000        3.7500000000000000        0.0000000000000000     
  -7.8125000000000000        3.7500000000000013        0.0000000000000000     
  -7.6562500000000009        3.7500000000000009        0.0000000000000000     
  -7.5000000000000018        3.7500000000000000        0.0000000000000000     
  -8.1250000000000018        3.9062500000000009        0.0000000000000000     
  -7.9687499999999991        3.9062499999999996        0.0000000000000000     
  -7.8125000000000009        3.9062500000000004        0.0000000000000000     
  -7.6562500000000009        3.9062500000000004        0.0000000000000000     
  -7.5000000000000018        3.9062500000000009        0.0000000000000000     
  -8.1250000000000000        4.0624999999999991        0.0000000000000000     
  -7.9687500000000000        4.0625000000000000        0.0000000000000000     
  -7.8125000000000009        4.0625000000000009        0.0000000000000000     
  -7.6562500000000009        4.0625000000000000        0.0000000000000000     
  -7.5000000000000000        4.0624999999999991        0.0000000000000000     
  -8.1250000000000000        4.2187499999999991        0.0000000000000000     
  -7.9687500000000000        4.2187500000000000        0.0000000000000000     
  -7.8125000000000000        4.2187500000000009        0.0000000000000000     
  -7.6562499999999991        4.2187500000000000        0.0000000000000000     
  -7.5000000000000000        4.2187499999999991        0.0000000000000000     
  -8.1250000000000000        4.3750000000000009        0.0000000000000000     
  -7.9687500000000000        4.3750000000000000        0.0000000000000000     
  -7.8125000000000000        4.3750000000000000        0.0000000000000000     
  -7.6562499999999991        4.3750000000000000        0.0000000000000000     
  -7.5000000000000000        4.3750000000000009        0.0000000000000000     
  -7.5000000000000018        3.7500000000000000        0.0000000000000000     
  -7.3437500000000018        3.7500000000000000        0.0000000000000000     
  -7.1875000000000009        3.7500000000000013        0.0000000000000000     
  -7.0312500000000009        3.7500000000000009        0.0000000000000000     
  -6.8750000000000009        3.7500000000000000        0.0000000000000000     
  -7.5000000000000018        3.9062500000000009        0.0000000000000000     
  -7.3437499999999991        3.9062499999999996        0.0000000000000000     
  -7.1875000000000000        3.9062500000000004        0.0000000000000000     
  -7.0312500000000000        3.9062500000000004        0.0000000000000000     
  -6.8750000000000018        3.9062500000000009        0.0000000000000000     
  -7.5000000000000000        4.0624999999999991        0.0000000000000000     
  -7.3437500000000009        4.0625000000000000        0.0000000000000000     
  -7.1875000000000000        4.0625000000000009        0.0000000000000000     
  -7.0312500000000000        4.0625000000000000        0.0000000000000000     
  -6.8750000000000000        4.0624999999999991        0.0000000000000000     
  -7.5000000000000000        4.2187499999999991        0.0000000000000000     
  -7.3437500000000009        4.2187500000000000        0.0000000000000000     
  -7.1874999999999991        4.2187500000000009        0.0000000000000000     
  -7.0312500000000000        4.2187500000000000        0.0000000000000000     
  -6.8749999999999982        4.2187499999999991        0.0000000000000000     
  -7.5000000000000000        4.3750000000000009        0.0000000000000000     
  -7.3437500000000000        4.3750000000000000        0.0000000000000000     
  -7.1875000000000009        4.3750000000000000        0.0000000000000000     
  -7.0312500000000000        4.3750000000000000        0.0000000000000000     
  -6.8750000000000000        4.3750000000000009        0.0000000000000000     
  -6.8750000000000009        3.7500000000000000        0.0000000000000000     
  -6.7187500000000009        3.7500000000000000        0.0000000000000000     
  -6.5625000000000018        3.7500000000000013        0.0000000000000000     
  -6.4062500000000009        3.7500000000000009        0.0000000000000000     
  -6.2500000000000009        3.7500000000000000        0.0000000000000000     
  -6.8750000000000018        3.9062500000000009        0.0000000000000000     
  -6.7187499999999991        3.9062499999999996        0.0000000000000000     
  -6.5625000000000009        3.9062500000000004        0.0000000000000000     
  -6.4062500000000000        3.9062500000000004        0.0000000000000000     
  -6.2500000000000009        3.9062500000000009        0.0000000000000000     
  -6.8750000000000000        4.0624999999999991        0.0000000000000000     
  -6.7187500000000009        4.0625000000000000        0.0000000000000000     
  -6.5625000000000000        4.0625000000000009        0.0000000000000000     
  -6.4062500000000000        4.0625000000000000        0.0000000000000000     
  -6.2499999999999991        4.0624999999999991        0.0000000000000000     
  -6.8749999999999982        4.2187499999999991        0.0000000000000000     
  -6.7187500000000009        4.2187500000000000        0.0000000000000000     
  -6.5625000000000018        4.2187500000000009        0.0000000000000000     
  -6.4062499999999991        4.2187500000000000        0.0000000000000000     
  -6.2499999999999991        4.2187499999999991        0.0000000000000000     
  -6.8750000000000000        4.3750000000000009        0.0000000000000000     
  -6.7187500000000000        4.3750000000000000        0.0000000000000000     
  -6.5625000000000009        4.3750000000000000        0.0000000000000000     
  -6.4062500000000009        4.3750000000000000        0.0000000000000000     
  -6.2500000000000000        4.3750000000000009        0.0000000000000000     
  -6.2500000000000009        3.7500000000000000        0.0000000000000000     
  -6.0937500000000018        3.7500000000000009        0.0000000000000000     
  -5.9375000000000000        3.7500000000000009        0.0000000000000000     
  -5.7812500000000018        3.7500000000000009        0.0000000000000000     
  -5.6250000000000009        3.7500000000000004        0.0000000000000000     
  -6.2500000000000009        3.9062500000000009        0.0000000000000000     
  -6.0937499999999991        3.9062499999999996        0.0000000000000000     
  -5.9375000000000009        3.9062500000000004        0.0000000000000000     
  -5.7812500000000009        3.9062500000000004        0.0000000000000000     
  -5.6250000000000000        3.9062500000000000        0.0000000000000000     
  -6.2499999999999991        4.0624999999999991        0.0000000000000000     
  -6.0937500000000000        4.0625000000000009        0.0000000000000000     
  -5.9375000000000009        4.0625000000000000        0.0000000000000000     
  -5.7812500000000000        4.0625000000000000        0.0000000000000000     
  -5.6250000000000000        4.0625000000000000        0.0000000000000000     
  -6.2499999999999991        4.2187499999999991        0.0000000000000000     
  -6.0937500000000018        4.2187500000000009        0.0000000000000000     
  -5.9374999999999991        4.2187500000000000        0.0000000000000000     
  -5.7812500000000009        4.2187500000000000        0.0000000000000000     
  -5.6250000000000009        4.2187500000000018        0.0000000000000000     
  -6.2500000000000000        4.3750000000000009        0.0000000000000000     
  -6.0937500000000000        4.3750000000000000        0.0000000000000000     
  -5.9375000000000000        4.3750000000000009        0.0000000000000000     
  -5.7812500000000000        4.3750000000000000        0.0000000000000000     
  -5.6250000000000000        4.3750000000000000        0.0000000000000000     
  -5.6250000000000009        3.7500000000000004        0.0000000000000000     
  -5.4687500000000000        3.7500000000000004        0.0000000000000000     
  -5.3125000000000018        3.7500000000000000        0.0000000000000000     
  -5.1562500000000009        3.7500000000000004        0.0000000000000000     
  -5.0000000000000018        3.7500000000000004        0.0000000000000000     
  -5.6250000000000000        3.9062500000000000        0.0000000000000000     
  -5.4687500000000000        3.9062500000000000        0.0000000000000000     
  -5.3125000000000018        3.9062500000000013        0.0000000000000000     
  -5.1562500000000000        3.9062500000000000        0.0000000000000000     
  -5.0000000000000000        3.9062500000000000        0.0000000000000000     
  -5.6250000000000000        4.0625000000000000        0.0000000000000000     
  -5.4687500000000009        4.0625000000000009        0.0000000000000000     
  -5.3125000000000009        4.0625000000000009        0.0000000000000000     
  -5.1562500000000000        4.0625000000000000        0.0000000000000000     
  -5.0000000000000000        4.0625000000000000        0.0000000000000000     
  -5.6250000000000009        4.2187500000000018        0.0000000000000000     
  -5.4687500000000018        4.2187500000000009        0.0000000000000000     
  -5.3125000000000009        4.2187500000000009        0.0000000000000000     
  -5.1562500000000000        4.2187500000000000        0.0000000000000000     
  -5.0000000000000009        4.2187500000000000        0.0000000000000000     
  -5.6250000000000000        4.3750000000000000        0.0000000000000000     
  -5.4687500000000009        4.3750000000000000        0.0000000000000000     
  -5.3124999999999991        4.3749999999999991        0.0000000000000000     
  -5.1562500000000009        4.3750000000000000        0.0000000000000000     
  -5.0000000000000000        4.3750000000000000        0.0000000000000000     
  -10.000000000000000        4.3750000000000000        0.0000000000000000     
  -9.8437500000000000        4.3750000000000000        0.0000000000000000     
  -9.6875000000000000        4.3750000000000000        0.0000000000000000     
  -9.5312500000000000        4.3750000000000009        0.0000000000000000     
  -9.3750000000000018        4.3750000000000009        0.0000000000000000     
  -10.000000000000000        4.5312500000000000        0.0000000000000000     
  -9.8437500000000000        4.5312500000000000        0.0000000000000000     
  -9.6875000000000000        4.5312500000000000        0.0000000000000000     
  -9.5312500000000018        4.5312500000000000        0.0000000000000000     
  -9.3750000000000000        4.5312500000000000        0.0000000000000000     
  -10.000000000000002        4.6875000000000000        0.0000000000000000     
  -9.8437500000000000        4.6875000000000000        0.0000000000000000     
  -9.6875000000000018        4.6875000000000000        0.0000000000000000     
  -9.5312500000000018        4.6875000000000009        0.0000000000000000     
  -9.3750000000000000        4.6875000000000000        0.0000000000000000     
  -10.000000000000000        4.8437499999999991        0.0000000000000000     
  -9.8437499999999982        4.8437499999999991        0.0000000000000000     
  -9.6875000000000000        4.8437500000000000        0.0000000000000000     
  -9.5312500000000000        4.8437500000000000        0.0000000000000000     
  -9.3750000000000000        4.8437500000000000        0.0000000000000000     
  -10.000000000000000        5.0000000000000000        0.0000000000000000     
  -9.8437500000000000        5.0000000000000000        0.0000000000000000     
  -9.6875000000000000        5.0000000000000000        0.0000000000000000     
  -9.5312500000000000        5.0000000000000000        0.0000000000000000     
  -9.3750000000000000        5.0000000000000000        0.0000000000000000     
  -9.3750000000000018        4.3750000000000009        0.0000000000000000     
  -9.2187499999999982        4.3750000000000000        0.0000000000000000     
  -9.0625000000000000        4.3750000000000000        0.0000000000000000     
  -8.9062500000000000        4.3750000000000000        0.0000000000000000     
  -8.7500000000000018        4.3750000000000009        0.0000000000000000     
  -9.3750000000000000        4.5312500000000000        0.0000000000000000     
  -9.2187500000000000        4.5312500000000000        0.0000000000000000     
  -9.0625000000000018        4.5312500000000000        0.0000000000000000     
  -8.9062500000000018        4.5312500000000000        0.0000000000000000     
  -8.7500000000000000        4.5312500000000000        0.0000000000000000     
  -9.3750000000000000        4.6875000000000000        0.0000000000000000     
  -9.2187500000000018        4.6874999999999991        0.0000000000000000     
  -9.0625000000000036        4.6875000000000009        0.0000000000000000     
  -8.9062500000000000        4.6875000000000000        0.0000000000000000     
  -8.7500000000000053        4.6875000000000009        0.0000000000000000     
  -9.3750000000000000        4.8437500000000000        0.0000000000000000     
  -9.2187500000000000        4.8437500000000009        0.0000000000000000     
  -9.0625000000000018        4.8437500000000000        0.0000000000000000     
  -8.9062500000000000        4.8437500000000000        0.0000000000000000     
  -8.7500000000000000        4.8437500000000018        0.0000000000000000     
  -9.3750000000000000        5.0000000000000000        0.0000000000000000     
  -9.2187500000000000        4.9999999999999991        0.0000000000000000     
  -9.0625000000000000        5.0000000000000000        0.0000000000000000     
  -8.9062499999999982        5.0000000000000000        0.0000000000000000     
  -8.7500000000000018        5.0000000000000018        0.0000000000000000     
  -8.7500000000000018        4.3750000000000009        0.0000000000000000     
  -8.5937500000000000        4.3750000000000000        0.0000000000000000     
  -8.4375000000000018        4.3750000000000000        0.0000000000000000     
  -8.2812499999999982        4.3750000000000000        0.0000000000000000     
  -8.1250000000000000        4.3750000000000009        0.0000000000000000     
  -8.7500000000000000        4.5312500000000000        0.0000000000000000     
  -8.5937500000000018        4.5312500000000000        0.0000000000000000     
  -8.4375000000000018        4.5312500000000000        0.0000000000000000     
  -8.2812500000000018        4.5312500000000000        0.0000000000000000     
  -8.1250000000000000        4.5312500000000000        0.0000000000000000     
  -8.7500000000000053        4.6875000000000009        0.0000000000000000     
  -8.5937500000000000        4.6874999999999991        0.0000000000000000     
  -8.4375000000000018        4.6875000000000009        0.0000000000000000     
  -8.2812500000000018        4.6874999999999982        0.0000000000000000     
  -8.1250000000000036        4.6875000000000009        0.0000000000000000     
  -8.7500000000000000        4.8437500000000018        0.0000000000000000     
  -8.5937500000000036        4.8437500000000018        0.0000000000000000     
  -8.4375000000000018        4.8437500000000009        0.0000000000000000     
  -8.2812500000000018        4.8437500000000018        0.0000000000000000     
  -8.1250000000000018        4.8437500000000018        0.0000000000000000     
  -8.7500000000000018        5.0000000000000018        0.0000000000000000     
  -8.5937500000000000        4.9999999999999991        0.0000000000000000     
  -8.4375000000000018        5.0000000000000009        0.0000000000000000     
  -8.2812500000000000        5.0000000000000009        0.0000000000000000     
  -8.1250000000000000        5.0000000000000018        0.0000000000000000     
  -8.1250000000000000        4.3750000000000009        0.0000000000000000     
  -7.9687500000000000        4.3750000000000000        0.0000000000000000     
  -7.8125000000000000        4.3750000000000000        0.0000000000000000     
  -7.6562499999999991        4.3750000000000000        0.0000000000000000     
  -7.5000000000000000        4.3750000000000009        0.0000000000000000     
  -8.1250000000000000        4.5312500000000000        0.0000000000000000     
  -7.9687500000000000        4.5312500000000000        0.0000000000000000     
  -7.8125000000000009        4.5312500000000000        0.0000000000000000     
  -7.6562500000000000        4.5312500000000000        0.0000000000000000     
  -7.5000000000000000        4.5312500000000000        0.0000000000000000     
  -8.1250000000000036        4.6875000000000009        0.0000000000000000     
  -7.9687500000000000        4.6874999999999991        0.0000000000000000     
  -7.8125000000000018        4.6875000000000009        0.0000000000000000     
  -7.6562500000000009        4.6874999999999982        0.0000000000000000     
  -7.5000000000000027        4.6875000000000009        0.0000000000000000     
  -8.1250000000000018        4.8437500000000018        0.0000000000000000     
  -7.9687500000000009        4.8437500000000018        0.0000000000000000     
  -7.8125000000000009        4.8437500000000009        0.0000000000000000     
  -7.6562500000000000        4.8437500000000018        0.0000000000000000     
  -7.5000000000000009        4.8437500000000018        0.0000000000000000     
  -8.1250000000000000        5.0000000000000018        0.0000000000000000     
  -7.9687499999999991        4.9999999999999991        0.0000000000000000     
  -7.8125000000000009        5.0000000000000009        0.0000000000000000     
  -7.6562500000000009        5.0000000000000009        0.0000000000000000     
  -7.5000000000000009        5.0000000000000018        0.0000000000000000     
  -7.5000000000000000        4.3750000000000009        0.0000000000000000     
  -7.3437500000000000        4.3750000000000000        0.0000000000000000     
  -7.1875000000000009        4.3750000000000000        0.0000000000000000     
  -7.0312500000000000        4.3750000000000000        0.0000000000000000     
  -6.8750000000000000        4.3750000000000009        0.0000000000000000     
  -7.5000000000000000        4.5312500000000000        0.0000000000000000     
  -7.3437500000000000        4.5312500000000000        0.0000000000000000     
  -7.1875000000000000        4.5312500000000000        0.0000000000000000     
  -7.0312500000000000        4.5312500000000000        0.0000000000000000     
  -6.8750000000000000        4.5312500000000000        0.0000000000000000     
  -7.5000000000000027        4.6875000000000009        0.0000000000000000     
  -7.3437500000000000        4.6874999999999991        0.0000000000000000     
  -7.1875000000000009        4.6875000000000009        0.0000000000000000     
  -7.0312500000000000        4.6874999999999982        0.0000000000000000     
  -6.8750000000000027        4.6875000000000009        0.0000000000000000     
  -7.5000000000000009        4.8437500000000018        0.0000000000000000     
  -7.3437500000000000        4.8437500000000018        0.0000000000000000     
  -7.1875000000000009        4.8437500000000009        0.0000000000000000     
  -7.0312500000000009        4.8437500000000018        0.0000000000000000     
  -6.8750000000000000        4.8437500000000018        0.0000000000000000     
  -7.5000000000000009        5.0000000000000018        0.0000000000000000     
  -7.3437500000000000        4.9999999999999991        0.0000000000000000     
  -7.1875000000000009        5.0000000000000009        0.0000000000000000     
  -7.0312500000000009        5.0000000000000009        0.0000000000000000     
  -6.8750000000000009        5.0000000000000018        0.0000000000000000     
  -6.8750000000000000        4.3750000000000009        0.0000000000000000     
  -6.7187500000000000        4.3750000000000000        0.0000000000000000     
  -6.5625000000000009        4.3750000000000000        0.0000000000000000     
  -6.4062500000000009        4.3750000000000000        0.0000000000000000     
  -6.2500000000000000        4.3750000000000009        0.0000000000000000     
  -6.8750000000000000        4.5312500000000000        0.0000000000000000     
  -6.7187500000000000        4.5312500000000000        0.0000000000000000     
  -6.5625000000000000        4.5312500000000000        0.0000000000000000     
  -6.4062500000000000        4.5312500000000000        0.0000000000000000     
  -6.2500000000000000        4.5312500000000000        0.0000000000000000     
  -6.8750000000000027        4.6875000000000009        0.0000000000000000     
  -6.7187500000000000        4.6874999999999991        0.0000000000000000     
  -6.5625000000000018        4.6875000000000009        0.0000000000000000     
  -6.4062500000000000        4.6874999999999982        0.0000000000000000     
  -6.2500000000000018        4.6875000000000009        0.0000000000000000     
  -6.8750000000000000        4.8437500000000018        0.0000000000000000     
  -6.7187500000000000        4.8437500000000018        0.0000000000000000     
  -6.5625000000000018        4.8437500000000009        0.0000000000000000     
  -6.4062500000000000        4.8437500000000018        0.0000000000000000     
  -6.2500000000000000        4.8437500000000018        0.0000000000000000     
  -6.8750000000000009        5.0000000000000018        0.0000000000000000     
  -6.7187500000000000        4.9999999999999991        0.0000000000000000     
  -6.5625000000000009        5.0000000000000009        0.0000000000000000     
  -6.4062500000000000        5.0000000000000009        0.0000000000000000     
  -6.2500000000000000        5.0000000000000018        0.0000000000000000     
  -6.2500000000000000        4.3750000000000009        0.0000000000000000     
  -6.0937500000000000        4.3750000000000000        0.0000000000000000     
  -5.9375000000000000        4.3750000000000009        0.0000000000000000     
  -5.7812500000000000        4.3750000000000000        0.0000000000000000     
  -5.6250000000000000        4.3750000000000000        0.0000000000000000     
  -6.2500000000000000        4.5312500000000000        0.0000000000000000     
  -6.0937500000000009        4.5312500000000000        0.0000000000000000     
  -5.9375000000000009        4.5312500000000000        0.0000000000000000     
  -5.7812500000000000        4.5312500000000000        0.0000000000000000     
  -5.6250000000000000        4.5312500000000000        0.0000000000000000     
  -6.2500000000000018        4.6875000000000009        0.0000000000000000     
  -6.0937500000000000        4.6875000000000000        0.0000000000000000     
  -5.9375000000000009        4.6875000000000000        0.0000000000000000     
  -5.7812500000000009        4.6874999999999982        0.0000000000000000     
  -5.6250000000000000        4.6874999999999991        0.0000000000000000     
  -6.2500000000000000        4.8437500000000018        0.0000000000000000     
  -6.0937500000000009        4.8437500000000000        0.0000000000000000     
  -5.9375000000000000        4.8437500000000009        0.0000000000000000     
  -5.7812500000000000        4.8437500000000018        0.0000000000000000     
  -5.6250000000000009        4.8437500000000000        0.0000000000000000     
  -6.2500000000000000        5.0000000000000018        0.0000000000000000     
  -6.0937500000000000        5.0000000000000000        0.0000000000000000     
  -5.9375000000000000        5.0000000000000000        0.0000000000000000     
  -5.7812500000000000        5.0000000000000009        0.0000000000000000     
  -5.6250000000000009        5.0000000000000000        0.0000000000000000     
  -5.6250000000000000        4.3750000000000000        0.0000000000000000     
  -5.4687500000000009        4.3750000000000000        0.0000000000000000     
  -5.3124999999999991        4.3749999999999991        0.0000000000000000     
  -5.1562500000000009        4.3750000000000000        0.0000000000000000     
  -5.0000000000000000        4.3750000000000000        0.0000000000000000     
  -5.6250000000000000        4.5312500000000000        0.0000000000000000     
  -5.4687500000000009        4.5312500000000000        0.0000000000000000     
  -5.3125000000000009        4.5312500000000000        0.0000000000000000     
  -5.1562500000000009        4.5312500000000000        0.0000000000000000     
  -5.0000000000000000        4.5312500000000000        0.0000000000000000     
  -5.6250000000000000        4.6874999999999991        0.0000000000000000     
  -5.4687500000000018        4.6875000000000000        0.0000000000000000     
  -5.3125000000000018        4.6875000000000009        0.0000000000000000     
  -5.1562500000000009        4.6875000000000000        0.0000000000000000     
  -5.0000000000000009        4.6875000000000000        0.0000000000000000     
  -5.6250000000000009        4.8437500000000000        0.0000000000000000     
  -5.4687500000000000        4.8437499999999991        0.0000000000000000     
  -5.3125000000000000        4.8437500000000009        0.0000000000000000     
  -5.1562500000000000        4.8437499999999991        0.0000000000000000     
  -5.0000000000000000        4.8437499999999991        0.0000000000000000     
  -5.6250000000000009        5.0000000000000000        0.0000000000000000     
  -5.4687500000000000        5.0000000000000000        0.0000000000000000     
  -5.3125000000000000        5.0000000000000009        0.0000000000000000     
  -5.1562500000000009        5.0000000000000000        0.0000000000000000     
  -5.0000000000000000        5.0000000000000000        0.0000000000000000     
 </DataArray>
 </Points>
 <Cells>
 <DataArray  type="Int32"  Name="connectivity"  format="ascii">
           0           1           6           5
           1           2           7           6
           2           3           8           7
           3           4           9           8
           5           6          11          10
           6           7          12          11
           7           8          13          12
           8           9          14          13
          10          11          16          15
          11          12          17          16
          12          13          18          17
          13          14          19          18
          15          16          21          20
          16          17          22          21
          17          18          23          22
          18          19          24          23
          25          26          31          30
          26          27          32          31
          27          28          33          32
          28          29          34          33
          30          31          36          35
          31          32          37          36
          32          33          38          37
          33          34          39          38
          35          36          41          40
          36          37          42          41
          37          38          43          42
          38          39          44          43
          40          41          46          45
          41          42          47          46
          42          43          48          47
          43          44          49          48
          50          51          56          55
          51          52          57          56
          52          53          58          57
          53          54          59          58
          55          56          61          60
          56          57          62          61
          57          58          63          62
          58          59          64          63
          60          61          66          65
          61          62          67          66
          62          63          68          67
          63          64          69          68
          65          66          71          70
          66          67          72          71
          67          68          73          72
          68          69          74          73
          75          76          81          80
          76          77          82          81
          77          78          83          82
          78          79          84          83
          80          81          86          85
          81          82          87          86
          82          83          88          87
          83          84          89          88
          85          86          91          90
          86          87          92          91
          87          88          93          92
          88          89          94          93
          90          91          96          95
          91          92          97          96
          92          93          98          97
          93          94          99          98
         100         101         106         105
         101         102         107         106
         102         103         108         107
         103         104         109         108
         105         106         111         110
         106         107         112         111
         107         108         113         112
         108         109         114         113
         110         111         116         115
         111         112         117         116
         112         113         118         117
         113         114         119         118
         115         116         121         120
         116         117         122         121
         117         118         123         122
         118         119         124         123
         125         126         131         130
         126         127         132         131
         127         128         133         132
         128         129         134         133
         130         131         136         135
         131         132         137         136
         132         133         138         137
         133         134         139         138
         135         136         141         140
         136         137         142         141
         137         138         143         142
         138         139         144         143
         140         141         146         145
         141         142         147         146
         142         143         148         147
         143         144         149         148
         150         151         156         155
         151         152         157         156
         152         153         158         157
         153         154         159         158
         155         156         161         160
         156         157         162         161
         157         158         163         162
         158         159         164         163
         160         161         166         165
         161         162         167         166
         162         163         168         167
         163         164         169         168
         165         166         171         170
         166         167         172         171
         167         168         173         172
         168         169         174         173
         175         176         181         180
         176         177         182         181
         177         178         183         182
         178         179         184         183
         180         181         186         185
         181         182         187         186
         182         183         188         187
         183         184         189         188
         185         186         191         190
         186         187         192         191
         187         188         193         192
         188         189         194         193
         190         191         196         195
         191         192         197         196
         192         193         198         197
         193         194         199         198
         200         201         206         205
         201         202         207         206
         202         203         208         207
         203         204         209         208
         205         206         211         210
         206         207         212         211
         207         208         213         212
         208         209         214         213
         210         211         216         215
         211         212         217         216
         212         213         218         217
         213         214         219         218
         215         216         221         220
         216         217         222         221
         217         218         223         222
         218         219         224         223
         225         226         231         230
         226         227         232         231
         227         228         233         232
         228         229         234         233
         230         231         236         235
         231         232         237         236
         232         233         238         237
         233         234         239         238
         235         236         241         240
         236         237         242         241
         237         238         243         242
         238         239         244         243
         240         241         246         245
         241         242         247         246
         242         243         248         247
         243         244         249         248
         250         251         256         255
         251         252         257         256
         252         253         258         257
         253         254         259         258
         255         256         261         260
         256         257         262         261
         257         258         263         262
         258         259         264         263
         260         261         266         265
         261         262         267         266
         262         263         268         267
         263         264         269         268
         265         266         271         270
         266         267         272         271
         267         268         273         272
         268         269         274         273
         275         276         281         280
         276         277         282         281
         277         278         283         282
         278         279         284         283
         280         281         286         285
         281         282         287         286
         282         283         288         287
         283         284         289         288
         285         286         291         290
         286         287         292         291
         287         288         293         292
         288         289         294         293
         290         291         296         295
         291         292         297         296
         292         293         298         297
         293         294         299         298
         300         301         306         305
         301         302         307         306
         302         303         308         307
         303         304         309         308
         305         306         311         310
         306         307         312         311
         307         308         313         312
         308         309         314         313
         310         311         316         315
         311         312         317         316
         312         313         318         317
         313         314         319         318
         315         316         321         320
         316         317         322         321
         317         318         323         322
         318         319         324         323
         325         326         331         330
         326         327         332         331
         327         328         333         332
         328         329         334         333
         330         331         336         335
         331         332         337         336
         332         333         338         337
         333         334         339         338
         335         336         341         340
         336         337         342         341
         337         338         343         342
         338         339         344         343
         340         341         346         345
         341         342         347         346
         342         343         348         347
         343         344         349         348
         350         351         356         355
         351         352         357         356
         352         353         358         357
         353         354         359         358
         355         356         361         360
         356         357         362         361
         357         358         363         362
         358         359         364         363
         360         361         366         365
         361         362         367         366
         362         363         368         367
         363         364         369         368
         365         366         371         370
         366         367         372         371
         367         368         373         372
         368         369         374         373
         375         376         381         380
         376         377         382         381
         377         378         383         382
         378         379         384         383
         380         381         386         385
         381         382         387         386
         382         383         388         387
         383         384         389         388
         385         386         391         390
         386         387         392         391
         387         388         393         392
         388         389         394         393
         390         391         396         395
         391         392         397         396
         392         393         398         397
         393         394         399         398
         400         401         406         405
         401         402         407         406
         402         403         408         407
         403         404         409         408
         405         406         411         410
         406         407         412         411
         407         408         413         412
         408         409         414         413
         410         411         416         415
         411         412         417         416
         412         413         418         417
         413         414         419         418
         415         416         421         420
         416         417         422         421
         417         418         423         422
         418         419         424         423
         425         426         431         430
         426         427         432         431
         427         428         433         432
         428         429         434         433
         430         431         436         435
         431         432         437         436
         432         433         438         437
         433         434         439         438
         435         436         441         440
         436         437         442         441
         437         438         443         442
         438         439         444         443
         440         441         446         445
         441         442         447         446
         442         443         448         447
         443         444         449         448
         450         451         456         455
         451         452         457         456
         452         453         458         457
         453         454         459         458
         455         456         461         460
         456         457         462         461
         457         458         463         462
         458         459         464         463
         460         461         466         465
         461         462         467         466
         462         463         468         467
         463         464         469         468
         465         466         471         470
         466         467         472         471
         467         468         473         472
         468         469         474         473
         475         476         481         480
         476         477         482         481
         477         478         483         482
         478         479         484         483
         480         481         486         485
         481         482         487         486
         482         483         488         487
         483         484         489         488
         485         486         491         490
         486         487         492         491
         487         488         493         492
         488         489         494         493
         490         491         496         495
         491         492         497         496
         492         493         498         497
         493         494         499         498
         500         501         506         505
         501         502         507         506
         502         503         508         507
         503         504         509         508
         505         506         511         510
         506         507         512         511
         507         508         513         512
         508         509         514         513
         510         511         516         515
         511         512         517         516
         512         513         518         517
         513         514         519         518
         515         516         521         520
         516         517         522         521
         517         518         523         522
         518         519         524         523
         525         526         531         530
         526         527         532         531
         527         528         533         532
         528         529         534         533
         530         531         536         535
         531         532         537         536
         532         533         538         537
         533         534         539         538
         535         536         541         540
         536         537         542         541
         537         538         543         542
         538         539         544         543
         540         541         546         545
         541         542         547         546
         542         543         548         547
         543         544         549         548
         550         551         556         555
         551         552         557         556
         552         553         558         557
         553         554         559         558
         555         556         561         560
         556         557         562         561
         557         558         563         562
         558         559         564         563
         560         561         566         565
         561         562         567         566
         562         563         568         567
         563         564         569         568
         565         566         571         570
         566         567         572         571
         567         568         573         572
         568         569         574         573
         575         576         581         580
         576         577         582         581
         577         578         583         582
         578         579         584         583
         580         581         586         585
         581         582         587         586
         582         583         588         587
         583         584         589         588
         585         586         591         590
         586         587         592         591
         587         588         593         592
         588         589         594         593
         590         591         596         595
         591         592         597         596
         592         593         598         597
         593         594         599         598
         600         601         606         605
         601         602         607         606
         602         603         608         607
         603         604         609         608
         605         606         611         610
         606         607         612         611
         607         608         613         612
         608         609         614         613
         610         611         616         615
         611         612         617         616
         612         613         618         617
         613         614         619         618
         615         616         621         620
         616         617         622         621
         617         618         623         622
         618         619         624         623
         625         626         631         630
         626         627         632         631
         627         628         633         632
         628         629         634         633
         630         631         636         635
         631         632         637         636
         632         633         638         637
         633         634         639         638
         635         636         641         640
         636         637         642         641
         637         638         643         642
         638         639         644         643
         640         641         646         645
         641         642         647         646
         642         643         648         647
         643         644         649         648
         650         651         656         655
         651         652         657         656
         652         653         658         657
         653         654         659         658
         655         656         661         660
         656         657         662         661
         657         658         663         662
         658         659         664         663
         660         661         666         665
         661         662         667         666
         662         663         668         667
         663         664         669         668
         665         666         671         670
         666         667         672         671
         667         668         673         672
         668         669         674         673
         675         676         681         680
         676         677         682         681
         677         678         683         682
         678         679         684         683
         680         681         686         685
         681         682         687         686
         682         683         688         687
         683         684         689         688
         685         686         691         690
         686         687         692         691
         687         688         693         692
         688         689         694         693
         690         691         696         695
         691         692         697         696
         692         693         698         697
         693         694         699         698
         700         701         706         705
         701         702         707         706
         702         703         708         707
         703         704         709         708
         705         706         711         710
         706         707         712         711
         707         708         713         712
         708         709         714         713
         710         711         716         715
         711         712         717         716
         712         713         718         717
         713         714         719         718
         715         716         721         720
         716         717         722         721
         717         718         723         722
         718         719         724         723
         725         726         731         730
         726         727         732         731
         727         728         733         732
         728         729         734         733
         730         731         736         735
         731         732         737         736
         732         733         738         737
         733         734         739         738
         735         736         741         740
         736         737         742         741
         737         738         743         742
         738         739         744         743
         740         741         746         745
         741         742         747         746
         742         743         748         747
         743         744         749         748
         750         751         756         755
         751         752         757         756
         752         753         758         757
         753         754         759         758
         755         756         761         760
         756         757         762         761
         757         758         763         762
         758         759         764         763
         760         761         766         765
         761         762         767         766
         762         763         768         767
         763         764         769         768
         765         766         771         770
         766         767         772         771
         767         768         773         772
         768         769         774         773
         775         776         781         780
         776         777         782         781
         777         778         783         782
         778         779         784         783
         780         781         786         785
         781         782         787         786
         782         783         788         787
         783         784         789         788
         785         786         791         790
         786         787         792         791
         787         788         793         792
         788         789         794         793
         790         791         796         795
         791         792         797         796
         792         793         798         797
         793         794         799         798
         800         801         806         805
         801         802         807         806
         802         803         808         807
         803         804         809         808
         805         806         811         810
         806         807         812         811
         807         808         813         812
         808         809         814         813
         810         811         816         815
         811         812         817         816
         812         813         818         817
         813         814         819         818
         815         816         821         820
         816         817         822         821
         817         818         823         822
         818         819         824         823
         825         826         831         830
         826         827         832         831
         827         828         833         832
         828         829         834         833
         830         831         836         835
         831         832         837         836
         832         833         838         837
         833         834         839         838
         835         836         841         840
         836         837         842         841
         837         838         843         842
         838         839         844         843
         840         841         846         845
         841         842         847         846
         842         843         848         847
         843         844         849         848
         850         851         856         855
         851         852         857         856
         852         853         858         857
         853         854         859         858
         855         856         861         860
         856         857         862         861
         857         858         863         862
         858         859         864         863
         860         861         866         865
         861         862         867         866
         862         863         868         867
         863         864         869         868
         865         866         871         870
         866         867         872         871
         867         868         873         872
         868         869         874         873
         875         876         881         880
         876         877         882         881
         877         878         883         882
         878         879         884         883
         880         881         886         885
         881         882         887         886
         882         883         888         887
         883         884         889         888
         885         886         891         890
         886         887         892         891
         887         888         893         892
         888         889         894         893
         890         891         896         895
         891         892         897         896
         892         893         898         897
         893         894         899         898
         900         901         906         905
         901         902         907         906
         902         903         908         907
         903         904         909         908
         905         906         911         910
         906         907         912         911
         907         908         913         912
         908         909         914         913
         910         911         916         915
         911         912         917         916
         912         913         918         917
         913         914         919         918
         915         916         921         920
         916         917         922         921
         917         918         923         922
         918         919         924         923
         925         926         931         930
         926         927         932         931
         927         928         933         932
         928         929         934         933
         930         931         936         935
         931         932         937         936
         932         933         938         937
         933         934         939         938
         935         936         941         940
         936         937         942         941
         937         938         943         942
         938         939         944         943
         940         941         946         945
         941         942         947         946
         942         943         948         947
         943         944         949         948
         950         951         956         955
         951         952         957         956
         952         953         958         957
         953         954         959         958
         955         956         961         960
         956         957         962         961
         957         958         963         962
         958         959         964         963
         960         961         966         965
         961         962         967         966
         962         963         968         967
         963         964         969         968
         965         966         971         970
         966         967         972         971
         967         968         973         972
         968         969         974         973
         975         976         981         980
         976         977         982         981
         977         978         983         982
         978         979         984         983
         980         981         986         985
         981         982         987         986
         982         983         988         987
         983         984         989         988
         985         986         991         990
         986         987         992         991
         987         988         993         992
         988         989         994         993
         990         991         996         995
         991         992         997         996
         992         993         998         997
         993         994         999         998
        1000        1001        1006        1005
        1001        1002        1007        1006
        1002        1003        1008        1007
        1003        1004        1009        1008
        1005        1006        1011        1010
        1006        1007        1012        1011
        1007        1008        1013        1012
        1008        1009        1014        1013
        1010        1011        1016        1015
        1011        1012        1017        1016
        1012        1013        1018        1017
        1013        1014        1019        1018
        1015        1016        1021        1020
        1016        1017        1022        1021
        1017        1018        1023        1022
        1018        1019        1024        1023
        1025        1026        1031        1030
        1026        1027        1032        1031
        1027        1028        1033        1032
        1028        1029        1034        1033
        1030        1031        1036        1035
        1031        1032        1037        1036
        1032        1033        1038        1037
        1033        1034        1039        1038
        1035        1036        1041        1040
        1036        1037        1042        1041
        1037        1038        1043        1042
        1038        1039        1044        1043
        1040        1041        1046        1045
        1041        1042        1047        1046
        1042        1043        1048        1047
        1043        1044        1049        1048
        1050        1051        1056        1055
        1051        1052        1057        1056
        1052        1053        1058        1057
        1053        1054        1059        1058
        1055        1056        1061        1060
        1056        1057        1062        1061
        1057        1058        1063        1062
        1058        1059        1064        1063
        1060        1061        1066        1065
        1061        1062        1067        1066
        1062        1063        1068        1067
        1063        1064        1069        1068
        1065        1066        1071        1070
        1066        1067        1072        1071
        1067        1068        1073        1072
        1068        1069        1074        1073
        1075        1076        1081        1080
        1076        1077        1082        1081
        1077        1078        1083        1082
        1078        1079        1084        1083
        1080        1081        1086        1085
        1081        1082        1087        1086
        1082        1083        1088        1087
        1083        1084        1089        1088
        1085        1086        1091        1090
        1086        1087        1092        1091
        1087        1088        1093        1092
        1088        1089        1094        1093
        1090        1091        1096        1095
        1091        1092        1097        1096
        1092        1093        1098        1097
        1093        1094        1099        1098
        1100        1101        1106        1105
        1101        1102        1107        1106
        1102        1103        1108        1107
        1103        1104        1109        1108
        1105        1106        1111        1110
        1106        1107        1112        1111
        1107        1108        1113        1112
        1108        1109        1114        1113
        1110        1111        1116        1115
        1111        1112        1117        1116
        1112        1113        1118        1117
        1113        1114        1119        1118
        1115        1116        1121        1120
        1116        1117        1122        1121
        1117        1118        1123        1122
        1118        1119        1124        1123
        1125        1126        1131        1130
        1126        1127        1132        1131
        1127        1128        1133        1132
        1128        1129        1134        1133
        1130        1131        1136        1135
        1131        1132        1137        1136
        1132        1133        1138        1137
        1133        1134        1139        1138
        1135        1136        1141        1140
        1136        1137        1142        1141
        1137        1138        1143        1142
        1138        1139        1144        1143
        1140        1141        1146        1145
        1141        1142        1147        1146
        1142        1143        1148        1147
        1143        1144        1149        1148
        1150        1151        1156        1155
        1151        1152        1157        1156
        1152        1153        1158        1157
        1153        1154        1159        1158
        1155        1156        1161        1160
        1156        1157        1162        1161
        1157        1158        1163        1162
        1158        1159        1164        1163
        1160        1161        1166        1165
        1161        1162        1167        1166
        1162        1163        1168        1167
        1163        1164        1169        1168
        1165        1166        1171        1170
        1166        1167        1172        1171
        1167        1168        1173        1172
        1168        1169        1174        1173
        1175        1176        1181        1180
        1176        1177        1182        1181
        1177        1178        1183        1182
        1178        1179        1184        1183
        1180        1181        1186        1185
        1181        1182        1187        1186
        1182        1183        1188        1187
        1183        1184        1189        1188
        1185        1186        1191        1190
        1186        1187        1192        1191
        1187        1188        1193        1192
        1188        1189        1194        1193
        1190        1191        1196        1195
        1191        1192        1197        1196
        1192        1193        1198        1197
        1193        1194        1199        1198
        1200        1201        1206        1205
        1201        1202        1207        1206
        1202        1203        1208        1207
        1203        1204        1209        1208
        1205        1206        1211        1210
        1206        1207        1212        1211
        1207        1208        1213        1212
        1208        1209        1214        1213
        1210        1211        1216        1215
        1211        1212        1217        1216
        1212        1213        1218        1217
        1213        1214        1219        1218
        1215        1216        1221        1220
        1216        1217        1222        1221
        1217        1218        1223        1222
        1218        1219        1224        1223
        1225        1226        1231        1230
        1226        1227        1232        1231
        1227        1228        1233        1232
        1228        1229        1234        1233
        1230        1231        1236        1235
        1231        1232        1237        1236
        1232        1233        1238        1237
        1233        1234        1239        1238
        1235        1236        1241        1240
        1236        1237        1242        1241
        1237        1238        1243        1242
        1238        1239        1244        1243
        1240        1241        1246        1245
        1241        1242        1247        1246
        1242        1243        1248        1247
        1243        1244        1249        1248
        1250        1251        1256        1255
        1251        1252        1257        1256
        1252        1253        1258        1257
        1253        1254        1259        1258
        1255        1256        1261        1260
        1256        1257        1262        1261
        1257        1258        1263        1262
        1258        1259        1264        1263
        1260        1261        1266        1265
        1261        1262        1267        1266
        1262        1263        1268        1267
        1263        1264        1269        1268
        1265        1266        1271        1270
        1266        1267        1272        1271
        1267        1268        1273        1272
        1268        1269        1274        1273
        1275        1276        1281        1280
        1276        1277        1282        1281
        1277        1278        1283        1282
        1278        1279        1284        1283
        1280        1281        1286        1285
        1281        1282        1287        1286
        1282        1283        1288        1287
        1283        1284        1289        1288
        1285        1286        1291        1290
        1286        1287        1292        1291
        1287        1288        1293        1292
        1288        1289        1294        1293
        1290        1291        1296        1295
        1291        1292        1297        1296
        1292        1293        1298        1297
        1293        1294        1299        1298
        1300        1301        1306        1305
        1301        1302        1307        1306
        1302        1303        1308        1307
        1303        1304        1309        1308
        1305        1306        1311        1310
        1306        1307        1312        1311
        1307        1308        1313        1312
        1308        1309        1314        1313
        1310        1311        1316        1315
        1311        1312        1317        1316
        1312        1313        1318        1317
        1313        1314        1319        1318
        1315        1316        1321        1320
        1316        1317        1322        1321
        1317        1318        1323        1322
        1318        1319        1324        1323
        1325        1326        1331        1330
        1326        1327        1332        1331
        1327        1328        1333        1332
        1328        1329        1334        1333
        1330        1331        1336        1335
        1331        1332        1337        1336
        1332        1333        1338        1337
        1333        1334        1339        1338
        1335        1336        1341        1340
        1336        1337        1342        1341
        1337        1338        1343        1342
        1338        1339        1344        1343
        1340        1341        1346        1345
        1341        1342        1347        1346
        1342        1343        1348        1347
        1343        1344        1349        1348
        1350        1351        1356        1355
        1351        1352        1357        1356
        1352        1353        1358        1357
        1353        1354        1359        1358
        1355        1356        1361        1360
        1356        1357        1362        1361
        1357        1358        1363        1362
        1358        1359        1364        1363
        1360        1361        1366        1365
        1361        1362        1367        1366
        1362        1363        1368        1367
        1363        1364        1369        1368
        1365        1366        1371        1370
        1366        1367        1372        1371
        1367        1368        1373        1372
        1368        1369        1374        1373
        1375        1376        1381        1380
        1376        1377        1382        1381
        1377        1378        1383        1382
        1378        1379        1384        1383
        1380        1381        1386        1385
        1381        1382        1387        1386
        1382        1383        1388        1387
        1383        1384        1389        1388
        1385        1386        1391        1390
        1386        1387        1392        1391
        1387        1388        1393        1392
        1388        1389        1394        1393
        1390        1391        1396        1395
        1391        1392        1397        1396
        1392        1393        1398        1397
        1393        1394        1399        1398
        1400        1401        1406        1405
        1401        1402        1407        1406
        1402        1403        1408        1407
        1403        1404        1409        1408
        1405        1406        1411        1410
        1406        1407        1412        1411
        1407        1408        1413        1412
        1408        1409        1414        1413
        1410        1411        1416        1415
        1411        1412        1417        1416
        1412        1413        1418        1417
        1413        1414        1419        1418
        1415        1416        1421        1420
        1416        1417        1422        1421
        1417        1418        1423        1422
        1418        1419        1424        1423
        1425        1426        1431        1430
        1426        1427        1432        1431
        1427        1428        1433        1432
        1428        1429        1434        1433
        1430        1431        1436        1435
        1431        1432        1437        1436
        1432        1433        1438        1437
        1433        1434        1439        1438
        1435        1436        1441        1440
        1436        1437        1442        1441
        1437        1438        1443        1442
        1438        1439        1444        1443
        1440        1441        1446        1445
        1441        1442        1447        1446
        1442        1443        1448        1447
        1443        1444        1449        1448
        1450        1451        1456        1455
        1451        1452        1457        1456
        1452        1453        1458        1457
        1453        1454        1459        1458
        1455        1456        1461        1460
        1456        1457        1462        1461
        1457        1458        1463        1462
        1458        1459        1464        1463
        1460        1461        1466        1465
        1461        1462        1467        1466
        1462        1463        1468        1467
        1463        1464        1469        1468
        1465        1466        1471        1470
        1466        1467        1472        1471
        1467        1468        1473        1472
        1468        1469        1474        1473
        1475        1476        1481        1480
        1476        1477        1482        1481
        1477        1478        1483        1482
        1478        1479        1484        1483
        1480        1481        1486        1485
        1481        1482        1487        1486
        1482        1483        1488        1487
        1483        1484        1489        1488
        1485        1486        1491        1490
        1486        1487        1492        1491
        1487        1488        1493        1492
        1488        1489        1494        1493
        1490        1491        1496        1495
        1491        1492        1497        1496
        1492        1493        1498        1497
        1493        1494        1499        1498
        1500        1501        1506        1505
        1501        1502        1507        1506
        1502        1503        1508        1507
        1503        1504        1509        1508
        1505        1506        1511        1510
        1506        1507        1512        1511
        1507        1508        1513        1512
        1508        1509        1514        1513
        1510        1511        1516        1515
        1511        1512        1517        1516
        1512        1513        1518        1517
        1513        1514        1519        1518
        1515        1516        1521        1520
        1516        1517        1522        1521
        1517        1518        1523        1522
        1518        1519        1524        1523
        1525        1526        1531        1530
        1526        1527        1532        1531
        1527        1528        1533        1532
        1528        1529        1534        1533
        1530        1531        1536        1535
        1531        1532        1537        1536
        1532        1533        1538        1537
        1533        1534        1539        1538
        1535        1536        1541        1540
        1536        1537        1542        1541
        1537        1538        1543        1542
        1538        1539        1544        1543
        1540        1541        1546        1545
        1541        1542        1547        1546
        1542        1543        1548        1547
        1543        1544        1549        1548
        1550        1551        1556        1555
        1551        1552        1557        1556
        1552        1553        1558        1557
        1553        1554        1559        1558
        1555        1556        1561        1560
        1556        1557        1562        1561
        1557        1558        1563        1562
        1558        1559        1564        1563
        1560        1561        1566        1565
        1561        1562        1567        1566
        1562        1563        1568        1567
        1563        1564        1569        1568
        1565        1566        1571        1570
        1566        1567        1572        1571
        1567        1568        1573        1572
        1568        1569        1574        1573
        1575        1576        1581        1580
        1576        1577        1582        1581
        1577        1578        1583        1582
        1578        1579        1584        1583
        1580        1581        1586        1585
        1581        1582        1587        1586
        1582        1583        1588        1587
        1583        1584        1589        1588
        1585        1586        1591        1590
        1586        1587        1592        1591
        1587        1588        1593        1592
        1588        1589        1594        1593
        1590        1591        1596        1595
        1591        1592        1597        1596
        1592        1593        1598        1597
        1593        1594        1599        1598
 </DataArray>
 <DataArray  type="Int32"  Name="offsets"  format="ascii"> 
           4
           8
          12
          16
          20
          24
          28
          32
          36
          40
          44
          48
          52
          56
          60
          64
          68
          72
          76
          80
          84
          88
          92
          96
         100
         104
         108
         112
         116
         120
         124
         128
         132
         136
         140
         144
         148
         152
         156
         160
         164
         168
         172
         176
         180
         184
         188
         192
         196
         200
         204
         208
         212
         216
         220
         224
         228
         232
         236
         240
         244
         248
         252
         256
         260
         264
         268
         272
         276
         280
         284
         288
         292
         296
         300
         304
         308
         312
         316
         320
         324
         328
         332
         336
         340
         344
         348
         352
         356
         360
         364
         368
         372
         376
         380
         384
         388
         392
         396
         400
         404
         408
         412
         416
         420
         424
         428
         432
         436
         440
         444
         448
         452
         456
         460
         464
         468
         472
         476
         480
         484
         488
         492
         496
         500
         504
         508
         512
         516
         520
         524
         528
         532
         536
         540
         544
         548
         552
         556
         560
         564
         568
         572
         576
         580
         584
         588
         592
         596
         600
         604
         608
         612
         616
         620
         624
         628
         632
         636
         640
         644
         648
         652
         656
         660
         664
         668
         672
         676
         680
         684
         688
         692
         696
         700
         704
         708
         712
         716
         720
         724
         728
         732
         736
         740
         744
         748
         752
         756
         760
         764
         768
         772
         776
         780
         784
         788
         792
         796
         800
         804
         808
         812
         816
         820
         824
         828
         832
         836
         840
         844
         848
         852
         856
         860
         864
         868
         872
         876
         880
         884
         888
         892
         896
         900
         904
         908
         912
         916
         920
         924
         928
         932
         936
         940
         944
         948
         952
         956
         960
         964
         968
         972
         976
         980
         984
         988
         992
         996
        1000
        1004
        1008
        1012
        1016
        1020
        1024
        1028
        1032
        1036
        1040
        1044
        1048
        1052
        1056
        1060
        1064
        1068
        1072
        1076
        1080
        1084
        1088
        1092
        1096
        1100
        1104
        1108
        1112
        1116
        1120
        1124
        1128
        1132
        1136
        1140
        1144
        1148
        1152
        1156
        1160
        1164
        1168
        1172
        1176
        1180
        1184
        1188
        1192
        1196
        1200
        1204
        1208
        1212
        1216
        1220
        1224
        1228
        1232
        1236
        1240
        1244
        1248
        1252
        1256
        1260
        1264
        1268
        1272
        1276
        1280
        1284
        1288
        1292
        1296
        1300
        1304
        1308
        1312
        1316
        1320
        1324
        1328
        1332
        1336
        1340
        1344
        1348
        1352
        1356
        1360
        1364
        1368
        1372
        1376
        1380
        1384
        1388
        1392
        1396
        1400
        1404
        1408
        1412
        1416
        1420
        1424
        1428
        1432
        1436
        1440
        1444
        1448
        1452
        1456
        1460
        1464
        1468
        1472
        1476
        1480
        1484
        1488
        1492
        1496
        1500
        1504
        1508
        1512
        1516
        1520
        1524
        1528
        1532
        1536
        1540
        1544
        1548
        1552
        1556
        1560
        1564
        1568
        1572
        1576
        1580
        1584
        1588
        1592
        1596
        1600
        1604
        1608
        1612
        1616
        1620
        1624
        1628
        1632
        1636
        1640
        1644
        1648
        1652
        1656
        1660
        1664
        1668
        1672
        1676
        1680
        1684
        1688
        1692
        1696
        1700
        1704
        1708
        1712
        1716
        1720
        1724
        1728
        1732
        1736
        1740
        1744
        1748
        1752
        1756
        1760
        1764
        1768
        1772
        1776
        1780
        1784
        1788
        1792
        1796
        1800
        1804
        1808
        1812
        1816
        1820
        1824
        1828
        1832
        1836
        1840
        1844
        1848
        1852
        1856
        1860
        1864
        1868
        1872
        1876
        1880
        1884
        1888
        1892
        1896
        1900
        1904
        1908
        1912
        1916
        1920
        1924
        1928
        1932
        1936
        1940
        1944
        1948
        1952
        1956
        1960
        1964
        1968
        1972
        1976
        1980
        1984
        1988
        1992
        1996
        2000
        2004
        2008
        2012
        2016
        2020
        2024
        2028
        2032
        2036
        2040
        2044
        2048
        2052
        2056
        2060
        2064
        2068
        2072
        2076
        2080
        2084
        2088
        2092
        2096
        2100
        2104
        2108
        2112
        2116
        2120
        2124
        2128
        2132
        2136
        2140
        2144
        2148
        2152
        2156
        2160
        2164
        2168
        2172
        2176
        2180
        2184
        2188
        2192
        2196
        2200
        2204
        2208
        2212
        2216
        2220
        2224
        2228
        2232
        2236
        2240
        2244
        2248
        2252
        2256
        2260
        2264
        2268
        2272
        2276
        2280
        2284
        2288
        2292
        2296
        2300
        2304
        2308
        2312
        2316
        2320
        2324
        2328
        2332
        2336
        2340
        2344
        2348
        2352
        2356
        2360
        2364
        2368
        2372
        2376
        2380
        2384
        2388
        2392
        2396
        2400
        2404
        2408
        2412
        2416
        2420
        2424
        2428
        2432
        2436
        2440
        2444
        2448
        2452
        2456
        2460
        2464
        2468
        2472
        2476
        2480
        2484
        2488
        2492
        2496
        2500
        2504
        2508
        2512
        2516
        2520
        2524
        2528
        2532
        2536
        2540
        2544
        2548
        2552
        2556
        2560
        2564
        2568
        2572
        2576
        2580
        2584
        2588
        2592
        2596
        2600
        2604
        2608
        2612
        2616
        2620
        2624
        2628
        2632
        2636
        2640
        2644
        2648
        2652
        2656
        2660
        2664
        2668
        2672
        2676
        2680
        2684
        2688
        2692
        2696
        2700
        2704
        2708
        2712
        2716
        2720
        2724
        2728
        2732
        2736
        2740
        2744
        2748
        2752
        2756
        2760
        2764
        2768
        2772
        2776
        2780
        2784
        2788
        2792
        2796
        2800
        2804
        2808
        2812
        2816
        2820
        2824
        2828
        2832
        2836
        2840
        2844
        2848
        2852
        2856
        2860
        2864
        2868
        2872
        2876
        2880
        2884
        2888
        2892
        2896
        2900
        2904
        2908
        2912
        2916
        2920
        2924
        2928
        2932
        2936
        2940
        2944
        2948
        2952
        2956
        2960
        2964
        2968
        2972
        2976
        2980
        2984
        2988
        2992
        2996
        3000
        3004
        3008
        3012
        3016
        3020
        3024
        3028
        3032
        3036
        3040
        3044
        3048
        3052
        3056
        3060
        3064
        3068
        3072
        3076
        3080
        3084
        3088
        3092
        3096
        3100
        3104
        3108
        3112
        3116
        3120
        3124
        3128
        3132
        3136
        3140
        3144
        3148
        3152
        3156
        3160
        3164
        3168
        3172
        3176
        3180
        3184
        3188
        3192
        3196
        3200
        3204
        3208
        3212
        3216
        3220
        3224
        3228
        3232
        3236
        3240
        3244
        3248
        3252
        3256
        3260
        3264
        3268
        3272
        3276
        3280
        3284
        3288
        3292
        3296
        3300
        3304
        3308
        3312
        3316
        3320
        3324
        3328
        3332
        3336
        3340
        3344
        3348
        3352
        3356
        3360
        3364
        3368
        3372
        3376
        3380
        3384
        3388
        3392
        3396
        3400
        3404
        3408
        3412
        3416
        3420
        3424
        3428
        3432
        3436
        3440
        3444
        3448
        3452
        3456
        3460
        3464
        3468
        3472
        3476
        3480
        3484
        3488
        3492
        3496
        3500
        3504
        3508
        3512
        3516
        3520
        3524
        3528
        3532
        3536
        3540
        3544
        3548
        3552
        3556
        3560
        3564
        3568
        3572
        3576
        3580
        3584
        3588
        3592
        3596
        3600
        3604
        3608
        3612
        3616
        3620
        3624
        3628
        3632
        3636
        3640
        3644
        3648
        3652
        3656
        3660
        3664
        3668
        3672
        3676
        3680
        3684
        3688
        3692
        3696
        3700
        3704
        3708
        3712
        3716
        3720
        3724
        3728
        3732
        3736
        3740
        3744
        3748
        3752
        3756
        3760
        3764
        3768
        3772
        3776
        3780
        3784
        3788
        3792
        3796
        3800
        3804
        3808
        3812
        3816
        3820
        3824
        3828
        3832
        3836
        3840
        3844
        3848
        3852
        3856
        3860
        3864
        3868
        3872
        3876
        3880
        3884
        3888
        3892
        3896
        3900
        3904
        3908
        3912
        3916
        3920
        3924
        3928
        3932
        3936
        3940
        3944
        3948
        3952
        3956
        3960
        3964
        3968
        3972
        3976
        3980
        3984
        3988
        3992
        3996
        4000
        4004
        4008
        4012
        4016
        4020
        4024
        4028
        4032
        4036
        4040
        4044
        4048
        4052
        4056
        4060
        4064
        4068
        4072
        4076
        4080
        4084
        4088
        4092
        4096
 </DataArray>
 <DataArray  type="UInt8"  Name="types"  format="ascii">
 9
 9
 9
 9
 9
 9
 9
 9
 9
 9
 9
 9
 9
 9
 9
 9
 9
 9
 9
 9
 9
 9
 9
 9
 9
 9
 9
 9
 9
 9
 9
 9
 9
 9
 9
 9
 9
 9
 9
 9
 9
 9
 9
 9
 9
 9
 9
 9
 9
 9
 9
 9
 9
 9
 9
 9
 9
 9
 9
 9
 9
 9
 9
 9
 9
 9
 9
 9
 9
 9
 9
 9
 9
 9
 9
 9
 9
 9
 9
 9
 9
 9
 9
 9
 9
 9
 9
 9
 9
 9
 9
 9
 9
 9
 9
 9
 9
 9
 9
 9
 9
 9
 9
 9
 9
 9
 9
 9
 9
 9
 9
 9
 9
 9
 9
 9
 9
 9
 9
 9
 9
 9
 9
 9
 9
 9
 9
 9
 9
 9
 9
 9
 9
 9
 9
 9
 9
 9
 9
 9
 9
 9
 9
 9
 9
 9
 9
 9
 9
 9
 9
 9
 9
 9
 9
 9
 9
 9
 9
 9
 9
 9
 9
 9
 9
 9
 9
 9
 9
 9
 9
 9
 9
 9
 9
 9
 9
 9
 9
 9
 9
 9
 9
 9
 9
 9
 9
 9
 9
 9
 9
 9
 9
 9
 9
 9
 9
 9
 9
 9
 9
 9
 9
 9
 9
 9
 9
 9
 9
 9
 9
 9
 9
 9
 9
 9
 9
 9
 9
 9
 9
 9
 9
 9
 9
 9
 9
 9
 9
 9
 9
 9
 9
 9
 9
 9
 9
 9
 9
 9
 9
 9
 9
 9
 9
 9
 9
 9
 9
 9
 9
 9
 9
 9
 9
 9
 9
 9
 9
 9
 9
 9
 9
 9
 9
 9
 9
 9
 9
 9
 9
 9
 9
 9
 9
 9
 9
 9
 9
 9
 9
 9
 9
 9
 9
 9
 9
 9
 9
 9
 9
 9
 9
 9
 9
 9
 9
 9
 9
 9
 9
 9
 9
 9
 9
 9
 9
 9
 9
 9
 9
 9
 9
 9
 9
 9
 9
 9
 9
 9
 9
 9
 9
 9
 9
 9
 9
 9
 9
 9
 9
 9
 9
 9
 9
 9
 9
 9
 9
 9
 9
 9
 9
 9
 9
 9
 9
 9
 9
 9
 9
 9
 9
 9
 9
 9
 9
 9
 9
 9
 9
 9
 9
 9
 9
 9
 9
 9
 9
 9
 9
 9
 9
 9
 9
 9
 9
 9
 9
 9
 9
 9
 9
 9
 9
 9
 9
 9
 9
 9
 9
 9
 9
 9
 9
 9
 9
 9
 9
 9
 9
 9
 9
 9
 9
 9
 9
 9
 9
 9
 9
 9
 9
 9
 9
 9
 9
 9
 9
 9
 9
 9
 9
 9
 9
 9
 9
 9
 9
 9
 9
 9
 9
 9
 9
 9
 9
 9
 9
 9
 9
 9
 9
 9
 9
 9
 9
 9
 9
 9
 9
 9
 9
 9
 9
 9
 9
 9
 9
 9
 9
 9
 9
 9
 9
 9
 9
 9
 9
 9
 9
 9
 9
 9
 9
 9
 9
 9
 9
 9
 9
 9
 9
 9
 9
 9
 9
 9
 9
 9
 9
 9
 9
 9
 9
 9
 9
 9
 9
 9
 9
 9
 9
 9
 9
 9
 9
 9
 9
 9
 9
 9
 9
 9
 9
 9
 9
 9
 9
 9
 9
 9
 9
 9
 9
 9
 9
 9
 9
 9
 9
 9
 9
 9
 9
 9
 9
 9
 9
 9
 9
 9
 9
 9
 9
 9
 9
 9
 9
 9
 9
 9
 9
 9
 9
 9
 9
 9
 9
 9
 9
 9
 9
 9
 9
 9
 9
 9
 9
 9
 9
 9
 9
 9
 9
 9
 9
 9
 9
 9
 9
 9
 9
 9
 9
 9
 9
 9
 9
 9
 9
 9
 9
 9
 9
 9
 9
 9
 9
 9
 9
 9
 9
 9
 9
 9
 9
 9
 9
 9
 9
 9
 9
 9
 9
 9
 9
 9
 9
 9
 9
 9
 9
 9
 9
 9
 9
 9
 9
 9
 9
 9
 9
 9
 9
 9
 9
 9
 9
 9
 9
 9
 9
 9
 9
 9
 9
 9
 9
 9
 9
 9
 9
 9
 9
 9
 9
 9
 9
 9
 9
 9
 9
 9
 9
 9
 9
 9
 9
 9
 9
 9
 9
 9
 9
 9
 9
 9
 9
 9
 9
 9
 9
 9
 9
 9
 9
 9
 9
 9
 9
 9
 9
 9
 9
 9
 9
 9
 9
 9
 9
 9
 9
 9
 9
 9
 9
 9
 9
 9
 9
 9
 9
 9
 9
 9
 9
 9
 9
 9
 9
 9
 9
 9
 9
 9
 9
 9
 9
 9
 9
 9
 9
 9
 9
 9
 9
 9
 9
 9
 9
 9
 9
 9
 9
 9
 9
 9
 9
 9
 9
 9
 9
 9
 9
 9
 9
 9
 9
 9
 9
 9
 9
 9
 9
 9
 9
 9
 9
 9
 9
 9
 9
 9
 9
 9
 9
 9
 9
 9
 9
 9
 9
 9
 9
 9
 9
 9
 9
 9
 9
 9
 9
 9
 9
 9
 9
 9
 9
 9
 9
 9
 9
 9
 9
 9
 9
 9
 9
 9
 9
 9
 9
 9
 9
 9
 9
 9
 9
 9
 9
 9
 9
 9
 9
 9
 9
 9
 9
 9
 9
 9
 9
 9
 9
 9
 9
 9
 9
 9
 9
 9
 9
 9
 9
 9
 9
 9
 9
 9
 9
 9
 9
 9
 9
 9
 9
 9
 9
 9
 9
 9
 9
 9
 9
 9
 9
 9
 9
 9
 9
 9
 9
 9
 9
 9
 9
 9
 9
 9
 9
 9
 9
 9
 9
 9
 9
 9
 9
 9
 9
 9
 9
 9
 9
 9
 9
 9
 9
 9
 9
 9
 9
 9
 9
 9
 9
 9
 9
 9
 9
 9
 9
 9
 9
 9
 9
 9
 9
 9
 9
 9
 9
 9
 9
 9
 9
 9
 9
 9
 9
 9
 9
 9
 9
 9
 9
 9
 9
 9
 9
 9
 9
 9
 9
 9
 9
 9
 9
 9
 9
 9
 9
 9
 9
 9
 9
 9
 9
 9
 9
 9
 9
 9
 9
 9
 9
 9
 9
 9
 9
 9
 9
 9
 9
 9
 9
 9
 9
 9
 9
 9
 9
 9
 9
 9
 9
 9
 9
 9
 9
 9
 9
 9
 9
 9
 9
 9
 9
 9
 9
 9
 9
 9
 9
 9
 9
 9
 9
 9
 9
 9
 9
 9
 9
 9
 9
 9
 9
 9
 9
 9
 9
 9
 </DataArray>
 </Cells> 
 <PointData>
 <DataArray  type="Float64" Name="disp" NumberOfComponents="3" format="ascii">
   0.0000000000000000        0.0000000000000000        0.0000000000000000     
   7.9366768228720909E-008   4.7199587611932107E-008   0.0000000000000000     
   1.4800382198757201E-007   8.3747901923091743E-008   0.0000000000000000     
   2.0955964047447545E-007   1.1393916369783919E-007   0.0000000000000000     
   2.6768270288735365E-007   1.4206759370053482E-007   0.0000000000000000     
   0.0000000000000000        0.0000000000000000        0.0000000000000000     
   6.1062674178406120E-008   3.3071213189928130E-008   0.0000000000000000     
   1.2142164791512003E-007   6.4326433648973919E-008   0.0000000000000000     
   1.8079818424406154E-007   9.4600213666238415E-008   0.0000000000000000     
   2.3891354619915043E-007   1.2472710553082262E-007   0.0000000000000000     
   0.0000000000000000        0.0000000000000000        0.0000000000000000     
   5.0273375165456749E-008   2.3669410389495819E-008   0.0000000000000000     
   1.0375192609487989E-007   5.0184713459480057E-008   0.0000000000000000     
   1.5882468046516903E-007   7.8806448628100786E-008   0.0000000000000000     
   2.1388066595322381E-007   1.0879515531350607E-007   0.0000000000000000     
   0.0000000000000000        0.0000000000000000        0.0000000000000000     
   4.4359638287898272E-008   1.7656893482763778E-008   0.0000000000000000     
   9.2053007954744459E-008   4.0032337961743763E-008   0.0000000000000000     
   1.4169996595597762E-007   6.6028313083360494E-008   0.0000000000000000     
   1.9192036924703682E-007   9.4546798494034602E-008   0.0000000000000000     
   0.0000000000000000        0.0000000000000000        0.0000000000000000     
   4.0682230643756191E-008   1.3696376741860636E-008   0.0000000000000000     
   8.3383244922606614E-008   3.2578903762898616E-008   0.0000000000000000     
   1.2748487753466687E-007   5.5736251531951727E-008   0.0000000000000000     
   1.7236896317805254E-007   8.2257090517857722E-008   0.0000000000000000     
   2.6768270288735365E-007   1.4206759370053482E-007   0.0000000000000000     
   3.2538979745596428E-007   1.7174114630703759E-007   0.0000000000000000     
   3.8317094853740842E-007   2.0382271033920151E-007   0.0000000000000000     
   4.4088448952062228E-007   2.3848890823037917E-007   0.0000000000000000     
   4.9838875379454246E-007   2.7591636241392333E-007   0.0000000000000000     
   2.3891354619915043E-007   1.2472710553082262E-007   0.0000000000000000     
   2.9559339390917620E-007   1.5551711777602038E-007   0.0000000000000000     
   3.5108097588240651E-007   1.8768208391189612E-007   0.0000000000000000     
   4.0572393772197822E-007   2.2190929369270692E-007   0.0000000000000000     
   4.5986992503102850E-007   2.5888603687271004E-007   0.0000000000000000     
   2.1388066595322381E-007   1.0879515531350607E-007   0.0000000000000000     
   2.6763596255024546E-007   1.3965346601614485E-007   0.0000000000000000     
   3.2011485950464171E-007   1.7185238556566953E-007   0.0000000000000000     
   3.7166869837912171E-007   2.0610501187403333E-007   0.0000000000000000     
   4.2264882073639498E-007   2.4312444285318954E-007   0.0000000000000000     
   1.9192036924703682E-007   9.4546798494034602E-008   0.0000000000000000     
   2.4158054621354864E-007   1.2475068625586009E-007   0.0000000000000000     
   2.9053271096189006E-007   1.5684651809362491E-007   0.0000000000000000     
   3.3887554902862598E-007   1.9130174814779061E-007   0.0000000000000000     
   3.8670774595032096E-007   2.2858383055881850E-007   0.0000000000000000     
   1.7236896317805254E-007   8.2257090517857722E-008   0.0000000000000000     
   2.1749018773346241E-007   1.1140927372361512E-007   0.0000000000000000     
   2.6259464181192790E-007   1.4317738428886545E-007   0.0000000000000000     
   3.0750126720706383E-007   1.7772518788741098E-007   0.0000000000000000     
   3.5202900571248489E-007   2.1521645019305398E-007   0.0000000000000000     
   4.9838875379454246E-007   2.7591636241392333E-007   0.0000000000000000     
   5.5556466265941086E-007   3.1627251484775163E-007   0.0000000000000000     
   6.1238348906069265E-007   3.5968808558804315E-007   0.0000000000000000     
   6.6883909385515757E-007   4.0628461421554147E-007   0.0000000000000000     
   7.2492533789957667E-007   4.5618364031099092E-007   0.0000000000000000     
   4.5986992503102850E-007   2.5888603687271004E-007   0.0000000000000000     
   5.1379344187754454E-007   2.9917535239502857E-007   0.0000000000000000     
   5.6747642618891397E-007   3.4284327595824889E-007   0.0000000000000000     
   6.2082767435737417E-007   3.8983159244982335E-007   0.0000000000000000     
   6.7375598277516305E-007   4.4008208675720431E-007   0.0000000000000000     
   4.2264882073639498E-007   2.4312444285318954E-007   0.0000000000000000     
   4.7333635123322033E-007   2.8349314886419340E-007   0.0000000000000000     
   5.2373154690255579E-007   3.2727109006450916E-007   0.0000000000000000     
   5.7376444787140876E-007   3.7438759906070270E-007   0.0000000000000000     
   6.2336509426678694E-007   4.2477200845934045E-007   0.0000000000000000     
   3.8670774595032096E-007   2.2858383055881850E-007   0.0000000000000000     
   4.3411152040797455E-007   2.6908267460426058E-007   0.0000000000000000     
   4.8110322366032749E-007   3.1287801011003039E-007   0.0000000000000000     
   5.2768274011055581E-007   3.5997202203913254E-007   0.0000000000000000     
   5.7384995416183545E-007   4.1036689535457112E-007   0.0000000000000000     
   3.5202900571248489E-007   2.1521645019305398E-007   0.0000000000000000     
   3.9603707908334300E-007   2.5580069996424404E-007   0.0000000000000000     
   4.3954582892093874E-007   2.9957051829801944E-007   0.0000000000000000     
   4.8261587678810999E-007   3.4660424937606569E-007   0.0000000000000000     
   5.2530784424769472E-007   3.9698023738006888E-007   0.0000000000000000     
   7.2492533789957667E-007   4.5618364031099092E-007   0.0000000000000000     
   7.8063666473329506E-007   5.0948313717663144E-007   0.0000000000000000     
   8.3596984862596086E-007   5.6618681300068810E-007   0.0000000000000000     
   8.9092224652979553E-007   6.2627480969288199E-007   0.0000000000000000     
   9.4549121539702223E-007   6.8972726916293395E-007   0.0000000000000000     
   6.7375598277516305E-007   4.4008208675720431E-007   0.0000000000000000     
   7.2619262192854287E-007   4.9355666232907817E-007   0.0000000000000000     
   7.7815875867987673E-007   5.5029769685906701E-007   0.0000000000000000     
   8.2969803398555188E-007   6.1036768660202676E-007   0.0000000000000000     
   8.8085408880195651E-007   6.7382912781281345E-007   0.0000000000000000     
   6.2336509426678694E-007   4.2477200845934045E-007   0.0000000000000000     
   6.7248140757218592E-007   4.7837615173529939E-007   0.0000000000000000     
   7.2113283469705492E-007   5.3524186583670138E-007   0.0000000000000000     
   7.6935670390732989E-007   5.9543348857997900E-007   0.0000000000000000     
   8.1719034346894889E-007   6.5901535778156574E-007   0.0000000000000000     
   5.7384995416183545E-007   4.1036689535457112E-007   0.0000000000000000     
   6.1960567571862657E-007   4.6406851871462896E-007   0.0000000000000000     
   6.6495441669053219E-007   5.2109759555870255E-007   0.0000000000000000     
   7.0990161448843901E-007   5.8147853302146722E-007   0.0000000000000000     
   7.5445270652323417E-007   6.4523573823759806E-007   0.0000000000000000     
   5.2530784424769472E-007   3.9698023738006888E-007   0.0000000000000000     
   5.6766808042226723E-007   4.5076067658640103E-007   0.0000000000000000     
   6.0968584467334616E-007   5.0794316165018208E-007   0.0000000000000000     
   6.5133612392218740E-007   5.6850913732121887E-007   0.0000000000000000     
   6.9259390509004634E-007   6.3244004834931827E-007   0.0000000000000000     
   9.4549121539702223E-007   6.8972726916293395E-007   0.0000000000000000     
   9.9967021376185466E-007   7.5652600571977268E-007   0.0000000000000000     
   1.0534371064864757E-006   8.2665952326915709E-007   0.0000000000000000     
   1.1067658600150581E-006   9.0011799811605297E-007   0.0000000000000000     
   1.1596304407917759E-006   9.7689160656542643E-007   0.0000000000000000     
   8.8085408880195651E-007   6.7382912781281345E-007   0.0000000000000000     
   9.3165783346110890E-007   7.4072581411659684E-007   0.0000000000000000     
   9.8208925579755222E-007   8.1102672861979986E-007   0.0000000000000000     
   1.0321156130214596E-006   8.8468215179915867E-007   0.0000000000000000     
   1.0817041623430047E-006   9.6164236413141015E-007   0.0000000000000000     
   8.1719034346894889E-007   6.5901535778156574E-007   0.0000000000000000     
   8.6466161557984927E-007   7.2603289890404475E-007   0.0000000000000000     
   9.1176051816597264E-007   7.9645588799460428E-007   0.0000000000000000     
   9.5846758308526154E-007   8.7023518874658204E-007   0.0000000000000000     
   1.0047633421956594E-006   9.4732166485331787E-007   0.0000000000000000     
   7.5445270652323417E-007   6.4523573823759806E-007   0.0000000000000000     
   7.9861250685680613E-007   7.1238480035943163E-007   0.0000000000000000     
   8.4238333615504989E-007   7.8290603660995015E-007   0.0000000000000000     
   8.8576689173486230E-007   8.5677094622979734E-007   0.0000000000000000     
   9.2876487091313862E-007   9.3395102845961659E-007   0.0000000000000000     
   6.9259390509004634E-007   6.3244004834931827E-007   0.0000000000000000     
   7.3344145403071094E-007   6.9971905876007310E-007   0.0000000000000000     
   7.7389015232809818E-007   7.7033620968221877E-007   0.0000000000000000     
   8.1395866049865796E-007   8.4428326152027840E-007   0.0000000000000000     
   8.5366563905884089E-007   9.2155197467877425E-007   0.0000000000000000     
   1.1596304407917759E-006   9.7689160656542643E-007   0.0000000000000000     
   1.2120105748972093E-006   1.0569661730657240E-006   0.0000000000000000     
   1.2639090269575663E-006   1.1403101146393157E-006   0.0000000000000000     
   1.3153343212354601E-006   1.2268874964520507E-006   0.0000000000000000     
   1.3662949819935051E-006   1.3166623836697797E-006   0.0000000000000000     
   1.0817041623430047E-006   9.6164236413141015E-007   0.0000000000000000     
   1.1308292948144182E-006   1.0418632130961728E-006   0.0000000000000000     
   1.1794939368561558E-006   1.1253228141845939E-006   0.0000000000000000     
   1.2277081487307305E-006   1.2120048498907033E-006   0.0000000000000000     
   1.2754819907006549E-006   1.3018930027085310E-006   0.0000000000000000     
   1.0047633421956594E-006   9.4732166485331787E-007   0.0000000000000000     
   1.0506323194521800E-006   1.0276714843300966E-006   0.0000000000000000     
   1.0960750071981255E-006   1.1112620324799938E-006   0.0000000000000000     
   1.1410958898738682E-006   1.1980759989280305E-006   0.0000000000000000     
   1.1856994519197822E-006   1.2880960732992297E-006   0.0000000000000000     
   9.2876487091313862E-007   9.3395102845961659E-007   0.0000000000000000     
   9.7137811516297088E-007   1.0144178266121408E-006   0.0000000000000000     
   1.0136040425822318E-006   1.0981430602884624E-006   0.0000000000000000     
   1.0554392154249894E-006   1.1850984931617624E-006   0.0000000000000000     
   1.0968801959453115E-006   1.2752558889052217E-006   0.0000000000000000     
   8.5366563905884089E-007   9.2155197467877425E-007   0.0000000000000000     
   8.9302514829926619E-007   1.0021290797869517E-006   0.0000000000000000     
   9.3203284760723259E-007   1.0859811883729486E-006   0.0000000000000000     
   9.7067979614420933E-007   1.1730698821896281E-006   0.0000000000000000     
   1.0089570530716657E-006   1.2633567429898516E-006   0.0000000000000000     
   1.3662949819935051E-006   1.3166623836697797E-006   0.0000000000000000     
   1.4167962542333278E-006   1.4096008327554063E-006   0.0000000000000000     
   1.4668302659126097E-006   1.5056768653600545E-006   0.0000000000000000     
   1.5163858657280433E-006   1.6048664944319018E-006   0.0000000000000000     
   1.5654519023763222E-006   1.7071457329191246E-006   0.0000000000000000     
   1.2754819907006549E-006   1.3018930027085310E-006   0.0000000000000000     
   1.3228224131180234E-006   1.3949677168929724E-006   0.0000000000000000     
   1.3697239266932553E-006   1.4911964837423882E-006   0.0000000000000000     
   1.4161779322263521E-006   1.5905435563160042E-006   0.0000000000000000     
   1.4621758305173158E-006   1.6929731876730479E-006   0.0000000000000000     
   1.1856994519197822E-006   1.2880960732992297E-006   0.0000000000000000     
   1.2298888210206410E-006   1.3813019531825312E-006   0.0000000000000000     
   1.2736616978388202E-006   1.4776613680225481E-006   0.0000000000000000     
   1.3170144262810950E-006   1.5771390552278095E-006   0.0000000000000000     
   1.3599433502542433E-006   1.6796997522068483E-006   0.0000000000000000     
   1.0968801959453115E-006   1.2752558889052217E-006   0.0000000000000000     
   1.1379243885810861E-006   1.3685868877637032E-006   0.0000000000000000     
   1.1785725665054890E-006   1.4650626362688003E-006   0.0000000000000000     
   1.2188263450755147E-006   1.5646541575237849E-006   0.0000000000000000     
   1.2586873396481583E-006   1.6673324746319319E-006   0.0000000000000000     
   1.0089570530716657E-006   1.2633567429898516E-006   0.0000000000000000     
   1.0468580264392650E-006   1.3568058667761106E-006   0.0000000000000000     
   1.0843855198494483E-006   1.4533914065494134E-006   0.0000000000000000     
   1.1215446857928525E-006   1.5530900295603982E-006   0.0000000000000000     
   1.1583406767601138E-006   1.6558784030597035E-006   0.0000000000000000     
   1.5654519023763222E-006   1.7071457329191246E-006   0.0000000000000000     
   1.6140206928720232E-006   1.8124880104949736E-006   0.0000000000000000     
   1.6620984275012553E-006   1.9208564237329864E-006   0.0000000000000000     
   1.7096947648680112E-006   2.0322114859317734E-006   0.0000000000000000     
   1.7568193635762838E-006   2.1465137103899453E-006   0.0000000000000000     
   1.4621758305173158E-006   1.6929731876730479E-006   0.0000000000000000     
   1.5077113285403909E-006   1.7984510871518607E-006   0.0000000000000000     
   1.5527873579667970E-006   1.9069487892072469E-006   0.0000000000000000     
   1.5974091566419982E-006   2.0184392845731273E-006   0.0000000000000000     
   1.6415819624114578E-006   2.1328955639834205E-006   0.0000000000000000     
   1.3599433502542433E-006   1.6796997522068483E-006   0.0000000000000000     
   1.4024455590350863E-006   1.7853095333260787E-006   0.0000000000000000     
   1.4445211233806242E-006   1.8939398207834496E-006   0.0000000000000000     
   1.4861708594179044E-006   2.0055633737347930E-006   0.0000000000000000     
   1.5273955832739744E-006   2.1201529513359449E-006   0.0000000000000000     
   1.2586873396481583E-006   1.6673324746319319E-006   0.0000000000000000     
   1.2981564484037852E-006   1.7730678712812088E-006   0.0000000000000000     
   1.3372317008162366E-006   1.8818276734983650E-006   0.0000000000000000     
   1.3759104091827241E-006   1.9935784678948426E-006   0.0000000000000000     
   1.4141898858004584E-006   2.1082868410820858E-006   0.0000000000000000     
   1.1583406767601138E-006   1.6558784030597035E-006   0.0000000000000000     
   1.1947770606941657E-006   1.7617306232808342E-006   0.0000000000000000     
   1.2308510673471361E-006   1.8706105023887669E-006   0.0000000000000000     
   1.2665583419234504E-006   1.9824792815313457E-006   0.0000000000000000     
   1.3018945296275338E-006   2.0972982018564138E-006   0.0000000000000000     
   0.0000000000000000        0.0000000000000000        0.0000000000000000     
   4.0682230643756191E-008   1.3696376741860636E-008   0.0000000000000000     
   8.3383244922606614E-008   3.2578903762898616E-008   0.0000000000000000     
   1.2748487753466687E-007   5.5736251531951727E-008   0.0000000000000000     
   1.7236896317805254E-007   8.2257090517857722E-008   0.0000000000000000     
   0.0000000000000000        0.0000000000000000        0.0000000000000000     
   3.7071952039339341E-008   1.0655396812320517E-008   0.0000000000000000     
   7.5304275244846125E-008   2.6710521270560845E-008   0.0000000000000000     
   1.1453803072937964E-007   4.7434094371079327E-008   0.0000000000000000     
   1.5461427960579907E-007   7.2094837110234299E-008   0.0000000000000000     
   0.0000000000000000        0.0000000000000000        0.0000000000000000     
   3.3239733114090080E-008   8.2207798332996020E-009   0.0000000000000000     
   6.7390884441790614E-008   2.2019356094276945E-008   0.0000000000000000     
   1.0240915590811193E-007   4.0759215587030996E-008   0.0000000000000000     
   1.3825024943806433E-007   6.3803845115660695E-008   0.0000000000000000     
   0.0000000000000000        0.0000000000000000        0.0000000000000000     
   2.9366537215734102E-008   6.2841743173595791E-009   0.0000000000000000     
   5.9721144852254669E-008   1.8274087644076044E-008   0.0000000000000000     
   9.0945762148823156E-008   3.5382375063365161E-008   0.0000000000000000     
   1.2292232834470106E-007   5.7021671658442673E-008   0.0000000000000000     
   0.0000000000000000        0.0000000000000000        0.0000000000000000     
   2.5633327691997155E-008   4.7372287770621408E-009   0.0000000000000000     
   5.2373128815052831E-008   1.5243395329987254E-008   0.0000000000000000     
   7.9995358529472643E-008   3.0974332683640242E-008   0.0000000000000000     
   1.0827597199556214E-007   5.1385873862885953E-008   0.0000000000000000     
   1.7236896317805254E-007   8.2257090517857722E-008   0.0000000000000000     
   2.1749018773346241E-007   1.1140927372361512E-007   0.0000000000000000     
   2.6259464181192790E-007   1.4317738428886545E-007   0.0000000000000000     
   3.0750126720706383E-007   1.7772518788741098E-007   0.0000000000000000     
   3.5202900571248489E-007   2.1521645019305398E-007   0.0000000000000000     
   1.5461427960579907E-007   7.2094837110234299E-008   0.0000000000000000     
   1.9534930295754358E-007   1.0007873247141032E-007   0.0000000000000000     
   2.3646026175037202E-007   1.3124081138609697E-007   0.0000000000000000     
   2.7763953692062291E-007   1.6555336677280997E-007   0.0000000000000000     
   3.1857950940463479E-007   2.0298869155006519E-007   0.0000000000000000     
   1.3825024943806433E-007   6.3803845115660695E-008   0.0000000000000000     
   1.7482779978607055E-007   9.0604601845451780E-008   0.0000000000000000     
   2.1188717302420382E-007   1.2096432438643719E-007   0.0000000000000000     
   2.4913166805394983E-007   1.5477372170983664E-007   0.0000000000000000     
   2.8626458377679414E-007   1.9192350278686990E-007   0.0000000000000000     
   1.2292232834470106E-007   5.7021671658442673E-008   0.0000000000000000     
   1.5551695913250172E-007   8.2681430015496953E-008   0.0000000000000000     
   1.8853247601824587E-007   1.1215837273260673E-007   0.0000000000000000     
   2.2175587696130615E-007   1.4532603991082337E-007   0.0000000000000000     
   2.5497415992105543E-007   1.8205797165119827E-007   0.0000000000000000     
   1.0827597199556214E-007   5.1385873862885953E-008   0.0000000000000000     
   1.3700806191029544E-007   7.6003765151303157E-008   0.0000000000000000     
   1.6605327111732043E-007   1.0463340586732593E-007   0.0000000000000000     
   1.9529037999695354E-007   1.3715010858810239E-007   0.0000000000000000     
   2.2459816892951118E-007   1.7342918589078039E-007   0.0000000000000000     
   3.5202900571248489E-007   2.1521645019305398E-007   0.0000000000000000     
   3.9603707908334300E-007   2.5580069996424404E-007   0.0000000000000000     
   4.3954582892093874E-007   2.9957051829801944E-007   0.0000000000000000     
   4.8261587678810999E-007   3.4660424937606569E-007   0.0000000000000000     
   5.2530784424769472E-007   3.9698023738006888E-007   0.0000000000000000     
   3.1857950940463479E-007   2.0298869155006519E-007   0.0000000000000000     
   3.5903521976907223E-007   2.4353938746592865E-007   0.0000000000000000     
   3.9901234710190268E-007   2.8727929158666819E-007   0.0000000000000000     
   4.3857923012141917E-007   3.3430254980810210E-007   0.0000000000000000     
   4.7780420754591508E-007   3.8470330802604884E-007   0.0000000000000000     
   2.8626458377679414E-007   1.9192350278686990E-007   0.0000000000000000     
   3.2304438628775106E-007   2.3233246832218094E-007   0.0000000000000000     
   3.5945021045594913E-007   2.7603178595411203E-007   0.0000000000000000     
   3.9551635834404536E-007   3.2308071505442965E-007   0.0000000000000000     
   4.3127713201469666E-007   3.7353851499490045E-007   0.0000000000000000     
   2.5497415992105543E-007   1.8205797165119827E-007   0.0000000000000000     
   2.8800708529017899E-007   2.2224906591863825E-007   0.0000000000000000     
   3.2080546319461231E-007   2.6587965213347186E-007   0.0000000000000000     
   3.5335286619360446E-007   3.1295141757988343E-007   0.0000000000000000     
   3.8563286684640351E-007   3.6346604954205675E-007   0.0000000000000000     
   2.2459816892951118E-007   1.7342918589078039E-007   0.0000000000000000     
   2.5386582342715472E-007   2.1335830364093743E-007   0.0000000000000000     
   2.8302414952942594E-007   2.5687454085786851E-007   0.0000000000000000     
   3.1201435840771166E-007   3.0392732984929801E-007   0.0000000000000000     
   3.4077766123339881E-007   3.5446610292295031E-007   0.0000000000000000     
   5.2530784424769472E-007   3.9698023738006888E-007   0.0000000000000000     
   5.6766808042226723E-007   4.5076067658640103E-007   0.0000000000000000     
   6.0968584467334616E-007   5.0794316165018208E-007   0.0000000000000000     
   6.5133612392218740E-007   5.6850913732121887E-007   0.0000000000000000     
   6.9259390509004634E-007   6.3244004834931827E-007   0.0000000000000000     
   4.7780420754591508E-007   3.8470330802604884E-007   0.0000000000000000     
   5.1673868333001663E-007   4.3855426535927790E-007   0.0000000000000000     
   5.5536632237368375E-007   4.9584233381836609E-007   0.0000000000000000     
   5.9365385481320926E-007   5.5653297863684116E-007   0.0000000000000000     
   6.3156801078488595E-007   6.2059166504823120E-007   0.0000000000000000     
   4.3127713201469666E-007   3.7353851499490045E-007   0.0000000000000000     
   4.6675717645881515E-007   4.2744983179923758E-007   0.0000000000000000     
   5.0194250838033288E-007   4.8480085809894090E-007   0.0000000000000000     
   5.3680948741143714E-007   5.4556317317745684E-007   0.0000000000000000     
   5.7133447318431495E-007   6.0970835631823133E-007   0.0000000000000000     
   3.8563286684640351E-007   3.6346604954205675E-007   0.0000000000000000     
   4.1763065941811015E-007   4.1742264936158663E-007   0.0000000000000000     
   4.4933792499723186E-007   4.7480997460970830E-007   0.0000000000000000     
   4.8074796637812879E-007   5.3561419691506774E-007   0.0000000000000000     
   5.1185408635516051E-007   5.9982148790631104E-007   0.0000000000000000     
   3.4077766123339881E-007   3.5446610292295031E-007   0.0000000000000000     
   3.6926623181734826E-007   4.0844799150163096E-007   0.0000000000000000     
   3.9747609452831843E-007   4.6586092346846944E-007   0.0000000000000000     
   4.2541423637454162E-007   5.2670052582167625E-007   0.0000000000000000     
   4.5308764436425013E-007   5.9096242555946177E-007   0.0000000000000000     
   6.9259390509004634E-007   6.3244004834931827E-007   0.0000000000000000     
   7.3344145403071094E-007   6.9971905876007310E-007   0.0000000000000000     
   7.7389015232809818E-007   7.7033620968221877E-007   0.0000000000000000     
   8.1395866049865796E-007   8.4428326152027840E-007   0.0000000000000000     
   8.5366563905884089E-007   9.2155197467877425E-007   0.0000000000000000     
   6.3156801078488595E-007   6.2059166504823120E-007   0.0000000000000000     
   6.6908478967465090E-007   6.8798893836898409E-007   0.0000000000000000     
   7.0621726786701760E-007   7.5871566424722605E-007   0.0000000000000000     
   7.4298779099614387E-007   8.3276778841400369E-007   0.0000000000000000     
   7.7941870469618780E-007   9.1014125660036311E-007   0.0000000000000000     
   5.7133447318431495E-007   6.0970835631823133E-007   0.0000000000000000     
   6.0550038969914322E-007   6.7721059939198500E-007   0.0000000000000000     
   6.3931641842806230E-007   7.4805454461853368E-007   0.0000000000000000     
   6.7279830521120145E-007   8.2222744680496683E-007   0.0000000000000000     
   7.0596179588869098E-007   8.9971656075837419E-007   0.0000000000000000     
   5.1185408635516051E-007   5.9982148790631104E-007   0.0000000000000000     
   5.4265151584906233E-007   6.6741592602059732E-007   0.0000000000000000     
   5.7314319828607369E-007   7.3837321692914001E-007   0.0000000000000000     
   6.0333400521880959E-007   8.1266697311166691E-007   0.0000000000000000     
   6.3322880819988519E-007   8.9027080704790475E-007   0.0000000000000000     
   4.5308764436425013E-007   5.9096242555946177E-007   0.0000000000000000     
   4.8050142986928153E-007   6.5863680244634075E-007   0.0000000000000000     
   5.0765320171589296E-007   7.2969204731204263E-007   0.0000000000000000     
   5.3453869309394653E-007   8.0409110375260114E-007   0.0000000000000000     
   5.6115363719330465E-007   8.8179691536405063E-007   0.0000000000000000     
   8.5366563905884089E-007   9.2155197467877425E-007   0.0000000000000000     
   8.9302514829926619E-007   1.0021290797869517E-006   0.0000000000000000     
   9.3203284760723259E-007   1.0859811883729486E-006   0.0000000000000000     
   9.7067979614420933E-007   1.1730698821896281E-006   0.0000000000000000     
   1.0089570530716657E-006   1.2633567429898516E-006   0.0000000000000000     
   7.7941870469618780E-007   9.1014125660036311E-007   0.0000000000000000     
   8.1552720753983726E-007   9.9082606855604326E-007   0.0000000000000000     
   8.5130990985390371E-007   1.0747884401055558E-006   0.0000000000000000     
   8.8675827490372938E-007   1.1619886410921053E-006   0.0000000000000000     
   9.2186376595465586E-007   1.2523869413588964E-006   0.0000000000000000     
   7.0596179588869098E-007   8.9971656075837419E-007   0.0000000000000000     
   7.3881937086864297E-007   9.8050555704841271E-007   0.0000000000000000     
   7.7137044883110035E-007   1.0645637692950094E-006   0.0000000000000000     
   8.0361118302408796E-007   1.1518569468806576E-006   0.0000000000000000     
   8.3553772669563156E-007   1.2423508391878533E-006   0.0000000000000000     
   6.3322880819988519E-007   8.9027080704790475E-007   0.0000000000000000     
   6.6283203859593839E-007   9.7115829424992705E-007   0.0000000000000000     
   6.9214636702969609E-007   1.0553028623591899E-006   0.0000000000000000     
   7.2117402393790992E-007   1.1426779020494970E-006   0.0000000000000000     
   7.4991723975732948E-007   1.2332568039946509E-006   0.0000000000000000     
   5.6115363719330465E-007   8.8179691536405063E-007   0.0000000000000000     
   5.8749561103197714E-007   9.6277502914645164E-007   0.0000000000000000     
   6.1356956694056536E-007   1.0470014057159787E-006   0.0000000000000000     
   6.3938230107781833E-007   1.1344546090928336E-006   0.0000000000000000     
   6.6494060960248523E-007   1.2251132032972178E-006   0.0000000000000000     
   1.0089570530716657E-006   1.2633567429898516E-006   0.0000000000000000     
   1.0468580264392650E-006   1.3568058667761106E-006   0.0000000000000000     
   1.0843855198494483E-006   1.4533914065494134E-006   0.0000000000000000     
   1.1215446857928525E-006   1.5530900295603982E-006   0.0000000000000000     
   1.1583406767601138E-006   1.6558784030597035E-006   0.0000000000000000     
   9.2186376595465586E-007   1.2523869413588964E-006   0.0000000000000000     
   9.5662018349348619E-007   1.3459463652025233E-006   0.0000000000000000     
   9.9103067689286804E-007   1.4426409547331410E-006   0.0000000000000000     
   1.0251007327469103E-006   1.5424475065142947E-006   0.0000000000000000     
   1.0588358376497219E-006   1.6453428171095289E-006   0.0000000000000000     
   8.3553772669563156E-007   1.2423508391878533E-006   0.0000000000000000     
   8.6714746167567779E-007   1.3360123733983184E-006   0.0000000000000000     
   8.9844268412185838E-007   1.4328131878906905E-006   0.0000000000000000     
   9.2942691877372719E-007   1.5327260988428354E-006   0.0000000000000000     
   9.6010369037083883E-007   1.6357239224326208E-006   0.0000000000000000     
   7.4991723975732948E-007   1.2332568039946509E-006   0.0000000000000000     
   7.7837800117617127E-007   1.3270120105620226E-006   0.0000000000000000     
   8.0655731988851417E-007   1.4239121708932561E-006   0.0000000000000000     
   8.3445596383990193E-007   1.5239249858235613E-006   0.0000000000000000     
   8.6207470097587978E-007   1.6270181561881517E-006   0.0000000000000000     
   6.6494060960248523E-007   1.2251132032972178E-006   0.0000000000000000     
   6.9024994218529913E-007   1.3189533958921639E-006   0.0000000000000000     
   7.1531036254493013E-007   1.4159419686120320E-006   0.0000000000000000     
   7.4012058791203240E-007   1.5160433467340122E-006   0.0000000000000000     
   7.6467933551726043E-007   1.6192219555352950E-006   0.0000000000000000     
   1.1583406767601138E-006   1.6558784030597035E-006   0.0000000000000000     
   1.1947770606941657E-006   1.7617306232808342E-006   0.0000000000000000     
   1.2308510673471361E-006   1.8706105023887669E-006   0.0000000000000000     
   1.2665583419234504E-006   1.9824792815313457E-006   0.0000000000000000     
   1.3018945296275338E-006   2.0972982018564138E-006   0.0000000000000000     
   1.0588358376497219E-006   1.6453428171095289E-006   0.0000000000000000     
   1.0922399607971889E-006   1.7513011861169123E-006   0.0000000000000000     
   1.1253110017923094E-006   1.8602869252726062E-006   0.0000000000000000     
   1.1580453428398572E-006   1.9722618493472934E-006   0.0000000000000000     
   1.1904393661446092E-006   2.0871877731116590E-006   0.0000000000000000     
   9.6010369037083883E-007   1.6357239224326208E-006   0.0000000000000000     
   9.9047571697695624E-007   1.7417784546949079E-006   0.0000000000000000     
   1.0205424899526839E-006   1.8508574110925408E-006   0.0000000000000000     
   1.0503026939828372E-006   1.9629274869453610E-006   0.0000000000000000     
   1.0797550137522300E-006   2.0779553775732106E-006   0.0000000000000000     
   8.6207470097587978E-007   1.6270181561881517E-006   0.0000000000000000     
   8.8941439834085330E-007   1.7331601984486600E-006   0.0000000000000000     
   9.1647631937467613E-007   1.8423228915724114E-006   0.0000000000000000     
   9.4326182661606172E-007   1.9544788301531484E-006   0.0000000000000000     
   9.6977228260372596E-007   2.0696006087846186E-006   0.0000000000000000     
   7.6467933551726043E-007   1.6192219555352950E-006   0.0000000000000000     
   7.8898607399626678E-007   1.7254441868120111E-006   0.0000000000000000     
   8.1304327760469921E-007   1.8346842984360523E-006   0.0000000000000000     
   8.3685417200320366E-007   1.9469185147982498E-006   0.0000000000000000     
   8.6042198285242660E-007   2.0621230602894357E-006   0.0000000000000000     
   0.0000000000000000        0.0000000000000000        0.0000000000000000     
   2.5633327691997155E-008   4.7372287770621408E-009   0.0000000000000000     
   5.2373128815052831E-008   1.5243395329987254E-008   0.0000000000000000     
   7.9995358529472643E-008   3.0974332683640242E-008   0.0000000000000000     
   1.0827597199556214E-007   5.1385873862885953E-008   0.0000000000000000     
   0.0000000000000000        0.0000000000000000        0.0000000000000000     
   2.2174697195087210E-008   3.4838327499317609E-009   0.0000000000000000     
   4.5394158502299908E-008   1.2728141540447317E-008   0.0000000000000000     
   6.9418858630621623E-008   2.7255994127319697E-008   0.0000000000000000     
   9.4009272289035818E-008   4.6590458266321912E-008   0.0000000000000000     
   0.0000000000000000        0.0000000000000000        0.0000000000000000     
   1.8939755595141261E-008   2.4768398733440240E-009   0.0000000000000000     
   3.8708555419311736E-008   1.0657920577523496E-008   0.0000000000000000     
   5.9130794043239413E-008   2.4148848257487353E-008   0.0000000000000000     
   8.0030866037652336E-008   4.2555229058184569E-008   0.0000000000000000     
   0.0000000000000000        0.0000000000000000        0.0000000000000000     
   1.5831242066778558E-008   1.6813448096372964E-009   0.0000000000000000     
   3.2209890904704297E-008   8.9945097216906788E-009   0.0000000000000000     
   4.9059100860897244E-008   2.1624529733132118E-008   0.0000000000000000     
   6.6302026282477397E-008   3.9256439840933571E-008   0.0000000000000000     
   0.0000000000000000        0.0000000000000000        0.0000000000000000     
   1.2751895784618350E-008   1.0624422211499447E-009   0.0000000000000000     
   2.5791736297093665E-008   7.6996862534237663E-009   0.0000000000000000     
   3.9131715177166326E-008   1.9654673213242852E-008   0.0000000000000000     
   5.2784026064576713E-008   3.6670344217028589E-008   0.0000000000000000     
   1.0827597199556214E-007   5.1385873862885953E-008   0.0000000000000000     
   1.3700806191029544E-007   7.6003765151303157E-008   0.0000000000000000     
   1.6605327111732043E-007   1.0463340586732593E-007   0.0000000000000000     
   1.9529037999695354E-007   1.3715010858810239E-007   0.0000000000000000     
   2.2459816892951118E-007   1.7342918589078039E-007   0.0000000000000000     
   9.4009272289035818E-008   4.6590458266321912E-008   0.0000000000000000     
   1.1895376585733287E-007   7.0310799987124559E-008   0.0000000000000000     
   1.4415227239853055E-007   9.8221078414988448E-008   0.0000000000000000     
   1.6953261664645350E-007   1.3018155094907199E-007   0.0000000000000000     
   1.9502262333492640E-007   1.6605247498853360E-007   0.0000000000000000     
   8.0030866037652336E-008   4.2555229058184569E-008   0.0000000000000000     
   1.0125223600918538E-007   6.5520305515202154E-008   0.0000000000000000     
   1.2271464870810093E-007   9.2837865726679572E-008   0.0000000000000000     
   1.4435691892056827E-007   1.2433933418139426E-007   0.0000000000000000     
   1.6611786143275671E-007   1.5985613536812379E-007   0.0000000000000000     
   6.6302026282477397E-008   3.9256439840933571E-008   0.0000000000000000     
   8.3863014225846975E-008   6.1594697292273644E-008   0.0000000000000000     
   1.0167118258453686E-007   8.8421448335157536E-008   0.0000000000000000     
   1.1965684196136032E-007   1.1953826146779709E-007   0.0000000000000000     
   1.3775030295913028E-007   1.5474670518840413E-007   0.0000000000000000     
   5.2784026064576713E-008   3.6670344217028589E-008   0.0000000000000000     
   6.6745642367311608E-008   5.8496390875076747E-008   0.0000000000000000     
   8.0952656566343652E-008   8.4909506773180732E-008   0.0000000000000000     
   9.5325940910891909E-008   1.1569313599100847E-007   0.0000000000000000     
   1.0978636765017538E-007   1.5063072260822772E-007   0.0000000000000000     
   2.2459816892951118E-007   1.7342918589078039E-007   0.0000000000000000     
   2.5386582342715472E-007   2.1335830364093743E-007   0.0000000000000000     
   2.8302414952942594E-007   2.5687454085786851E-007   0.0000000000000000     
   3.1201435840771166E-007   3.0392732984929801E-007   0.0000000000000000     
   3.4077766123339881E-007   3.5446610292295031E-007   0.0000000000000000     
   1.9502262333492640E-007   1.6605247498853360E-007   0.0000000000000000     
   2.2054986688201042E-007   2.0570470069423956E-007   0.0000000000000000     
   2.4604092044271347E-007   2.4905144927388777E-007   0.0000000000000000     
   2.7142210685627995E-007   2.9601653469688423E-007   0.0000000000000000     
   2.9661974896195425E-007   3.4652377093263471E-007   0.0000000000000000     
   1.6611786143275671E-007   1.5985613536812379E-007   0.0000000000000000     
   1.8793551996820839E-007   1.9923435956180043E-007   0.0000000000000000     
   2.0974485399995731E-007   2.4237876018197564E-007   0.0000000000000000     
   2.3148005193841026E-007   2.8920875643435566E-007   0.0000000000000000     
   2.5307530219397414E-007   3.3964376752464670E-007   0.0000000000000000     
   1.3775030295913028E-007   1.5474670518840413E-007   0.0000000000000000     
   1.5588584653174340E-007   1.9386877854639977E-007   0.0000000000000000     
   1.7401363503742918E-007   2.3680820279604289E-007   0.0000000000000000     
   1.9208780118550068E-007   2.8348912974280149E-007   0.0000000000000000     
   2.1006247768527088E-007   3.3383571119214380E-007   0.0000000000000000     
   1.0978636765017538E-007   1.5063072260822772E-007   0.0000000000000000     
   1.2426391041861019E-007   1.8952945595081731E-007   0.0000000000000000     
   1.3872494839140094E-007   2.3229150633000044E-007   0.0000000000000000     
   1.5314496212894929E-007   2.7884278930331131E-007   0.0000000000000000     
   1.6749943219165694E-007   3.2910922042828394E-007   0.0000000000000000     
   3.4077766123339881E-007   3.5446610292295031E-007   0.0000000000000000     
   3.6926623181734826E-007   4.0844799150163096E-007   0.0000000000000000     
   3.9747609452831843E-007   4.6586092346846944E-007   0.0000000000000000     
   4.2541423637454162E-007   5.2670052582167625E-007   0.0000000000000000     
   4.5308764436425013E-007   5.9096242555946177E-007   0.0000000000000000     
   2.9661974896195425E-007   3.4652377093263471E-007   0.0000000000000000     
   3.2157402619895272E-007   4.0050799168203632E-007   0.0000000000000000     
   3.4628054440637937E-007   4.5794810957195150E-007   0.0000000000000000     
   3.7074876602331022E-007   5.1883405696073409E-007   0.0000000000000000     
   3.9498815348882127E-007   5.8315576620673727E-007   0.0000000000000000     
   2.5307530219397414E-007   3.3964376752464670E-007   0.0000000000000000     
   2.7447630683724760E-007   3.9361222339490477E-007   0.0000000000000000     
   2.9567482257959634E-007   4.5107859693258558E-007   0.0000000000000000     
   3.1667411979257752E-007   5.1201637176149439E-007   0.0000000000000000     
   3.3747746884774859E-007   5.7639903150543671E-007   0.0000000000000000     
   2.1006247768527088E-007   3.3383571119214380E-007   0.0000000000000000     
   2.2789837093953290E-007   3.8777712013969757E-007   0.0000000000000000     
   2.4558248212499947E-007   4.4526261434172804E-007   0.0000000000000000     
   2.6310838611186309E-007   5.0624647274466058E-007   0.0000000000000000     
   2.8046965777031717E-007   5.7068297429492032E-007   0.0000000000000000     
   1.6749943219165694E-007   3.2910922042828394E-007   0.0000000000000000     
   1.8176551571310833E-007   3.8301911541587562E-007   0.0000000000000000     
   1.9592707611961899E-007   4.4051039059073555E-007   0.0000000000000000     
   2.0996965341068729E-007   5.0152336243093598E-007   0.0000000000000000     
   2.2387878758581162E-007   5.6599834741454915E-007   0.0000000000000000     
   4.5308764436425013E-007   5.9096242555946177E-007   0.0000000000000000     
   4.8050142986928153E-007   6.5863680244634075E-007   0.0000000000000000     
   5.0765320171589296E-007   7.2969204731204263E-007   0.0000000000000000     
   5.3453869309394653E-007   8.0409110375260114E-007   0.0000000000000000     
   5.6115363719330465E-007   8.8179691536405063E-007   0.0000000000000000     
   3.9498815348882127E-007   5.8315576620673727E-007   0.0000000000000000     
   4.1900540705992563E-007   6.5089836166811192E-007   0.0000000000000000     
   4.4279617826538651E-007   7.2202773570219619E-007   0.0000000000000000     
   4.6635335645190445E-007   7.9650497266612572E-007   0.0000000000000000     
   4.8966983096617965E-007   8.7429115691703528E-007   0.0000000000000000     
   3.3747746884774859E-007   5.7639903150543671E-007   0.0000000000000000     
   3.5808677694212087E-007   6.4419873191431051E-007   0.0000000000000000     
   3.7849849857452081E-007   7.1538231724238619E-007   0.0000000000000000     
   3.9870772506922870E-007   7.8991530387002659E-007   0.0000000000000000     
   4.1870954775052510E-007   8.6776320817759446E-007   0.0000000000000000     
   2.8046965777031717E-007   5.7068297429492032E-007   0.0000000000000000     
   2.9766088259224417E-007   6.3852929022071154E-007   0.0000000000000000     
   3.1468068855628684E-007   7.0975416087735410E-007   0.0000000000000000     
   3.3152871426277831E-007   7.8432921890194732E-007   0.0000000000000000     
   3.4820459831205145E-007   8.6222609693159054E-007   0.0000000000000000     
   2.2387878758581162E-007   5.6599834741454915E-007   0.0000000000000000     
   2.3764306708667207E-007   6.3388141362308982E-007   0.0000000000000000     
   2.5126327412367587E-007   7.0514163555184173E-007   0.0000000000000000     
   2.6474323934941202E-007   7.7975383929953232E-007   0.0000000000000000     
   2.7808679341646951E-007   8.5769285096488727E-007   0.0000000000000000     
   5.6115363719330465E-007   8.8179691536405063E-007   0.0000000000000000     
   5.8749561103197714E-007   9.6277502914645164E-007   0.0000000000000000     
   6.1356956694056536E-007   1.0470014057159787E-006   0.0000000000000000     
   6.3938230107781833E-007   1.1344546090928336E-006   0.0000000000000000     
   6.6494060960248523E-007   1.2251132032972178E-006   0.0000000000000000     
   4.8966983096617965E-007   8.7429115691703528E-007   0.0000000000000000     
   5.1274095873688172E-007   9.5535017937101949E-007   0.0000000000000000     
   5.3557196702055565E-007   1.0396571571800124E-006   0.0000000000000000     
   5.5817055065571564E-007   1.1271900140549063E-006   0.0000000000000000     
   5.8054440448087566E-007   1.2179266737065946E-006   0.0000000000000000     
   4.1870954775052510E-007   8.6776320817759446E-007   0.0000000000000000     
   4.3850083327024075E-007   9.4889283714532543E-007   0.0000000000000000     
   4.5808554959040943E-007   1.0332761601529488E-006   0.0000000000000000     
   4.7746944000061503E-007   1.1208864371800648E-006   0.0000000000000000     
   4.9665824779044193E-007   1.2116969282062757E-006   0.0000000000000000     
   3.4820459831205145E-007   8.6222609693159054E-007   0.0000000000000000     
   3.6470845644151026E-007   9.4341576333823026E-007   0.0000000000000000     
   3.8104231293684263E-007   1.0278665294332014E-006   0.0000000000000000     
   3.9720866922080829E-007   1.1155460422626866E-006   0.0000000000000000     
   4.1321002671616622E-007   1.2064219488728679E-006   0.0000000000000000     
   2.7808679341646951E-007   8.5769285096488727E-007   0.0000000000000000     
   2.9129705006014571E-007   9.3893171881859455E-007   0.0000000000000000     
   3.0437425534657157E-007   1.0234363798191846E-006   0.0000000000000000     
   3.1731793842458683E-007   1.1111709930971489E-006   0.0000000000000000     
   3.3012762844303077E-007   1.2020997177829793E-006   0.0000000000000000     
   6.6494060960248523E-007   1.2251132032972178E-006   0.0000000000000000     
   6.9024994218529913E-007   1.3189533958921639E-006   0.0000000000000000     
   7.1531036254493013E-007   1.4159419686120320E-006   0.0000000000000000     
   7.4012058791203240E-007   1.5160433467340122E-006   0.0000000000000000     
   7.6467933551726043E-007   1.6192219555352950E-006   0.0000000000000000     
   5.8054440448087566E-007   1.2179266737065946E-006   0.0000000000000000     
   6.0269968803212976E-007   1.3118429241550760E-006   0.0000000000000000     
   6.2463641963589092E-007   1.4089060106567732E-006   0.0000000000000000     
   6.4635308231615242E-007   1.5090810427772155E-006   0.0000000000000000     
   6.6784815909690733E-007   1.6123331300819326E-006   0.0000000000000000     
   4.9665824779044193E-007   1.2116969282062757E-006   0.0000000000000000     
   5.1565669460067969E-007   1.3056800923883183E-006   0.0000000000000000     
   5.3446541547693973E-007   1.4028051855914736E-006   0.0000000000000000     
   5.5308402381603886E-007   1.5030406628581578E-006   0.0000000000000000     
   5.7151213301479388E-007   1.6063549792307892E-006   0.0000000000000000     
   4.1321002671616622E-007   1.2064219488728679E-006   0.0000000000000000     
   4.2904868091370246E-007   1.3004626731972580E-006   0.0000000000000000     
   4.4472610357630839E-007   1.3976397467186860E-006   0.0000000000000000     
   4.6024356053490257E-007   1.4979254778073127E-006   0.0000000000000000     
   4.7560231762040328E-007   1.6012921748332975E-006   0.0000000000000000     
   3.3012762844303077E-007   1.2020997177829793E-006   0.0000000000000000     
   3.4280336599395134E-007   1.2961884391872623E-006   0.0000000000000000     
   3.5534723744222992E-007   1.3934099473409660E-006   0.0000000000000000     
   3.6776184059595619E-007   1.4937387584551548E-006   0.0000000000000000     
   3.8004977326321987E-007   1.5971493887408924E-006   0.0000000000000000     
   7.6467933551726043E-007   1.6192219555352950E-006   0.0000000000000000     
   7.8898607399626678E-007   1.7254441868120111E-006   0.0000000000000000     
   8.1304327760469921E-007   1.8346842984360523E-006   0.0000000000000000     
   8.3685417200320366E-007   1.9469185147982498E-006   0.0000000000000000     
   8.6042198285242660E-007   2.0621230602894357E-006   0.0000000000000000     
   6.6784815909690733E-007   1.6123331300819326E-006   0.0000000000000000     
   6.8912095337112895E-007   1.7186290752017578E-006   0.0000000000000000     
   7.1017405000770905E-007   1.8279424530287456E-006   0.0000000000000000     
   7.3101085424452047E-007   1.9402485315202536E-006   0.0000000000000000     
   7.5163477131943535E-007   2.0555225786336408E-006   0.0000000000000000     
   5.7151213301479388E-007   1.6063549792307892E-006   0.0000000000000000     
   5.8974980717555699E-007   1.7127170629665304E-006   0.0000000000000000     
   6.0779891322282017E-007   1.8220977351815353E-006   0.0000000000000000     
   6.2566176878661039E-007   1.9344682902067025E-006   0.0000000000000000     
   6.4334069149695482E-007   2.0498000223729322E-006   0.0000000000000000     
   4.7560231762040328E-007   1.6012921748332975E-006   0.0000000000000000     
   4.9080354644021507E-007   1.7077112354379164E-006   0.0000000000000000     
   5.0584804170768775E-007   1.8171504143469088E-006   0.0000000000000000     
   5.2073650391265758E-007   1.9295765555571282E-006   0.0000000000000000     
   5.3546963354496073E-007   2.0449565030654335E-006   0.0000000000000000     
   3.8004977326321987E-007   1.5971493887408924E-006   0.0000000000000000     
   3.9221308219576694E-007   1.7036146779475032E-006   0.0000000000000000     
   4.0425160991996693E-007   1.8131007599773523E-006   0.0000000000000000     
   4.1616464790584579E-007   1.9255720922710664E-006   0.0000000000000000     
   4.2795148762342939E-007   2.0409931322692714E-006   0.0000000000000000     
   0.0000000000000000        0.0000000000000000        0.0000000000000000     
   1.2751895784618350E-008   1.0624422211499447E-009   0.0000000000000000     
   2.5791736297093665E-008   7.6996862534237663E-009   0.0000000000000000     
   3.9131715177166326E-008   1.9654673213242852E-008   0.0000000000000000     
   5.2784026064576713E-008   3.6670344217028589E-008   0.0000000000000000     
   0.0000000000000000        0.0000000000000000        0.0000000000000000     
   9.6235033097722749E-009   5.9053376545578091E-010   0.0000000000000000     
   1.9366480996244465E-008   6.7374689907844991E-009   0.0000000000000000     
   2.9285573567833333E-008   1.8207259534732282E-008   0.0000000000000000     
   3.9437421532955608E-008   3.4766359256045242E-008   0.0000000000000000     
   0.0000000000000000        0.0000000000000000        0.0000000000000000     
   6.4440407493214913E-009   2.5724908107040553E-010   0.0000000000000000     
   1.2921786646515747E-008   6.0808429021820276E-009   0.0000000000000000     
   1.9493614537546665E-008   1.7235654246208452E-008   0.0000000000000000     
   2.6219901268378142E-008   3.3486555896023269E-008   0.0000000000000000     
   0.0000000000000000        0.0000000000000000        0.0000000000000000     
   3.2305315968395436E-009   5.9524801744867874E-011   0.0000000000000000     
   6.4641329534151452E-009   5.7050344936123474E-009   0.0000000000000000     
   9.7377770731701695E-009   1.6689569074203244E-008   0.0000000000000000     
   1.3088436959547984E-008   3.2766168542118369E-008   0.0000000000000000     
   0.0000000000000000        0.0000000000000000        0.0000000000000000     
  -6.5410001996819876E-016  -5.7024387697856927E-012   0.0000000000000000     
  -3.7754968695721681E-016   5.5852702710714601E-009   0.0000000000000000     
   1.6156769429596886E-016   1.6518715745248537E-008   0.0000000000000000     
   2.9516881409129755E-016   3.2540431599486232E-008   0.0000000000000000     
   5.2784026064576713E-008   3.6670344217028589E-008   0.0000000000000000     
   6.6745642367311608E-008   5.8496390875076747E-008   0.0000000000000000     
   8.0952656566343652E-008   8.4909506773180732E-008   0.0000000000000000     
   9.5325940910891909E-008   1.1569313599100847E-007   0.0000000000000000     
   1.0978636765017538E-007   1.5063072260822772E-007   0.0000000000000000     
   3.9437421532955608E-008   3.4766359256045242E-008   0.0000000000000000     
   4.9856763984129189E-008   5.6184447437305994E-008   0.0000000000000000     
   6.0490734350276536E-008   8.2244105056443022E-008   0.0000000000000000     
   7.1264564644421214E-008   1.1273113851522129E-007   0.0000000000000000     
   8.2103486879586852E-008   1.4743135421540578E-007   0.0000000000000000     
   2.6219901268378142E-008   3.3486555896023269E-008   0.0000000000000000     
   3.3141429389073129E-008   5.4604510620483584E-008   0.0000000000000000     
   4.0220604266090801E-008   8.0384841132380457E-008   0.0000000000000000     
   4.7400236969989378E-008   1.1062896013048846E-007   0.0000000000000000     
   5.4623138571327068E-008   1.4513828031358215E-007   0.0000000000000000     
   1.3088436959547984E-008   3.2766168542118369E-008   0.0000000000000000     
   1.6541790585472746E-008   5.3698869683088560E-008   0.0000000000000000     
   2.0078335801791763E-008   7.9295696431364717E-008   0.0000000000000000     
   2.3667275428833195E-008   1.0937566950832783E-007   0.0000000000000000     
   2.7277812286925123E-008   1.4375780963535881E-007   0.0000000000000000     
   2.9516881409129755E-016   3.2540431599486232E-008   0.0000000000000000     
  -4.2334266834969569E-016   5.3409813883599952E-008   0.0000000000000000     
  -1.5546152498362996E-015   7.8940652383767494E-008   0.0000000000000000     
  -2.4378104645182229E-015   1.0896033532025728E-007   0.0000000000000000     
  -2.4120898536020589E-015   1.4329625091333773E-007   0.0000000000000000     
   1.0978636765017538E-007   1.5063072260822772E-007   0.0000000000000000     
   1.2426391041861019E-007   1.8952945595081731E-007   0.0000000000000000     
   1.3872494839140094E-007   2.3229150633000044E-007   0.0000000000000000     
   1.5314496212894929E-007   2.7884278930331131E-007   0.0000000000000000     
   1.6749943219165694E-007   3.2910922042828394E-007   0.0000000000000000     
   8.2103486879586852E-008   1.4743135421540578E-007   0.0000000000000000     
   9.2943481455851491E-008   1.8615225147436907E-007   0.0000000000000000     
   1.0376352232151121E-007   2.2878810127191448E-007   0.0000000000000000     
   1.1455333181191654E-007   2.7525486750345283E-007   0.0000000000000000     
   1.2530263226241807E-007   3.2546851406439523E-007   0.0000000000000000     
   5.4623138571327068E-008   1.4513828031358215E-007   0.0000000000000000     
   6.1841153394701184E-008   1.8373047040251715E-007   0.0000000000000000     
   6.9042258780865327E-008   2.2628822320647316E-007   0.0000000000000000     
   7.6223465324612142E-008   2.7271048755671074E-007   0.0000000000000000     
   8.3381783620734363E-008   3.2289621228449066E-007   0.0000000000000000     
   2.7277812286925123E-008   1.4375780963535881E-007   0.0000000000000000     
   3.0884225967441006E-008   1.8227177941726013E-007   0.0000000000000000     
   3.4481103145935385E-008   2.2478980899251989E-007   0.0000000000000000     
   3.8068107269008199E-008   2.7119477038304791E-007   0.0000000000000000     
   4.1644901783259319E-008   3.2136953561075362E-007   0.0000000000000000     
  -2.4120898536020589E-015   1.4329625091333773E-007   0.0000000000000000     
  -1.0936473552996492E-015   1.8178384520059649E-007   0.0000000000000000     
   7.9319350661186444E-016   2.2429079548889839E-007   0.0000000000000000     
   2.2470767798041377E-015   2.7069283690242759E-007   0.0000000000000000     
   2.2666465382247353E-015   3.2086570456536810E-007   0.0000000000000000     
   1.6749943219165694E-007   3.2910922042828394E-007   0.0000000000000000     
   1.8176551571310833E-007   3.8301911541587562E-007   0.0000000000000000     
   1.9592707611961899E-007   4.4051039059073555E-007   0.0000000000000000     
   2.0996965341068729E-007   5.0152336243093598E-007   0.0000000000000000     
   2.2387878758581162E-007   5.6599834741454915E-007   0.0000000000000000     
   1.2530263226241807E-007   3.2546851406439523E-007   0.0000000000000000     
   1.3600005640672430E-007   3.7934856731872797E-007   0.0000000000000000     
   1.4662987857197572E-007   4.3682880350473944E-007   0.0000000000000000     
   1.5717528348367079E-007   4.9784656132929363E-007   0.0000000000000000     
   1.6761945586730795E-007   5.6233917949925480E-007   0.0000000000000000     
   8.3381783620734363E-008   3.2289621228449066E-007   0.0000000000000000     
   9.0512380434934252E-008   3.7675153232685485E-007   0.0000000000000000     
   9.7603047216552803E-008   4.3421132704397093E-007   0.0000000000000000     
   1.0463973158584058E-007   4.9521766190178753E-007   0.0000000000000000     
   1.1160838116304816E-007   5.5971260236625439E-007   0.0000000000000000     
   4.1644901783259319E-008   3.2136953561075362E-007   0.0000000000000000     
   4.5209893253742108E-008   3.7520799151468422E-007   0.0000000000000000     
   4.8756460719323677E-008   4.3264808420243578E-007   0.0000000000000000     
   5.2276726337324622E-008   4.9363877459874214E-007   0.0000000000000000     
   5.5762812265065555E-008   5.5812902362833660E-007   0.0000000000000000     
   2.2666465382247353E-015   3.2086570456536810E-007   0.0000000000000000     
   3.1915186605328011E-016   3.7469792595664423E-007   0.0000000000000000     
  -2.2537380158432921E-015   4.3212919797414024E-007   0.0000000000000000     
  -3.6417488656611071E-015   4.9311200987048087E-007   0.0000000000000000     
  -2.0346064490409163E-015   5.5759885089829043E-007   0.0000000000000000     
   2.2387878758581162E-007   5.6599834741454915E-007   0.0000000000000000     
   2.3764306708667207E-007   6.3388141362308982E-007   0.0000000000000000     
   2.5126327412367587E-007   7.0514163555184173E-007   0.0000000000000000     
   2.6474323934941202E-007   7.7975383929953232E-007   0.0000000000000000     
   2.7808679341646951E-007   8.5769285096488727E-007   0.0000000000000000     
   1.6761945586730795E-007   5.6233917949925480E-007   0.0000000000000000     
   1.7794930707280749E-007   6.3024975376842233E-007   0.0000000000000000     
   1.8816665494777741E-007   7.0154440807834019E-007   0.0000000000000000     
   1.9827704396424756E-007   7.7619502341748859E-007   0.0000000000000000     
   2.0828601859424777E-007   8.5417348077434709E-007   0.0000000000000000     
   1.1160838116304816E-007   5.5971260236625439E-007   0.0000000000000000     
   1.1849811348215736E-007   6.2764206074849489E-007   0.0000000000000000     
   1.2531072573207502E-007   6.9896733674033707E-007   0.0000000000000000     
   1.3205118501543898E-007   7.7365357687878297E-007   0.0000000000000000     
   1.3872445843488745E-007   8.5166592770083538E-007   0.0000000000000000     
   5.5762812265065555E-008   5.5812902362833660E-007   0.0000000000000000     
   5.9208630817254636E-008   6.2606935926629609E-007   0.0000000000000000     
   6.2615254938150521E-008   6.9741657768906848E-007   0.0000000000000000     
   6.5985547729399451E-008   7.7212904212344519E-007   0.0000000000000000     
   6.9322372292647703E-008   8.5016511579621818E-007   0.0000000000000000     
  -2.0346064490409163E-015   5.5759885089829043E-007   0.0000000000000000     
   3.5806323281108110E-015   6.2554267402481318E-007   0.0000000000000000     
   1.1027586027672657E-014   6.9689828707577121E-007   0.0000000000000000     
   1.7332542020062762E-014   7.7162096159150668E-007   0.0000000000000000     
   1.9521787664790820E-014   8.4966596911236104E-007   0.0000000000000000     
   2.7808679341646951E-007   8.5769285096488727E-007   0.0000000000000000     
   2.9129705006014571E-007   9.3893171881859455E-007   0.0000000000000000     
   3.0437425534657157E-007   1.0234363798191846E-006   0.0000000000000000     
   3.1731793842458683E-007   1.1111709930971489E-006   0.0000000000000000     
   3.3012762844303077E-007   1.2020997177829793E-006   0.0000000000000000     
   2.0828601859424777E-007   8.5417348077434709E-007   0.0000000000000000     
   2.1819787422933094E-007   9.3545050663180146E-007   0.0000000000000000     
   2.2801190993914191E-007   1.0199922094503615E-006   0.0000000000000000     
   2.3772617571284855E-007   1.1077635431849441E-006   0.0000000000000000     
   2.4733872153961871E-007   1.1987294617904648E-006   0.0000000000000000     
   1.3872445843488745E-007   8.5166592770083538E-007   0.0000000000000000     
   1.4533434222716197E-007   9.3297009852932545E-007   0.0000000000000000     
   1.5187994916541887E-007   1.0175340498303972E-006   0.0000000000000000     
   1.5835922115691791E-007   1.1053263048560231E-006   0.0000000000000000     
   1.6477010010891912E-007   1.1963153868581757E-006   0.0000000000000000     
   6.9322372292647703E-008   8.5016511579621818E-007   0.0000000000000000     
   7.2627905625462793E-008   9.3148550843916419E-007   0.0000000000000000     
   7.5901580309097488E-008   1.0160603158040060E-006   0.0000000000000000     
   7.9142142820725858E-008   1.1038619801474522E-006   0.0000000000000000     
   8.2348339637521984E-008   1.1948629437262117E-006   0.0000000000000000     
   1.9521787664790820E-014   8.4966596911236104E-007   0.0000000000000000     
   1.5996057303304527E-014   9.3099175028931490E-007   0.0000000000000000     
   1.0653872897040690E-014   1.0155694222159029E-006   0.0000000000000000     
   8.7682033595697665E-015   1.1033732710962979E-006   0.0000000000000000     
   1.5612017629019137E-014   1.1943775831346743E-006   0.0000000000000000     
   3.3012762844303077E-007   1.2020997177829793E-006   0.0000000000000000     
   3.4280336599395134E-007   1.2961884391872623E-006   0.0000000000000000     
   3.5534723744222992E-007   1.3934099473409660E-006   0.0000000000000000     
   3.6776184059595619E-007   1.4937387584551548E-006   0.0000000000000000     
   3.8004977326321987E-007   1.5971493887408924E-006   0.0000000000000000     
   2.4733872153961871E-007   1.1987294617904648E-006   0.0000000000000000     
   2.5684841509772663E-007   1.2928563580458798E-006   0.0000000000000000     
   2.6625739482187122E-007   1.3901163800263096E-006   0.0000000000000000     
   2.7556861683585792E-007   1.4904831146309132E-006   0.0000000000000000     
   2.8478503726349193E-007   1.5939301487588513E-006   0.0000000000000000     
   1.6477010010891912E-007   1.1963153868581757E-006   0.0000000000000000     
   1.7111127841551639E-007   1.2904701777893944E-006   0.0000000000000000     
   1.7738445041814029E-007   1.3877609944044919E-006   0.0000000000000000     
   1.8359206094505528E-007   1.4881585121588458E-006   0.0000000000000000     
   1.8973655482452590E-007   1.5916334065078356E-006   0.0000000000000000     
   8.2348339637521984E-008   1.1948629437262117E-006   0.0000000000000000     
   8.5519352371355714E-008   1.2890348415162720E-006   0.0000000000000000     
   8.8656103172879676E-008   1.3863460793707302E-006   0.0000000000000000     
   9.1759949327442552E-008   1.4867642558619646E-006   0.0000000000000000     
   9.4832248120392814E-008   1.5902569695623508E-006   0.0000000000000000     
   1.5612017629019137E-014   1.1943775831346743E-006   0.0000000000000000     
   3.3389279453777614E-014   1.2885552923249776E-006   0.0000000000000000     
   5.2027932246537713E-014   1.3858739238202433E-006   0.0000000000000000     
   5.8386914217574254E-014   1.4862996505632823E-006   0.0000000000000000     
   3.9325163616039544E-014   1.5897986454969028E-006   0.0000000000000000     
   3.8004977326321987E-007   1.5971493887408924E-006   0.0000000000000000     
   3.9221308219576694E-007   1.7036146779475032E-006   0.0000000000000000     
   4.0425160991996693E-007   1.8131007599773523E-006   0.0000000000000000     
   4.1616464790584579E-007   1.9255720922710664E-006   0.0000000000000000     
   4.2795148762342939E-007   2.0409931322692714E-006   0.0000000000000000     
   2.8478503726349193E-007   1.5939301487588513E-006   0.0000000000000000     
   2.9390889699821799E-007   1.7004297845019213E-006   0.0000000000000000     
   3.0293957601203791E-007   1.8099491847224712E-006   0.0000000000000000     
   3.1187573904659265E-007   1.9224542274754861E-006   0.0000000000000000     
   3.2071605084352374E-007   2.0379107908159527E-006   0.0000000000000000     
   1.8973655482452590E-007   1.5916334065078356E-006   0.0000000000000000     
   1.9581975950494018E-007   1.6981561838079774E-006   0.0000000000000000     
   2.0184103291517963E-007   1.8076966740203369E-006   0.0000000000000000     
   2.0779911560424912E-007   1.9202245380071144E-006   0.0000000000000000     
   2.1369274812115360E-007   2.0357094366305137E-006   0.0000000000000000     
   9.4832248120392814E-008   1.5902569695623508E-006   0.0000000000000000     
   9.7874009898647350E-008   1.6967928132475232E-006   0.0000000000000000     
   1.0088485725539673E-007   1.8063443565061396E-006   0.0000000000000000     
   1.0386406584539976E-007   1.9188851631301157E-006   0.0000000000000000     
   1.0681091132341541E-007   2.0343887969113685E-006   0.0000000000000000     
   3.9325163616039544E-014   1.5897986454969028E-006   0.0000000000000000     
  -1.1637946838198001E-014   1.6963386102024070E-006   0.0000000000000000     
  -7.4341306634222578E-014   1.8058933608150689E-006   0.0000000000000000     
  -1.2196337077551303E-013   1.9184382421086558E-006   0.0000000000000000     
  -1.2768259436232832E-013   2.0339485988569348E-006   0.0000000000000000     
   0.0000000000000000        0.0000000000000000        0.0000000000000000     
  -6.5410001996819876E-016  -5.7024387697856927E-012   0.0000000000000000     
  -3.7754968695721681E-016   5.5852702710714601E-009   0.0000000000000000     
   1.6156769429596886E-016   1.6518715745248537E-008   0.0000000000000000     
   2.9516881409129755E-016   3.2540431599486232E-008   0.0000000000000000     
   0.0000000000000000        0.0000000000000000        0.0000000000000000     
  -3.2305325761641297E-009   5.9525102945100085E-011   0.0000000000000000     
  -6.4641336511565627E-009   5.7050345689674391E-009   0.0000000000000000     
  -9.7377771309252053E-009   1.6689568756819982E-008   0.0000000000000000     
  -1.3088436921417971E-008   3.2766168025255688E-008   0.0000000000000000     
   0.0000000000000000        0.0000000000000000        0.0000000000000000     
  -6.4440410069816198E-009   2.5724960897860796E-010   0.0000000000000000     
  -1.2921787213325117E-008   6.0808430353566627E-009   0.0000000000000000     
  -1.9493615420086092E-008   1.7235653690168396E-008   0.0000000000000000     
  -2.6219902428320151E-008   3.3486554984448059E-008   0.0000000000000000     
   0.0000000000000000        0.0000000000000000        0.0000000000000000     
  -9.6235028504217945E-009   5.9053437108743061E-010   0.0000000000000000     
  -1.9366481420260440E-008   6.7374691467075673E-009   0.0000000000000000     
  -2.9285575242220809E-008   1.8207258897488359E-008   0.0000000000000000     
  -3.9437423849007768E-008   3.4766358194057746E-008   0.0000000000000000     
   0.0000000000000000        0.0000000000000000        0.0000000000000000     
  -1.2751895010353967E-008   1.0624426810282565E-009   0.0000000000000000     
  -2.5791736628167616E-008   7.6996863794886079E-009   0.0000000000000000     
  -3.9131717133635192E-008   1.9654672730974459E-008   0.0000000000000000     
  -5.2784028806950899E-008   3.6670343371079202E-008   0.0000000000000000     
   2.9516881409129755E-016   3.2540431599486232E-008   0.0000000000000000     
  -4.2334266834969569E-016   5.3409813883599952E-008   0.0000000000000000     
  -1.5546152498362996E-015   7.8940652383767494E-008   0.0000000000000000     
  -2.4378104645182229E-015   1.0896033532025728E-007   0.0000000000000000     
  -2.4120898536020589E-015   1.4329625091333773E-007   0.0000000000000000     
  -1.3088436921417971E-008   3.2766168025255688E-008   0.0000000000000000     
  -1.6541791598078099E-008   5.3698869402744888E-008   0.0000000000000000     
  -2.0078338414330128E-008   7.9295696596627250E-008   0.0000000000000000     
  -2.3667279293093946E-008   1.0937566998395989E-007   0.0000000000000000     
  -2.7277816157289401E-008   1.4375780994179984E-007   0.0000000000000000     
  -2.6219902428320151E-008   3.3486554984448059E-008   0.0000000000000000     
  -3.3141430755575819E-008   5.4604510110242563E-008   0.0000000000000000     
  -4.0220605785373458E-008   8.0384841383649565E-008   0.0000000000000000     
  -4.7400238617726223E-008   1.1062896090177947E-007   0.0000000000000000     
  -5.4623140352647461E-008   1.4513828076174257E-007   0.0000000000000000     
  -3.9437423849007768E-008   3.4766358194057746E-008   0.0000000000000000     
  -4.9856765676712458E-008   5.6184446798060280E-008   0.0000000000000000     
  -6.0490734774970928E-008   8.2244105235206877E-008   0.0000000000000000     
  -7.1264564096805533E-008   1.1273113922222510E-007   0.0000000000000000     
  -8.2103486595238580E-008   1.4743135447584247E-007   0.0000000000000000     
  -5.2784028806950899E-008   3.6670343371079202E-008   0.0000000000000000     
  -6.6745644142364599E-008   5.8496390258165314E-008   0.0000000000000000     
  -8.0952656490348359E-008   8.4909506641671548E-008   0.0000000000000000     
  -9.5325939415430055E-008   1.1569313609380585E-007   0.0000000000000000     
  -1.0978636648213738E-007   1.5063072218677594E-007   0.0000000000000000     
  -2.4120898536020589E-015   1.4329625091333773E-007   0.0000000000000000     
  -1.0936473552996492E-015   1.8178384520059649E-007   0.0000000000000000     
   7.9319350661186444E-016   2.2429079548889839E-007   0.0000000000000000     
   2.2470767798041377E-015   2.7069283690242759E-007   0.0000000000000000     
   2.2666465382247353E-015   3.2086570456536810E-007   0.0000000000000000     
  -2.7277816157289401E-008   1.4375780994179984E-007   0.0000000000000000     
  -3.0884228072458124E-008   1.8227177887651906E-007   0.0000000000000000     
  -3.4481102674628605E-008   2.2478980731174924E-007   0.0000000000000000     
  -3.8068104742451093E-008   2.7119476780043683E-007   0.0000000000000000     
  -4.1644899054575859E-008   3.2136953289552846E-007   0.0000000000000000     
  -5.4623140352647461E-008   1.4513828076174257E-007   0.0000000000000000     
  -6.1841155317589416E-008   1.8373046933699830E-007   0.0000000000000000     
  -6.9042260749760617E-008   2.2628822010640227E-007   0.0000000000000000     
  -7.6223467113808717E-008   2.7271048282515902E-007   0.0000000000000000     
  -8.3381784874381241E-008   3.2289620724847332E-007   0.0000000000000000     
  -8.2103486595238580E-008   1.4743135447584247E-007   0.0000000000000000     
  -9.2943483193815292E-008   1.8615224991599902E-007   0.0000000000000000     
  -1.0376352669817260E-007   2.2878809727548447E-007   0.0000000000000000     
  -1.1455333788447035E-007   2.7525486149030130E-007   0.0000000000000000     
  -1.2530263752886837E-007   3.2546850749645189E-007   0.0000000000000000     
  -1.0978636648213738E-007   1.5063072218677594E-007   0.0000000000000000     
  -1.2426391206590992E-007   1.8952945394748574E-007   0.0000000000000000     
  -1.3872495378583461E-007   2.3229150222162291E-007   0.0000000000000000     
  -1.5314497007191041E-007   2.7884278330957107E-007   0.0000000000000000     
  -1.6749943935413607E-007   3.2910921351171385E-007   0.0000000000000000     
   2.2666465382247353E-015   3.2086570456536810E-007   0.0000000000000000     
   3.1915186605328011E-016   3.7469792595664423E-007   0.0000000000000000     
  -2.2537380158432921E-015   4.3212919797414024E-007   0.0000000000000000     
  -3.6417488656611071E-015   4.9311200987048087E-007   0.0000000000000000     
  -2.0346064490409163E-015   5.5759885089829043E-007   0.0000000000000000     
  -4.1644899054575859E-008   3.2136953289552846E-007   0.0000000000000000     
  -4.5209892877851312E-008   3.7520798971419869E-007   0.0000000000000000     
  -4.8756463431918692E-008   4.3264808363053480E-007   0.0000000000000000     
  -5.2276730424617390E-008   4.9363877458285191E-007   0.0000000000000000     
  -5.5762813563786815E-008   5.5812902250946558E-007   0.0000000000000000     
  -8.3381784874381241E-008   3.2289620724847332E-007   0.0000000000000000     
  -9.0512380706357661E-008   3.7675152879695680E-007   0.0000000000000000     
  -9.7603046125544535E-008   4.3421132555285037E-007   0.0000000000000000     
  -1.0463972885798030E-007   4.9521766126380158E-007   0.0000000000000000     
  -1.1160837662970346E-007   5.5971259967745841E-007   0.0000000000000000     
  -1.2530263752886837E-007   3.2546850749645189E-007   0.0000000000000000     
  -1.3600005750047614E-007   3.7934856220156334E-007   0.0000000000000000     
  -1.4662987404020167E-007   4.3682880039976209E-007   0.0000000000000000     
  -1.5717527448190258E-007   4.9784655885679927E-007   0.0000000000000000     
  -1.6761944615943653E-007   5.6233917433842642E-007   0.0000000000000000     
  -1.6749943935413607E-007   3.2910921351171385E-007   0.0000000000000000     
  -1.8176551759431589E-007   3.8301910892466330E-007   0.0000000000000000     
  -1.9592707088147629E-007   4.4051038482994573E-007   0.0000000000000000     
  -2.0996964283644918E-007   5.0152335630531578E-007   0.0000000000000000     
  -2.2387877708006640E-007   5.6599833842852780E-007   0.0000000000000000     
  -2.0346064490409163E-015   5.5759885089829043E-007   0.0000000000000000     
   3.5806323281108110E-015   6.2554267402481318E-007   0.0000000000000000     
   1.1027586027672657E-014   6.9689828707577121E-007   0.0000000000000000     
   1.7332542020062762E-014   7.7162096159150668E-007   0.0000000000000000     
   1.9521787664790820E-014   8.4966596911236104E-007   0.0000000000000000     
  -5.5762813563786815E-008   5.5812902250946558E-007   0.0000000000000000     
  -5.9208623771091097E-008   6.2606935486765559E-007   0.0000000000000000     
  -6.2615236823493204E-008   6.9741656919056299E-007   0.0000000000000000     
  -6.5985519711780892E-008   7.7212903053029297E-007   0.0000000000000000     
  -6.9322339426741819E-008   8.5016510393895155E-007   0.0000000000000000     
  -1.1160837662970346E-007   5.5971259967745841E-007   0.0000000000000000     
  -1.1849810696495523E-007   6.2764205220091961E-007   0.0000000000000000     
  -1.2531071658078863E-007   6.9896732087908873E-007   0.0000000000000000     
  -1.3205117199245938E-007   7.7365355541631953E-007   0.0000000000000000     
  -1.3872443971522323E-007   8.5166590551696657E-007   0.0000000000000000     
  -1.6761944615943653E-007   5.6233917433842642E-007   0.0000000000000000     
  -1.7794930177391426E-007   6.3024974157132206E-007   0.0000000000000000     
  -1.8816665549545822E-007   7.0154438712587349E-007   0.0000000000000000     
  -1.9827704686144400E-007   7.7619499553339627E-007   0.0000000000000000     
  -2.0828601540924743E-007   8.5417345132520502E-007   0.0000000000000000     
  -2.2387877708006640E-007   5.6599833842852780E-007   0.0000000000000000     
  -2.3764306397092226E-007   6.3388139852558018E-007   0.0000000000000000     
  -2.5126328081866002E-007   7.0514161291544409E-007   0.0000000000000000     
  -2.6474325167068584E-007   7.7975381016533488E-007   0.0000000000000000     
  -2.7808680057440524E-007   8.5769281884246686E-007   0.0000000000000000     
   1.9521787664790820E-014   8.4966596911236104E-007   0.0000000000000000     
   1.5996057303304527E-014   9.3099175028931490E-007   0.0000000000000000     
   1.0653872897040690E-014   1.0155694222159029E-006   0.0000000000000000     
   8.7682033595697665E-015   1.1033732710962979E-006   0.0000000000000000     
   1.5612017629019137E-014   1.1943775831346743E-006   0.0000000000000000     
  -6.9322339426741819E-008   8.5016510393895155E-007   0.0000000000000000     
  -7.2627875030289544E-008   9.3148550008452925E-007   0.0000000000000000     
  -7.5901553868841035E-008   1.0160603120985613E-006   0.0000000000000000     
  -7.9142115359939228E-008   1.1038619787284689E-006   0.0000000000000000     
  -8.2348298921126902E-008   1.1948629387216721E-006   0.0000000000000000     
  -1.3872443971522323E-007   8.5166590551696657E-007   0.0000000000000000     
  -1.4533431558704871E-007   9.3297008213658015E-007   0.0000000000000000     
  -1.5187991273675490E-007   1.0175340412354954E-006   0.0000000000000000     
  -1.5835917361587351E-007   1.1053263000252426E-006   0.0000000000000000     
  -1.6477004067593631E-007   1.1963153757173538E-006   0.0000000000000000     
  -2.0828601540924743E-007   8.5417345132520502E-007   0.0000000000000000     
  -2.1819785374875029E-007   9.3545048283399470E-007   0.0000000000000000     
  -2.2801186677986038E-007   1.0199921935979760E-006   0.0000000000000000     
  -2.3772611247499181E-007   1.1077635309567399E-006   0.0000000000000000     
  -2.4733864880655849E-007   1.1987294422498780E-006   0.0000000000000000     
  -2.7808680057440524E-007   8.5769281884246686E-007   0.0000000000000000     
  -2.9129703758992437E-007   9.3893168856530046E-007   0.0000000000000000     
  -3.0437421682814937E-007   1.0234363531572769E-006   0.0000000000000000     
  -3.1731787841268622E-007   1.1111709674930825E-006   0.0000000000000000     
  -3.3012756246714137E-007   1.2020996864474035E-006   0.0000000000000000     
   1.5612017629019137E-014   1.1943775831346743E-006   0.0000000000000000     
   3.3389279453777614E-014   1.2885552923249776E-006   0.0000000000000000     
   5.2027932246537713E-014   1.3858739238202433E-006   0.0000000000000000     
   5.8386914217574254E-014   1.4862996505632823E-006   0.0000000000000000     
   3.9325163616039544E-014   1.5897986454969028E-006   0.0000000000000000     
  -8.2348298921126902E-008   1.1948629387216721E-006   0.0000000000000000     
  -8.5519283211966866E-008   1.2890348259077077E-006   0.0000000000000000     
  -8.8656003860101548E-008   1.3863460544445754E-006   0.0000000000000000     
  -9.1759835735193291E-008   1.4867642335723913E-006   0.0000000000000000     
  -9.4832153706904565E-008   1.5902569725312699E-006   0.0000000000000000     
  -1.6477004067593631E-007   1.1963153757173538E-006   0.0000000000000000     
  -1.7111120653479610E-007   1.2904701483315830E-006   0.0000000000000000     
  -1.7738436447558972E-007   1.3877609491205751E-006   0.0000000000000000     
  -1.8359195794777507E-007   1.4881584721451989E-006   0.0000000000000000     
  -1.8973643040081014E-007   1.5916334114663237E-006   0.0000000000000000     
  -2.4733864880655849E-007   1.1987294422498780E-006   0.0000000000000000     
  -2.5684834678691082E-007   1.2928563182574528E-006   0.0000000000000000     
  -2.6625732958814257E-007   1.3901163235214164E-006   0.0000000000000000     
  -2.7556853342228399E-007   1.4904830660241935E-006   0.0000000000000000     
  -2.8478489450136532E-007   1.5939301537482097E-006   0.0000000000000000     
  -3.3012756246714137E-007   1.2020996864474035E-006   0.0000000000000000     
  -3.4280331417601326E-007   1.2961883943461688E-006   0.0000000000000000     
  -3.5534719896737030E-007   1.3934098933202757E-006   0.0000000000000000     
  -3.6776178733017310E-007   1.4937387149518635E-006   0.0000000000000000     
  -3.8004964975338246E-007   1.5971493908230729E-006   0.0000000000000000     
   3.9325163616039544E-014   1.5897986454969028E-006   0.0000000000000000     
  -1.1637946838198001E-014   1.6963386102024070E-006   0.0000000000000000     
  -7.4341306634222578E-014   1.8058933608150689E-006   0.0000000000000000     
  -1.2196337077551303E-013   1.9184382421086558E-006   0.0000000000000000     
  -1.2768259436232832E-013   2.0339485988569348E-006   0.0000000000000000     
  -9.4832153706904565E-008   1.5902569725312699E-006   0.0000000000000000     
  -9.7873977569272278E-008   1.6967928643314550E-006   0.0000000000000000     
  -1.0088490681383190E-007   1.8063444370637034E-006   0.0000000000000000     
  -1.0386418585649345E-007   1.9188852025888953E-006   0.0000000000000000     
  -1.0681105911316698E-007   2.0343886727679162E-006   0.0000000000000000     
  -1.8973643040081014E-007   1.5916334114663237E-006   0.0000000000000000     
  -1.9581961094833309E-007   1.6981562744013959E-006   0.0000000000000000     
  -2.0184087136070342E-007   1.8076968212941708E-006   0.0000000000000000     
  -2.0779896907246072E-007   1.9202246257449825E-006   0.0000000000000000     
  -2.1369266151814477E-007   2.0357092613541655E-006   0.0000000000000000     
  -2.8478489450136532E-007   1.5939301537482097E-006   0.0000000000000000     
  -2.9390864747527710E-007   1.7004298914559307E-006   0.0000000000000000     
  -3.0293922074535137E-007   1.8099493710299895E-006   0.0000000000000000     
  -3.1187534115078065E-007   1.9224543811330619E-006   0.0000000000000000     
  -3.2071573553075764E-007   2.0379107104278233E-006   0.0000000000000000     
  -3.8004964975338246E-007   1.5971493908230729E-006   0.0000000000000000     
  -3.9221282285025184E-007   1.7036147665387630E-006   0.0000000000000000     
  -4.0425120773120561E-007   1.8131009437946766E-006   0.0000000000000000     
  -4.1616417163096112E-007   1.9255723383092772E-006   0.0000000000000000     
  -4.2795108178423569E-007   2.0409933658010285E-006   0.0000000000000000     
   0.0000000000000000        0.0000000000000000        0.0000000000000000     
  -1.2751895010353967E-008   1.0624426810282565E-009   0.0000000000000000     
  -2.5791736628167616E-008   7.6996863794886079E-009   0.0000000000000000     
  -3.9131717133635192E-008   1.9654672730974459E-008   0.0000000000000000     
  -5.2784028806950899E-008   3.6670343371079202E-008   0.0000000000000000     
   0.0000000000000000        0.0000000000000000        0.0000000000000000     
  -1.5831241639958656E-008   1.6813448767957851E-009   0.0000000000000000     
  -3.2209891232468262E-008   8.9945097600174572E-009   0.0000000000000000     
  -4.9059102275884966E-008   2.1624529667714989E-008   0.0000000000000000     
  -6.6302028268564901E-008   3.9256439617938337E-008   0.0000000000000000     
   0.0000000000000000        0.0000000000000000        0.0000000000000000     
  -1.8939755889661225E-008   2.4768394813367463E-009   0.0000000000000000     
  -3.8708555785450059E-008   1.0657920514008704E-008   0.0000000000000000     
  -5.9130794431525490E-008   2.4148848684373096E-008   0.0000000000000000     
  -8.0030866572046468E-008   4.2555229578787125E-008   0.0000000000000000     
   0.0000000000000000        0.0000000000000000        0.0000000000000000     
  -2.2174698159198266E-008   3.4838320638358814E-009   0.0000000000000000     
  -4.5394158878617198E-008   1.2728141417026157E-008   0.0000000000000000     
  -6.9418858008361971E-008   2.7255994882505629E-008   0.0000000000000000     
  -9.4009271398537639E-008   4.6590459283209046E-008   0.0000000000000000     
   0.0000000000000000        0.0000000000000000        0.0000000000000000     
  -2.5633328848306333E-008   4.7372281934779262E-009   0.0000000000000000     
  -5.2373129103473896E-008   1.5243395244633643E-008   0.0000000000000000     
  -7.9995357414199621E-008   3.0974333363669447E-008   0.0000000000000000     
  -1.0827597042918039E-007   5.1385874760787590E-008   0.0000000000000000     
  -5.2784028806950899E-008   3.6670343371079202E-008   0.0000000000000000     
  -6.6745644142364599E-008   5.8496390258165314E-008   0.0000000000000000     
  -8.0952656490348359E-008   8.4909506641671548E-008   0.0000000000000000     
  -9.5325939415430055E-008   1.1569313609380585E-007   0.0000000000000000     
  -1.0978636648213738E-007   1.5063072218677594E-007   0.0000000000000000     
  -6.6302028268564901E-008   3.9256439617938337E-008   0.0000000000000000     
  -8.3863015695478175E-008   6.1594696868474024E-008   0.0000000000000000     
  -1.0167118298805084E-007   8.8421447636054790E-008   0.0000000000000000     
  -1.1965684156432295E-007   1.1953826037714993E-007   0.0000000000000000     
  -1.3775030284233452E-007   1.5474670354822869E-007   0.0000000000000000     
  -8.0030866572046468E-008   4.2555229578787125E-008   0.0000000000000000     
  -1.0125223692727702E-007   6.5520305350699263E-008   0.0000000000000000     
  -1.2271465012190104E-007   9.2837864421922910E-008   0.0000000000000000     
  -1.4435692075670745E-007   1.2433933178136264E-007   0.0000000000000000     
  -1.6611786343248527E-007   1.5985613241792312E-007   0.0000000000000000     
  -9.4009271398537639E-008   4.6590459283209046E-008   0.0000000000000000     
  -1.1895376619105419E-007   7.0310800012503016E-008   0.0000000000000000     
  -1.4415227469504087E-007   9.8221076745481003E-008   0.0000000000000000     
  -1.6953262051143183E-007   1.3018154772766850E-007   0.0000000000000000     
  -1.9502262724116109E-007   1.6605247120459064E-007   0.0000000000000000     
  -1.0827597042918039E-007   5.1385874760787590E-008   0.0000000000000000     
  -1.3700806184010283E-007   7.6003765161547187E-008   0.0000000000000000     
  -1.6605327351061237E-007   1.0463340435293431E-007   0.0000000000000000     
  -1.9529038434734424E-007   1.3715010563729199E-007   0.0000000000000000     
  -2.2459817325693344E-007   1.7342918231696307E-007   0.0000000000000000     
  -1.0978636648213738E-007   1.5063072218677594E-007   0.0000000000000000     
  -1.2426391206590992E-007   1.8952945394748574E-007   0.0000000000000000     
  -1.3872495378583461E-007   2.3229150222162291E-007   0.0000000000000000     
  -1.5314497007191041E-007   2.7884278330957107E-007   0.0000000000000000     
  -1.6749943935413607E-007   3.2910921351171385E-007   0.0000000000000000     
  -1.3775030284233452E-007   1.5474670354822869E-007   0.0000000000000000     
  -1.5588584823795440E-007   1.9386877616203797E-007   0.0000000000000000     
  -1.7401363915836724E-007   2.3680819945643471E-007   0.0000000000000000     
  -1.9208780700858654E-007   2.8348912522555366E-007   0.0000000000000000     
  -2.1006248319362575E-007   3.3383570526352922E-007   0.0000000000000000     
  -1.6611786343248527E-007   1.5985613241792312E-007   0.0000000000000000     
  -1.8793552177125866E-007   1.9923435687669304E-007   0.0000000000000000     
  -2.0974485547999335E-007   2.4237875792749803E-007   0.0000000000000000     
  -2.3148005328689026E-007   2.8920875389634785E-007   0.0000000000000000     
  -2.5307530392015036E-007   3.3964376310925214E-007   0.0000000000000000     
  -1.9502262724116109E-007   1.6605247120459064E-007   0.0000000000000000     
  -2.2054986866643972E-007   2.0570469780510303E-007   0.0000000000000000     
  -2.4604091929458625E-007   2.4905144769138115E-007   0.0000000000000000     
  -2.7142210381419643E-007   2.9601653340893077E-007   0.0000000000000000     
  -2.9661974691386554E-007   3.4652376750325760E-007   0.0000000000000000     
  -2.2459817325693344E-007   1.7342918231696307E-007   0.0000000000000000     
  -2.5386582492411456E-007   2.1335830066091990E-007   0.0000000000000000     
  -2.8302414714601960E-007   2.5687453880465234E-007   0.0000000000000000     
  -3.1201435349787995E-007   3.0392732785027956E-007   0.0000000000000000     
  -3.4077765755492711E-007   3.5446609889992058E-007   0.0000000000000000     
  -1.6749943935413607E-007   3.2910921351171385E-007   0.0000000000000000     
  -1.8176551759431589E-007   3.8301910892466330E-007   0.0000000000000000     
  -1.9592707088147629E-007   4.4051038482994573E-007   0.0000000000000000     
  -2.0996964283644918E-007   5.0152335630531578E-007   0.0000000000000000     
  -2.2387877708006640E-007   5.6599833842852780E-007   0.0000000000000000     
  -2.1006248319362575E-007   3.3383570526352922E-007   0.0000000000000000     
  -2.2789837339684264E-007   3.8777711255329537E-007   0.0000000000000000     
  -2.4558248041497219E-007   4.4526260483298297E-007   0.0000000000000000     
  -2.6310838132309350E-007   5.0624646102952259E-007   0.0000000000000000     
  -2.8046965319628584E-007   5.7068296006984434E-007   0.0000000000000000     
  -2.5307530392015036E-007   3.3964376310925214E-007   0.0000000000000000     
  -2.7447630961644963E-007   3.9361221503607299E-007   0.0000000000000000     
  -2.9567482664636368E-007   4.5107858372208165E-007   0.0000000000000000     
  -3.1667412478894308E-007   5.1201635435640146E-007   0.0000000000000000     
  -3.3747747382323854E-007   5.7639901212815642E-007   0.0000000000000000     
  -2.9661974691386554E-007   3.4652376750325760E-007   0.0000000000000000     
  -3.2157402903638678E-007   4.0050798291200373E-007   0.0000000000000000     
  -3.4628055364134285E-007   4.5794809414135547E-007   0.0000000000000000     
  -3.7074877994251413E-007   5.1883403608963601E-007   0.0000000000000000     
  -3.9498816715368093E-007   5.8315574365516840E-007   0.0000000000000000     
  -3.4077765755492711E-007   3.5446609889992058E-007   0.0000000000000000     
  -3.6926623443990415E-007   4.0844798272009454E-007   0.0000000000000000     
  -3.9747610546560188E-007   4.6586090873491864E-007   0.0000000000000000     
  -4.2541425349232294E-007   5.2670050603291010E-007   0.0000000000000000     
  -4.5308766138036981E-007   5.9096240370258580E-007   0.0000000000000000     
  -2.2387877708006640E-007   5.6599833842852780E-007   0.0000000000000000     
  -2.3764306397092226E-007   6.3388139852558018E-007   0.0000000000000000     
  -2.5126328081866002E-007   7.0514161291544409E-007   0.0000000000000000     
  -2.6474325167068584E-007   7.7975381016533488E-007   0.0000000000000000     
  -2.7808680057440524E-007   8.5769281884246686E-007   0.0000000000000000     
  -2.8046965319628584E-007   5.7068296006984434E-007   0.0000000000000000     
  -2.9766088270735738E-007   6.3852927313312382E-007   0.0000000000000000     
  -3.1468069492003235E-007   7.0975414040751776E-007   0.0000000000000000     
  -3.3152872449576413E-007   7.8432919433342867E-007   0.0000000000000000     
  -3.4820460609600588E-007   8.6222606735125820E-007   0.0000000000000000     
  -3.3747747382323854E-007   5.7639901212815642E-007   0.0000000000000000     
  -3.5808678064829495E-007   6.4419871355423409E-007   0.0000000000000000     
  -3.7849850064313488E-007   7.1538230046258017E-007   0.0000000000000000     
  -3.9870772630677454E-007   7.8991528600890520E-007   0.0000000000000000     
  -4.1870955013823141E-007   8.6776318334891938E-007   0.0000000000000000     
  -3.9498816715368093E-007   5.8315574365516840E-007   0.0000000000000000     
  -4.1900541383723439E-007   6.5089834247190419E-007   0.0000000000000000     
  -4.4279617595000660E-007   7.2202772111630832E-007   0.0000000000000000     
  -4.6635334879744156E-007   7.9650495890047470E-007   0.0000000000000000     
  -4.8966982768498218E-007   8.7429113513649774E-007   0.0000000000000000     
  -4.5308766138036981E-007   5.9096240370258580E-007   0.0000000000000000     
  -4.8050143831767475E-007   6.5863678256912805E-007   0.0000000000000000     
  -5.0765319880268810E-007   7.2969203040437932E-007   0.0000000000000000     
  -5.3453868366148938E-007   8.0409108671684802E-007   0.0000000000000000     
  -5.6115363372015913E-007   8.8179689101504184E-007   0.0000000000000000     
  -2.7808680057440524E-007   8.5769281884246686E-007   0.0000000000000000     
  -2.9129703758992437E-007   9.3893168856530046E-007   0.0000000000000000     
  -3.0437421682814937E-007   1.0234363531572769E-006   0.0000000000000000     
  -3.1731787841268622E-007   1.1111709674930825E-006   0.0000000000000000     
  -3.3012756246714137E-007   1.2020996864474035E-006   0.0000000000000000     
  -3.4820460609600588E-007   8.6222606735125820E-007   0.0000000000000000     
  -3.6470845329521305E-007   9.4341572788784895E-007   0.0000000000000000     
  -3.8104229531985070E-007   1.0278664883158030E-006   0.0000000000000000     
  -3.9720864030938613E-007   1.1155459969941634E-006   0.0000000000000000     
  -4.1320999640328680E-007   1.2064219022819724E-006   0.0000000000000000     
  -4.1870955013823141E-007   8.6776318334891938E-007   0.0000000000000000     
  -4.3850083948970679E-007   9.4889279803428721E-007   0.0000000000000000     
  -4.5808556112614389E-007   1.0332761052004920E-006   0.0000000000000000     
  -4.7746945666567031E-007   1.1208863723789715E-006   0.0000000000000000     
  -4.9665826772641446E-007   1.2116968671011636E-006   0.0000000000000000     
  -4.8966982768498218E-007   8.7429113513649774E-007   0.0000000000000000     
  -5.1274097290860838E-007   9.5535013840608704E-007   0.0000000000000000     
  -5.3557200472644530E-007   1.0396570943694143E-006   0.0000000000000000     
  -5.5817060838715463E-007   1.1271899379562695E-006   0.0000000000000000     
  -5.8054446913939806E-007   1.2179266040964400E-006   0.0000000000000000     
  -5.6115363372015913E-007   8.8179689101504184E-007   0.0000000000000000     
  -5.8749563028712026E-007   9.6277498840471914E-007   0.0000000000000000     
  -6.1356961660017170E-007   1.0470013463806413E-006   0.0000000000000000     
  -6.3938237637945508E-007   1.1344545380348198E-006   0.0000000000000000     
  -6.6494069334511214E-007   1.2251131364592656E-006   0.0000000000000000     
  -3.3012756246714137E-007   1.2020996864474035E-006   0.0000000000000000     
  -3.4280331417601326E-007   1.2961883943461688E-006   0.0000000000000000     
  -3.5534719896737030E-007   1.3934098933202757E-006   0.0000000000000000     
  -3.6776178733017310E-007   1.4937387149518635E-006   0.0000000000000000     
  -3.8004964975338246E-007   1.5971493908230729E-006   0.0000000000000000     
  -4.1320999640328680E-007   1.2064219022819724E-006   0.0000000000000000     
  -4.2904866192306067E-007   1.3004626293150562E-006   0.0000000000000000     
  -4.4472609591838098E-007   1.3976397103363744E-006   0.0000000000000000     
  -4.6024354762096139E-007   1.4979254543656702E-006   0.0000000000000000     
  -4.7560226626251596E-007   1.6012921704226868E-006   0.0000000000000000     
  -4.9665826772641446E-007   1.2116968671011636E-006   0.0000000000000000     
  -5.1565671530202992E-007   1.3056800521073425E-006   0.0000000000000000     
  -5.3446543788827489E-007   1.4028051709731283E-006   0.0000000000000000     
  -5.5308405335643349E-007   1.5030406624829777E-006   0.0000000000000000     
  -5.7151217957778942E-007   1.6063549654213487E-006   0.0000000000000000     
  -5.8054446913939806E-007   1.2179266040964400E-006   0.0000000000000000     
  -6.0269974260015194E-007   1.3118428857227299E-006   0.0000000000000000     
  -6.2463646585964966E-007   1.4089060077799995E-006   0.0000000000000000     
  -6.4635314637643906E-007   1.5090810532161254E-006   0.0000000000000000     
  -6.6784829160906839E-007   1.6123331049789842E-006   0.0000000000000000     
  -6.6494069334511214E-007   1.2251131364592656E-006   0.0000000000000000     
  -6.9025001210465867E-007   1.3189533531609213E-006   0.0000000000000000     
  -7.1531042081510346E-007   1.4159419533064524E-006   0.0000000000000000     
  -7.4012066852082936E-007   1.5160433404774528E-006   0.0000000000000000     
  -7.6467950426621922E-007   1.6192219182555198E-006   0.0000000000000000     
  -3.8004964975338246E-007   1.5971493908230729E-006   0.0000000000000000     
  -3.9221282285025184E-007   1.7036147665387630E-006   0.0000000000000000     
  -4.0425120773120561E-007   1.8131009437946766E-006   0.0000000000000000     
  -4.1616417163096112E-007   1.9255723383092772E-006   0.0000000000000000     
  -4.2795108178423569E-007   2.0409933658010285E-006   0.0000000000000000     
  -4.7560226626251596E-007   1.6012921704226868E-006   0.0000000000000000     
  -4.9080341619245322E-007   1.7077112666054839E-006   0.0000000000000000     
  -5.0584782223096167E-007   1.8171505473253858E-006   0.0000000000000000     
  -5.2073622431592429E-007   1.9295769160720332E-006   0.0000000000000000     
  -5.3546936238522437E-007   2.0449572763350671E-006   0.0000000000000000     
  -5.7151217957778942E-007   1.6063549654213487E-006   0.0000000000000000     
  -5.8974988029727006E-007   1.7127170222592385E-006   0.0000000000000000     
  -6.0779900275437560E-007   1.8220977902138099E-006   0.0000000000000000     
  -6.2566184006224862E-007   1.9344687301887652E-006   0.0000000000000000     
  -6.4334068533403256E-007   2.0498013030878098E-006   0.0000000000000000     
  -6.6784829160906839E-007   1.6123331049789842E-006   0.0000000000000000     
  -6.8912121137913943E-007   1.7186289800150607E-006   0.0000000000000000     
  -7.1017442496046841E-007   1.8279424312652786E-006   0.0000000000000000     
  -7.3101125398992658E-007   1.9402489456691709E-006   0.0000000000000000     
  -7.5163502010438359E-007   2.0555240101662718E-006   0.0000000000000000     
  -7.6467950426621922E-007   1.6192219182555198E-006   0.0000000000000000     
  -7.8898640565249807E-007   1.7254440863879835E-006   0.0000000000000000     
  -8.1304376450826204E-007   1.8346842292851215E-006   0.0000000000000000     
  -8.3685470121895038E-007   1.9469187275229452E-006   0.0000000000000000     
  -8.6042233617000203E-007   2.0621239616774681E-006   0.0000000000000000     
   0.0000000000000000        0.0000000000000000        0.0000000000000000     
  -2.5633328848306333E-008   4.7372281934779262E-009   0.0000000000000000     
  -5.2373129103473896E-008   1.5243395244633643E-008   0.0000000000000000     
  -7.9995357414199621E-008   3.0974333363669447E-008   0.0000000000000000     
  -1.0827597042918039E-007   5.1385874760787590E-008   0.0000000000000000     
   0.0000000000000000        0.0000000000000000        0.0000000000000000     
  -2.9366537823528255E-008   6.2841743494679686E-009   0.0000000000000000     
  -5.9721144913698505E-008   1.8274087718835470E-008   0.0000000000000000     
  -9.0945761372515845E-008   3.5382375135470707E-008   0.0000000000000000     
  -1.2292232730198529E-007   5.7021671626741843E-008   0.0000000000000000     
   0.0000000000000000        0.0000000000000000        0.0000000000000000     
  -3.3239732818631746E-008   8.2207806510924773E-009   0.0000000000000000     
  -6.7390884211666136E-008   2.2019356347397978E-008   0.0000000000000000     
  -1.0240915586947667E-007   4.0759214829712827E-008   0.0000000000000000     
  -1.3825024948243708E-007   6.3803843838833410E-008   0.0000000000000000     
   0.0000000000000000        0.0000000000000000        0.0000000000000000     
  -3.7071951034190773E-008   1.0655398127658267E-008   0.0000000000000000     
  -7.5304274761925921E-008   2.6710521584527957E-008   0.0000000000000000     
  -1.1453803120692036E-007   4.7434092984248562E-008   0.0000000000000000     
  -1.5461428039288897E-007   7.2094834940459535E-008   0.0000000000000000     
   0.0000000000000000        0.0000000000000000        0.0000000000000000     
  -4.0682229670779271E-008   1.3696377808472153E-008   0.0000000000000000     
  -8.3383244329027167E-008   3.2578903884432267E-008   0.0000000000000000     
  -1.2748487768668507E-007   5.5736250136930609E-008   0.0000000000000000     
  -1.7236896345569438E-007   8.2257088475017475E-008   0.0000000000000000     
  -1.0827597042918039E-007   5.1385874760787590E-008   0.0000000000000000     
  -1.3700806184010283E-007   7.6003765161547187E-008   0.0000000000000000     
  -1.6605327351061237E-007   1.0463340435293431E-007   0.0000000000000000     
  -1.9529038434734424E-007   1.3715010563729199E-007   0.0000000000000000     
  -2.2459817325693344E-007   1.7342918231696307E-007   0.0000000000000000     
  -1.2292232730198529E-007   5.7021671626741843E-008   0.0000000000000000     
  -1.5551695897003972E-007   8.2681429731542498E-008   0.0000000000000000     
  -1.8853247730832311E-007   1.1215837203486811E-007   0.0000000000000000     
  -2.2175587941440711E-007   1.4532603863323949E-007   0.0000000000000000     
  -2.5497416238586366E-007   1.8205796962317746E-007   0.0000000000000000     
  -1.3825024948243708E-007   6.3803843838833410E-008   0.0000000000000000     
  -1.7482779964577598E-007   9.0604601160395011E-008   0.0000000000000000     
  -2.1188717257414226E-007   1.2096432475938887E-007   0.0000000000000000     
  -2.4913166738703987E-007   1.5477372264564499E-007   0.0000000000000000     
  -2.8626458320397265E-007   1.9192350282899370E-007   0.0000000000000000     
  -1.5461428039288897E-007   7.2094834940459535E-008   0.0000000000000000     
  -1.9534930267454630E-007   1.0007873151205943E-007   0.0000000000000000     
  -2.3646025973060456E-007   1.3124081253898309E-007   0.0000000000000000     
  -2.7763953357077589E-007   1.6555336930642456E-007   0.0000000000000000     
  -3.1857950620477158E-007   2.0298869309957747E-007   0.0000000000000000     
  -1.7236896345569438E-007   8.2257088475017475E-008   0.0000000000000000     
  -2.1749018686358546E-007   1.1140927285049058E-007   0.0000000000000000     
  -2.6259463920024496E-007   1.4317738538613768E-007   0.0000000000000000     
  -3.0750126327114837E-007   1.7772519024749388E-007   0.0000000000000000     
  -3.5202900188177134E-007   2.1521645160009442E-007   0.0000000000000000     
  -2.2459817325693344E-007   1.7342918231696307E-007   0.0000000000000000     
  -2.5386582492411456E-007   2.1335830066091990E-007   0.0000000000000000     
  -2.8302414714601960E-007   2.5687453880465234E-007   0.0000000000000000     
  -3.1201435349787995E-007   3.0392732785027956E-007   0.0000000000000000     
  -3.4077765755492711E-007   3.5446609889992058E-007   0.0000000000000000     
  -2.5497416238586366E-007   1.8205796962317746E-007   0.0000000000000000     
  -2.8800708613475083E-007   2.2224906296596218E-007   0.0000000000000000     
  -3.2080546183107371E-007   2.6587964808191189E-007   0.0000000000000000     
  -3.5335286345932345E-007   3.1295141225610374E-007   0.0000000000000000     
  -3.8563286500399155E-007   3.6346604277361504E-007   0.0000000000000000     
  -2.8626458320397265E-007   1.9192350282899370E-007   0.0000000000000000     
  -3.2304438624821961E-007   2.3233246547471502E-007   0.0000000000000000     
  -3.5945021115815829E-007   2.7603177936988861E-007   0.0000000000000000     
  -3.9551635967594104E-007   3.2308070545704402E-007   0.0000000000000000     
  -4.3127713354372062E-007   3.7353850467871090E-007   0.0000000000000000     
  -3.1857950620477158E-007   2.0298869309957747E-007   0.0000000000000000     
  -3.5903521880424220E-007   2.4353938474982963E-007   0.0000000000000000     
  -3.9901234918858979E-007   2.8727928327334321E-007   0.0000000000000000     
  -4.3857923433915456E-007   3.3430253723247392E-007   0.0000000000000000     
  -4.7780421123727715E-007   3.8470329518957745E-007   0.0000000000000000     
  -3.5202900188177134E-007   2.1521645160009442E-007   0.0000000000000000     
  -3.9603707734254031E-007   2.5580069735395780E-007   0.0000000000000000     
  -4.3954582998368493E-007   2.9957051039703671E-007   0.0000000000000000     
  -4.8261587964038586E-007   3.4660423736176672E-007   0.0000000000000000     
  -5.2530784614782404E-007   3.9698022488058394E-007   0.0000000000000000     
  -3.4077765755492711E-007   3.5446609889992058E-007   0.0000000000000000     
  -3.6926623443990415E-007   4.0844798272009454E-007   0.0000000000000000     
  -3.9747610546560188E-007   4.6586090873491864E-007   0.0000000000000000     
  -4.2541425349232294E-007   5.2670050603291010E-007   0.0000000000000000     
  -4.5308766138036981E-007   5.9096240370258580E-007   0.0000000000000000     
  -3.8563286500399155E-007   3.6346604277361504E-007   0.0000000000000000     
  -4.1763066151967497E-007   4.1742264094408226E-007   0.0000000000000000     
  -4.4933793234139434E-007   4.7480996417537862E-007   0.0000000000000000     
  -4.8074797787427584E-007   5.3561418389993555E-007   0.0000000000000000     
  -5.1185409852344557E-007   5.9982147155018561E-007   0.0000000000000000     
  -4.3127713354372062E-007   3.7353850467871090E-007   0.0000000000000000     
  -4.6675717760606706E-007   4.2744982384662137E-007   0.0000000000000000     
  -5.0194250911722105E-007   4.8480085324931665E-007   0.0000000000000000     
  -5.3680948843384127E-007   5.4556316904454041E-007   0.0000000000000000     
  -5.7133447591258605E-007   6.0970834739003650E-007   0.0000000000000000     
  -4.7780421123727715E-007   3.8470329518957745E-007   0.0000000000000000     
  -5.1673868293887121E-007   4.3855425763509493E-007   0.0000000000000000     
  -5.5536631679814444E-007   4.9584233277180733E-007   0.0000000000000000     
  -5.9365384624387857E-007   5.5653298073058061E-007   0.0000000000000000     
  -6.3156800470485380E-007   6.2059166164228091E-007   0.0000000000000000     
  -5.2530784614782404E-007   3.9698022488058394E-007   0.0000000000000000     
  -5.6766807775787861E-007   4.5076066851688686E-007   0.0000000000000000     
  -6.0968583638922745E-007   5.0794315955792547E-007   0.0000000000000000     
  -6.5133611237724596E-007   5.6850913822191241E-007   0.0000000000000000     
  -6.9259389605731134E-007   6.3244004472706065E-007   0.0000000000000000     
  -4.5308766138036981E-007   5.9096240370258580E-007   0.0000000000000000     
  -4.8050143831767475E-007   6.5863678256912805E-007   0.0000000000000000     
  -5.0765319880268810E-007   7.2969203040437932E-007   0.0000000000000000     
  -5.3453868366148938E-007   8.0409108671684802E-007   0.0000000000000000     
  -5.6115363372015913E-007   8.8179689101504184E-007   0.0000000000000000     
  -5.1185409852344557E-007   5.9982147155018561E-007   0.0000000000000000     
  -5.4265152396112503E-007   6.6741590546997798E-007   0.0000000000000000     
  -5.7314320092791853E-007   7.3837319164883756E-007   0.0000000000000000     
  -6.0333400543152508E-007   8.1266694298770554E-007   0.0000000000000000     
  -6.3322881347964400E-007   8.9027077238752428E-007   0.0000000000000000     
  -5.7133447591258605E-007   6.0970834739003650E-007   0.0000000000000000     
  -6.0550039595113363E-007   6.7721057856284566E-007   0.0000000000000000     
  -6.3931642911124174E-007   7.4805450931719619E-007   0.0000000000000000     
  -6.7279831999568700E-007   8.2222740052661321E-007   0.0000000000000000     
  -7.0596181320724701E-007   8.9971651306462207E-007   0.0000000000000000     
  -6.3156800470485380E-007   6.2059166164228091E-007   0.0000000000000000     
  -6.6908479329925777E-007   6.8798891817720051E-007   0.0000000000000000     
  -7.0621728390290009E-007   7.5871562316333502E-007   0.0000000000000000     
  -7.4298781608099581E-007   8.3276773196810671E-007   0.0000000000000000     
  -7.7941872939876021E-007   9.1014119995893736E-007   0.0000000000000000     
  -6.9259389605731134E-007   6.3244004472706065E-007   0.0000000000000000     
  -7.3344145501705550E-007   6.9971904064251280E-007   0.0000000000000000     
  -7.7389016585313753E-007   7.7033617294113459E-007   0.0000000000000000     
  -8.1395868241447239E-007   8.4428320994672246E-007   0.0000000000000000     
  -8.5366565854997512E-007   9.2155191998307275E-007   0.0000000000000000     
  -5.6115363372015913E-007   8.8179689101504184E-007   0.0000000000000000     
  -5.8749563028712026E-007   9.6277498840471914E-007   0.0000000000000000     
  -6.1356961660017170E-007   1.0470013463806413E-006   0.0000000000000000     
  -6.3938237637945508E-007   1.1344545380348198E-006   0.0000000000000000     
  -6.6494069334511214E-007   1.2251131364592656E-006   0.0000000000000000     
  -6.3322881347964400E-007   8.9027077238752428E-007   0.0000000000000000     
  -6.6283205893591356E-007   9.7115825563612364E-007   0.0000000000000000     
  -6.9214640708772964E-007   1.0553028200688864E-006   0.0000000000000000     
  -7.2117408107842633E-007   1.1426778559080828E-006   0.0000000000000000     
  -7.4991730405133887E-007   1.2332567533759840E-006   0.0000000000000000     
  -7.0596181320724701E-007   8.9971651306462207E-007   0.0000000000000000     
  -7.3881938846753217E-007   9.8050552052411380E-007   0.0000000000000000     
  -7.7137046597348506E-007   1.0645637473754408E-006   0.0000000000000000     
  -8.0361120104088151E-007   1.1518569308083201E-006   0.0000000000000000     
  -8.3553774898549691E-007   1.2423508080124709E-006   0.0000000000000000     
  -7.7941872939876021E-007   9.1014119995893736E-007   0.0000000000000000     
  -8.1552721906998834E-007   9.9082603169697067E-007   0.0000000000000000     
  -8.5130990290279432E-007   1.0747884285182376E-006   0.0000000000000000     
  -8.8675825435387152E-007   1.1619886409524908E-006   0.0000000000000000     
  -9.2186374687991361E-007   1.2523869195294824E-006   0.0000000000000000     
  -8.5366565854997512E-007   9.2155191998307275E-007   0.0000000000000000     
  -8.9302515093129455E-007   1.0021290377829766E-006   0.0000000000000000     
  -9.3203282752101357E-007   1.0859811637152128E-006   0.0000000000000000     
  -9.7067975910444872E-007   1.1730698645575548E-006   0.0000000000000000     
  -1.0089570164669171E-006   1.2633567070877759E-006   0.0000000000000000     
  -6.6494069334511214E-007   1.2251131364592656E-006   0.0000000000000000     
  -6.9025001210465867E-007   1.3189533531609213E-006   0.0000000000000000     
  -7.1531042081510346E-007   1.4159419533064524E-006   0.0000000000000000     
  -7.4012066852082936E-007   1.5160433404774528E-006   0.0000000000000000     
  -7.6467950426621922E-007   1.6192219182555198E-006   0.0000000000000000     
  -7.4991730405133887E-007   1.2332567533759840E-006   0.0000000000000000     
  -7.7837805981568348E-007   1.3270119549116242E-006   0.0000000000000000     
  -8.0655737484420586E-007   1.4239121118210934E-006   0.0000000000000000     
  -8.3445603627553250E-007   1.5239249276272444E-006   0.0000000000000000     
  -8.6207483124829060E-007   1.6270181058529314E-006   0.0000000000000000     
  -8.3553774898549691E-007   1.2423508080124709E-006   0.0000000000000000     
  -8.6714749258497328E-007   1.3360123014245679E-006   0.0000000000000000     
  -8.9844272446441400E-007   1.4328130744691144E-006   0.0000000000000000     
  -9.2942696471078879E-007   1.5327259758175717E-006   0.0000000000000000     
  -9.6010373341106765E-007   1.6357238541414005E-006   0.0000000000000000     
  -9.2186374687991361E-007   1.2523869195294824E-006   0.0000000000000000     
  -9.5662018497717599E-007   1.3459462806394858E-006   0.0000000000000000     
  -9.9103069730015628E-007   1.4426408041148511E-006   0.0000000000000000     
  -1.0251007435429172E-006   1.5424473356484511E-006   0.0000000000000000     
  -1.0588357833995179E-006   1.6453427209331577E-006   0.0000000000000000     
  -1.0089570164669171E-006   1.2633567070877759E-006   0.0000000000000000     
  -1.0468580115569402E-006   1.3568057804961113E-006   0.0000000000000000     
  -1.0843855209758628E-006   1.4533912636226396E-006   0.0000000000000000     
  -1.1215446624882359E-006   1.5530898577198996E-006   0.0000000000000000     
  -1.1583405538586092E-006   1.6558782640404321E-006   0.0000000000000000     
  -7.6467950426621922E-007   1.6192219182555198E-006   0.0000000000000000     
  -7.8898640565249807E-007   1.7254440863879835E-006   0.0000000000000000     
  -8.1304376450826204E-007   1.8346842292851215E-006   0.0000000000000000     
  -8.3685470121895038E-007   1.9469187275229452E-006   0.0000000000000000     
  -8.6042233617000203E-007   2.0621239616774681E-006   0.0000000000000000     
  -8.6207483124829060E-007   1.6270181058529314E-006   0.0000000000000000     
  -8.8941463142335102E-007   1.7331601571813946E-006   0.0000000000000000     
  -9.1647664655055852E-007   1.8423228209374248E-006   0.0000000000000000     
  -9.4326217090200012E-007   1.9544786436061976E-006   0.0000000000000000     
  -9.6977249874976391E-007   2.0696001716728897E-006   0.0000000000000000     
  -9.6010373341106765E-007   1.6357238541414005E-006   0.0000000000000000     
  -9.9047574536397840E-007   1.7417784853520974E-006   0.0000000000000000     
  -1.0205424942152827E-006   1.8508573543213008E-006   0.0000000000000000     
  -1.0503026683225019E-006   1.9629268731606850E-006   0.0000000000000000     
  -1.0797549560431566E-006   2.0779534539819254E-006   0.0000000000000000     
  -1.0588357833995179E-006   1.6453427209331577E-006   0.0000000000000000     
  -1.0922397762382267E-006   1.7513012331452464E-006   0.0000000000000000     
  -1.1253106801241422E-006   1.8602868553946187E-006   0.0000000000000000     
  -1.1580449527965709E-006   1.9722609982745796E-006   0.0000000000000000     
  -1.1904390519948194E-006   2.0871850723784384E-006   0.0000000000000000     
  -1.1583405538586092E-006   1.6558782640404321E-006   0.0000000000000000     
  -1.1947767528099434E-006   1.7617305628059975E-006   0.0000000000000000     
  -1.2308505768988419E-006   1.8706103501152460E-006   0.0000000000000000     
  -1.2665577836403204E-006   1.9824786010360538E-006   0.0000000000000000     
  -1.3018941305493916E-006   2.0972962906362913E-006   0.0000000000000000     
   0.0000000000000000        0.0000000000000000        0.0000000000000000     
  -4.0682229670779271E-008   1.3696377808472153E-008   0.0000000000000000     
  -8.3383244329027167E-008   3.2578903884432267E-008   0.0000000000000000     
  -1.2748487768668507E-007   5.5736250136930609E-008   0.0000000000000000     
  -1.7236896345569438E-007   8.2257088475017475E-008   0.0000000000000000     
   0.0000000000000000        0.0000000000000000        0.0000000000000000     
  -4.4359638361633165E-008   1.7656893439558079E-008   0.0000000000000000     
  -9.2053007430863078E-008   4.0032337595297140E-008   0.0000000000000000     
  -1.4169996461046742E-007   6.6028312390748350E-008   0.0000000000000000     
  -1.9192036730322384E-007   9.4546797749442878E-008   0.0000000000000000     
   0.0000000000000000        0.0000000000000000        0.0000000000000000     
  -5.0273376470636113E-008   2.3669409633808476E-008   0.0000000000000000     
  -1.0375192559870261E-007   5.0184712641226503E-008   0.0000000000000000     
  -1.5882467727939727E-007   7.8806448109237586E-008   0.0000000000000000     
  -2.1388066140791788E-007   1.0879515512482523E-007   0.0000000000000000     
   0.0000000000000000        0.0000000000000000        0.0000000000000000     
  -6.1062675794333781E-008   3.3071213720832903E-008   0.0000000000000000     
  -1.2142164711715874E-007   6.4326432840303702E-008   0.0000000000000000     
  -1.8079817999446297E-007   9.4600211221070753E-008   0.0000000000000000     
  -2.3891354045223437E-007   1.2472710272579241E-007   0.0000000000000000     
   0.0000000000000000        0.0000000000000000        0.0000000000000000     
  -7.9366768129271790E-008   4.7199593030240934E-008   0.0000000000000000     
  -1.4800382027084454E-007   8.3747902010612110E-008   0.0000000000000000     
  -2.0955963705665278E-007   1.1393915565492032E-007   0.0000000000000000     
  -2.6768269911863106E-007   1.4206758267697236E-007   0.0000000000000000     
  -1.7236896345569438E-007   8.2257088475017475E-008   0.0000000000000000     
  -2.1749018686358546E-007   1.1140927285049058E-007   0.0000000000000000     
  -2.6259463920024496E-007   1.4317738538613768E-007   0.0000000000000000     
  -3.0750126327114837E-007   1.7772519024749388E-007   0.0000000000000000     
  -3.5202900188177134E-007   2.1521645160009442E-007   0.0000000000000000     
  -1.9192036730322384E-007   9.4546797749442878E-008   0.0000000000000000     
  -2.4158054421007289E-007   1.2475068588581390E-007   0.0000000000000000     
  -2.9053270922460627E-007   1.5684651817790265E-007   0.0000000000000000     
  -3.3887554753857846E-007   1.9130174829465210E-007   0.0000000000000000     
  -3.8670774434374373E-007   2.2858382990500552E-007   0.0000000000000000     
  -2.1388066140791788E-007   1.0879515512482523E-007   0.0000000000000000     
  -2.6763595947096672E-007   1.3965346591283770E-007   0.0000000000000000     
  -3.2011485932126427E-007   1.7185238524958217E-007   0.0000000000000000     
  -3.7166870040303521E-007   2.0610501104923029E-007   0.0000000000000000     
  -4.2264882216050470E-007   2.4312444122595418E-007   0.0000000000000000     
  -2.3891354045223437E-007   1.2472710272579241E-007   0.0000000000000000     
  -2.9559339059316984E-007   1.5551711687254092E-007   0.0000000000000000     
  -3.5108097682680287E-007   1.8768208580104381E-007   0.0000000000000000     
  -4.0572394163937563E-007   2.2190929730644270E-007   0.0000000000000000     
  -4.5986992751713040E-007   2.5888603918387882E-007   0.0000000000000000     
  -2.6768269911863106E-007   1.4206758267697236E-007   0.0000000000000000     
  -3.2538979552358503E-007   1.7174114270590245E-007   0.0000000000000000     
  -3.8317094907780597E-007   2.0382271903215543E-007   0.0000000000000000     
  -4.4088449102245606E-007   2.3848892586150337E-007   0.0000000000000000     
  -4.9838875259869785E-007   2.7591637739971859E-007   0.0000000000000000     
  -3.5202900188177134E-007   2.1521645160009442E-007   0.0000000000000000     
  -3.9603707734254031E-007   2.5580069735395780E-007   0.0000000000000000     
  -4.3954582998368493E-007   2.9957051039703671E-007   0.0000000000000000     
  -4.8261587964038586E-007   3.4660423736176672E-007   0.0000000000000000     
  -5.2530784614782404E-007   3.9698022488058394E-007   0.0000000000000000     
  -3.8670774434374373E-007   2.2858382990500552E-007   0.0000000000000000     
  -4.3411151808994973E-007   2.6908267201774378E-007   0.0000000000000000     
  -4.8110322025941535E-007   3.1287800500099912E-007   0.0000000000000000     
  -5.2768273559245285E-007   3.5997201456274128E-007   0.0000000000000000     
  -5.7384994882937394E-007   4.1036688641094023E-007   0.0000000000000000     
  -4.2264882216050470E-007   2.4312444122595418E-007   0.0000000000000000     
  -4.7333634802176373E-007   2.8349314614380310E-007   0.0000000000000000     
  -5.2373153735037243E-007   3.2727108596633829E-007   0.0000000000000000     
  -5.7376443349375643E-007   3.7438759330699784E-007   0.0000000000000000     
  -6.2336507979934276E-007   4.2477200077922061E-007   0.0000000000000000     
  -4.5986992751713040E-007   2.5888603918387882E-007   0.0000000000000000     
  -5.1379343680039009E-007   2.9917534930274400E-007   0.0000000000000000     
  -5.6747641124580256E-007   3.4284326582943086E-007   0.0000000000000000     
  -6.2082765246409484E-007   3.8983157700458191E-007   0.0000000000000000     
  -6.7375596206599481E-007   4.4008207106884001E-007   0.0000000000000000     
  -4.9838875259869785E-007   2.7591637739971859E-007   0.0000000000000000     
  -5.5556465408823672E-007   3.1627251106517497E-007   0.0000000000000000     
  -6.1238347193495161E-007   3.5968805712665414E-007   0.0000000000000000     
  -6.6883907162326412E-007   4.0628456906553924E-007   0.0000000000000000     
  -7.2492531863759630E-007   4.5618360036321348E-007   0.0000000000000000     
  -5.2530784614782404E-007   3.9698022488058394E-007   0.0000000000000000     
  -5.6766807775787861E-007   4.5076066851688686E-007   0.0000000000000000     
  -6.0968583638922745E-007   5.0794315955792547E-007   0.0000000000000000     
  -6.5133611237724596E-007   5.6850913822191241E-007   0.0000000000000000     
  -6.9259389605731134E-007   6.3244004472706065E-007   0.0000000000000000     
  -5.7384994882937394E-007   4.1036688641094023E-007   0.0000000000000000     
  -6.1960567014642922E-007   4.6406850964303845E-007   0.0000000000000000     
  -6.6495441146362168E-007   5.2109758691436911E-007   0.0000000000000000     
  -7.0990161013689301E-007   5.8147852426973794E-007   0.0000000000000000     
  -7.5445270352218405E-007   6.4523572775395100E-007   0.0000000000000000     
  -6.2336507979934276E-007   4.2477200077922061E-007   0.0000000000000000     
  -6.7248139956205823E-007   4.7837614193922222E-007   0.0000000000000000     
  -7.2113283586684003E-007   5.3524185411432835E-007   0.0000000000000000     
  -7.6935671174612547E-007   5.9543347557464127E-007   0.0000000000000000     
  -8.1719035023235292E-007   6.5901534459026415E-007   0.0000000000000000     
  -6.7375596206599481E-007   4.4008207106884001E-007   0.0000000000000000     
  -7.2619261330584996E-007   4.9355665327476872E-007   0.0000000000000000     
  -7.7815876601248426E-007   5.5029769692261640E-007   0.0000000000000000     
  -8.2969805165834015E-007   6.1036769232455224E-007   0.0000000000000000     
  -8.8085410171586138E-007   6.7382912979274545E-007   0.0000000000000000     
  -7.2492531863759630E-007   4.5618360036321348E-007   0.0000000000000000     
  -7.8063665867888852E-007   5.0948313151900807E-007   0.0000000000000000     
  -8.3596985831415653E-007   5.6618685110404680E-007   0.0000000000000000     
  -8.9092226432693364E-007   6.2627487470740058E-007   0.0000000000000000     
  -9.4549122350075415E-007   6.8972731791814097E-007   0.0000000000000000     
  -6.9259389605731134E-007   6.3244004472706065E-007   0.0000000000000000     
  -7.3344145501705550E-007   6.9971904064251280E-007   0.0000000000000000     
  -7.7389016585313753E-007   7.7033617294113459E-007   0.0000000000000000     
  -8.1395868241447239E-007   8.4428320994672246E-007   0.0000000000000000     
  -8.5366565854997512E-007   9.2155191998307275E-007   0.0000000000000000     
  -7.5445270352218405E-007   6.4523572775395100E-007   0.0000000000000000     
  -7.9861250548476798E-007   7.1238478566113274E-007   0.0000000000000000     
  -8.4238333592724017E-007   7.8290601528268492E-007   0.0000000000000000     
  -8.8576689126152854E-007   8.5677091615932769E-007   0.0000000000000000     
  -9.2876486789956004E-007   9.3395098783178164E-007   0.0000000000000000     
  -8.1719035023235292E-007   6.5901534459026415E-007   0.0000000000000000     
  -8.6466161055737005E-007   7.2603288642693212E-007   0.0000000000000000     
  -9.1176049675066586E-007   7.9645587433291469E-007   0.0000000000000000     
  -9.5846754904113841E-007   8.7023516855211305E-007   0.0000000000000000     
  -1.0047633076576875E-006   9.4732162932842974E-007   0.0000000000000000     
  -8.8085410171586138E-007   6.7382912979274545E-007   0.0000000000000000     
  -9.3165782145852107E-007   7.4072579950666308E-007   0.0000000000000000     
  -9.8208921136391481E-007   8.1102669111496290E-007   0.0000000000000000     
  -1.0321155457106674E-006   8.8468209413360105E-007   0.0000000000000000     
  -1.0817040987774051E-006   9.6164229807853303E-007   0.0000000000000000     
  -9.4549122350075415E-007   6.8972731791814097E-007   0.0000000000000000     
  -9.9967018941188025E-007   7.5652598146707693E-007   0.0000000000000000     
  -1.0534370428074878E-006   8.2665940665196876E-007   0.0000000000000000     
  -1.1067657712274806E-006   9.0011781991231327E-007   0.0000000000000000     
  -1.1596303622117626E-006   9.7689144768760876E-007   0.0000000000000000     
  -8.5366565854997512E-007   9.2155191998307275E-007   0.0000000000000000     
  -8.9302515093129455E-007   1.0021290377829766E-006   0.0000000000000000     
  -9.3203282752101357E-007   1.0859811637152128E-006   0.0000000000000000     
  -9.7067975910444872E-007   1.1730698645575548E-006   0.0000000000000000     
  -1.0089570164669171E-006   1.2633567070877759E-006   0.0000000000000000     
  -9.2876486789956004E-007   9.3395098783178164E-007   0.0000000000000000     
  -9.7137810701419333E-007   1.0144177742121376E-006   0.0000000000000000     
  -1.0136040288220121E-006   1.0981429966979662E-006   0.0000000000000000     
  -1.0554391983005319E-006   1.1850984210582091E-006   0.0000000000000000     
  -1.0968801804272679E-006   1.2752558130618069E-006   0.0000000000000000     
  -1.0047633076576875E-006   9.4732162932842974E-007   0.0000000000000000     
  -1.0506323013803486E-006   1.0276714236213581E-006   0.0000000000000000     
  -1.0960750131937140E-006   1.1112619452527635E-006   0.0000000000000000     
  -1.1410959146335107E-006   1.1980758947601007E-006   0.0000000000000000     
  -1.1856994772354689E-006   1.2880959726808284E-006   0.0000000000000000     
  -1.0817040987774051E-006   9.6164229807853303E-007   0.0000000000000000     
  -1.1308292708661559E-006   1.0418631554492692E-006   0.0000000000000000     
  -1.1794939663725550E-006   1.1253227706795363E-006   0.0000000000000000     
  -1.2277082157156416E-006   1.2120048111866166E-006   0.0000000000000000     
  -1.2754820493144530E-006   1.3018929443877920E-006   0.0000000000000000     
  -1.1596303622117626E-006   9.7689144768760876E-007   0.0000000000000000     
  -1.2120105523080082E-006   1.0569661391344988E-006   0.0000000000000000     
  -1.2639090740949727E-006   1.1403102342782168E-006   0.0000000000000000     
  -1.3153344091591805E-006   1.2268876958611407E-006   0.0000000000000000     
  -1.3662950390871564E-006   1.3166624866256502E-006   0.0000000000000000     
  -1.0089570164669171E-006   1.2633567070877759E-006   0.0000000000000000     
  -1.0468580115569402E-006   1.3568057804961113E-006   0.0000000000000000     
  -1.0843855209758628E-006   1.4533912636226396E-006   0.0000000000000000     
  -1.1215446624882359E-006   1.5530898577198996E-006   0.0000000000000000     
  -1.1583405538586092E-006   1.6558782640404321E-006   0.0000000000000000     
  -1.0968801804272679E-006   1.2752558130618069E-006   0.0000000000000000     
  -1.1379243787856822E-006   1.3685868119688691E-006   0.0000000000000000     
  -1.1785725513830193E-006   1.4650625510041754E-006   0.0000000000000000     
  -1.2188262948324707E-006   1.5646540368836717E-006   0.0000000000000000     
  -1.2586872057472289E-006   1.6673322763233071E-006   0.0000000000000000     
  -1.1856994772354689E-006   1.2880959726808284E-006   0.0000000000000000     
  -1.2298888207118856E-006   1.3813018781709404E-006   0.0000000000000000     
  -1.2736616574813389E-006   1.4776613048605898E-006   0.0000000000000000     
  -1.3170143481389761E-006   1.5771389449984692E-006   0.0000000000000000     
  -1.3599432532799437E-006   1.6796994908332693E-006   0.0000000000000000     
  -1.2754820493144530E-006   1.3018929443877920E-006   0.0000000000000000     
  -1.3228224032808017E-006   1.3949676052501965E-006   0.0000000000000000     
  -1.3697238364975949E-006   1.4911962989403763E-006   0.0000000000000000     
  -1.4161778135405139E-006   1.5905432981747304E-006   0.0000000000000000     
  -1.4621757989852395E-006   1.6929728756696569E-006   0.0000000000000000     
  -1.3662950390871564E-006   1.3166624866256502E-006   0.0000000000000000     
  -1.4167961924376813E-006   1.4096006193545092E-006   0.0000000000000000     
  -1.4668300856585584E-006   1.5056763069920262E-006   0.0000000000000000     
  -1.5163856821698459E-006   1.6048658125228948E-006   0.0000000000000000     
  -1.5654519453916015E-006   1.7071453989318073E-006   0.0000000000000000     
  -1.1583405538586092E-006   1.6558782640404321E-006   0.0000000000000000     
  -1.1947767528099434E-006   1.7617305628059975E-006   0.0000000000000000     
  -1.2308505768988419E-006   1.8706103501152460E-006   0.0000000000000000     
  -1.2665577836403204E-006   1.9824786010360538E-006   0.0000000000000000     
  -1.3018941305493916E-006   2.0972962906362913E-006   0.0000000000000000     
  -1.2586872057472289E-006   1.6673322763233071E-006   0.0000000000000000     
  -1.2981561807881944E-006   1.7730675670801604E-006   0.0000000000000000     
  -1.3372313168071017E-006   1.8818273710758419E-006   0.0000000000000000     
  -1.3759100107033962E-006   1.9935784412730935E-006   0.0000000000000000     
  -1.4141896593765206E-006   2.1082875306346565E-006   0.0000000000000000     
  -1.3599432532799437E-006   1.6796994908332693E-006   0.0000000000000000     
  -1.4024454736629176E-006   1.7853090607161584E-006   0.0000000000000000     
  -1.4445210707006873E-006   1.8939394774082048E-006   0.0000000000000000     
  -1.4861708459695695E-006   2.0055639897729506E-006   0.0000000000000000     
  -1.5273956010458825E-006   2.1201558466739428E-006   0.0000000000000000     
  -1.4621757989852395E-006   1.6929728756696569E-006   0.0000000000000000     
  -1.5077115218692701E-006   1.7984507889630672E-006   0.0000000000000000     
  -1.5527877690773764E-006   1.9069487348789234E-006   0.0000000000000000     
  -1.5974095919561442E-006   2.0184398950626982E-006   0.0000000000000000     
  -1.6415820418521614E-006   2.1328974511598678E-006   0.0000000000000000     
  -1.5654519453916015E-006   1.7071453989318073E-006   0.0000000000000000     
  -1.6140212158424083E-006   1.8124884970699640E-006   0.0000000000000000     
  -1.6620993424349475E-006   1.9208572092545874E-006   0.0000000000000000     
  -1.7096955511804235E-006   2.0322108056694062E-006   0.0000000000000000     
  -1.7568190680900411E-006   2.1465085564981492E-006   0.0000000000000000     
 </DataArray>
 <DataArray  type="Float64" Name="stress" NumberOfComponents="3" format="ascii">
   36268.076390525355        10880.422917157606        7968.9793748340326     
   28826.417716680320        2143.9552124450938        2690.5124870640175     
   24365.396348768219       -1327.1081791654642        93.804533115064785     
   22299.404212774287       -1484.7941710558398       -643.59548388239386     
   22042.833234684425       -281.12967660656159       -344.13856079712667     
   25876.372568851129        7762.9117706553388        5059.5535239487344     
   24177.069498346071        2820.9131093797678        2646.2474429538670     
   23185.267239641784        594.03380402249513        1327.7147085257809     
   22596.490894447648        67.357526948729173        740.96606794699153     
   22106.265564473346        225.96795052366451        523.01226850001569     
   20311.404241205510        6093.4212723616529        3249.2274001675296     
   21056.355065645967        3442.9434225020173        2555.6609523875322     
   21505.921626133844        1869.8959330354219        1993.5090212590264     
   21551.918981876941        1013.6623346547522        1506.8380175138368     
   21086.162192083040        513.62615805285168        1039.7143518837579     
   17821.281723177028        5346.3845169531160        2205.2841157113930     
   18916.193219817749        3845.6217921831285        2339.9589803245040     
   19547.640850267133        2566.5626104799489        2167.3325344161694     
   19718.886413005654        1520.0796334453071        1786.1207714650243     
   19433.191706513822        717.04552268087537        1295.0396849496781     
   16654.115330355013        4996.2345991065094        1595.0067828014173     
   17208.502762099397        3864.5238587946405        1920.3474917244546     
   17530.706254064349        2750.1182389629789        1925.3303110987511     
   17650.591125777213        1752.5688047034228        1710.9147364474088     
   17598.022696765714        971.42662110788478        1378.0602632935058     
   22042.833234684425       -281.12967660656159       -344.13856079712667     
   22325.387973516590        475.26048532671030        22.633238328678750     
   22336.739983386637        508.97481288080871        115.08878007391091     
   22181.231682926871        167.82136816358707        52.643463501133226     
   21963.205490769564       -200.39178671743866       -45.287312327316400     
   22106.265564473346        225.96795052366451        523.01226850001569     
   21597.931085101915        280.11301505838856        365.61471599825046     
   21177.446871290314        182.10592611036009        223.03653759326934     
   20874.267394109054        30.128253914610468        126.04106257500722     
   20717.847124628704       -77.638431293490612        105.39162023359243     
   21086.162192083040        513.62615805285168        1039.7143518837579     
   20429.454217485054        183.24971875401934        648.78786272684567     
   19962.442960847104        35.478472387494548        411.97866688954235     
   19666.710894424337        8.9206598036716969        305.25859283634753     
   19523.840490471957        42.184521853175283        304.59946903186921     
   19433.191706513822        717.04552268087537        1295.0396849496781     
   18998.745879643706        238.30714910662027        884.46368919588224     
   18695.381163717844        70.188325210358926        648.98380060092222     
   18483.823980922214        81.777124945513606        543.64091575070404     
   18324.800753442898        142.16162226562028        523.47593123120760     
   17598.022696765714        971.42662110788478        1378.0602632935058     
   17484.594580555655        498.92185880971829        1084.9532060870879     
   17379.914391563321        287.33135807725830        901.12057136569535     
   17250.868450652069        226.27618845483721        794.53289278365537     
   17064.343078685190        205.37741948695293        733.16070399536648     
   21963.205490769564       -200.39178671743866       -45.287312327316400     
   21792.073966170574       -317.69370032308325       -87.134173517182575     
   21683.151005279302       -219.77563156911219       -76.441219615663613     
   21599.631032068566       -29.322833879681639       -36.463261722089300     
   21504.708470510715        130.97943932017279        9.5448890638425397     
   20717.847124628704       -77.638431293490612        105.39162023359243     
   20638.399760282133       -92.951643095514555        131.12291468443655     
   20539.545347875755       -56.214397161062152        150.56581769381873     
   20410.847882540253       -2.2133763879328399        160.42791002766094     
   20241.871359406156        34.264736325982994        157.41677245181313     
   19523.840490471957        42.184521853175283        304.59946903186921     
   19430.519367390210        60.528372052713166        333.45759845285289     
   19299.415621148051        42.478782481234703        336.73939540905826     
   19136.082440353639        6.5463818324751628        322.59185536438662     
   18946.073013614954       -28.758201200123040        299.16197378263576     
   18324.800753442898        142.16162226562028        523.47593123120760     
   18166.597880417430        142.19587299796967        518.50849377137706     
   17991.125482462630        84.813004567532516        496.10660770587685     
   17809.545563983298        7.2196983236426604        467.33370602894286     
   17633.020129384418       -53.377364383851273        443.25322173503173     
   17064.343078685190        205.37741948695293        733.16070399536648     
   16844.800392286732        151.50038761739688        684.91421662364098     
   16643.038589185984        79.297366307786433        642.69454876021155     
   16465.448111903956        10.069830628081036        611.95859376237399     
   16318.419402961827       -34.880744351135945        598.16324498764061     
   21504.708470510715        130.97943932017279        9.5448890638425397     
   21371.309057725717        168.64614400733535        33.770882325532142     
   21208.333232534293        111.10790849492969        31.938907047712984     
   21032.937471460835        15.552987864149145        16.098961233498724     
   20862.278251029275       -60.830362804838842       -1.6989571143453279     
   20241.871359406156        34.264736325982994        157.41677245181313     
   20053.121819059568        35.272888544649504        148.08390185847563     
   19875.070598999020        16.081684207049875        142.70017881190384     
   19712.229639723631       -8.2690750229021432        143.55225958589767     
   19569.110881732675       -22.739587480997216        152.92680045438593     
   18946.073013614954       -28.758201200123040        299.16197378263576     
   18756.113566668086       -43.011956411216488        282.62748631381305     
   18587.076000466550       -35.306289537103112        281.41062736089862     
   18435.732016444697       -16.402195796607884        292.02514051721420     
   18298.853316036999        2.9393295916652278        310.98476937622837     
   17633.020129384418       -53.377364383851273        443.25322173503173     
   17471.011765829953       -68.990151276942015        433.84758088760054     
   17321.498897100551       -49.911174688674691        438.21109419510395     
   17178.417282525905       -16.354570186827914        451.07502161903500     
   17035.702681435774        11.465526661167132        467.17062312102541     
   16318.419402961827       -34.880744351135945        598.16324498764061     
   16188.543881824131       -45.443456468666227        598.19013077607758     
   16055.488749064851       -34.588133198350079        603.24242081512853     
   15915.258118869227       -15.634393922806339        610.25932048317998     
   15763.856105422567       -1.9018580244382974        616.18003515869782     
   20862.278251029275       -60.830362804838842       -1.6989571143453279     
   20704.305044627527       -76.573973734758511       -11.182512535837704     
   20549.879873735419       -47.167848174918618       -12.154025724855341     
   20390.528037015745      -0.86099058280979079       -7.6754829084206841     
   20217.774833130989        34.097594583660793      -0.80887031381212171     
   19569.110881732675       -22.739587480997216        152.92680045438593     
   19433.015248123978       -20.774511930848348        164.57306238702276     
   19286.864116667482       -10.416991562364274        171.23753959693562     
   19128.600109870345        1.4750486484072098        173.70273822298748     
   18956.165850239668        8.0436837251781981        172.75116440398423     
   18298.853316036999        2.9393295916652278        310.98476937622837     
   18162.061908992346        11.141353573802007        327.47816354799272     
   18014.314710119823        7.7432932964502470        334.91210691579295     
   17857.385778444022       -1.3413211584875171        336.12754448278099     
   17693.049172989391       -10.198959709490737        333.96542125206855     
   17035.702681435774        11.465526661167132        467.17062312102541     
   16888.015709241841        18.144827381778668        478.71912591425854     
   16736.072880612624        8.4653743574863256        483.52980414810514     
   16582.893803762898       -7.5074716957724377        484.71598818823094     
   16431.498086907446       -19.708350062016507        485.39100840035536     
   15763.856105422567       -1.9018580244382974        616.18003515869782     
   15607.447330881894      -0.79288590414944338        619.48228445319899     
   15455.979854666122       -7.0983804232619150        621.75075921035284     
   15311.132946853162       -15.220774655528658        624.58512165665161     
   15174.585877520993       -19.562501674376108        629.58503401866346     
   20217.774833130989        34.097594583660793      -0.80887031381212171     
   20032.555753017965        38.709206645022277        4.1303902119819771     
   19844.281776970463        22.226776112157495        5.5259631271948439     
   19657.191437686823       -1.2212546870687220        4.3644916627356976     
   19475.523267865145       -17.506443425533689        1.6326190491051054     
   18956.165850239668        8.0436837251781981        172.75116440398423     
   18777.036762126205        6.8130413399885583        171.43224561125783     
   18600.695582533623        1.9982913415396979        171.99665261495329     
   18428.095902948397       -3.2219279820710653        174.02875650192880     
   18260.191314856987       -5.6689783424862981        177.11292835904649     
   17693.049172989391       -10.198959709490737        333.96542125206855     
   17527.673725046348       -12.929837477479850        332.95773410926989     
   17365.792428257620       -9.7536284086727392        334.99979688001696     
   17206.425585176690       -3.9359906584759301        338.97752997777621     
   17048.593498356764        1.2574176173948217        343.77685381585900     
   16431.498086907446       -19.708350062016507        485.39100840035536     
   16283.058406047488       -20.941900526989230        487.98404928339858     
   16135.693475640444       -14.192634689128681        492.10960256607518     
   15987.841961585113       -4.6649995524931001        496.65895945852975     
   15837.942529780430        2.4365578794258909        500.52341117103924     
   15174.585877520993       -19.562501674376108        629.58503401866346     
   15041.782569398925       -17.645618527511942        635.78838471127472     
   14906.519886179942       -12.482379050618874        640.90027631676173     
   14768.006509387118       -6.7105115001313607        644.52119231252391     
   14625.451120543630       -2.9677441321136939        646.25161617601213     
   19475.523267865145       -17.506443425533689        1.6326190491051054     
   19298.235446520877       -17.509164529552436      -0.94868536953945437     
   19119.770050712559       -7.1634656145452027       -2.2503388850608523     
   18937.591460204214        5.0785858660101439       -2.1735282197722494     
   18749.164054759542        10.764922458040019      -0.61944009624519292     
   18260.191314856987       -5.6689783424862981        177.11292835904649     
   18093.743241868986       -4.1960583672062057        179.56873266153721     
   17924.492202250476       -1.0593844953873486        180.39566356462498     
   17751.860429472210        1.8151548421437838        180.19798667490775     
   17575.270157004823        2.5016712144742996        179.57996759893854     
   17048.593498356764        1.2574176173948217        343.77685381585900     
   16889.856266697701        2.9035342539036719        347.27784641738015     
   16728.803427015660        1.5107568068369801        348.64002480789952     
   16565.999438738123       -1.0393832985919289        348.66846790441508     
   16402.008761292996       -2.8653546362120323        348.16825462400567     
   15837.942529780430        2.4365578794258909        500.52341117103924     
   15685.908727270242        3.5898752125658575        502.84122100750773     
   15533.289028922325       0.72254946588600433        503.95729360423212     
   15380.974492371148       -3.1952272456792343        504.57288216984915     
   15229.856175251387       -5.1932628064387245        505.38923991309184     
   14625.451120543630       -2.9677441321136939        646.25161617601213     
   14481.234829849793       -2.3367736125501324        646.92142154158626     
   14338.534311884980       -3.2484153438545036        647.82201871316795     
   14197.751594740488       -4.3625756883411668        649.24619617227404     
   14059.288706507879       -4.3391610075041172        651.48674240055618     
   18749.164054759542        10.764922458040019      -0.61944009624519292     
   18557.210412009121        5.6524622582755910        1.2484127889719439     
   18367.923254010275       -2.9347285465864843        1.7955718692624227     
   18183.972177166797       -6.0979952773304831       0.41443161635459336     
   18008.026777882718        5.0613167468518441       -3.5026134974294569     
   17575.270157004823        2.5016712144742996        179.57996759893854     
   17397.264764617132       0.62238808798065293        179.57780455848467     
   17221.194359120320       -1.5113809286776814        180.37445155646435     
   17047.691264549714       -1.7918890516930333        181.29430787168553     
   16877.387804939848        1.8886105014589702        181.66177278250865     
   16402.008761292996       -2.8653546362120323        348.16825462400567     
   16238.154007168920       -2.4206698836533178        348.30134440554338     
   16075.016043772017      -0.63132532721465395        349.28771803396819     
   15912.046712905742       0.67548504470596527        350.51948644527045     
   15748.697856373472      -0.32743275658867788        351.38876057526835     
   15229.856175251387       -5.1932628064387245        505.38923991309184     
   15079.623418882033       -3.5531278914722861        506.59571489031458     
   14928.790292631867      -0.47396634276810801        507.64450598140917     
   14776.484946210427        1.1380542046954361        508.13114263051170     
   14621.835529327331       -1.6232338841764431        507.65115428178575     
   14059.288706507879       -4.3391610075041172        651.48674240055618     
   13921.418278974024       -2.8514021702530954        653.63759857298180     
   13781.919090366880       -1.2187085752739222        654.55395007878053     
   13640.452388439473      -0.57025437902848353        654.17045172095277     
   13496.679420944547       -2.0352137384497837        652.42175830240080     
   16654.115330355013        4996.2345991065094        1595.0067828014173     
   17208.502762099397        3864.5238587946405        1920.3474917244546     
   17530.706254064349        2750.1182389629789        1925.3303110987511     
   17650.591125777213        1752.5688047034228        1710.9147364474088     
   17598.022696765714        971.42662110788478        1378.0602632935058     
   15376.367188624417        4612.9101565873289        1138.9695982493770     
   15555.251541113326        3622.1953510863304        1436.4156770116899     
   15692.165502065485        2695.0210160024394        1551.0699790438446     
   15803.667105371665        1886.5805976389738        1521.4659092932366     
   15906.314384922980        1252.0675422995009        1386.1368727074043     
   13827.906665053537        4148.3719995160618        770.91109722984470     
   13947.453651068317        3351.8958714840405        1068.2430439431378     
   14067.985749113719        2615.4049862071770        1265.8303246893938     
   14197.775312302425        1966.4738540618791        1362.8471493027337     
   14345.094693747598        1432.6769854247291        1358.4677276173877     
   12166.954937007056        3650.0864811021165        477.86089950814596     
   12390.597261582107        3055.2718708730836        797.77103347711079     
   12576.827572686499        2486.8683228204563        1052.3231491882500     
   12730.654147513536        1961.5700942552960        1224.3991568247777     
   12857.085263256544        1496.0714424886642        1296.8809665699064     
   10551.733181849309        3165.5199545547930        246.84862484957006     
   10890.170542272224        2733.9698001387178        606.94108657190156     
   11137.351550261414        2285.0091990855790        893.26025369328852     
   11300.042011948985        1841.1908385024519        1095.4626322082813     
   11385.007733466991        1425.0674054964120        1203.2047281114344     
   17598.022696765714        971.42662110788478        1378.0602632935058     
   17484.594580555655        498.92185880971829        1084.9532060870879     
   17379.914391563321        287.33135807725830        901.12057136569535     
   17250.868450652069        226.27618845483721        794.53289278365537     
   17064.343078685190        205.37741948695293        733.16070399536648     
   15906.314384922980        1252.0675422995009        1386.1368727074043     
   15979.815128341532        818.99645503062402        1227.9922499307959     
   15981.955671764199        541.81043592891001        1099.6210027738587     
   15896.411871854629        366.09567387282186        994.07590793315421     
   15706.859585276297        237.43835774082254        904.40974210520812     
   14345.094693747598        1432.6769854247291        1358.4677276173877     
   14462.701376399715        1018.0772585200662        1292.3671742160147     
   14494.310419776317        696.59614012862994        1210.4909056180618     
   14434.630541840708        450.59602346150768        1121.4185845628735     
   14278.370460556196        262.43930172969976        1033.7298737897654     
   12857.085263256544        1496.0714424886642        1296.8809665699064     
   12940.260401624655        1098.2663923463783        1291.9647650623235     
   12960.970129373152        764.88591880846025        1252.9595933404364     
   12919.199351264739        495.87970441716652        1194.4166431870285     
   12814.932972062077        291.19743171472282        1130.8871063848646     
   11385.007733466991        1425.0674054964120        1203.2047281114344     
   11419.499280910704        1061.6659795778596        1240.6718085892703     
   11425.926294328237        759.87722010043899        1246.2563793831346     
   11403.793190781213        518.04918393616254        1230.9258043198809     
   11352.604387331243        334.52992795710315        1205.6474472263742     
   17064.343078685190        205.37741948695293        733.16070399536648     
   16844.800392286732        151.50038761739688        684.91421662364098     
   16643.038589185984        79.297366307786433        642.69454876021155     
   16465.448111903956        10.069830628081036        611.95859376237399     
   16318.419402961827       -34.880744351135945        598.16324498764061     
   15706.859585276297        237.43835774082254        904.40974210520812     
   15478.718514634740        133.29118243355515        833.40477972717122     
   15287.091903950379        63.385314235139958        786.76779136491677     
   15130.180922009373        21.724649099208364        761.93829790802693     
   15006.186737597767        2.3130829793117300        756.35582024606254     
   14278.370460556196        262.43930172969976        1033.7298737897654     
   14089.884945340176        134.79984984151815        965.87520104567830     
   13932.760852987267        67.791833962744022        926.00085886953059     
   13800.555032526629        39.938084190514019        907.23030718863970     
   13686.824332987424        29.761430622076659        902.68700593032884     
   12814.932972062077        291.19743171472282        1130.8871063848646     
   12688.376406689176        159.04940652720916        1082.7116044319471     
   12574.716789061815        90.918331320049219        1055.5357712848659     
   12466.411602430289        61.662483594346668        1041.8683174142413     
   12355.918330045042        46.140140851366141        1034.2179532907639     
   11352.604387331243        334.52992795710315        1205.6474472263742     
   11284.269620967825        209.06286917647367        1184.3001137387769     
   11207.631064939169        131.16621213659255        1170.5145486217327     
   11117.591790694934        83.850195003064528        1159.8860243948425     
   11009.054869684884        50.125055941523442        1148.0098135777457     
   16318.419402961827       -34.880744351135945        598.16324498764061     
   16188.543881824131       -45.443456468666227        598.19013077607758     
   16055.488749064851       -34.588133198350079        603.24242081512853     
   15915.258118869227       -15.634393922806339        610.25932048317998     
   15763.856105422567       -1.9018580244382974        616.18003515869782     
   15006.186737597767        2.3130829793117300        756.35582024606254     
   14892.115833105918       -6.4649503431855919        758.44432353528100     
   14765.949122238402       -12.976912706064468        758.57583793683330     
   14627.349420752616       -18.346751584729645        757.11198184757666     
   14475.979544406066       -23.698414454330305        754.41437366447951     
   13686.824332987424        29.761430622076659        902.68700593032884     
   13574.240564761858        16.584396732194364        900.53609067095806     
   13450.836248091144       -2.4014611742722991        895.00874874871067     
   13318.209296777946       -21.869763755242275        888.32751773355199     
   13177.957624624842       -36.494131668662703        882.71493519541605     
   12355.918330045042        46.140140851366141        1034.2179532907639     
   12239.306082017583        25.020986325147078        1025.6164933036462     
   12118.878585173205      -0.24324103785966145        1015.7712534600799     
   11996.445247832760       -23.621180168192950        1007.2041966576531     
   11873.815478317196       -39.081469996122451        1002.4372857939729     
   11009.054869684884        50.125055941523442        1148.0098135777457     
   10891.700390098740        20.161220003417839        1134.8365925538799     
   10778.804592034641       -3.8837147319486576        1124.0934522801981     
   10670.664774804842       -21.018750557195744        1117.0402871365470     
   10567.578237721556       -30.252889764949032        1114.9369915027189     
   15763.856105422567       -1.9018580244382974        616.18003515869782     
   15607.447330881894      -0.79288590414944338        619.48228445319899     
   15455.979854666122       -7.0983804232619150        621.75075921035284     
   15311.132946853162       -15.220774655528658        624.58512165665161     
   15174.585877520993       -19.562501674376108        629.58503401866346     
   14475.979544406066       -23.698414454330305        754.41437366447951     
   14323.217366048548       -26.699577115532520        752.97469849508104     
   14180.363951339337       -25.273939337539559        754.80143825389655     
   14046.966905249918       -20.929484548752043        759.53140654805941     
   13922.573832751923       -15.174196177284102        766.80141698484783     
   13177.957624624842       -36.494131668662703        882.71493519541605     
   13039.459412403250       -40.221135426615547        880.94096916131036     
   12909.973680518184       -34.061213428966767        883.33500096447835     
   12787.919602222668       -23.283788165722399        888.45868813414370     
   12671.716350769631       -13.158282127210441        894.87368819947028     
   11873.815478317196       -39.081469996122451        1002.4372857939729     
   11754.653660243586       -41.813503747993764        1002.3737441058831     
   11640.280554963358       -34.818748869223327        1005.1516155601844     
   11528.990137398889       -23.783955618484924        1009.1450941494746     
   11419.076382472587       -14.395874254599676        1012.7283738663533     
   10567.578237721556       -30.252889764949032        1114.9369915027189     
   10467.280299867067       -31.932624990513887        1116.2656709827229     
   10366.756087435444       -28.905091830229594        1118.0514502589801     
   10265.177610406297       -23.930257018567772        1119.3687523287556     
   10161.716878759356       -19.768087289853611        1119.2920001894011     
   15174.585877520993       -19.562501674376108        629.58503401866346     
   15041.782569398925       -17.645618527511942        635.78838471127472     
   14906.519886179942       -12.482379050618874        640.90027631676173     
   14768.006509387118       -6.7105115001313607        644.52119231252391     
   14625.451120543630       -2.9677441321136939        646.25161617601213     
   13922.573832751923       -15.174196177284102        766.80141698484783     
   13800.352143990291       -11.018657697717572        773.74887557541808     
   13674.011831618420       -9.6648442232162779        778.05166635597107     
   13543.914374370228       -9.9078266407641422        780.15731997113687     
   13410.421250979767       -10.542675837085881        780.51336706562904     
   12671.716350769631       -13.158282127210441        894.87368819947028     
   12556.067446712119       -8.8003678561453853        899.93770056512926     
   12437.349086327298       -9.7501321484369328        902.54496371062021     
   12316.489456454190       -12.913618874021722        903.56194377736017     
   12194.416743931788       -15.196871902916882        903.85510690674448     
   11419.076382472587       -14.395874254599676        1012.7283738663533     
   11308.711823835229       -11.055745121455857        1014.6731185181492     
   11197.812215748439       -12.354073193655495        1015.4063892290205     
   11087.286364050560       -15.261505676617617        1015.7854759666741     
   10978.043074580139       -16.748689775422008        1016.6676686989446     
   10161.716878759356       -19.768087289853611        1119.2920001894011     
   10058.068621630435       -17.849785612349024        1118.2733882722421     
   9956.6817853236480       -17.092497726429883        1117.6621637594360     
   9857.8597055711725       -16.485104524928829        1117.8783287747287     
   9761.9057181052540       -15.016486900426116        1119.3418854418303     
   14625.451120543630       -2.9677441321136939        646.25161617601213     
   14481.234829849793       -2.3367736125501324        646.92142154158626     
   14338.534311884980       -3.2484153438545036        647.82201871316795     
   14197.751594740488       -4.3625756883411668        649.24619617227404     
   14059.288706507879       -4.3391610075041172        651.48674240055618     
   13410.421250979767       -10.542675837085881        780.51336706562904     
   13276.741374660738       -9.8479448436346502        780.68699269158014     
   13145.638323478179       -7.5866371877982601        781.84226060071626     
   13016.805573442382       -4.7804995018750560        783.82201948663180     
   12889.936600563862       -2.4512784177049980        786.46911804306569     
   12194.416743931788       -15.196871902916882        903.85510690674448     
   12073.353325933527       -13.909721901822650        904.60413017519920     
   11954.477126142649       -9.8435111716062238        906.15411176686757     
   11837.149651162419       -5.1265510345979237        908.11964948434229     
   11720.732407596301       -1.8871528126123849        910.11534113033633     
   10978.043074580139       -16.748689775422008        1016.6676686989446     
   10870.432135941057       -14.713669105045483        1018.2818756709950     
   10763.801546092078       -10.393789431227106        1020.0241690221521     
   10657.557424903680       -5.7686511855736171        1021.5025845610463     
   10551.105892246480       -2.8178547997199530        1022.3251580964393     
   9761.9057181052540       -15.016486900426116        1119.3418854418303     
   9667.3392569560328       -12.451350771638772        1121.3292708574691     
   9572.3624095401501       -9.6122241025664152        1122.7190291771294     
   9476.8024916692993       -7.0747208540833526        1123.3343231124627     
   9380.4868191553414       -5.4144549868615286        1122.9983153752755     
   14059.288706507879       -4.3391610075041172        651.48674240055618     
   13921.418278974024       -2.8514021702530954        653.63759857298180     
   13781.919090366880       -1.2187085752739222        654.55395007878053     
   13640.452388439473      -0.57025437902848353        654.17045172095277     
   13496.679420944547       -2.0352137384497837        652.42175830240080     
   12889.936600563862       -2.4512784177049980        786.46911804306569     
   12762.924143507680       -1.7963692114599326        788.58854054230881     
   12634.141695963081       -2.4106504121136823        789.25920469382413     
   12504.003866476385       -2.9120935323135200        788.73485934680298     
   12372.925263593786       -1.9186700841282800        787.26925335022702     
   11720.732407596301       -1.8871528126123849        910.11534113033633     
   11603.797403368244       -1.7876550596793095        911.43419528685718     
   11485.843445134102       -3.4010672229496777        911.89087094660977     
   11367.622237595728       -4.2217069634243671        911.88244152881271     
   11249.885485454486       -1.7438919426745088        911.80598045233671     
   10551.105892246480       -2.8178547997199530        1022.3251580964393     
   10444.189590007187       -2.7798002797894696        1022.5874094665287     
   10337.395437638288       -4.0786290800042480        1022.8892536455124     
   10231.395971358697       -4.4725538041202526        1023.5953191460237     
   10126.863727387146       -1.7197870559457442        1025.0702344804804     
   9380.4868191553414       -5.4144549868615286        1122.9983153752755     
   9284.2522348760576       -4.7273454361620679        1122.4610297413290     
   9189.1687732337541       -4.3320060560322418        1122.6946575987611     
   9095.4135373264526       -3.6380931860362580        1123.8556130772763     
   9003.1636302523639       -2.0552631656728408        1126.1003103067787     
   10551.733181849309        3165.5199545547930        246.84862484957006     
   10890.170542272224        2733.9698001387178        606.94108657190156     
   11137.351550261414        2285.0091990855790        893.26025369328852     
   11300.042011948985        1841.1908385024519        1095.4626322082813     
   11385.007733466991        1425.0674054964120        1203.2047281114344     
   9103.1096441047612        2730.9328932314284        65.666557277175173     
   9452.1756403248164        2403.8919641939124        459.76372677863606     
   9695.4056535391410        2030.6567976383019        760.76615016741312     
   9842.6683266806085        1644.1228700075474        973.34776294350570     
   9903.8323026820344        1277.1856577445271        1102.1825006068561     
   7792.5408369383194        2337.7622510814958       -74.842362154938073     
   8066.0750165971085        2075.9787620529432        330.70894838341815     
   8256.6975966623595        1762.5982238470428        639.11495079577082     
   8375.0490677329817        1433.0889384605910        863.48578201328951     
   8431.7699204080363        1122.9192078904418        1016.9315789671438     
   6554.1303406748521        1966.2391022024549       -183.07252813490419     
   6712.5473112134923        1744.4337857531261        217.40739844706422     
   6829.6775707712586        1483.3685350538415        529.24285706442754     
   6914.6024684787717        1213.3145138733883        767.39895800531849     
   6976.4033534666532        964.54288598061908        946.84081155789954     
   5321.9817356392523        1596.5945206917756       -267.41833535087494     
   5372.2711642981303        1403.4606273317279        117.48972403039450     
   5422.7957670060587        1195.5027886007617        432.08607045947116     
   5478.7467622907025        990.02506625777755        686.60955950729726     
   5545.3153686796832        804.33152206164937        891.29904674478246     
   11385.007733466991        1425.0674054964120        1203.2047281114344     
   11419.499280910704        1061.6659795778596        1240.6718085892703     
   11425.926294328237        759.87722010043899        1246.2563793831346     
   11403.793190781213        518.04918393616254        1230.9258043198809     
   11352.604387331243        334.52992795710315        1205.6474472263742     
   9903.8323026820344        1277.1856577445271        1102.1825006068561     
   9921.9226201422443        966.15794028008304        1176.7282088250431     
   9931.3538354024058        718.65088952006408        1225.9777408127977     
   9929.0788680092865        524.50757062026014        1253.9075433909882     
   9912.0506375095792        373.57104873621256        1264.4940633804051     
   8431.7699204080363        1122.9192078904418        1016.9315789671438     
   8459.2046510972632        866.67508228659199        1127.0077233785989     
   8479.9481470807132        666.44391470014625        1212.3473114907636     
   8490.0164852629296        508.94596147949915        1272.6770520175560     
   8485.4257425483756        380.90147897304087        1307.7236536728651     
   6976.4033534666532        964.54288598061908        946.84081155789954     
   7023.6068895107646        760.89586031791828        1088.3479187407913     
   7056.4814337231010        598.68795694863024        1201.5351400512293     
   7071.7208752387669        466.89880632295649        1284.6206249953430     
   7066.0191031928753        354.50803889120743        1335.8225230792818     
   5545.3153686796832        804.33152206164937        891.29904674478246     
   5607.3908511176051        646.49872909454575        1057.5863614024277     
   5645.7258996894352        510.81467757347650        1189.7112751283926     
   5659.3068706335553        393.90055495963338        1287.1245571201482     
   5647.1201201883232        292.37754871426023        1349.2769765751759     
   11352.604387331243        334.52992795710315        1205.6474472263742     
   11284.269620967825        209.06286917647367        1184.3001137387769     
   11207.631064939169        131.16621213659255        1170.5145486217327     
   11117.591790694934        83.850195003064528        1159.8860243948425     
   11009.054869684884        50.125055941523442        1148.0098135777457     
   9912.0506375095792        373.57104873621256        1264.4940633804051     
   9877.1389413316901        256.36852782732240        1265.7017763402691     
   9822.1486214391007        166.54402697000069        1262.6736397255434     
   9745.4351641812955        98.615833995747835        1255.1538232007947     
   9645.3540559077010        47.102236735947827        1242.8864964305405     
   8485.4257425483756        380.90147897304087        1307.7236536728651     
   8461.9259686895894        271.10484684374569        1324.1435160382289     
   8418.1075626173260        177.81827534867034        1330.3195165497757     
   8354.2471250034669        101.96376672748966        1328.5680807033036     
   8270.6212565198184        44.463323219662470        1321.2056339945725     
   7066.0191031928753        354.50803889120743        1335.8225230792818     
   7041.7582969575305        254.21010440056784        1363.2602713269871     
   7003.9689860928656        167.52728655832243        1378.4492337672921     
   6953.3175850159605        96.680966754581732        1384.7014504136350     
   6890.4705081438206        43.892526379406263        1385.3289612794376     
   5647.1201201883232        292.37754871426023        1349.2769765751759     
   5619.7635200513987        206.62257867262474        1386.6869807008086     
   5588.1939894848010        138.20938988464081        1412.0598460510012     
   5551.9364560734612        85.554407633407209        1428.1265858431630     
   5510.5158474023383        47.074057202033600        1437.6182132947310     
   11009.054869684884        50.125055941523442        1148.0098135777457     
   10891.700390098740        20.161220003417839        1134.8365925538799     
   10778.804592034641       -3.8837147319486576        1124.0934522801981     
   10670.664774804842       -21.018750557195744        1117.0402871365470     
   10567.578237721556       -30.252889764949032        1114.9369915027189     
   9645.3540559077010        47.102236735947827        1242.8864964305405     
   9537.8146847161534        11.825184957937381        1230.4741270645070     
   9438.7758779283704       -7.2285741580099057        1222.4220198041251     
   9346.6672807296545       -15.293556660982176        1218.3285998914741     
   9259.9185383052063       -17.604278600346333        1217.7922925686205     
   8270.6212565198184        44.463323219662470        1321.2056339945725     
   8181.6317431114367        9.1104428388784982        1313.9382551249748     
   8099.8789731744309       -6.3060348973976943        1310.0608382718242     
   8022.9374510574316       -9.8710954938433133        1308.2730321449149     
   7948.3816811089691       -9.6697244551960466        1307.2744854539783     
   6890.4705081438206        43.892526379406263        1385.3289612794376     
   6823.9269428063581        12.249606902743835        1385.0771673257716     
   6760.2297179235884       -1.6813449049554947        1385.5258193600480     
   6697.1107102978240       -5.4607397028394189        1385.2384821652038     
   6632.3017967312690       -6.6489881501265700        1382.7787205241659     
   5510.5158474023383        47.074057202033600        1437.6182132947310     
   5465.4756613226727        21.475290406185650        1443.7390542573601     
   5417.9439523266401        6.0802478645769042        1447.3328747454982     
   5366.8224829605369       -2.7718619351726375        1447.5898482207351     
   5311.0130157706726       -8.7418305053897711        1443.7001481446212     
   10567.578237721556       -30.252889764949032        1114.9369915027189     
   10467.280299867067       -31.932624990513887        1116.2656709827229     
   10366.756087435444       -28.905091830229594        1118.0514502589801     
   10265.177610406297       -23.930257018567772        1119.3687523287556     
   10161.716878759356       -19.768087289853611        1119.2920001894011     
   9259.9185383052063       -17.604278600346333        1217.7922925686205     
   9173.7676232746544       -19.427385456920547        1218.3513174494537     
   9084.6727794723702       -21.961951995790514        1217.8243273796622     
   8992.8940589059148       -24.341138191749451        1216.2303974490771     
   8898.6915135827912       -25.698104019930724        1213.5886027475344     
   7948.3816811089691       -9.6697244551960466        1307.2744854539783     
   7872.5922069551252       -12.532186103966069        1305.4873686415874     
   7794.0764857151835       -18.199033118636635        1302.5773402214147     
   7713.5993919774310       -24.120683538198136        1299.1092810098341     
   7631.9258003301884       -27.747555401525460        1295.6480718232563     
   6632.3017967312690       -6.6489881501265700        1382.7787205241659     
   6565.3066679381154       -10.781241822590800        1378.3496484302482     
   6497.5987485789738       -16.826872474327047        1373.5865634728034     
   6429.8645163761103       -22.497621031285234        1369.2013058289560     
   6362.7904490517167       -25.505228419482592        1365.9057156758229     
   5311.0130157706726       -8.7418305053897711        1443.7001481446212     
   5253.4636232530302       -13.708767504063644        1437.6139806864383     
   5197.8711104789054       -17.056007338275549        1432.1280718224241     
   5144.2603388573416       -18.700678644452182        1427.7023747244577     
   5092.6561697974867       -18.559910058847208        1424.7968425644717     
   10161.716878759356       -19.768087289853611        1119.2920001894011     
   10058.068621630435       -17.849785612349024        1118.2733882722421     
   9956.6817853236480       -17.092497726429883        1117.6621637594360     
   9857.8597055711725       -16.485104524928829        1117.8783287747287     
   9761.9057181052540       -15.016486900426116        1119.3418854418303     
   8898.6915135827912       -25.698104019930724        1213.5886027475344     
   8805.3388844267247       -24.595894495242646        1211.1390026676791     
   8715.6694837264768       -21.065650082399770        1210.0315077804910     
   8629.2827205373596       -16.442673930541332        1210.1499699434244     
   8545.7780039144600       -12.062269189372728        1211.3782410137999     
   7631.9258003301884       -27.747555401525460        1295.6480718232563     
   7551.8213302786917       -26.678174819038304        1293.1659630988549     
   7475.0647904973757       -21.800437336992672        1291.9773436741345     
   7400.9408393285385       -15.498815147795085        1291.6603019659460     
   7328.7341351143614       -10.157780444020773        1291.7929263911478     
   6362.7904490517167       -25.505228419482592        1365.9057156758229     
   6297.4458160455797       -24.117669525857309        1363.9157912346782     
   6234.0149573783228       -19.552683967701796        1362.6414451435503     
   6171.8569566434435       -13.946659766956600        1361.5853892047066     
   6110.3308974343418       -9.4359849454976938        1360.2503352203682     
   5092.6561697974867       -18.559910058847208        1424.7968425644717     
   5042.1421985865236       -16.935421557863037        1422.9500087439581     
   4991.6672361113824       -14.578214451950998        1421.1655858920299     
   4941.0539671808601       -12.079339378551367        1419.1012960221874     
   4890.1250766037510       -10.029846975010287        1416.4148611478811     
   9761.9057181052540       -15.016486900426116        1119.3418854418303     
   9667.3392569560328       -12.451350771638772        1121.3292708574691     
   9572.3624095401501       -9.6122241025664152        1122.7190291771294     
   9476.8024916692993       -7.0747208540833526        1123.3343231124627     
   9380.4868191553414       -5.4144549868615286        1122.9983153752755     
   8545.7780039144600       -12.062269189372728        1211.3782410137999     
   8462.9280004206921       -9.4533193556585502        1212.6877417451381     
   8378.9727731908206       -8.5867193533908903        1213.1852698754003     
   8294.2128261377275       -8.4607894729633699        1212.9577427386316     
   8208.9486631744367       -8.0738500044562898        1212.0920776689209     
   7328.7341351143614       -10.157780444020773        1291.7929263911478     
   7256.6387354042854       -7.8740100232780605        1291.7065042496254     
   7183.6596546262081       -8.0409910882190161        1291.1644228953699     
   7110.2979864398285       -8.9884114397405028        1290.3929208263535     
   7037.0548245050486       -9.0459588781477578        1289.6182365406298     
   6110.3308974343418       -9.4359849454976938        1360.2503352203682     
   6048.7135006205144       -7.6408111601103883        1358.6062849072448     
   5986.9948213774096       -7.8035090476405458        1357.1155162497028     
   5925.6039447575331       -8.4937950997064036        1356.0191554514477     
   5864.9699558134416       -8.2813858079282454        1355.5583287162244     
   4890.1250766037510       -10.029846975010287        1416.4148611478811     
   4839.3943347827662       -8.6811111524041280        1413.6078102541544     
   4789.5500409754786       -7.7027429723909790        1411.4975779511544     
   4740.6766732727810       -6.8131487984849173        1410.2157446899116     
   4692.8587097657582       -5.7307349940044787        1409.8938909215542     
   9380.4868191553414       -5.4144549868615286        1122.9983153752755     
   9284.2522348760576       -4.7273454361620679        1122.4610297413290     
   9189.1687732337541       -4.3320060560322418        1122.6946575987611     
   9095.4135373264526       -3.6380931860362580        1123.8556130772763     
   9003.1636302523639       -2.0552631656728408        1126.1003103067787     
   8208.9486631744367       -8.0738500044562898        1212.0920776689209     
   8124.4082942680207       -6.4827512734523225        1211.3966619147232     
   8041.3756214499372       -4.2247033914532039        1211.5651297190395     
   7959.4849867291059       -2.5185663285656119        1212.5122689074751     
   7878.3707321146703       -2.5832000543578033        1214.1528673055757     
   7037.0548245050486       -9.0459588781477578        1289.6182365406298     
   6964.8205086324915       -6.9765432893677826        1289.2022571798868     
   6893.7601092735504       -3.9606390898634345        1289.2107823235876     
   6823.2868160496519       -1.9542808751448320        1289.4259191266808     
   6752.8138185817033       -2.9135032413933004        1289.6297747436565     
   5864.9699558134416       -8.2813858079282454        1355.5583287162244     
   5805.2500856555771       -6.2803591782808326        1355.4901802816341     
   5745.9912726491493       -3.6391023676121677        1355.2500183277998     
   5686.7071627288669       -1.9787955935562422        1354.5962149721283     
   5626.9114018291966       -2.9206190740642342        1353.2871423319616     
   4692.8587097657582       -5.7307349940044787        1409.8938909215542     
   4645.4582330235253       -4.4658366340595421        1409.8727959648584     
   4597.7381475211005       -3.3593824413205766        1409.3012406470109     
   4549.6341642077114       -2.6256692514034512        1408.0228076812577     
   4501.0819940327301       -2.4789938997653280        1405.8810797810384     
   5321.9817356392523        1596.5945206917756       -267.41833535087494     
   5372.2711642981303        1403.4606273317279        117.48972403039450     
   5422.7957670060587        1195.5027886007617        432.08607045947116     
   5478.7467622907025        990.02506625777755        686.60955950729726     
   5545.3153686796832        804.33152206164937        891.29904674478246     
   4043.6661271467433        1213.0998381440231       -334.59923863118689     
   4031.2297258282019        1054.9678902931203        37.055126501985377     
   4042.5524956729710        903.53332887973170        356.12048718380174     
   4078.7094866585476        762.37965382892310        625.82094846309940     
   4140.7757487624331        635.09036506574478        849.38061538870340     
   2720.6247204739302        816.18741614217947       -384.63493336502512     
   2688.5622179247825        704.81099978487100       -17.680805137215863     
   2684.2433771926412        608.63109331699695        306.62938777956737     
   2706.5059929450576        523.77367896391161        586.50923637653477     
   2754.1878598496678        446.36473895098334        820.17233164491529     
   1367.7662458877112        410.32987376631195       -415.87017508177394     
   1344.6813889280429        353.11378030902733       -48.912842377891550     
   1339.5115678769364        308.28902880610991        279.76005024173048     
   1350.7362353323342        270.78712791734802        565.35581617517391     
   1376.8348438921748        235.53958630257745        803.08176882050759     
  -5.6634498760885362E-004  -1.6990349628265609E-004  -426.64971931082744     
  -1.2821922560187425E-005   5.6367618614258293E-005  -58.835756710732575     
   2.2403772239856069E-004   8.2240631996986834E-005   271.65975256526264     
   1.6800245802565234E-004  -1.3056095356827772E-005   559.04208078657427     
  -1.5715921647686397E-004  -1.5029420773079750E-004   797.51650022259309     
   5545.3153686796832        804.33152206164937        891.29904674478246     
   5607.3908511176051        646.49872909454575        1057.5863614024277     
   5645.7258996894352        510.81467757347650        1189.7112751283926     
   5659.3068706335553        393.90055495963338        1287.1245571201482     
   5647.1201201883232        292.37754871426023        1349.2769765751759     
   4140.7757487624331        635.09036506574478        849.38061538870340     
   4202.1505007305013        517.09762879461471        1031.2034476648332     
   4236.4326302959598        404.49917451132467        1174.6963801407223     
   4244.9966909175519        301.87684707829999        1281.5879805828622     
   4229.2172360539535        213.81249135773055        1353.6068167576927     
   2754.1878598496678        446.36473895098334        820.17233164491529     
   2801.9053127905295        367.03415248474835        1009.3875891938030     
   2826.6091942335606        284.19349071124282        1159.3518940992062     
   2830.6390602191545        205.64127376504996        1273.4207915527331     
   2816.3344667876654        139.17602178075879        1354.9498267459524     
   1376.8348438921748        235.53958630257745        803.08176882050759     
   1402.5550674752851        195.07823421825464        994.53837552692846     
   1414.9125209241340        149.49470499976610        1147.4090290267879     
   1415.7885682221304        105.06021192510150        1266.0254307929763     
   1407.0645733527065        68.045968272352468        1354.7192822983784     
  -1.5715921647686397E-004  -1.5029420773079750E-004   797.51650022259309     
  -4.5503767279663778E-004  -1.9195157698868173E-004   989.05539620175921     
  -4.6021044343306291E-004  -1.0379653865508339E-004   1142.5989969464140     
  -1.9538971657141242E-004   3.8463566511003826E-005   1262.8043390668659     
   3.1671231618712810E-004   1.5912146527724273E-004   1354.3284591734246     
   5647.1201201883232        292.37754871426023        1349.2769765751759     
   5619.7635200513987        206.62257867262474        1386.6869807008086     
   5588.1939894848010        138.20938988464081        1412.0598460510012     
   5551.9364560734612        85.554407633407209        1428.1265858431630     
   5510.5158474023383        47.074057202033600        1437.6182132947310     
   4229.2172360539535        213.81249135773055        1353.6068167576927     
   4203.5338544072429        147.16426340066073        1402.0604669564752     
   4180.2192783484434        101.56746482129051        1438.1260303695121     
   4157.3977768397681        70.769658826983459        1463.3363561119452     
   4133.1936188434156        48.518408624966241        1479.2242932988679     
   2816.3344667876654        139.17602178075879        1354.9498267459524     
   2796.7033092096294        93.469690150064594        1414.0507975359756     
   2781.6848236189549        66.965370475930513        1459.0498394614294     
   2769.0155773511178        52.118287209956861        1490.6240042361935     
   2756.4321377415226        41.383664803541478        1509.4503435741010     
   1407.0645733527065        68.045968272352468        1354.7192822983784     
   1396.4621674973246        44.695943832489434        1421.8427779014562     
   1389.3566209850644        33.432905555180582        1472.9693916545498     
   1384.1097565206674        28.796262456220177        1508.2627445714056     
   1379.0833968088682        25.325423551376559        1527.8864576657304     
   3.1671231618712810E-004   1.5912146527724273E-004   1354.3284591734246     
   7.1230907460312126E-004   1.0935962397361894E-004   1424.6212135150006     
   6.6613550114775425E-004  -1.3123438188766511E-004   1478.0228052767088     
   2.1326167700495689E-004  -4.4576027836410750E-004   1514.5257914731806     
  -6.1124230822028980E-004  -7.1731779785374984E-004   1534.1227291190833     
   5510.5158474023383        47.074057202033600        1437.6182132947310     
   5465.4756613226727        21.475290406185650        1443.7390542573601     
   5417.9439523266401        6.0802478645769042        1447.3328747454982     
   5366.8224829605369       -2.7718619351726375        1447.5898482207351     
   5311.0130157706726       -8.7418305053897711        1443.7001481446212     
   4133.1936188434156        48.518408624966241        1479.2242932988679     
   4104.7022488423827        29.315932797346477        1488.6576818127485     
   4070.4212687508348        12.338308030039343        1493.5305341455032     
   4030.5781836777087       -1.6561153138657119        1493.9149583264805     
   3985.4004987318749       -11.908986871544130        1489.8830623849842     
   2756.4321377415226        41.383664803541478        1509.4503435741010     
   2739.8562195155728        28.247522714894558        1519.3940651702551     
   2717.2867911872167        13.120059697488159        1524.3370100903346     
   2689.5763007748183       -1.1572308541871053        1524.9811801042526     
   2657.5771962966778       -11.742855545705993        1522.0285769818058     
   1379.0833968088682        25.325423551376559        1527.8864576657304     
   1371.4506968161259        18.423997200954830        1537.0372688482983     
   1359.9946572221570        8.8617441427638823        1541.5227384761613     
   1345.4918693015691      -0.77269804117065632        1542.4227212325584     
   1328.7189243289520       -7.8906917688964882        1540.8170718006650     
  -6.1124230822028980E-004  -7.1731779785374984E-004   1534.1227291190833     
  -1.1957820296297163E-003  -7.0670215738092776E-004   1542.6763573652754     
  -9.9555794694522644E-004  -3.9735818767483585E-004   1546.8581551991219     
  -7.5692294641778579E-005  -6.3600037347189856E-006   1547.8737893899893     
   1.4986927014515247E-003   2.4921826971307940E-004   1546.9289267072122     
   5311.0130157706726       -8.7418305053897711        1443.7001481446212     
   5253.4636232530302       -13.708767504063644        1437.6139806864383     
   5197.8711104789054       -17.056007338275549        1432.1280718224241     
   5144.2603388573416       -18.700678644452182        1427.7023747244577     
   5092.6561697974867       -18.559910058847208        1424.7968425644717     
   3985.4004987318749       -11.908986871544130        1489.8830623849842     
   3939.6801949079468       -16.757274440966967        1484.0566014203177     
   3897.5965135166671       -16.580411433065137        1479.0526602420828     
   3858.4578501413885       -13.683745903322006        1474.9363414451113     
   3821.5726003653776       -10.372625907675911        1471.7727476242360     
   2657.5771962966778       -11.742855545705993        1522.0285769818058     
   2625.8569945763434       -15.584227026582084        1517.7325123951839     
   2597.7918805444547       -13.599864255969464        1513.7337443298109     
   2572.4473043798967       -8.9049333042507897        1509.8154440254975     
   2548.8887162615824       -4.6146002416573992        1505.7607827219854     
   1328.7189243289520       -7.8906917688964882        1540.8170718006650     
   1312.4718737862652       -10.046269802302220        1538.2356861119304     
   1298.5597251029833       -8.0836117448746450        1535.2313297134453     
   1286.2785034751585       -4.3493002764495827        1531.4181617120887     
   1274.9242340988478       -1.1899180768705833        1526.4103412147072     
   1.4986927014515247E-003   2.4921826971307940E-004   1546.9289267072122     
   2.6840656165951680E-003  -4.7309839197333305E-005   1545.1600950713594     
   2.5607330102518601E-003  -8.9983752703443878E-004   1542.6054220208209     
   1.2493295238924086E-003  -1.9062493118477671E-003   1538.8229737515087     
  -1.1295101313901347E-003  -2.6644295469451938E-003   1533.3708164594225     
   5092.6561697974867       -18.559910058847208        1424.7968425644717     
   5042.1421985865236       -16.935421557863037        1422.9500087439581     
   4991.6672361113824       -14.578214451950998        1421.1655858920299     
   4941.0539671808601       -12.079339378551367        1419.1012960221874     
   4890.1250766037510       -10.029846975010287        1416.4148611478811     
   3821.5726003653776       -10.372625907675911        1471.7727476242360     
   3784.8377393774881       -8.8606651181569305        1469.0869415963953     
   3746.8295748966511       -9.0970354399401003        1466.2899662118834     
   3707.8755013014070       -9.9904222779628071        1463.2758941158036     
   3668.3029129701617       -10.449511037636512        1459.9387979531084     
   2548.8887162615824       -4.6146002416573992        1505.7607827219854     
   2524.9426097625824       -3.4777614493644933        1501.6488800808468     
   2499.4086081317514       -4.9995477225069180        1497.7452197979519     
   2472.8118560617972       -7.4294767520831329        1494.1125191646543     
   2445.6774982453394       -9.0170662293012356        1490.8134954722182     
   1274.9242340988478       -1.1899180768705833        1526.4103412147072     
   1263.1110314033349      -0.59044405295861679        1520.9532923450456     
   1250.1996168549119       -2.0471669881980574        1516.1587704571702     
   1236.6059262049916       -4.1736343779053868        1512.1904315036234     
   1222.7458952050681       -5.5833937171066736        1509.2119314368251     
  -1.1295101313901347E-003  -2.6644295469451938E-003   1533.3708164594225     
  -2.7740387460579779E-003  -2.4464303491169097E-003   1527.3176465365743     
  -2.1178956571715631E-003  -1.3089256538384964E-003   1522.1580419965305     
   6.0647397622517845E-004  -2.6732657095876965E-005   1518.0888914677323     
   5.1666250426957421E-003   6.2533154194333441E-004   1515.3070835785411     
   4890.1250766037510       -10.029846975010287        1416.4148611478811     
   4839.3943347827662       -8.6811111524041280        1413.6078102541544     
   4789.5500409754786       -7.7027429723909790        1411.4975779511544     
   4740.6766732727810       -6.8131487984849173        1410.2157446899116     
   4692.8587097657582       -5.7307349940044787        1409.8938909215542     
   3668.3029129701617       -10.449511037636512        1459.9387979531084     
   3629.3728728145711       -9.4106848479602832        1456.8248282839816     
   3591.9405558995468       -7.1632863270551752        1454.5384084142604     
   3555.7245248333920       -4.6454401140781556        1453.0610201075244     
   3520.4433422244751       -2.7952708478433124        1452.3741451273249     
   2445.6774982453394       -9.0170662293012356        1490.8134954722182     
   2419.3236601819135       -8.2504339320707913        1488.0384635180753     
   2394.4401232010905       -5.7121782048255909        1485.8524003484972     
   2370.6095157404588       -2.7935375888985163        1484.1300166280319     
   2347.4144662377180      -0.88575062517281822        1482.7460230212248     
   1222.7458952050681       -5.5833937171066736        1509.2119314368251     
   1209.4631014125105       -5.1354370462063343        1506.9705072845036     
   1197.1082822697795       -3.3315567886745612        1504.9784702088541     
   1185.3581133559424       -1.2495010142247338        1503.0470873641277     
   1173.8892702501362        3.2982207487350479E-002   1500.9876259045336     
   5.1666250426957421E-003   6.2533154194333441E-004   1515.3070835785411     
   7.6010338611250247E-003  -7.7283229771210517E-004   1513.3427509111234     
   4.5724952947139965E-003  -3.5602617470922868E-003   1511.4555344503597     
  -3.2149581095207908E-003  -5.3901815985210365E-003   1509.4365854286609     
  -1.5057293741220746E-002  -3.9158165033269755E-003   1507.0770550785148     
   4692.8587097657582       -5.7307349940044787        1409.8938909215542     
   4645.4582330235253       -4.4658366340595421        1409.8727959648584     
   4597.7381475211005       -3.3593824413205766        1409.3012406470109     
   4549.6341642077114       -2.6256692514034512        1408.0228076812577     
   4501.0819940327301       -2.4789938997653280        1405.8810797810384     
   3520.4433422244751       -2.7952708478433124        1452.3741451273249     
   3485.0198198764551       -2.4569212643000355        1451.8873004474476     
   3448.8155042892054       -3.0120851123567718        1450.9992178546036     
   3412.2070601150599       -3.2052135508506581        1449.6752013313794     
   3375.5711520063714       -1.7807577383193802        1447.8805548603561     
   2347.4144662377180      -0.88575062517281822        1482.7460230212248     
   2323.8145673454469       -1.0861030791863868        1481.5296047723334     
   2299.4035174446849       -2.3781949544046483        1480.4275406591953     
   2274.7151035664356       -2.9827361476947090        1479.4909316471797     
   2250.2831127412996       -1.1204365565733951        1478.7708787011507     
   1173.8892702501362        3.2982207487350479E-002   1500.9876259045336     
   1162.0609611030179      -0.28783637716685462        1499.1001459218351     
   1149.7193290690348       -1.3925693428316777        1497.8778451791004     
   1137.2714522328040       -1.9242897407957571        1497.4216973372718     
   1125.1244086789800      -0.52607062200235077        1497.8326760573191     
  -1.5057293741220746E-002  -3.9158165033269755E-003   1507.0770550785148     
  -2.2513178016758284E-002   3.4245438956609035E-003   1504.8993608784974     
  -1.9918756290849909E-002   9.9343466405262745E-003   1503.6417675324876     
  -1.0736214724662636E-002   4.0729713349146402E-003   1503.4191971104503     
   1.5722605717508401E-003  -2.5700202399017845E-002   1504.3465716824014     
  -5.6634498760885362E-004  -1.6990349628265609E-004  -426.64971931082744     
  -1.2821922560187425E-005   5.6367618614258293E-005  -58.835756710732575     
   2.2403772239856069E-004   8.2240631996986834E-005   271.65975256526264     
   1.6800245802565234E-004  -1.3056095356827772E-005   559.04208078657427     
  -1.5715921647686397E-004  -1.5029420773079750E-004   797.51650022259309     
  -1367.7670521245393       -410.33011563736181       -415.87007394597651     
  -1344.6814376844115       -353.11368881005916       -48.912758316950921     
  -1339.5113011635458       -308.28892210028948        279.76001112001171     
  -1350.7360534552467       -270.78718515241019        565.35566280507715     
  -1376.8351054528325       -235.53984761082404        803.08162517840276     
  -2720.6248120204332       -816.18744360612970       -384.63475633866568     
  -2688.5623198325097       -704.81096713885142       -17.680694741368676     
  -2684.2435067240222       -608.63111558508058        306.62931400439413     
  -2706.5061431550821       -523.77379047864929        586.50901264391393     
  -2754.1879995858421       -446.36489335339229        820.17214392247774     
  -4043.6655127694371       -1213.0996538308323       -334.59903620474654     
  -4031.2298866467804       -1054.9679468329318        37.055206479929687     
  -4042.5530145697699       -903.53348479157353        356.12039680621109     
  -4078.7099514704250       -762.37978414682573        625.82074995892401     
  -4140.7757522807260       -635.09036133869029        849.38048112284662     
  -5321.9808211083173       -1596.5942463324950       -267.41818326006279     
  -5372.2713655076923       -1403.4607961064282        117.48971781082548     
  -5422.7964466268422       -1195.5030162975868        432.08599511326565     
  -5478.7473287746488       -990.02512126892816        686.60949440594629     
  -5545.3152762599584       -804.33132538341295        891.29906144754398     
  -1.5715921647686397E-004  -1.5029420773079750E-004   797.51650022259309     
  -4.5503767279663778E-004  -1.9195157698868173E-004   989.05539620175921     
  -4.6021044343306291E-004  -1.0379653865508339E-004   1142.5989969464140     
  -1.9538971657141242E-004   3.8463566511003826E-005   1262.8043390668659     
   3.1671231618712810E-004   1.5912146527724273E-004   1354.3284591734246     
  -1376.8351054528325       -235.53984761082404        803.08162517840276     
  -1402.5557232125450       -195.07853213427850        994.53839067654519     
  -1414.9131681297965       -149.49484584542842        1147.4092253917320     
  -1415.7888441065911       -105.06013508427708        1266.0257182476651     
  -1407.0641550449914       -68.045746191046646        1354.7194581680569     
  -2754.1879995858421       -446.36489335339229        820.17214392247774     
  -2801.9054103175658       -367.03425388062044        1009.3876343499709     
  -2826.6092489725220       -284.19349946830437        1159.3521797613155     
  -2830.6390949923734       -205.64122825537675        1273.4211768894043     
  -2816.3345278188094       -139.17603838076309        1354.9500224671042     
  -4140.7757522807260       -635.09036133869029        849.38048112284662     
  -4202.1500433812353       -517.09751529912478        1031.2035206702869     
  -4236.4321140851880       -404.49908806917017        1174.6966288755139     
  -4244.9965137237496       -301.87691075265275        1281.5882657763864     
  -4229.2177916280325       -213.81281445329864        1353.6068914107429     
  -5545.3152762599584       -804.33132538341295        891.29906144754398     
  -5607.3901494320316       -646.49847449831373        1057.5864430857105     
  -5645.7251748143963       -510.81463505200645        1189.7113415546542     
  -5659.3066659774577       -393.90085227915711        1287.1245356929580     
  -5647.1209364915858       -292.37817141437017        1349.2768043391814     
   3.1671231618712810E-004   1.5912146527724273E-004   1354.3284591734246     
   7.1230907460312126E-004   1.0935962397361894E-004   1424.6212135150006     
   6.6613550114775425E-004  -1.3123438188766511E-004   1478.0228052767088     
   2.1326167700495689E-004  -4.4576027836410750E-004   1514.5257914731806     
  -6.1124230822028980E-004  -7.1731779785374984E-004   1534.1227291190833     
  -1407.0641550449914       -68.045746191046646        1354.7194581680569     
  -1396.4612255504180       -44.695866849695506        1421.8426399963009     
  -1389.3557518321497       -33.433256757041704        1472.9689318378948     
  -1384.1094951979176       -28.797120272197844        1508.2621325097562     
  -1379.0842169554905       -25.326661754394024        1527.8860408288012     
  -2816.3345278188094       -139.17603838076309        1354.9500224671042     
  -2796.7034226883075       -93.469920600098249        1414.0505422640417     
  -2781.6849566548995       -66.965871727449326        1459.0491545751561     
  -2769.0156618864712       -52.118998989191141        1490.6231449212435     
  -2756.4320705510218       -41.384409611932142        1509.4497988230980     
  -4229.2177916280325       -213.81281445329864        1353.6068914107429     
  -4203.5350071836865       -147.16479031528752        1402.0601497289053     
  -4180.2203718959017       -101.56800321453716        1438.1253894068439     
  -4157.3981632751629       -70.770044852677529        1463.3356275709318     
  -4133.1926588319602       -48.518506931366346        1479.2238813475394     
  -5647.1209364915858       -292.37817141437017        1349.2768043391814     
  -5619.7651071156270       -206.62321441892959        1386.6866918014921     
  -5588.1954211183665       -138.20967828731000        1412.0595522513256     
  -5551.9368758351429       -85.554220804007855        1428.1263793222129     
  -5510.5144686013355       -47.073499753547367        1437.6181666477069     
  -6.1124230822028980E-004  -7.1731779785374984E-004   1534.1227291190833     
  -1.1957820296297163E-003  -7.0670215738092776E-004   1542.6763573652754     
  -9.9555794694522644E-004  -3.9735818767483585E-004   1546.8581551991219     
  -7.5692294641778579E-005  -6.3600037347189856E-006   1547.8737893899893     
   1.4986927014515247E-003   2.4921826971307940E-004   1546.9289267072122     
  -1379.0842169554905       -25.326661754394024        1527.8860408288012     
  -1371.4522420677647       -18.425143065556881        1537.0373790593114     
  -1359.9958582310267       -8.8623685122180405        1541.5233663461190     
  -1345.4917708530786       0.77264387959775149        1542.4235468270058     
  -1328.7166853418059        7.8908760835944349        1540.8174646397522     
  -2756.4320705510218       -41.384409611932142        1509.4497988230980     
  -2739.8559288134729       -28.248076855291629        1519.3942555499727     
  -2717.2863039386493       -13.120377645178110        1524.3378592891818     
  -2689.5757097442884        1.1569752925406647        1524.9822029387301     
  -2657.5766600481747        11.742269231993077        1522.0288793965367     
  -4133.1926588319602       -48.518506931366346        1479.2238813475394     
  -4104.7001870206514       -29.315887371858025        1488.6578612778881     
  -4070.4192181899552       -12.338490409893666        1493.5311418522567     
  -4030.5772426918875        1.6553827811057999        1493.9155361206231     
  -3985.4017508784714        11.907431027663051        1489.8828571329520     
  -5510.5144686013355       -47.073499753547367        1437.6181666477069     
  -5465.4729476907569       -21.474953915561173        1443.7390706836056     
  -5417.9414864940682       -6.0807724590661110        1447.3327218591949     
  -5366.8217200218487        2.7702612473785848        1447.5893247682325     
  -5311.0152832846470        8.7393638352261860        1443.6990840044193     
   1.4986927014515247E-003   2.4921826971307940E-004   1546.9289267072122     
   2.6840656165951680E-003  -4.7309839197333305E-005   1545.1600950713594     
   2.5607330102518601E-003  -8.9983752703443878E-004   1542.6054220208209     
   1.2493295238924086E-003  -1.9062493118477671E-003   1538.8229737515087     
  -1.1295101313901347E-003  -2.6644295469451938E-003   1533.3708164594225     
  -1328.7166853418059        7.8908760835944349        1540.8174646397522     
  -1312.4680505565218        10.045759655642087        1538.2350554431723     
  -1298.5560547624716        8.0815947985251455        1535.2296950607010     
  -1286.2765124761067        4.3456664573679404        1531.4160878770574     
  -1274.9252382139923        1.1852595769565255        1526.4089382769901     
  -2657.5766600481747        11.742269231993077        1522.0288793965367     
  -2625.8565604371151        15.582843982865256        1517.7313394466744     
  -2597.7913614653116        13.597556130364978        1513.7312289749730     
  -2572.4463944016425        8.9019681114285731        1509.8124335320883     
  -2548.8869905150341        4.6116423630835470        1505.7588386686275     
  -3985.4017508784714        11.907431027663051        1489.8828571329520     
  -3939.6831256270680        16.755121656781967        1484.0551036573590     
  -3897.5990426620970        16.578279171975737        1479.0501388911348     
  -3858.4579316059185        13.682138165267588        1474.9335725280257     
  -3821.5682220809445        10.371933228629814        1471.7710142618243     
  -5311.0152832846470        8.7393638352261860        1443.6990840044193     
  -5253.4680261774156        13.706508661941598        1437.6125046506229     
  -5197.8747816394289        17.055058937376316        1432.1265399366239     
  -5144.2606592477623        18.701316071186966        1427.7010666764404     
  -5092.6507685794550        18.561581473235719        1424.7959616841054     
  -1.1295101313901347E-003  -2.6644295469451938E-003   1533.3708164594225     
  -2.7740387460579779E-003  -2.4464303491169097E-003   1527.3176465365743     
  -2.1178956571715631E-003  -1.3089256538384964E-003   1522.1580419965305     
   6.0647397622517845E-004  -2.6732657095876965E-005   1518.0888914677323     
   5.1666250426957421E-003   6.2533154194333441E-004   1515.3070835785411     
  -1274.9252382139923        1.1852595769565255        1526.4089382769901     
  -1263.1139279313581       0.58640742982692018        1520.9535767783757     
  -1250.2012937251850        2.0450894827063166        1516.1606853539915     
  -1236.6036743244572        4.1735099722853306        1512.1929955710013     
  -1222.7374084582902        5.5838731348345050        1509.2132389965338     
  -2548.8869905150341        4.6116423630835470        1505.7588386686275     
  -2524.9398192599515        3.4756132536417681        1501.6492766326614     
  -2499.4049038664798        4.9984025662007525        1497.7476566495973     
  -2472.8076062666923        7.4288038603531277        1494.1154797361251     
  -2445.6732883927962        9.0156106955652149        1490.8142469088837     
  -3821.5682220809445        10.371933228629814        1471.7710142618243     
  -3784.8296277896975        8.8604171116123780        1469.0870534061637     
  -3746.8211107226966        9.0961816038668530        1466.2913374634968     
  -3707.8699729343789        9.9882198572270227        1463.2770634109447     
  -3668.3035164791254        10.445525023666505        1459.9374282255524     
  -5092.6507685794550        18.561581473235719        1424.7959616841054     
  -5042.1325332857532        16.936065074328781        1422.9492144054739     
  -4991.6580766970483        14.575977874701948        1421.1641093758033     
  -4941.0495579092058        12.074122888207285        1419.0984660434124     
  -4890.1291360180076        10.023303128800535        1416.4101038565386     
   5.1666250426957421E-003   6.2533154194333441E-004   1515.3070835785411     
   7.6010338611250247E-003  -7.7283229771210517E-004   1513.3427509111234     
   4.5724952947139965E-003  -3.5602617470922868E-003   1511.4555344503597     
  -3.2149581095207908E-003  -5.3901815985210365E-003   1509.4365854286609     
  -1.5057293741220746E-002  -3.9158165033269755E-003   1507.0770550785148     
  -1222.7374084582902        5.5838731348345050        1509.2132389965338     
  -1209.4514032226332        5.1331780070034938        1506.9693135771429     
  -1197.1006334362253        3.3248645495942242        1504.9763449348604     
  -1185.3605394122480        1.2407983851500148        1503.0479061502108     
  -1173.9065614638891       -3.7154863514956560E-002   1500.9975703036439     
  -2445.6732883927962        9.0156106955652149        1490.8142469088837     
  -2419.3197315507496        8.2468573913270120        1488.0355847794474     
  -2394.4357501379791        5.7071346289230860        1485.8486145346167     
  -2370.6032557240733        2.7900705097335958        1484.1310790538037     
  -2347.4041598785079       0.88929313567575718        1482.7607212164612     
  -3668.3035164791254        10.445525023666505        1459.9374282255524     
  -3629.3768663103046        9.4064206129560262        1456.8202613228796     
  -3591.9394191691695        7.1616575085718068        1454.5337012201487     
  -3555.7098847920315        4.6488699227825236        1453.0614085468235     
  -3520.4069729151447        2.8056920679043742        1452.3870439324230     
  -4890.1291360180076        10.023303128800535        1416.4101038565386     
  -4839.4022898613694        8.6780229636990498        1413.6020400121420     
  -4789.5502820889706        7.7068407207791552        1411.4929629620690     
  -4740.6589475145101        6.8236403545513440        1410.2141990368145     
  -4692.8141209514506        5.7423058198746730        1409.8970745669915     
  -1.5057293741220746E-002  -3.9158165033269755E-003   1507.0770550785148     
  -2.2513178016758284E-002   3.4245438956609035E-003   1504.8993608784974     
  -1.9918756290849909E-002   9.9343466405262745E-003   1503.6417675324876     
  -1.0736214724662636E-002   4.0729713349146402E-003   1503.4191971104503     
   1.5722605717508401E-003  -2.5700202399017845E-002   1504.3465716824014     
  -1173.9065614638891       -3.7154863514956560E-002   1500.9975703036439     
  -1162.0875561419002       0.29799256628757576        1499.1217109022969     
  -1149.7440542675683        1.4143142021883364        1497.9043597951390     
  -1137.2890075600412        1.9353043134445329        1497.4405775753062     
  -1125.1353677385509       0.48445716985008858        1497.8254248357553     
  -2347.4041598785079       0.88929313567575718        1482.7607212164612     
  -2323.8017650090687        1.1014115995939164        1481.5601689929883     
  -2299.3957714454814        2.4017085882252331        1480.4625575211940     
  -2274.7226876397649        3.0018225947480914        1479.5113904320269     
  -2250.3190220441625        1.1133921119013621        1478.7501713559304     
  -3520.4069729151447        2.8056920679043742        1452.3870439324230     
  -3484.9704989711067        2.4720738861458358        1451.9129397428931     
  -3448.7772268249964        3.0314705444955052        1451.0258220465878     
  -3412.2012888618337        3.2367740928232251        1449.6859420266567     
  -3375.6168174668692        1.8408765806034353        1447.8535508661773     
  -4692.8141209514506        5.7423058198746730        1409.8970745669915     
  -4645.3991172195256        4.4683716687691231        1409.8782277443099     
  -4597.6905769410869        3.3629531106123522        1409.3036147071057     
  -4549.6143236342868        2.6733050852847100        1408.0185387054507     
  -4501.0961808170896        2.6466825327770493        1405.8683029895726     
  -5321.9808211083173       -1596.5942463324950       -267.41818326006279     
  -5372.2713655076923       -1403.4607961064282        117.48971781082548     
  -5422.7964466268422       -1195.5030162975868        432.08599511326565     
  -5478.7473287746488       -990.02512126892816        686.60949440594629     
  -5545.3152762599584       -804.33132538341295        891.29906144754398     
  -6554.1297919164417       -1966.2389375749324       -183.07251008992182     
  -6712.5474988677934       -1744.4340204289310        217.40731135550024     
  -6829.6780322478353       -1483.3687134825782        529.24284244589637     
  -6914.6028154614214       -1213.3144280855231        767.39906633469468     
  -6976.4032719134493       -964.54257558745667        946.84096617532668     
  -7792.5410326437441       -2337.7623097931232       -74.842500757432461     
  -8066.0751342143285       -2075.9789567804200        330.70884425074013     
  -8256.6976156691035       -1762.5982641911419        639.11501971222378     
  -8375.0490340420529       -1433.0887554724397        863.48600168250664     
  -8431.7699463674253       -1122.9189540715809        1016.9317662171355     
  -9103.1105388826963       -2730.9331616648083        65.666317804836865     
  -9452.1756564800089       -2403.8920206407229        459.76366650942106     
  -9695.4052411423236       -2030.6566816987895        760.76628358170888     
  -9842.6679580663877       -1644.1226954946649        973.34799348669276     
  -9903.8324724487939       -1277.1856126838891        1102.1826206892790     
  -10551.734306225890       -3165.5202918677669        246.84841866434053     
  -10890.170450597276       -2733.9696274895473        606.94112814434050     
  -11137.350952919227       -2285.0089792810409        893.26039072381798     
  -11300.041561084177       -1841.1908402170650        1095.4627347844873     
  -11385.008022984512       -1425.0677032724493        1203.2046887080660     
  -5545.3152762599584       -804.33132538341295        891.29906144754398     
  -5607.3901494320316       -646.49847449831373        1057.5864430857105     
  -5645.7251748143963       -510.81463505200645        1189.7113415546542     
  -5659.3066659774577       -393.90085227915711        1287.1245356929580     
  -5647.1209364915858       -292.37817141437017        1349.2768043391814     
  -6976.4032719134493       -964.54257558745667        946.84096617532668     
  -7023.6064667735109       -760.89563795588697        1088.3479531430396     
  -7056.4810626904427       -598.68808875601962        1201.5349656133546     
  -7071.7208792880483       -466.89932673385692        1284.6202775401393     
  -7066.0197361902083       -354.50875063562535        1335.8221628772865     
  -8431.7699463674253       -1122.9189540715809        1016.9317662171355     
  -8459.2048183874886       -866.67503755304688        1127.0076654047425     
  -8479.9484211256458       -666.44420108498525        1212.3469780986395     
  -8490.0167695377204       -508.94649452012618        1272.6765705013590     
  -8485.4258785795100       -380.90196771117689        1307.7233088154030     
  -9903.8324724487939       -1277.1856126838891        1102.1826206892790     
  -9921.9233583199075       -966.15811950355646        1176.7280678426214     
  -9931.3546792896632       -718.65120078983773        1225.9773916794786     
  -9929.0793349244723       -524.50785509728757        1253.9071477844004     
  -9912.0502247906697       -373.57108098034541        1264.4938917419056     
  -11385.008022984512       -1425.0677032724493        1203.2046887080660     
  -11419.500240616637       -1061.6663300211521        1240.6716484284239     
  -11425.927266352133       -759.87731662146416        1246.2562190248179     
  -11403.793573646426       -518.04890792480228        1230.9257425971261     
  -11352.603635954925       -334.52934878252336        1205.6475612451979     
  -5647.1209364915858       -292.37817141437017        1349.2768043391814     
  -5619.7651071156270       -206.62321441892959        1386.6866918014921     
  -5588.1954211183665       -138.20967828731000        1412.0595522513256     
  -5551.9368758351429       -85.554220804007855        1428.1263793222129     
  -5510.5144686013355       -47.073499753547367        1437.6181666477069     
  -7066.0197361902083       -354.50875063562535        1335.8221628772865     
  -7041.7593263046192       -254.21054515729497        1363.2601308321091     
  -7003.9698137013320       -167.52713220274836        1378.4493995768519     
  -6953.3177247476788       -96.680266329692131        1384.7018065128348     
  -6890.4695858109790       -43.891702095911114        1385.3291890413605     
  -8485.4258785795100       -380.90196771117689        1307.7233088154030     
  -8461.9258689870894       -271.10491490136110        1324.1435795169448     
  -8418.1073177468297       -177.81781783472388        1330.3199721396002     
  -8354.2469241898070       -101.96300761502789        1328.5686574719530     
  -8270.6213876472302       -44.462815346276784        1321.2058063026395     
  -9912.0502247906697       -373.57108098034541        1264.4938917419056     
  -9877.1377638661506       -256.36823226204160        1265.7019927856090     
  -9822.1474449024154       -166.54358867747942        1262.6741122897822     
  -9745.4347841263625       -98.615537649543057        1255.1542440499520     
  -9645.3552977648560       -47.102466601121250        1242.8863818616601     
  -11352.603635954925       -334.52934878252336        1205.6475612451979     
  -11284.268039644794       -209.06240585017440        1184.3003255676156     
  -11207.629706815756       -131.16629822536515        1170.5146623776602     
  -11117.591614522220       -83.850949422702797        1159.8858780973051     
  -11009.056739818589       -50.126282956787236        1148.0092791485281     
  -5510.5144686013355       -47.073499753547367        1437.6181666477069     
  -5465.4729476907569       -21.474953915561173        1443.7390706836056     
  -5417.9414864940682       -6.0807724590661110        1447.3327218591949     
  -5366.8217200218487        2.7702612473785848        1447.5893247682325     
  -5311.0152832846470        8.7393638352261860        1443.6990840044193     
  -6890.4695858109790       -43.891702095911114        1385.3291890413605     
  -6823.9253837639344       -12.249500234976949        1385.0768368807474     
  -6760.2285358407162        1.6801773145602965        1385.5247574838463     
  -6697.1107139509177        5.4584241874713371        1385.2368648538461     
  -6632.3035900041396        6.6463340183158834        1382.7770729939123     
  -8270.6213876472302       -44.462815346276784        1321.2058063026395     
  -8181.6323543527933       -9.1108559302956564        1313.9375388057099     
  -8099.8798877628942        6.3045316553498196        1310.0592531308698     
  -8022.9383130427705        9.8689301932254239        1308.2710370302734     
  -7948.3819553576432        9.6679224658823841        1307.2729782560239     
  -9645.3552977648560       -47.102466601121250        1242.8863818616601     
  -9537.8173197175856       -11.826059079644438        1230.4731896334138     
  -9438.7785695847142        7.2273823659970731        1222.4204859705135     
  -9346.6686421437444        15.292541810803414        1218.3269967136682     
  -9259.9171321722097        17.604103329630561        1217.7914477035879     
  -11009.056739818589       -50.126282956787236        1148.0092791485281     
  -10891.703740118495       -20.162147760948301        1134.8358025386699     
  -10778.807608630237        3.8838212493201354        1124.0927331729777     
  -10670.665826100227        21.020021586145958        1117.0398993202923     
  -10567.575873274796        30.254850761710713        1114.9371292494113     
  -5311.0152832846470        8.7393638352261860        1443.6990840044193     
  -5253.4680261774156        13.706508661941598        1437.6125046506229     
  -5197.8747816394289        17.055058937376316        1432.1265399366239     
  -5144.2606592477623        18.701316071186966        1427.7010666764404     
  -5092.6507685794550        18.561581473235719        1424.7959616841054     
  -6632.3035900041396        6.6463340183158834        1382.7770729939123     
  -6565.3094532849964        10.779797804486407        1378.3486666830793     
  -6497.6007259462303        16.827596982886917        1373.5864529016069     
  -6429.8642791994116        22.500160848287123        1369.2016289544899     
  -6362.7869842562350        25.507918694974705        1365.9053921467198     
  -7948.3819553576432        9.6679224658823841        1307.2729782560239     
  -7872.5916385524524        12.531969768484032        1305.4871261890337     
  -7794.0754460985781        18.200667974838325        1302.5781927488165     
  -7713.5985926009407        24.123301735115092        1299.1102594953788     
  -7631.9262926644751        27.749155699589664        1295.6474079887571     
  -9259.9171321722097        17.604103329630561        1217.7914477035879     
  -9173.7639226392821        19.428222356246351        1218.3516580107257     
  -9084.6692598338668        21.963176591915271        1217.8253158645916     
  -8992.8932835128253        24.341833513691654        1216.2309508444248     
  -8898.6961334331190        25.697060598484313        1213.5870925295335     
  -10567.575873274796        30.254850761710713        1114.9371292494113     
  -10467.275646205015        31.933753369848546        1116.2660369902487     
  -10366.752484889421        28.904027512974153        1118.0513786352815     
  -10265.178035995617        23.926850965733593        1119.3676955471115     
  -10161.723946191163        19.763401502921170        1119.2895290883671     
  -5092.6507685794550        18.561581473235719        1424.7959616841054     
  -5042.1325332857532        16.936065074328781        1422.9492144054739     
  -4991.6580766970483        14.575977874701948        1421.1641093758033     
  -4941.0495579092058        12.074122888207285        1419.0984660434124     
  -4890.1291360180076        10.023303128800535        1416.4101038565386     
  -6362.7869842562350        25.507918694974705        1365.9053921467198     
  -6297.4405507108841        24.117531138071172        1363.9134909648676     
  -6234.0109525506541        19.548110815573182        1362.6367149620517     
  -6171.8564575767305        13.938765056942657        1361.5788230431431     
  -6110.3353335903430        9.4286011912479353        1360.2435741129812     
  -7631.9262926644751        27.749155699589664        1295.6474079887571     
  -7551.8237327216948        26.676377991020217        1293.1622379888345     
  -7475.0685980788385        21.794787153242851        1291.9708987630397     
  -7400.9448516512839        15.491173468220495        1291.6527961326235     
  -7328.7364563544797        10.152327217859693        1291.7873359188643     
  -8898.6961334331190        25.697060598484313        1213.5870925295335     
  -8805.3483156241109        24.592734741466302        1211.1346981396787     
  -8715.6797392361532        21.061389101261284        1210.0255453068901     
  -8629.2896487076941        16.438875549705699        1210.1443942289352     
  -8545.7772884771584        12.061045958748764        1211.3760051034901     
  -10161.723946191163        19.763401502921170        1119.2895290883671     
  -10058.080535724037        17.846730497745739        1118.2701140794943     
  -9956.6931019771637        17.093298873269305        1117.6595391217902     
  -9857.8657573208293        16.489398728782817        1117.8776262493498     
  -9761.9026141251452        15.021322163832792        1119.3441974961422     
  -4890.1291360180076        10.023303128800535        1416.4101038565386     
  -4839.4022898613694        8.6780229636990498        1413.6020400121420     
  -4789.5502820889706        7.7068407207791552        1411.4929629620690     
  -4740.6589475145101        6.8236403545513440        1410.2141990368145     
  -4692.8141209514506        5.7423058198746730        1409.8970745669915     
  -6110.3353335903430        9.4286011912479353        1360.2435741129812     
  -6048.7190666143997        7.6402981800699763        1358.6013551420237     
  -5986.9944783655019        7.8120826724750714        1357.1123778949645     
  -5925.5928401856445        8.5063835285759524        1356.0151384680173     
  -5864.9454234166687        8.2856296087536521        1355.5481329573797     
  -7328.7364563544797        10.152327217859693        1291.7873359188643     
  -7256.6385053047688        7.8754067008890161        1291.7045929204432     
  -7183.6587855825674        8.0485903356920971        1291.1636554151917     
  -7110.3003010497550        8.9951985828224679        1290.3874494430174     
  -7037.0660555679833        9.0385519033793571        1289.5989010439421     
  -8545.7772884771584        12.061045958748764        1211.3760051034901     
  -8462.9224547794947        9.4547938723358129        1212.6893780220805     
  -8378.9728024728338        8.5874840907076759        1213.1867503858134     
  -8294.2293639302206        8.4556753704500807        1212.9527383566653     
  -8208.9931715246439        8.0559264681241984        1212.0719580966563     
  -9761.9026141251452        15.021322163832792        1119.3441974961422     
  -9667.3327638858173        12.449905040032263        1121.3333351214555     
  -9572.3661277689916        9.5998843177080744        1122.7216176700197     
  -9476.8280626504584        7.0534037442803310        1123.3326116039671     
  -9380.5439254059620        5.3926070671273010        1122.9898833855545     
  -4692.8141209514506        5.7423058198746730        1409.8970745669915     
  -4645.3991172195256        4.4683716687691231        1409.8782277443099     
  -4597.6905769410869        3.3629531106123522        1409.3036147071057     
  -4549.6143236342868        2.6733050852847100        1408.0185387054507     
  -4501.0961808170896        2.6466825327770493        1405.8683029895726     
  -5864.9454234166687        8.2856296087536521        1355.5481329573797     
  -5805.2206961607571        6.2623125209186128        1355.4720268759945     
  -5745.9657351672577        3.6202283821910441        1355.2328738343197     
  -5686.6797247490103        2.0287628163678164        1354.5972520747346     
  -5626.8618492188207        3.1573014473810872        1353.3317398394386     
  -7037.0660555679833        9.0385519033793571        1289.5989010439421     
  -6964.8399685279201        6.9444071182369953        1289.1722862291406     
  -6893.7718349002371        3.9256024482237990        1289.1945933631489     
  -6823.2634719165053        1.9760804549559907        1289.4578170162717     
  -6752.7166968082556        3.0897836997191916        1289.7539517583116     
  -8208.9931715246439        8.0559264681241984        1212.0719580966563     
  -8124.4697780022661        6.4508023562143535        1211.3701432148318     
  -8041.4198627101068        4.1857793377266717        1211.5643180347022     
  -7959.4771479223564        2.4817831652380846        1212.5760347897494     
  -7878.2753559133125        2.5597395914460321        1214.3268457134318     
  -9380.5439254059620        5.3926070671273010        1122.9898833855545     
  -9284.3229682650035        4.7176451306690979        1122.4567352442707     
  -9189.2208051669040        4.3074630796490965        1122.7175925899699     
  -9095.4323355524393        3.5123961115905331        1123.9277066549942     
  -9003.1524588624197        1.6827794239034120        1126.2423286718949     
  -10551.734306225890       -3165.5202918677669        246.84841866434053     
  -10890.170450597276       -2733.9696274895473        606.94112814434050     
  -11137.350952919227       -2285.0089792810409        893.26039072381798     
  -11300.041561084177       -1841.1908402170650        1095.4627347844873     
  -11385.008022984512       -1425.0677032724493        1203.2046887080660     
  -12166.955558347578       -3650.0866675042730        477.86090072235521     
  -12390.597115500974       -3055.2715286639323        797.77116107657423     
  -12576.827195691008       -2486.8681360457786        1052.3231943535302     
  -12730.653953742198       -1961.5703390648985        1224.3990555657285     
  -12857.085544478994       -1496.0719871363385        1296.8807997256370     
  -13827.906431249628       -4148.3719293748882        770.91136621559679     
  -13947.453528126269       -3351.8955589009765        1068.2431721842167     
  -14067.985801796915       -2615.4049473953355        1265.8302280598432     
  -14197.775487957433       -1966.4742138444567        1362.8469054063874     
  -14345.094822303816       -1432.6774772347867        1358.4675757877119     
  -15376.366289015730       -4612.9098867047151        1138.9700432146265     
  -15555.251490406185       -3622.1952587805863        1436.4157239157028     
  -15692.165896960338       -2695.0211510467648        1551.0697690731738     
  -15803.667499184787       -1886.5808651921848        1521.4656567228967     
  -15906.314287586272       -1252.0677029059752        1386.1368649008555     
  -16654.114495729464       -4996.2343487188446        1595.0071597900335     
  -17208.502804273725       -3864.5241688826909        1920.3473787194928     
  -17530.706606904758       -2750.1184847170325        1925.3300946238692     
  -17650.591322879241       -1752.5686937446330        1710.9146819317623     
  -17598.022371453982       -971.42619348819608        1378.0605150717104     
  -11385.008022984512       -1425.0677032724493        1203.2046887080660     
  -11419.500240616637       -1061.6663300211521        1240.6716484284239     
  -11425.927266352133       -759.87731662146416        1246.2562190248179     
  -11403.793573646426       -518.04890792480228        1230.9257425971261     
  -11352.603635954925       -334.52934878252336        1205.6475612451979     
  -12857.085544478994       -1496.0719871363385        1296.8807997256370     
  -12940.261003369840       -1098.2667213252635        1291.9647142910339     
  -12960.970610881224       -764.88566602426090        1252.9597499203808     
  -12919.199389334979       -495.87889563932958        1194.4169564271679     
  -12814.932361052950       -291.19648457658514        1130.8873836249097     
  -14345.094822303816       -1432.6774772347867        1358.4675757877119     
  -14462.701304427785       -1018.0773815622238        1292.3673217366554     
  -14494.310164700120       -696.59567341906768        1210.4913132703871     
  -14434.630234985212       -450.59512568666014        1121.4190531793859     
  -14278.370347147300       -262.43851124597768        1033.7300442539570     
  -15906.314287586272       -1252.0677029059752        1386.1368649008555     
  -15979.814477470612       -818.99631083591885        1227.9925825029586     
  -15981.954891860973       -541.81002802165949        1099.6214804216022     
  -15896.411432840428       -366.09519473975797        994.07625968730952     
  -15706.860002491931       -237.43815126684513        904.40962133060373     
  -17598.022371453982       -971.42619348819608        1378.0605150717104     
  -17484.593856178421       -498.92150925052920        1084.9536083277280     
  -17379.913756415903       -287.33141904755303        901.12082272070609     
  -17250.868305144144       -226.27669947168579        794.53280278453769     
  -17064.343735340877       -205.37812711543847        733.16019305315274     
  -11352.603635954925       -334.52934878252336        1205.6475612451979     
  -11284.268039644794       -209.06240585017440        1184.3003255676156     
  -11207.629706815756       -131.16629822536515        1170.5146623776602     
  -11117.591614522220       -83.850949422702797        1159.8858780973051     
  -11009.056739818589       -50.126282956787236        1148.0092791485281     
  -12814.932361052950       -291.19648457658514        1130.8873836249097     
  -12688.375489232089       -159.04910253064463        1082.7115731331021     
  -12574.716248751982       -90.919124804961939        1055.5353257907266     
  -12466.411929458345       -61.664184218623632        1041.8675802405055     
  -12355.919821197022       -46.141913590974127        1034.2172751252519     
  -14278.370347147300       -262.43851124597768        1033.7300442539570     
  -14089.885220832963       -134.79988375707035        965.87481135760743     
  -13932.761462867815       -67.792920810185024        926.00002444863981     
  -13800.555735884920       -39.939831182291528        907.22940395978935     
  -13686.824702517231       -29.762823650000428        902.68667032371854     
  -15706.860002491931       -237.43815126684513        904.40962133060373     
  -15478.719736094305       -133.29150002332517        833.40411607879514     
  -15287.093231148418       -63.386050836749746        786.76692850000677     
  -15130.181583070485       -21.725455094291647        761.93771038608406     
  -15006.185887276602       -2.3133641829626868        756.35611352873832     
  -17064.343735340877       -205.37812711543847        733.16019305315274     
  -16844.801536662948       -151.50070182368108        684.91356313435313     
  -16643.039435578848       -79.296879480149073        642.69420809342421     
  -16465.448020283642       -10.068620735089098        611.95886065033687     
  -16318.417878972548        34.882113760798347        598.16425352515182     
  -11009.056739818589       -50.126282956787236        1148.0092791485281     
  -10891.703740118495       -20.162147760948301        1134.8358025386699     
  -10778.807608630237        3.8838212493201354        1124.0927331729777     
  -10670.665826100227        21.020021586145958        1117.0398993202923     
  -10567.575873274796        30.254850761710713        1114.9371292494113     
  -12355.919821197022       -46.141913590974127        1034.2172751252519     
  -12239.308128733070       -25.021419599329420        1025.6163326562773     
  -12118.880045027876       0.24489709126783055        1015.7717534850975     
  -11996.445342221832        23.624462679703811        1007.2050939148714     
  -11873.813792455196        39.084703364932921        1002.4379102487121     
  -13686.824702517231       -29.762823650000428        902.68667032371854     
  -13574.240295676274       -16.584161301086169        900.53675166217647     
  -13450.835511869947        2.4036807885358940        895.01014328184908     
  -13318.208609126188        21.873175859170260        888.32891639303557     
  -13177.957845472774        36.496797151410647        882.71514220598601     
  -15006.185887276602       -2.3133641829626868        756.35611352873832     
  -14892.113646614316        6.4656054341558047        758.44559754288321     
  -14765.946925926308        12.978297310249218        758.57743617560368     
  -14627.348663621546        18.348250082139202        757.11300241721608     
  -14475.981798108933        23.699002386805660        754.41366925791294     
  -16318.417878972548        34.882113760798347        598.16425352515182     
  -16188.541587213502        45.443858906301102        598.19140828492903     
  -16055.487203966855        34.586871625368076        603.24316577883383     
  -15915.258542516145        15.631774306235457        610.25898764988517     
  -15763.859416145060        1.8991893367165176        616.17833554114338     
  -10567.575873274796        30.254850761710713        1114.9371292494113     
  -10467.275646205015        31.933753369848546        1116.2660369902487     
  -10366.752484889421        28.904027512974153        1118.0513786352815     
  -10265.178035995617        23.926850965733593        1119.3676955471115     
  -10161.723946191163        19.763401502921170        1119.2895290883671     
  -11873.813792455196        39.084703364932921        1002.4379102487121     
  -11754.651408190950        41.813963250460802        1002.3732555371154     
  -11640.279863428885        34.815047983843215        1005.1497668141014     
  -11528.992422614421        23.777076080314146        1009.1423763580535     
  -11419.082350192983        14.389166055051646        1012.7260164473835     
  -13177.957845472774        36.496797151410647        882.71514220598601     
  -13039.461166103241        40.220644869531498        880.93922227971279     
  -12909.976692325185        34.056898837692643        883.33185582957833     
  -12787.922946337709        23.277151725349540        888.45556055046200     
  -12671.718450339733        13.152996202860777        894.87285413718405     
  -14475.981798108933        23.699002386805660        754.41366925791294     
  -14323.222298448451        26.698584675480561        752.97208638850805     
  -14180.369121379697        25.271735133965194        754.79818658097952     
  -14046.969686830944        20.927054001337638        759.52926744737658     
  -13922.571414730472        15.173141516775104        766.80262659968753     
  -15763.859416145060        1.8991893367165176        616.17833554114338     
  -15607.452183733343       0.79256911582433531        619.47999703401138     
  -15455.983300393735        7.1017119324251325        621.74929996762444     
  -15311.132723759658        15.226759008632143        624.58551637199753     
  -15174.580411464376        19.567851566896934        629.58791827688913     
  -10161.723946191163        19.763401502921170        1119.2895290883671     
  -10058.080535724037        17.846730497745739        1118.2701140794943     
  -9956.6931019771637        17.093298873269305        1117.6595391217902     
  -9857.8657573208293        16.489398728782817        1117.8776262493498     
  -9761.9026141251452        15.021322163832792        1119.3441974961422     
  -11419.082350192983        14.389166055051646        1012.7260164473835     
  -11308.719357324037        11.054447516587061        1014.6727007653548     
  -11197.817842937286        12.360424172445164        1015.4085444682589     
  -11087.288103133571        15.272775686657042        1015.7896320441797     
  -10978.040434013741        16.757181722906353        1016.6720479811712     
  -12671.718450339733        13.152996202860777        894.87285413718405     
  -12556.067102710189        8.8009606594987417        899.94056685599821     
  -12437.346803708881        9.7575672150314858        902.55054432155873     
  -12316.487078356424        12.924399133972656        903.56782725143080     
  -12194.417451673400        15.203039681222435        903.85745636322190     
  -13922.571414730472        15.173141516775104        766.80262659968753     
  -13800.345045163371        11.019887942712558        773.75379556613211     
  -13674.004237682020        9.6674519838597917        778.05790128190517     
  -13543.910791415712        9.9098365428053512        780.16163446969051     
  -13410.426505493653        10.541044522036827        780.51168585205039     
  -15174.580411464376        19.567851566896934        629.58791827688913     
  -15041.774457964713        17.644847381356158        635.79247011044629     
  -14906.514398246722        12.472802462060827        640.90297794959224     
  -14768.007350737476        6.6946553856314495        644.52047629754497     
  -14625.460433864087        2.9533447283083660        646.24599965739571     
  -9761.9026141251452        15.021322163832792        1119.3441974961422     
  -9667.3327638858173        12.449905040032263        1121.3333351214555     
  -9572.3661277689916        9.5998843177080744        1122.7216176700197     
  -9476.8280626504584        7.0534037442803310        1123.3326116039671     
  -9380.5439254059620        5.3926070671273010        1122.9898833855545     
  -10978.040434013741        16.757181722906353        1016.6720479811712     
  -10870.430817379314        14.707993263325534        1018.2844291982617     
  -10763.809902686535        10.370669107730464        1020.0253858585894     
  -10657.579987518327        5.7375506462212797        1021.5059623163258     
  -10551.143369457615        2.8009792690991162        1022.3372029257786     
  -12194.417451673400        15.203039681222435        903.85745636322190     
  -12073.359442751787        13.901878780752668        904.60184070502532     
  -11954.487003808099        9.8211959415443744        906.15224034773678     
  -11837.158309549774        5.1004088056283763        908.12697254305453     
  -11720.731534684059        1.8789350154320346        910.14435454266459     
  -13410.426505493653        10.541044522036827        780.51168585205039     
  -13276.752652954639        9.8413577070577958        780.68001752571070     
  -13145.644632917252        7.5773042841474307        781.83772120878268     
  -13016.795433630423        4.7722567567443548        783.83018205595022     
  -12889.898043343133        2.4495876283417601        786.50278522188944     
  -14625.460433864087        2.9533447283083660        646.24599965739571     
  -14481.244460939441        2.3362261566062443        646.91340754416331     
  -14338.529991797441        3.2648336003885561        647.81736851296819     
  -14197.723764645787        4.3833730340684269        649.25013062689879     
  -14059.232517692475        4.3360504309621319        651.50394194902731     
  -9380.5439254059620        5.3926070671273010        1122.9898833855545     
  -9284.3229682650035        4.7176451306690979        1122.4567352442707     
  -9189.2208051669040        4.3074630796490965        1122.7175925899699     
  -9095.4323355524393        3.5123961115905331        1123.9277066549942     
  -9003.1524588624197        1.6827794239034120        1126.2423286718949     
  -10551.143369457615        2.8009792690991162        1022.3372029257786     
  -10444.226197138287        2.7983582783649581        1022.6118990205396     
  -10337.422025048443        4.0757381283210634        1022.9192932892246     
  -10231.434259552592        4.2884309373098404        1023.6151071182774     
  -10126.966307015200        1.0917488240611419        1025.0550618939651     
  -11720.731534684059        1.8789350154320346        910.14435454266459     
  -11603.781933095779        1.8136214407149964        911.47526762456278     
  -11485.830842650555        3.4077016823689519        911.90210990881542     
  -11367.655564026836        4.0701734785443477        911.81047391022287     
  -11250.033397903315        1.2100345670473871        911.58595214350407     
  -12889.898043343133        2.4495876283417601        786.50278522188944     
  -12762.866735796280        1.8004667199584219        788.62767303461089     
  -12634.098180820121        2.4080768879821335        789.24330746402154     
  -12504.008960797824        2.8838101884848584        788.59455312774514     
  -12373.015658112818        1.8390586771633934        786.92627464320810     
  -14059.232517692475        4.3360504309621319        651.50394194902731     
  -13921.357164898283        2.7959262187414424        653.64994722877509     
  -13781.874962404170        1.1815868909625351        654.52015097004426     
  -13640.407161688456       0.75552752014482394        654.04809086756677     
  -13496.575014229649        2.7802431783711654        652.16730461588315     
  -16654.114495729464       -4996.2343487188446        1595.0071597900335     
  -17208.502804273725       -3864.5241688826909        1920.3473787194928     
  -17530.706606904758       -2750.1184847170325        1925.3300946238692     
  -17650.591322879241       -1752.5686937446330        1710.9146819317623     
  -17598.022371453982       -971.42619348819608        1378.0605150717104     
  -17821.281958861713       -5346.3845876585146        2205.2841436521398     
  -18916.193226963809       -3845.6222467195635        2339.9587509990097     
  -19547.640587817881       -2566.5627393982231        2167.3324653692789     
  -19718.885993341941       -1520.0792387546944        1786.1210107509796     
  -19433.191395454054       -717.04491784928086        1295.0401111322194     
  -20311.405759431847       -6093.4217278295582        3249.2272210705114     
  -21056.354802401431       -3442.9433358106853        2555.6607590188296     
  -21505.920559543240       -1869.8957251790534        1993.5090600622832     
  -21551.918049319367       -1013.6622908089539        1506.8383141615934     
  -21086.162290192275       -513.62642757477533        1039.7147112775356     
  -25876.374521846512       -7762.9123565539157        5059.5538179544501     
  -24177.068762555231       -2820.9118057464975        2646.2474210188311     
  -23185.265743288135       -594.03320842168796        1327.7145330767075     
  -22596.490082934601       -67.358627544311275        740.96592647456123     
  -22106.266400384127       -225.97012607919532        523.01237355888100     
  -36268.076870512516       -10880.423061153755        7968.9813602134200     
  -28826.416339393683       -2143.9520261177877        2690.5127552391455     
  -24365.395360259899        1327.1090445114887        93.803538786524527     
  -22299.404686310510        1484.7909734022460       -643.59681799907764     
  -22042.835070745081        281.12458322270686       -344.13884397236609     
  -17598.022371453982       -971.42619348819608        1378.0605150717104     
  -17484.593856178421       -498.92150925052920        1084.9536083277280     
  -17379.913756415903       -287.33141904755303        901.12082272070609     
  -17250.868305144144       -226.27669947168579        794.53280278453769     
  -17064.343735340877       -205.37812711543847        733.16019305315274     
  -19433.191395454054       -717.04491784928086        1295.0401111322194     
  -18998.745881218376       -238.30694861746451        884.46394439861285     
  -18695.381427806369       -70.188803352048126        648.98364384236106     
  -18483.824322296910       -81.778105649335885        543.64036656149278     
  -18324.800851768869       -142.16247910565107        523.47526965403324     
  -21086.162290192275       -513.62642757477533        1039.7147112775356     
  -20429.455303036761       -183.25009368208521        648.78796942056658     
  -19962.444114364051       -35.478599457637756        411.97838830769626     
  -19666.711251090892       -8.9203679571828616        305.25803045929894     
  -19523.839240134046       -42.183822236627748        304.59895839582151     
  -22106.266400384127       -225.97012607919532        523.01237355888100     
  -21597.932919982351       -280.11418394895281        365.61504540705647     
  -21177.448088476078       -182.10468908026178        223.03683873285615     
  -20874.266858356659       -30.124816444264980        126.04111433742133     
  -20717.844182115379        77.642258988020330        105.39123302179341     
  -22042.835070745081        281.12458322270686       -344.13884397236609     
  -22325.389530403991       -475.26245892273619        22.634534371610247     
  -22336.739622529727       -508.97095393627751        115.09077773421114     
  -22181.228910924838       -167.81278115997793        52.644938055469176     
  -21963.200959391797        200.40018006466016       -45.287932724785563     
  -17064.343735340877       -205.37812711543847        733.16019305315274     
  -16844.801536662948       -151.50070182368108        684.91356313435313     
  -16643.039435578848       -79.296879480149073        642.69420809342421     
  -16465.448020283642       -10.068620735089098        611.95886065033687     
  -16318.417878972548        34.882113760798347        598.16425352515182     
  -18324.800851768869       -142.16247910565107        523.47526965403324     
  -18166.597483395119       -142.19576988709832        518.50823888606647     
  -17991.124642865139       -84.811685881696576        496.10707239888740     
  -17809.544555032560       -7.2176432682726954        467.33479585323528     
  -17633.019444751044        53.378941774387386        443.25443490983105     
  -19523.839240134046       -42.183822236627748        304.59895839582151     
  -19430.516855339614       -60.527710400791875        333.45760341662270     
  -19299.413245459458       -42.478696907075573        336.74008384567935     
  -19136.081499769021       -6.5470793401846095        322.59299274040904     
  -18946.074707543739        28.756844715051557        299.16292315827883     
  -20717.844182115379        77.642258988020330        105.39123302179341     
  -20638.395781431998        92.952637954849706        131.12229314467331     
  -20539.542863965820        56.210801262746827        150.56544247090577     
  -20410.848611177207        2.2061440438756108        160.42811591037963     
  -20241.876204526536       -34.271938569954727        157.41774837316072     
  -21963.200959391797        200.40018006466016       -45.287932724785563     
  -21792.070390608071        317.69443649880668       -87.137055510838323     
  -21683.151118988302        219.76552244646700       -76.444651688214606     
  -21599.635645941205        29.305099878634792       -36.465170038357385     
  -21504.716472875341       -130.99516923338524        9.5469406571163038     
  -16318.417878972548        34.882113760798347        598.16425352515182     
  -16188.541587213502        45.443858906301102        598.19140828492903     
  -16055.487203966855        34.586871625368076        603.24316577883383     
  -15915.258542516145        15.631774306235457        610.25898764988517     
  -15763.859416145060        1.8991893367165176        616.17833554114338     
  -17633.019444751044        53.378941774387386        443.25443490983105     
  -17471.011926329567        68.989695552423655        433.84805794523930     
  -17321.500008378418        49.908263367799009        438.21035854908354     
  -17178.419007203036        16.350257535561468        451.07330020178370     
  -17035.704239108971       -11.468709629343721        467.16884638375006     
  -18946.074707543739        28.756844715051557        299.16292315827883     
  -18756.117258007620        43.010776252795949        282.62743527488215     
  -18587.079401620002        35.306212149422208        281.40936377032625     
  -18435.733019509167        16.403548644077091        292.02321345865226     
  -18298.849992803429       -2.9368180242327071        310.98348915402215     
  -20241.876204526536       -34.271938569954727        157.41774837316072     
  -20053.128165697850       -35.274074027615825        148.08510030163535     
  -19875.073900569660       -16.073837092998474        142.70069929436076     
  -19712.226916893829        8.2837463941159513        143.55163099541585     
  -19569.100722422343        22.753650593906968        152.92498104886494     
  -21504.716472875341       -130.99516923338524        9.5469406571163038     
  -21371.315232850560       -168.64603032389732        33.776613053249967     
  -21208.332022105384       -111.08643942299477        31.944882973146306     
  -21032.927036816291       -15.517050452232979        16.101456387051499     
  -20862.260473159695        60.861482666869961       -1.7039607348058496     
  -15763.859416145060        1.8991893367165176        616.17833554114338     
  -15607.452183733343       0.79256911582433531        619.47999703401138     
  -15455.983300393735        7.1017119324251325        621.74929996762444     
  -15311.132723759658        15.226759008632143        624.58551637199753     
  -15174.580411464376        19.567851566896934        629.58791827688913     
  -17035.704239108971       -11.468709629343721        467.16884638375006     
  -16888.015934402756       -18.143609984447721        478.71871134023149     
  -16736.071171705989       -8.4589097708758345        483.53137973612837     
  -16582.890539796939        7.5167617504766895        484.71897068153515     
  -16431.494627453681        19.714775319355795        485.39360328642198     
  -18298.849992803429       -2.9368180242327071        310.98348915402215     
  -18162.055302687542       -11.139152736624055        327.47894858951440     
  -18014.308520812177       -7.7430219271218448        334.91502429829131     
  -17857.383414004522        1.3390183137280474        336.13123329454919     
  -17693.053749091650        10.194411895623489        333.96709259247967     
  -19569.100722422343        22.753650593906968        152.92498104886494     
  -19433.002626773039        20.776239403786349        164.57130118953870     
  -19286.857262249199        10.400801102838159        171.23739655117257     
  -19128.604120631055       -1.5043035762619184        173.70473287614422     
  -18956.182693698614       -8.0707139003225166        172.75477590665440     
  -20862.260473159695        60.861482666869961       -1.7039607348058496     
  -20704.290244844684        76.572864980994382       -11.193638451991024     
  -20549.879310554104        47.123984957575885       -12.164340608032235     
  -20390.545433925177       0.78896380584956205       -7.6781019086118327     
  -20217.806378595003       -34.158077264557505      -0.79695705945522222     
  -15174.580411464376        19.567851566896934        629.58791827688913     
  -15041.774457964713        17.644847381356158        635.79247011044629     
  -14906.514398246722        12.472802462060827        640.90297794959224     
  -14768.007350737476        6.6946553856314495        644.52047629754497     
  -14625.460433864087        2.9533447283083660        646.24599965739571     
  -16431.494627453681        19.714775319355795        485.39360328642198     
  -16283.057326901937        20.938038826387128        487.98390938691699     
  -16135.696449243791        14.176397240984443        492.10593200268124     
  -15987.848461571970        4.6416269207356891        496.65290701913329     
  -15837.949830979142       -2.4544957766102016        500.51807032161884     
  -17693.053749091650        10.194411895623489        333.96709259247967     
  -17527.683712740010        12.925239634899299        332.95489270284588     
  -17365.802199934857        9.7512212853280289        334.99288525739888     
  -17206.430039981289        3.9362591632861950        338.96952895179493     
  -17048.588062184459       -1.2557444151470918        343.77328248182630     
  -18956.182693698614       -8.0707139003225166        172.75477590665440     
  -18777.057001225363       -6.8145659168130805        171.43469388664161     
  -18600.704871841033       -1.9646918607850239        171.99514652115937     
  -18428.086510609952        3.2782247199820631        174.02283674420417     
  -18260.162122596408        5.7135002778913986        177.10446748975184     
  -20217.806378595003       -34.158077264557505      -0.79695705945522222     
  -20032.580578104644       -38.702393553097863        4.1525867668162642     
  -19844.277686483714       -22.133308654375469        5.5440246015542023     
  -19657.152298102497        1.3671961972413555        4.3653250448791923     
  -19475.459007331290        17.617139767618937        1.6044566970876191     
  -14625.460433864087        2.9533447283083660        646.24599965739571     
  -14481.244460939441        2.3362261566062443        646.91340754416331     
  -14338.529991797441        3.2648336003885561        647.81736851296819     
  -14197.723764645787        4.3833730340684269        649.25013062689879     
  -14059.232517692475        4.3360504309621319        651.50394194902731     
  -15837.949830979142       -2.4544957766102016        500.51807032161884     
  -15685.908831020677       -3.5859692027552228        502.83927610022573     
  -15533.274481762883      -0.69594674581458094        503.95706433979012     
  -15380.944370064713        3.2236153978728908        504.56869961823560     
  -15229.816082785050        5.1807610318082880        505.37144651325258     
  -17048.588062184459       -1.2557444151470918        343.77328248182630     
  -16889.842921046573       -2.9046397628444538        347.28115078119311     
  -16728.789849184446       -1.5188709081576235        348.64369518615592     
  -16565.992543074950        1.0225738926674239        348.65970899638256     
  -16402.014699195071        2.8407063830163679        348.12798551150848     
  -18260.162122596408        5.7135002778913986        177.10446748975184     
  -18093.715534269479        4.1795735006880932        179.56287284228870     
  -17924.493813430188       0.97074530328063702        180.39430774930477     
  -17751.902027140321       -1.9298745205614978        180.19560643925848     
  -17575.345242461743       -2.5391761768141805        179.56360314064059     
  -19475.459007331290        17.617139767618937        1.6044566970876191     
  -19298.195473942003        17.466029611642625      -0.99171646118488899     
  -19119.804093868512        6.9475860775810361       -2.2740512734666951     
  -18937.706565724813       -5.3438528811047945       -2.1511603752868598     
  -18749.324588124640       -10.813949310063435      -0.53165640236706968     
  -14059.232517692475        4.3360504309621319        651.50394194902731     
  -13921.357164898283        2.7959262187414424        653.64994722877509     
  -13781.874962404170        1.1815868909625351        654.52015097004426     
  -13640.407161688456       0.75552752014482394        654.04809086756677     
  -13496.575014229649        2.7802431783711654        652.16730461588315     
  -15229.816082785050        5.1807610318082880        505.37144651325258     
  -15079.596429767163        3.4649738799753322        506.56637959610407     
  -14928.773486591655       0.42818520877062838        507.62630666576285     
  -14776.416738723487      -0.82788986526247754        508.15609214174714     
  -14621.595671627558        2.7984637749386820        507.76060044335497     
  -16402.014699195071        2.8407063830163679        348.12798551150848     
  -16238.169639807944        2.4000136349231980        348.24807515539186     
  -16075.021197421720       0.66328190356944106        349.29506446248621     
  -15912.008833880889      -0.50102829241586733        350.68105089795614     
  -15748.572011029677       0.77554356576456485        351.81813192688986     
  -17575.345242461743       -2.5391761768141805        179.56360314064059     
  -17397.316204738167      -0.47077743163754349        179.54608932950185     
  -17221.191735016469        1.7147849390175907        180.36312488408001     
  -17047.703013913186        1.5802422129372644        181.36994663632589     
  -16877.581222044992       -3.3116743317350483        181.92179141776921     
  -18749.324588124640       -10.813949310063435      -0.53165640236706968     
  -18557.275534275963       -5.2192222354979094        1.3114775413247863     
  -18367.858739498424        3.4106022777004910        1.6671884546594378     
  -18184.018845573493        5.2600516245056497       -3.0241143021866031E-002
  -18008.700494282788       -9.4863468006005860       -4.3465287326459103     
 </DataArray>
 <DataArray  type="Float64" Name="VM" NumberOfComponents="1" format="ascii">
   35066.491915132981     
   28204.129593711226     
   25055.851013408686     
   23104.560433145311     
   22192.740243895500     
   24612.409570569867     
   23351.546085693684     
   23009.240310796715     
   22599.358092133261     
   22012.799837761497     
   18910.034861713782     
   20057.973915544080     
   20921.509865648582     
   21224.467886185063     
   20911.782830423825     
   16293.935039637701     
   17784.624598667207     
   18778.158942222646     
   19254.649518004200     
   19216.138905512293     
   15058.093846386817     
   15988.359701264737     
   16667.272947422138     
   17101.540188507915     
   17298.440249264819     
   22192.740243895500     
   22091.626983180377     
   22087.550943326773     
   22097.987065283956     
   22064.223328960961     
   22012.799837761497     
   21468.587546096482     
   21090.521944010867     
   20860.361952096668     
   20757.577906318464     
   20911.782830423825     
   20369.468952737920     
   19957.488067680759     
   19669.359556711428     
   19509.917110665836     
   19216.138905512293     
   18942.767125790597     
   18694.211555585018     
   18467.092862942871     
   18276.638923203525     
   17298.440249264819     
   17342.661116942956     
   17308.559848075900     
   17194.012039304867     
   17010.053724148398     
   22064.223328960961     
   21953.163752472785     
   21794.272110642720     
   21614.399636609574     
   21439.525196974169     
   20757.577906318464     
   20686.278966938789     
   20569.363420192647     
   20413.845899656961     
   20226.598526167854     
   19509.917110665836     
   19408.921422242925     
   19287.032232768477     
   19140.967019253130     
   18967.547503847600     
   18276.638923203525     
   18118.190752512099     
   17969.426069364850     
   17824.325741855151     
   17676.449655478729     
   17010.053724148398     
   16811.471716868273     
   16640.806509150152     
   16494.506922458368     
   16368.708711919191     
   21439.525196974169     
   21287.567378994303     
   21153.070467494035     
   21025.183782365140     
   20892.760056314233     
   20226.598526167854     
   20037.150342845216     
   19868.572051103602     
   19717.933193067085     
   19582.282071252550     
   18967.547503847600     
   18784.036259051954     
   18611.137990238429     
   18450.872785547595     
   18305.310419132566     
   17676.449655478729     
   17521.729671403842     
   17363.105667309759     
   17204.349434404146     
   17049.185293691186     
   16368.708711919191     
   16244.389056173821     
   16106.736135807780     
   15958.125207994501     
   15800.891653731032     
   20892.760056314233     
   20742.707080101332     
   20573.515120313754     
   20390.962879701437     
   20200.747667408523     
   19582.282071252550     
   19445.500186415364     
   19294.354458083806     
   19130.228609380516     
   18954.507113990276     
   18305.310419132566     
   18165.351436327212     
   18019.783646580549     
   17867.543936063998     
   17707.601262170698     
   17049.185293691186     
   16899.304414828537     
   16752.788819179637     
   16607.882695951666     
   16462.842063524546     
   15800.891653731032     
   15644.681608845956     
   15496.993195436600     
   15356.900429939727     
   15223.482651895036     
   20200.747667408523     
   20013.230504857296     
   19833.180039368890     
   19657.803547010826     
   19484.282593293610     
   18954.507113990276     
   18775.979183535925     
   18602.082116899095     
   18432.171901628906     
   18265.602716301571     
   17707.601262170698     
   17543.623511780854     
   17380.359486290647     
   17218.406968651427     
   17058.360185760925     
   16462.842063524546     
   16315.447070320542     
   16165.281592241867     
   16013.297786292176     
   15860.435381954938     
   15223.482651895036     
   15090.846112810284     
   14954.023513789138     
   14813.486587289301     
   14669.702019396609     
   19484.282593293610     
   19306.996053238639     
   19123.353187000343     
   18935.053052314976     
   18743.783942677059     
   18265.602716301571     
   18098.514284370376     
   17927.744937561420     
   17753.696617043948     
   17576.771793959015     
   17058.360185760925     
   16899.112952218580     
   16738.943898262030     
   16577.522915359310     
   16414.522855941337     
   15860.435381954938     
   15708.277528524990     
   15557.434360130073     
   15407.378545147638     
   15257.584788750268     
   14669.702019396609     
   14525.685147425624     
   14383.990210785081     
   14244.390826346051     
   14106.662546654252     
   18743.783942677059     
   18554.384952620767     
   18369.391057375666     
   18187.021955703545     
   18005.497675078674     
   17576.771793959015     
   17399.733859771331     
   17224.783599567112     
   17051.478854099561     
   16879.376495368771     
   16414.522855941337     
   16250.566147371424     
   16086.711767815428     
   15923.287174183690     
   15760.617472081551     
   15257.584788750268     
   15106.904135712633     
   14954.897672786659     
   14802.104039435071     
   14649.059376758572     
   14106.662546654252     
   13968.797976982301     
   13829.078568810724     
   13687.714825853694     
   13544.917519621269     
   15058.093846386817     
   15988.359701264737     
   16667.272947422138     
   17101.540188507915     
   17298.440249264819     
   13808.459830608896     
   14315.441308008485     
   14779.510642978923     
   15180.407245383085     
   15505.704007659604     
   12362.831549530538     
   12745.182877230067     
   13143.898410963557     
   13531.309853703484     
   13885.918111403886     
   10845.853546160990     
   11265.622898562284     
   11679.312641889450     
   12059.962756489354     
   12383.596160083411     
   9388.3262891802369     
   9869.2522702897277     
   10305.661429073985     
   10671.247091329027     
   10943.853051931583     
   17298.440249264819     
   17342.661116942956     
   17308.559848075900     
   17194.012039304867     
   17010.053724148398     
   15505.704007659604     
   15730.916365070392     
   15833.027958114215     
   15810.594219000182     
   15668.001627679367     
   13885.918111403886     
   14159.544617611253     
   14313.261848117925     
   14346.781780556901     
   14261.813495427781     
   12383.596160083411     
   12627.438144199528     
   12781.543601806141     
   12846.210848181148     
   12822.337711813039     
   10943.853051931583     
   11136.705266749268     
   11274.146036525419     
   11355.733501013730     
   11382.289225860613     
   17010.053724148398     
   16811.471716868273     
   16640.806509150152     
   16494.506922458368     
   16368.708711919191     
   15668.001627679367     
   15479.955015498439     
   15316.240730884332     
   15176.817806484783     
   15062.109997584706     
   14261.813495427781     
   14122.409819485838     
   13991.223180293404     
   13869.929596737138     
   13761.076923119534     
   12822.337711813039     
   12748.290358686543     
   12662.186363112225     
   12565.945224083664     
   12462.325754207013     
   11382.289225860613     
   11367.806589516300     
   11325.566170165122     
   11256.627941300832     
   11162.605061094466     
   16368.708711919191     
   16244.389056173821     
   16106.736135807780     
   15958.125207994501     
   15800.891653731032     
   15062.109997584706     
   14953.165081256260     
   14830.756899743270     
   14695.159328344240     
   14546.650002298156     
   13761.076923119534     
   13655.330721486751     
   13541.064403583638     
   13417.668224643230     
   13284.516328010686     
   12462.325754207013     
   12355.187877283424     
   12246.041799210398     
   12134.331774773305     
   12019.472079655887     
   11162.605061094466     
   11057.735580582983     
   10955.147812196406     
   10855.005738118025     
   10757.489405631643     
   15800.891653731032     
   15644.681608845956     
   15496.993195436600     
   15356.900429939727     
   15223.482651895036     
   14546.650002298156     
   14395.784282866338     
   14253.102464246675     
   14118.865993057259     
   13993.338039601525     
   13284.516328010686     
   13148.450568177357     
   13017.263619463720     
   12891.751534231635     
   12772.693654316834     
   12019.472079655887     
   11902.915343094361     
   11787.011201306766     
   11672.510686123933     
   11560.136527539218     
   10757.489405631643     
   10660.083088309104     
   10560.314221351611     
   10458.444032456075     
   10354.718835037287     
   15223.482651895036     
   15090.846112810284     
   14954.023513789138     
   14813.486587289301     
   14669.702019396609     
   13993.338039601525     
   13870.759317092201     
   13745.069783790526     
   13616.087611082468     
   13483.638023520796     
   12772.693654316834     
   12656.819062462384     
   12540.046865620940     
   12421.932309505408     
   12302.040880343071     
   11560.136527539218     
   11449.925597660329     
   11341.192178949837     
   11233.557803089578     
   11126.653474853827     
   10354.718835037287     
   10251.643941027078     
   10151.526733716015     
   10054.309198292338     
   9959.9396104046446     
   14669.702019396609     
   14525.685147425624     
   14383.990210785081     
   14244.390826346051     
   14106.662546654252     
   13483.638023520796     
   13350.322979991168     
   13218.979825943754     
   13089.790215936706     
   12962.934444778411     
   12302.040880343071     
   12181.498959379745     
   12061.950095491937     
   11943.737513469961     
   11827.198330434607     
   11126.653474853827     
   11019.852503123433     
   10912.962767160463     
   10806.268822518032     
   10700.047717684049     
   9959.9396104046446     
   9866.6160753513304     
   9772.6004851590187     
   9677.9399282311151     
   9582.6785479485952     
   14106.662546654252     
   13968.797976982301     
   13829.078568810724     
   13687.714825853694     
   13544.917519621269     
   12962.934444778411     
   12836.696557240773     
   12709.082932311683     
   12579.858585730572     
   12448.791164331602     
   11827.198330434607     
   11711.575378158159     
   11595.615991425584     
   11478.912522140514     
   11361.061372055810     
   10700.047717684049     
   10594.677518001525     
   10490.130158707943     
   10386.071737070692     
   10282.173647470963     
   9582.6785479485952     
   9487.9401381907210     
   9394.7846663257151     
   9303.1610181622436     
   9213.0217178951916     
   9388.3262891802369     
   9869.2522702897277     
   10305.661429073985     
   10671.247091329027     
   10943.853051931583     
   8091.8202150308844     
   8546.0201204141686     
   8953.9215892241828     
   9286.5990171757912     
   9524.3101432196108     
   6927.3747817514804     
   7276.9745630933794     
   7612.6191907720931     
   7901.2545650458369     
   8123.4195168604838     
   5834.0620518204369     
   6044.2984911987851     
   6289.2164157150683     
   6531.5369826895594     
   6749.8910415008822     
   4752.9037943012218     
   4830.3871110435612     
   4991.2992801071541     
   5194.9029974007744     
   5414.8353397753090     
   10943.853051931583     
   11136.705266749268     
   11274.146036525419     
   11355.733501013730     
   11382.289225860613     
   9524.3101432196108     
   9692.5710291797914     
   9824.4661992357105     
   9918.1999730469470     
   9974.0805955336000     
   8123.4195168604838     
   8293.8728207031381     
   8432.7703775248392     
   8536.8358860218195     
   8604.9897278881417     
   6749.8910415008822     
   6936.8066441688507     
   7089.3432079288077     
   7202.5136617590479     
   7273.4178197586116     
   5414.8353397753090     
   5620.5950254939780     
   5787.7000327101759     
   5909.6342241117991     
   5982.1404382829260     
   11382.289225860613     
   11367.806589516300     
   11325.566170165122     
   11256.627941300832     
   11162.605061094466     
   9974.0805955336000     
   9994.8693777752214     
   9982.4623430804058     
   9937.2234937781031     
   9859.7695847015311     
   8604.9897278881417     
   8639.6578605300656     
   8643.4085264262758     
   8616.6867510376214     
   8560.0330975791294     
   7273.4178197586116     
   7310.0158878248694     
   7321.9299300617758     
   7310.1240414569365     
   7275.6772338941209     
   5982.1404382829260     
   6019.2995629566258     
   6037.9145442951876     
   6039.4504691901820     
   6025.6814481609163     
   11162.605061094466     
   11057.735580582983     
   10955.147812196406     
   10855.005738118025     
   10757.489405631643     
   9859.7695847015311     
   9767.2648220661322     
   9676.8650915958970     
   9589.3868764967119     
   9505.7072138771928     
   8560.0330975791294     
   8487.8703987852932     
   8414.7451218405513     
   8341.5557867666175     
   8269.2577208500170     
   7275.6772338941209     
   7227.5759995580074     
   7174.3376232339724     
   7116.4984241850307     
   7054.6297137288584     
   6025.6814481609163     
   6000.6383065418549     
   5967.0368315251399     
   5924.8811333053627     
   5874.1956046883788     
   10757.489405631643     
   10660.083088309104     
   10560.314221351611     
   10458.444032456075     
   10354.718835037287     
   9505.7072138771928     
   9422.8314187960514     
   9337.0534571659773     
   9248.2042830910032     
   9156.1150296822998     
   8269.2577208500170     
   8196.9151339028467     
   8122.8029218892416     
   8046.6955608610506     
   7968.3712520564259     
   7054.6297137288584     
   6990.9722712980201     
   6927.3824095947721     
   6863.8514803809494     
   6800.3773800691743     
   5874.1956046883788     
   5819.9044970640962     
   5767.1294730261361     
   5716.2021938665139     
   5667.4640450782690     
   10354.718835037287     
   10251.643941027078     
   10151.526733716015     
   10054.309198292338     
   9959.9396104046446     
   9156.1150296822998     
   9063.7600401361087     
   8974.3784355361895     
   8888.1982405761573     
   8805.4449287726002     
   7968.3712520564259     
   7889.8048495173434     
   7813.2992347956751     
   7739.1233574303997     
   7667.5340084015088     
   6800.3773800691743     
   6737.2905564328803     
   6674.9975014712354     
   6613.6097486908420     
   6553.2230717193070     
   5667.4640450782690     
   5619.8964176496465     
   5572.1502836352838     
   5524.0737096735420     
   5475.5058438018214     
   9959.9396104046446     
   9866.6160753513304     
   9772.6004851590187     
   9677.9399282311151     
   9582.6785479485952     
   8805.4449287726002     
   8724.2808954984994     
   8642.6073525541688     
   8560.2577669016937     
   8477.0680530553309     
   7667.5340084015088     
   7597.4682402563549     
   7527.5567839211853     
   7457.5914477549695     
   7387.3692833837704     
   6553.2230717193070     
   6493.8927912595163     
   6435.5399950235151     
   6378.0521297872583     
   6321.3231518849743     
   5475.5058438018214     
   5427.4013425380263     
   5380.8659003790899     
   5335.9615829580061     
   5292.7546317349379     
   9582.6785479485952     
   9487.9401381907210     
   9394.7846663257151     
   9303.1610181622436     
   9213.0217178951916     
   8477.0680530553309     
   8394.1149797787020     
   8312.7241233473724     
   8233.1046449547903     
   8155.4635079084301     
   7387.3692833837704     
   7317.3418084136483     
   7248.2715974511057     
   7180.4205319025723     
   7114.0433066993792     
   6321.3231518849743     
   6264.9411762675763     
   6208.6590368132884     
   6152.6163392649232     
   6096.9445452310338     
   5292.7546317349379     
   5250.1687495191263     
   5207.0186172215026     
   5163.2071852335102     
   5118.6334356623802     
   4752.9037943012218     
   4830.3871110435612     
   4991.2992801071541     
   5194.9029974007744     
   5414.8353397753090     
   3640.5145504813636     
   3621.4736889844689     
   3726.4577882028766     
   3909.2869254160682     
   4133.2722001818111     
   2508.2370707173382     
   2414.7743068208010     
   2494.7835735220301     
   2685.8697303899817     
   2928.0484735102796     
   1413.0689173729459     
   1210.4582807624809     
   1308.1183824703248     
   1578.2691966186410     
   1887.2400368711628     
   738.97899088152496     
   101.90651992477029     
   470.52849381466552     
   968.28928749138731     
   1381.3390982600556     
   5414.8353397753090     
   5620.5950254939780     
   5787.7000327101759     
   5909.6342241117991     
   5982.1404382829260     
   4133.2722001818111     
   4352.3187360482098     
   4531.7857703047130     
   4664.4467598756310     
   4745.9971534527258     
   2928.0484735102796     
   3164.4245013535779     
   3361.4687245840710     
   3512.4793434094227     
   3614.8043744800352     
   1887.2400368711628     
   2167.7010887104789     
   2400.5096580625154     
   2583.6433665007421     
   2719.2846297436290     
   1381.3390982600556     
   1713.0941977216587     
   1979.0395153884695     
   2187.2412752822584     
   2345.7657014248593     
   5982.1404382829260     
   6019.2995629566258     
   6037.9145442951876     
   6039.4504691901820     
   6025.6814481609163     
   4745.9971534527258     
   4792.7095552738347     
   4823.3385044143834     
   4839.2981795467695     
   4842.4602300437000     
   3614.8043744800352     
   3683.4084711044120     
   3733.9600381004811     
   3767.1908632747882     
   3784.2939226747153     
   2719.2846297436290     
   2820.3898264699751     
   2897.2220896939471     
   2949.7968362238735     
   2978.4052114932397     
   2345.7657014248593     
   2467.5163233485005     
   2560.0105934848484     
   2623.2356202050801     
   2657.1785118805624     
   6025.6814481609163     
   6000.6383065418549     
   5967.0368315251399     
   5924.8811333053627     
   5874.1956046883788     
   4842.4602300437000     
   4835.0193258297977     
   4817.6923725776833     
   4790.3636655107075     
   4752.9228544362895     
   3784.2939226747153     
   3788.9168440578323     
   3784.0426315786713     
   3770.0977807703121     
   3747.5024965299135     
   2978.4052114932397     
   2990.5517135065256     
   2994.4096468605239     
   2991.4197597920065     
   2983.0173483610488     
   2657.1785118805624     
   2671.9938305921419     
   2679.2369169072836     
   2680.9960469276302     
   2679.3594967552444     
   5874.1956046883788     
   5819.9044970640962     
   5767.1294730261361     
   5716.2021938665139     
   5667.4640450782690     
   4752.9228544362895     
   4711.1199449058813     
   4671.0756321560775     
   4633.2487540565025     
   4598.0984696004944     
   3747.5024965299135     
   3721.1323160006727     
   3695.7011207671253     
   3671.3893730271220     
   3648.3645225302807     
   2983.0173483610488     
   2972.2677994510664     
   2961.0176399820352     
   2948.8727463949413     
   2935.4277138590815     
   2679.3594967552444     
   2676.2957904929212     
   2671.8709669731015     
   2665.3195743932633     
   2655.8761609521016     
   5667.4640450782690     
   5619.8964176496465     
   5572.1502836352838     
   5524.0737096735420     
   5475.5058438018214     
   4598.0984696004944     
   4564.3466926214933     
   4530.2227821427514     
   4495.4435610517658     
   4459.7254743617432     
   3648.3645225302807     
   3626.1517484288565     
   3604.0652780960800     
   3581.9466817046755     
   3559.6414431414910     
   2935.4277138590815     
   2921.6591818963752     
   2908.9130086621230     
   2897.3319589491466     
   2887.0621282280999     
   2655.8761609521016     
   2645.3917630991737     
   2636.4550658882013     
   2629.4070904281007     
   2624.5888578315967     
   5475.5058438018214     
   5427.4013425380263     
   5380.8659003790899     
   5335.9615829580061     
   5292.7546317349379     
   4459.7254743617432     
   4424.2068934586860     
   4390.3148307513766     
   4358.1963432623752     
   4327.9951137103581     
   3559.6414431414910     
   3537.7861607398504     
   3517.1473765146347     
   3497.7629115666577     
   3479.6611891164152     
   2887.0621282280999     
   2877.8323122595207     
   2869.1371804691844     
   2860.7705543817674     
   2852.5197390714634     
   2624.5888578315967     
   2621.1865338563730     
   2617.9177790587178     
   2614.4208567699397     
   2610.3340303523382     
   5292.7546317349379     
   5250.1687495191263     
   5207.0186172215026     
   5163.2071852335102     
   5118.6334356623802     
   4327.9951137103581     
   4298.5883497140676     
   4268.5971667237563     
   4237.7799276113765     
   4205.8969496688960     
   3479.6611891164152     
   3462.2866915716922     
   3444.9568547542449     
   3427.5067942386372     
   3409.7780833087400     
   2852.5197390714634     
   2844.7537654593484     
   2838.0224903989051     
   2832.3830457252875     
   2827.8976790273223     
   2610.3340303523382     
   2606.5621534337520     
   2604.3839378820471     
   2603.9984345034231     
   2605.6046944809495     
   738.97899088152496     
   101.90651992477029     
   470.52849381466552     
   968.28928749138731     
   1381.3390982600556     
   1413.0694445867418     
   1210.4583417538270     
   1308.1181451701352     
   1578.2688770754187     
   1887.2399652915904     
   2508.2370677227213     
   2414.7744116309823     
   2494.7836633402467     
   2685.8696861002209     
   2928.0483874707229     
   3640.5139555596479     
   3621.4738320321476     
   3726.4582155314815     
   3909.2872271473680     
   4133.2721219561990     
   4752.9029596455784     
   4830.3872603239779     
   4991.2998483695774     
   5194.9034965196552     
   5414.8353307468042     
   1381.3390982600556     
   1713.0941977216587     
   1979.0395153884695     
   2187.2412752822584     
   2345.7657014248593     
   1887.2399652915904     
   2167.7014347653076     
   2400.5102682282736     
   2583.6439525719293     
   2719.2847332774700     
   2928.0483874707229     
   3164.4245921343208     
   3361.4690609276786     
   3512.4798051899020     
   3614.8046351162325     
   4133.2721219561990     
   4352.3184148450455     
   4531.7855368895353     
   4664.4468145730661     
   4745.9975704911130     
   5414.8353307468042     
   5620.5945096357382     
   5787.6994155545908     
   5909.6338983996238     
   5982.1408088992066     
   2345.7657014248593     
   2467.5163233485005     
   2560.0105934848484     
   2623.2356202050801     
   2657.1785118805624     
   2719.2847332774700     
   2820.3891768187254     
   2897.2208964294718     
   2949.7955831410645     
   2978.4046701273205     
   3614.8046351162325     
   3683.4081801918824     
   3733.9591554357276     
   3767.1896530265089     
   3784.2929591334819     
   4745.9975704911130     
   4792.7100553429755     
   4823.3386453461944     
   4839.2976876321591     
   4842.4589969681401     
   5982.1408088992066     
   6019.3005428236966     
   6037.9155199235611     
   6039.4507888166681     
   6025.6804097786844     
   2657.1785118805624     
   2671.9938305921419     
   2679.2369169072836     
   2680.9960469276302     
   2679.3594967552444     
   2978.4046701273205     
   2990.5523316401873     
   2994.4110202982611     
   2991.4209803725248     
   2983.0169983695937     
   3784.2929591334819     
   3788.9166677357234     
   3784.0431957353958     
   3770.0985089943601     
   3747.5022741444341     
   4842.4589969681401     
   4835.0177664653102     
   4817.6911313112796     
   4790.3631057521170     
   4752.9230567326586     
   6025.6804097786844     
   6000.6360036717651     
   5967.0342449817044     
   5924.8793326638361     
   5874.1957531328499     
   2679.3594967552444     
   2676.2957904929212     
   2671.8709669731015     
   2665.3195743932633     
   2655.8761609521016     
   2983.0169983695937     
   2972.2650112318506     
   2961.0130349562874     
   2948.8678476130185     
   2935.4249480747130     
   3747.5022741444341     
   3721.1300797386393     
   3695.6968444139548     
   3671.3839742284995     
   3648.3598717193904     
   4752.9230567326586     
   4711.1200777082531     
   4671.0744547472295     
   4633.2455034795375     
   4598.0928719100193     
   5874.1957531328499     
   5819.9063580127877     
   5767.1312158265482     
   5716.2017915233992     
   5667.4592748840669     
   2655.8761609521016     
   2645.3917630991737     
   2636.4550658882013     
   2629.4070904281007     
   2624.5888578315967     
   2935.4249480747130     
   2921.6600052615154     
   2908.9162762409369     
   2897.3349842340963     
   2887.0606787069364     
   3648.3598717193904     
   3626.1495467102040     
   3604.0653460201802     
   3581.9472145454465     
   3559.6389858257317     
   4598.0928719100193     
   4564.3399631317461     
   4530.2167498364615     
   4495.4392237165948     
   4459.7229776280319     
   5667.4592748840669     
   5619.8874186719604     
   5572.1399290401578     
   5524.0652355577313     
   5475.5028469655454     
   2624.5888578315967     
   2621.1865338563730     
   2617.9177790587178     
   2614.4208567699397     
   2610.3340303523382     
   2887.0606787069364     
   2877.8250314789302     
   2869.1292364054584     
   2860.7710439612342     
   2852.5416943951427     
   3559.6389858257317     
   3537.7786057987687     
   3517.1378727673109     
   3497.7588410605617     
   3479.6742204135035     
   4459.7229776280319     
   4424.2039041196085     
   4390.3085522758875     
   4358.1861824113375     
   4327.9827496104399     
   5475.5028469655454     
   5427.4025516797155     
   5380.8643129775146     
   5335.9492718647198     
   5292.7227590658358     
   2610.3340303523382     
   2606.5621534337520     
   2604.3839378820471     
   2603.9984345034231     
   2605.6046944809495     
   2852.5416943951427     
   2844.8007984195337     
   2838.0789106776037     
   2832.4222641669894     
   2827.8822323753334     
   3479.6742204135035     
   3462.3224750773156     
   3445.0046898638757     
   3427.5446742262657     
   3409.7725196733836     
   4327.9827496104399     
   4298.5804805995276     
   4268.6012024310667     
   4237.7990311808462     
   4205.9298728584981     
   5292.7227590658358     
   5250.1219172146029     
   5206.9801040385573     
   5163.2072167888537     
   5118.7091988690945     
   4752.9029596455784     
   4830.3872603239779     
   4991.2998483695774     
   5194.9034965196552     
   5414.8353307468042     
   5834.0615630955026     
   6044.2986005415460     
   6289.2168039393082     
   6531.5373854508007     
   6749.8911441549099     
   6927.3749601601376     
   7276.9746101208884     
   7612.6192140065205     
   7901.2546682004377     
   8123.4197089745130     
   8091.8210044182715     
   8546.0201109448135     
   8953.9212599228849     
   9286.5987931958171     
   9524.3103674430549     
   9388.3272712473590     
   9869.2522369265480     
   10305.660955415198     
   10671.246683770982     
   10943.853205158875     
   5414.8353307468042     
   5620.5945096357382     
   5787.6994155545908     
   5909.6338983996238     
   5982.1408088992066     
   6749.8911441549099     
   6936.8063437008377     
   7089.3427111218462     
   7202.5132579451465     
   7273.4179097839396     
   8123.4197089745130     
   8293.8729770925438     
   8432.7703771220331     
   8536.8357116294574     
   8604.9894824521507     
   9524.3103674430549     
   9692.5716228186811     
   9824.4667561772385     
   9918.2001507342720     
   9974.0801130163800     
   10943.853205158875     
   11136.706005289678     
   11274.146893294916     
   11355.733982692578     
   11382.288795527076     
   5982.1408088992066     
   6019.3005428236966     
   6037.9155199235611     
   6039.4507888166681     
   6025.6804097786844     
   7273.4179097839396     
   7310.0165859326216     
   7321.9308762047804     
   7310.1246996589580     
   7275.6768786256334     
   8604.9894824521507     
   8639.6577624366037     
   8643.4087142008084     
   8616.6871833296955     
   8560.0335464308682     
   9974.0801130163800     
   9994.8684499695828     
   9982.4615828902442     
   9937.2234247867545     
   9859.7706419248443     
   11382.288795527076     
   11367.805321999544     
   11325.564827720020     
   11256.627355805600     
   11162.606136856843     
   6025.6804097786844     
   6000.6360036717651     
   5967.0342449817044     
   5924.8793326638361     
   5874.1957531328499     
   7275.6768786256334     
   7227.5743891040383     
   7174.3353436551952     
   7116.4963918819158     
   7054.6291815729455     
   8560.0335464308682     
   8487.8704563324645     
   8414.7445375723437     
   8341.5546337493652     
   8269.2564016656615     
   9859.7706419248443     
   9767.2666135456820     
   9676.8665546270222     
   9589.3870972880195     
   9505.7054323952743     
   11162.606136856843     
   11057.738178791700     
   10955.150611848392     
   10855.007280035990     
   10757.488091134934     
   5874.1957531328499     
   5819.9063580127877     
   5767.1312158265482     
   5716.2017915233992     
   5667.4592748840669     
   7054.6291815729455     
   6990.9736282370141     
   6927.3845424513274     
   6863.8526491229613     
   6800.3752054494025     
   8269.2564016656615     
   8196.9143674935458     
   8122.8031213264721     
   8046.6965300521397     
   7968.3721725815658     
   9505.7054323952743     
   9422.8283533770900     
   9337.0510139342914     
   9248.2040863076963     
   9156.1184156471099     
   10757.488091134934     
   10660.079184189712     
   10560.310131838725     
   10458.442431996809     
   10354.722667977394     
   5667.4592748840669     
   5619.8874186719604     
   5572.1399290401578     
   5524.0652355577313     
   5475.5028469655454     
   6800.3752054494025     
   6737.2841632311929     
   6674.9887095763424     
   6613.6015266501272     
   6553.2195480691180     
   7968.3721725815658     
   7889.8044554309372     
   7813.2969671921555     
   7739.1197711003551     
   7667.5307896849426     
   9156.1184156471099     
   9063.7659462616557     
   8974.3839165815825     
   8888.2008450074809     
   8805.4427158963827     
   10354.722667977394     
   10251.653065026927     
   10151.537370023188     
   10054.317014622273     
   9959.9397221713371     
   5475.5028469655454     
   5427.4025516797155     
   5380.8643129775146     
   5335.9492718647198     
   5292.7227590658358     
   6553.2195480691180     
   6493.8946453448480     
   6435.5416887117199     
   6378.0451079320710     
   6321.2957895561922     
   7667.5307896849426     
   7597.4677139378773     
   7527.5591933478618     
   7457.5940595434258     
   7387.3663256508162     
   8805.4427158963827     
   8724.2769120889552     
   8642.6083758918066     
   8560.2691889530288     
   8477.0938492073674     
   9959.9397221713371     
   9866.6103849346509     
   9772.5989655598842     
   9677.9539285410719     
   9582.7207951972705     
   5292.7227590658358     
   5250.1219172146029     
   5206.9801040385573     
   5163.2072167888537     
   5118.7091988690945     
   6321.2957895561922     
   6264.8937661283226     
   6208.6154230207385     
   6152.6147675691091     
   6097.0378325854235     
   7387.3663256508162     
   7317.3291744319431     
   7248.2574339134280     
   7180.4258937240647     
   7114.1023703854216     
   8477.0938492073674     
   8394.1475449819882     
   8312.7477303506148     
   8233.1074476393787     
   8155.4377279125647     
   9582.7207951972705     
   9488.0030956865285     
   9394.8317796452593     
   9303.1440351135170     
   9212.8808033997666     
   9388.3272712473590     
   9869.2522369265480     
   10305.660955415198     
   10671.246683770982     
   10943.853205158875     
   10845.854096970579     
   11265.622880192925     
   11679.312349062253     
   12059.962447465656     
   12383.596165715564     
   12362.831393256285     
   12745.182879930457     
   13143.898447238655     
   13531.309815086870     
   13885.917989724379     
   13808.459149328164     
   14315.441300238155     
   14779.510913080641     
   15180.407448933604     
   15505.703840235188     
   15058.093236943008     
   15988.359608916677     
   16667.273125720047     
   17101.540411365986     
   17298.440181125214     
   10943.853205158875     
   11136.706005289678     
   11274.146893294916     
   11355.733982692578     
   11382.288795527076     
   12383.596165715564     
   12627.438579148185     
   12781.544234753212     
   12846.211348573099     
   12822.337633235702     
   13885.917989724379     
   14159.544533087766     
   14313.261913042061     
   14346.782009968976     
   14261.813801152228     
   15505.703840235188     
   15730.915864459330     
   15833.027475652198     
   15810.594078806909     
   15668.002122217913     
   17298.440181125214     
   17342.660638702990     
   17308.559225241541     
   17194.011632168447     
   17010.053966468764     
   11382.288795527076     
   11367.805321999544     
   11325.564827720020     
   11256.627355805600     
   11162.606136856843     
   12822.337633235702     
   12748.289590781043     
   12662.185328759469     
   12565.944529125614     
   12462.326188790561     
   14261.813801152228     
   14122.409996478455     
   13991.223084584268     
   13869.929254228215     
   13761.076534468457     
   15668.002122217913     
   15479.955968366332     
   15316.241555287404     
   15176.817975947992     
   15062.109054631615     
   17010.053966468764     
   16811.472623902602     
   16640.807555295265     
   16494.507463874812     
   16368.707987073012     
   11162.606136856843     
   11057.738178791700     
   10955.150611848392     
   10855.007280035990     
   10757.488091134934     
   12462.326188790561     
   12355.189648995663     
   12246.044187808424     
   12134.333720606723     
   12019.472175330178     
   13761.076534468457     
   13655.330701665456     
   13541.065051527698     
   13417.669518294215     
   13284.517918029807     
   15062.109054631615     
   14953.163423568476     
   14830.755647800619     
   14695.159479639495     
   14546.652430788658     
   16368.707987073012     
   16244.387109025665     
   16106.734046181280     
   15958.124283670855     
   15800.893426518160     
   10757.488091134934     
   10660.079184189712     
   10560.310131838725     
   10458.442431996809     
   10354.722667977394     
   12019.472175330178     
   11902.913220210443     
   11787.008206058232     
   11672.508829180395     
   11560.138485065396     
   13284.517918029807     
   13148.451714156021     
   13017.263819309934     
   12891.750904324674     
   12772.692935550649     
   14546.652430788658     
   14395.788289537890     
   14253.105995505353     
   14118.867204625714     
   13993.335305541963     
   15800.893426518160     
   15644.686020513222     
   15496.998120069087     
   15356.903244752590     
   15223.480230959525     
   10354.722667977394     
   10251.653065026927     
   10151.537370023188     
   10054.317014622273     
   9959.9397221713371     
   11560.138485065396     
   11449.932288759441     
   11341.201459218168     
   11233.566225088194     
   11126.656270054034     
   12772.692935550649     
   12656.819626940167     
   12540.049498643326     
   12421.936589826662     
   12302.045164718333     
   13993.335305541963     
   13870.753687811017     
   13745.064584221138     
   13616.085788525124     
   13483.642147097167     
   15223.480230959525     
   15090.838154149085     
   14954.013607284809     
   14813.479421894539     
   14669.703382395295     
   9959.9397221713371     
   9866.6103849346509     
   9772.5989655598842     
   9677.9539285410719     
   9582.7207951972705     
   11126.656270054034     
   11019.849102413793     
   10912.959930567766     
   10806.276685701070     
   10700.079805853586     
   12302.045164718333     
   12181.500619635814     
   12061.948391011012     
   11943.734801173776     
   11827.200090035629     
   13483.642147097167     
   13350.329696355715     
   13218.980650821610     
   13089.777495751458     
   12962.901388058293     
   14669.703382395295     
   14525.693406103303     
   14383.993462462075     
   14244.373992106466     
   14106.607369889385     
   9582.7207951972705     
   9488.0030956865285     
   9394.8317796452593     
   9303.1440351135170     
   9212.8808033997666     
   10700.079805853586     
   10594.729853219183     
   10490.163726198174     
   10386.024545511165     
   10281.960781807957     
   11827.200090035629     
   11711.582506145094     
   11595.609445719871     
   11478.853293768047     
   11360.890488507126     
   12962.901388058293     
   12836.648725201318     
   12709.035428245394     
   12579.823198446780     
   12448.776383445162     
   14106.607369889385     
   13968.711142331727     
   13829.011289400141     
   13687.744537576769     
   13545.148031111536     
   15058.093236943008     
   15988.359608916677     
   16667.273125720047     
   17101.540411365986     
   17298.440181125214     
   16293.935254626431     
   17784.624371534210     
   18778.158613566495     
   19254.649342322457     
   19216.138966170711     
   18910.036057676331     
   20057.973618498698     
   20921.508916274382     
   21224.467044857975     
   20911.782852487668     
   24612.411373985240     
   23351.545878254685     
   23009.239076641203     
   22599.356721069522     
   22012.799610355891     
   35066.493660868866     
   28204.129701235481     
   25055.850481377889     
   23104.559268279434     
   22192.739498346378     
   17298.440181125214     
   17342.660638702990     
   17308.559225241541     
   17194.011632168447     
   17010.053966468764     
   19216.138966170711     
   18942.767261125900     
   18694.211565577731     
   18467.092668916004     
   18276.638541675758     
   20911.782852487668     
   20369.469862155234     
   19957.489139881705     
   19669.360032836907     
   19509.916185415601     
   22012.799610355891     
   21468.588824175793     
   21090.523780895404     
   20860.363132228707     
   20757.576882537316     
   22192.739498346378     
   22091.627588997249     
   22087.552476100504     
   22097.988548367670     
   22064.223055263210     
   17010.053966468764     
   16811.472623902602     
   16640.807555295265     
   16494.507463874812     
   16368.707987073012     
   18276.638541675758     
   18118.190384987938     
   17969.425923138304     
   17824.325845510710     
   17676.449854279086     
   19509.916185415601     
   19408.919240700514     
   19287.029936855852     
   19140.965788149420     
   18967.548562533037     
   20757.576882537316     
   20686.275477288120     
   20569.359123079681     
   20413.843016656214     
   20226.599801989392     
   22064.223055263210     
   21953.160587633280     
   21794.267129729444     
   21614.395375122502     
   21439.525409198450     
   16368.707987073012     
   16244.387109025665     
   16106.734046181280     
   15958.124283670855     
   15800.893426518160     
   17676.449854279086     
   17521.729638194432     
   17363.105261282286     
   17204.348864727268     
   17049.185115469325     
   18967.548562533037     
   18784.039354922323     
   18611.141294111643     
   18450.874373806779     
   18305.308287027561     
   20226.599801989392     
   20037.156124400361     
   19868.579282122624     
   19717.937796445527     
   19582.278913412694     
   21439.525409198450     
   21287.573637391408     
   21153.079933973975     
   21025.191302235457     
   20892.757907577910     
   15800.893426518160     
   15644.686020513222     
   15496.998120069087     
   15356.903244752590     
   15223.480230959525     
   17049.185115469325     
   16899.305211471314     
   16752.790474639471     
   16607.884339539807     
   16462.842052315289     
   18305.308287027561     
   18165.345974571599     
   18019.777758674452     
   17867.540630124469     
   17707.603655737657     
   19582.278913412694     
   19445.488386737052     
   19294.339499844369     
   19130.218050033716     
   18954.510549310799     
   20892.757907577910     
   20742.691740960076     
   20573.492568481310     
   20390.944263998823     
   20200.749046746285     
   15223.480230959525     
   15090.838154149085     
   14954.013607284809     
   14813.479421894539     
   14669.703382395295     
   16462.842052315289     
   16315.444048098394     
   16165.276108373111     
   16013.292039204967     
   15860.433213135979     
   17707.603655737657     
   17543.631032076210     
   17380.367648963784     
   17218.411082544535     
   17058.355372982245     
   18954.510549310799     
   18775.998725386635     
   18602.108158140538     
   18432.190494923503     
   18265.595550273370     
   20200.749046746285     
   20013.258740345980     
   19833.222619312164     
   19657.837385940511     
   19484.273748745927     
   14669.703382395295     
   14525.693406103303     
   14383.993462462075     
   14244.373992106466     
   14106.607369889385     
   15860.433213135979     
   15708.279394671121     
   15557.433093103578     
   15407.362236078248     
   15257.536750415482     
   17058.355372982245     
   16899.099266478268     
   16738.926504752151     
   16577.507071703669     
   16414.513908518984     
   18265.595550273370     
   18098.478162370047     
   17927.702190939908     
   17753.680793906671     
   17576.827620589498     
   19484.273748745927     
   19306.934490404470     
   19123.279239071933     
   18935.035571419990     
   18743.919975678422     
   14106.607369889385     
   13968.711142331727     
   13829.011289400141     
   13687.744537576769     
   13545.148031111536     
   15257.536750415482     
   15106.830223089541     
   14954.856190513969     
   14802.193314441907     
   14649.418019288816     
   16414.513908518984     
   16250.568021005787     
   16086.733364307802     
   15923.347154800544     
   15760.744356965059     
   17576.827620589498     
   17399.860099438065     
   17224.882319637480     
   17051.387193431361     
   16878.867036503834     
   18743.919975678422     
   18554.666612745681     
   18369.564505066035     
   18186.649441965041     
   18003.960769291181     
 </DataArray>
 </PointData>
 </Piece>
 </UnstructuredGrid>
 </VTKFile>
